<?xml version="1.0"?>
<VTKFile type="UnstructuredGrid" version="0.1" byte_order="LittleEndian">
<UnstructuredGrid>
<Piece NumberOfPoints="29440" NumberOfCells="10265">
<Points>
<DataArray type="Float64" NumberOfComponents="3" format="ascii">
-0.5 -0.5 0 -0.50000000000000366 -0.4758940323610672 0 -0.48154466283124719 -0.48914367115642382 0 -0.5 -0.5 0 -0.48154466283124719 -0.48914367115642382 0 -0.45308059359875369 -0.5 0 -0.50000000000000366 -0.4758940323610672 0 -0.47309805772623531 -0.48068065226462803 0 -0.49999999999999872 -0.46919826660640068 0 -0.50000000000000366 -0.4758940323610672 0 -0.47855779320775899 -0.46218565898811509 0 -0.50000000000000366 -0.4758940323610672 0 -0.47309805772623531 -0.48068065226462803 0 -0.48154466283124719 -0.48914367115642382 0 -0.47309805772623531 -0.48068065226462803 0 -0.46492821400685858 -0.46750138682341369 0 -0.47855779320775899 -0.46218565898811509 0 -0.50000000000000366 -0.4758940323610672 0 -0.47309805772623531 -0.48068065226462803 0 -0.47855779320775899 -0.46218565898811509 0 -0.47309805772623531 -0.48068065226462803 0 -0.48154466283124719 -0.48914367115642382 0 -0.45308059359875369 -0.5 0 -0.47309805772623531 -0.48068065226462803 0 -0.44619611545246668 -0.48546727216818808 0 -0.45308059359875369 -0.5 0 -0.44619611545246668 -0.48546727216818808 0 -0.45308059359875369 -0.5 0 -0.41929417317869822 -0.49025389207174819 0 -0.47309805772623531 -0.48068065226462803 0 -0.45275063711340169 -0.47156228136029071 0 -0.44619611545246668 -0.48546727216818808 0 -0.47309805772623531 -0.48068065226462803 0 -0.45275063711340169 -0.47156228136029071 0 -0.46492821400685858 -0.46750138682341369 0 -0.47309805772623531 -0.48068065226462803 0 -0.44619611545246668 -0.48546727216818808 0 -0.45275063711340169 -0.47156228136029071 0 -0.44619611545246668 -0.48546727216818808 0 -0.43819159672332431 -0.46546700730528529 0 -0.442857329869486 -0.45018237785839038 0 -0.45711558641551953 -0.45517305136982888 0 -0.44809898974577789 -0.43449369051384862 0 -0.442857329869486 -0.45018237785839038 0 -0.44809898974577789 -0.43449369051384862 0 -0.42802314659332252 -0.44559576224459868 0 -0.45275063711340169 -0.47156228136029071 0 -0.43819159672332431 -0.46546700730528529 0 -0.45711558641551953 -0.45517305136982888 0 -0.442857329869486 -0.45018237785839038 0 -0.43819159672332431 -0.46546700730528529 0 -0.45711558641551953 -0.45517305136982888 0 -0.45711558641551953 -0.45517305136982888 0 -0.47855779320775899 -0.46218565898811509 0 -0.46492821400685858 -0.46750138682341369 0 -0.45711558641551953 -0.45517305136982888 0 -0.47855779320775899 -0.46218565898811509 0 -0.45275063711340169 -0.47156228136029071 0 -0.46492821400685858 -0.46750138682341369 0 -0.45711558641551953 -0.45517305136982888 0 -0.45711558641551953 -0.45517305136982888 0 -0.46641851180287469 -0.43948650374523202 0 -0.47085226186845069 -0.45076649041963712 0 -0.45711558641551953 -0.45517305136982888 0 -0.46641851180287469 -0.43948650374523202 0 -0.44809898974577789 -0.43449369051384862 0 -0.47949069118603521 -0.45266957084107662 0 -0.48114519832851549 -0.46234632374884982 0 -0.49057259916425799 -0.43833936654671463 0 -0.46641851180287469 -0.43948650374523202 0 -0.47085226186845069 -0.45076649041963712 0 -0.47686723534684372 -0.44399729909913022 0 -0.46641851180287469 -0.43948650374523202 0 -0.47686723534684372 -0.44399729909913022 0 -0.47684523831963571 -0.43396858891284601 0 -0.47085226186845069 -0.45076649041963712 0 -0.47949069118603521 -0.45266957084107662 0 -0.47686723534684372 -0.44399729909913022 0 -0.47686723534684372 -0.44399729909913022 0 -0.49057259916425799 -0.43833936654671463 0 -0.47684523831963571 -0.43396858891284601 0 -0.47949069118603521 -0.45266957084107662 0 -0.47686723534684372 -0.44399729909913022 0 -0.49057259916425799 -0.43833936654671463 0 -0.45711558641551953 -0.45517305136982888 0 -0.47085226186845069 -0.45076649041963712 0 -0.47855779320775899 -0.46218565898811509 0 -0.47085226186845069 -0.45076649041963712 0 -0.47949069118603521 -0.45266957084107662 0 -0.47855779320775899 -0.46218565898811509 0 -0.47949069118603521 -0.45266957084107662 0 -0.48114519832851549 -0.46234632374884982 0 -0.47855779320775899 -0.46218565898811509 0 -0.49999999999999872 -0.46919826660640068 0 -0.47855779320775899 -0.46218565898811509 0 -0.49999999999999872 -0.46919826660640068 0 -0.49190426051394631 -0.4526111685174028 0 -0.5 -0.44176533797549 0 -0.49999999999999872 -0.46919826660640068 0 -0.48114519832851549 -0.46234632374884982 0 -0.47855779320775899 -0.46218565898811509 0 -0.49999999999999872 -0.46919826660640068 0 -0.48114519832851549 -0.46234632374884982 0 -0.49190426051394631 -0.4526111685174028 0 -0.48114519832851549 -0.46234632374884982 0 -0.49057259916425799 -0.43833936654671463 0 -0.49190426051394631 -0.4526111685174028 0 -0.48114519832851549 -0.46234632374884982 0 -0.49057259916425799 -0.43833936654671463 0 -0.49057259916425799 -0.43833936654671463 0 -0.49190426051394631 -0.4526111685174028 0 -0.5 -0.44176533797549 0 -0.49057259916425799 -0.43833936654671463 0 -0.50000000000000022 -0.41433240934457932 0 -0.48251161804909493 -0.4236611728041596 0 -0.49057259916425799 -0.43833936654671463 0 -0.5 -0.44176533797549 0 -0.50000000000000022 -0.41433240934457932 0 -0.49057259916425799 -0.43833936654671463 0 -0.50000000000000022 -0.41433240934457932 0 -0.50000000000000022 -0.41433240934457932 0 -0.48251161804909493 -0.4236611728041596 0 -0.47590467334390352 -0.40485073726313892 0 -0.48251161804909493 -0.4236611728041596 0 -0.47590467334390352 -0.40485073726313892 0 -0.46780167560229868 -0.42472239338016499 0 -0.47684523831963571 -0.43396858891284601 0 -0.48251161804909493 -0.4236611728041596 0 -0.46780167560229868 -0.42472239338016499 0 -0.46641851180287469 -0.43948650374523202 0 -0.47684523831963571 -0.43396858891284601 0 -0.46780167560229868 -0.42472239338016499 0 -0.49057259916425799 -0.43833936654671463 0 -0.47684523831963571 -0.43396858891284601 0 -0.48251161804909493 -0.4236611728041596 0 -0.50000000000000011 -0.37554881876466428 0 -0.5 -0.39494061405462177 0 -0.48386056071607231 -0.38524471640964308 0 -0.50000000000000011 -0.37554881876466428 0 -0.48386056071607231 -0.38524471640964308 0 -0.48648544733228999 -0.36594165214355451 0 -0.5 -0.39494061405462177 0 -0.47590467334390352 -0.40485073726313892 0 -0.48386056071607231 -0.38524471640964308 0 -0.50000000000000022 -0.41433240934457932 0 -0.5 -0.39494061405462177 0 -0.47590467334390352 -0.40485073726313892 0 -0.47590467334390352 -0.40485073726313892 0 -0.48386056071607231 -0.38524471640964308 0 -0.46818935695393332 -0.38711367415766551 0 -0.48386056071607231 -0.38524471640964308 0 -0.46818935695393332 -0.38711367415766551 0 -0.47132803578186899 -0.37107715116434858 0 -0.46818935695393332 -0.38711367415766551 0 -0.45664811881057049 -0.37758651015383887 0 -0.45522140894635049 -0.39537139458888509 0 -0.46818935695393332 -0.38711367415766551 0 -0.45664811881057049 -0.37758651015383887 0 -0.47132803578186899 -0.37107715116434858 0 -0.47590467334390352 -0.40485073726313892 0 -0.45522140894635049 -0.39537139458888509 0 -0.45122710705687058 -0.41172543127077571 0 -0.47590467334390352 -0.40485073726313892 0 -0.46818935695393332 -0.38711367415766551 0 -0.45522140894635049 -0.39537139458888509 0 -0.45522140894635049 -0.39537139458888509 0 -0.43833336119685778 -0.40082466232310898 0 -0.44466701861025743 -0.38564726223926549 0 -0.45522140894635049 -0.39537139458888509 0 -0.43833336119685778 -0.40082466232310898 0 -0.45122710705687058 -0.41172543127077571 0 -0.44466701861025743 -0.38564726223926549 0 -0.43002722768137319 -0.37679217182334201 0 -0.44570328837050199 -0.36708158431690108 0 -0.45664811881057049 -0.37758651015383887 0 -0.45522140894635049 -0.39537139458888509 0 -0.44466701861025743 -0.38564726223926549 0 -0.45664811881057049 -0.37758651015383887 0 -0.44466701861025743 -0.38564726223926549 0 -0.44570328837050199 -0.36708158431690108 0 -0.46780167560229868 -0.42472239338016499 0 -0.45122710705687058 -0.41172543127077571 0 -0.44809898974577789 -0.43449369051384862 0 -0.46641851180287469 -0.43948650374523202 0 -0.46780167560229868 -0.42472239338016499 0 -0.44809898974577789 -0.43449369051384862 0 -0.47590467334390352 -0.40485073726313892 0 -0.46780167560229868 -0.42472239338016499 0 -0.45122710705687058 -0.41172543127077571 0 -0.45122710705687058 -0.41172543127077571 0 -0.44809898974577789 -0.43449369051384862 0 -0.42726110625909908 -0.4158409881398068 0 -0.45122710705687058 -0.41172543127077571 0 -0.42726110625909908 -0.4158409881398068 0 -0.43833336119685778 -0.40082466232310898 0 -0.45122710705687058 -0.41172543127077571 0 -0.42726110625909908 -0.4158409881398068 0 -0.44809898974577789 -0.43449369051384862 0 -0.42726110625909908 -0.4158409881398068 0 -0.42802314659332252 -0.44559576224459868 0 -0.42726110625909908 -0.4158409881398068 0 -0.41297322678284942 -0.43414684501444312 0 -0.42802314659332252 -0.44559576224459868 0 -0.42726110625909908 -0.4158409881398068 0 -0.41052093588224842 -0.40333225794007471 0 -0.40329510546132769 -0.41995654500883789 0 -0.42726110625909908 -0.4158409881398068 0 -0.42500930015586202 -0.40088392304800607 0 -0.41052093588224842 -0.40333225794007471 0 -0.42726110625909908 -0.4158409881398068 0 -0.40329510546132769 -0.41995654500883789 0 -0.42726110625909908 -0.4158409881398068 0 -0.41297322678284942 -0.43414684501444312 0 -0.40329510546132769 -0.41995654500883789 0 -0.44466701861025743 -0.38564726223926549 0 -0.43002722768137319 -0.37679217182334201 0 -0.42737866528993668 -0.38851991802351837 0 -0.43002722768137319 -0.37679217182334201 0 -0.42737866528993668 -0.38851991802351837 0 -0.41139876677512383 -0.37874811591356711 0 -0.43002722768137319 -0.37679217182334201 0 -0.42737866528993668 -0.38851991802351837 0 -0.44466701861025743 -0.38564726223926549 0 -0.43002722768137319 -0.37679217182334201 0 -0.43833336119685778 -0.40082466232310898 0 -0.44466701861025743 -0.38564726223926549 0 -0.42737866528993668 -0.38851991802351837 0 -0.42737866528993668 -0.38851991802351837 0 -0.42500930015586202 -0.40088392304800607 0 -0.41490815953589899 -0.39063670661057232 0 -0.43833336119685778 -0.40082466232310898 0 -0.42737866528993668 -0.38851991802351837 0 -0.42500930015586202 -0.40088392304800607 0 -0.43833336119685778 -0.40082466232310898 0 -0.42726110625909908 -0.4158409881398068 0 -0.42500930015586202 -0.40088392304800607 0 -0.41052093588224842 -0.40333225794007471 0 -0.41490815953589899 -0.39063670661057232 0 -0.39418441473463173 -0.38698179637043689 0 -0.42500930015586202 -0.40088392304800607 0 -0.41052093588224842 -0.40333225794007471 0 -0.41490815953589899 -0.39063670661057232 0 -0.41490815953589899 -0.39063670661057232 0 -0.41139876677512383 -0.37874811591356711 0 -0.39418441473463173 -0.38698179637043689 0 -0.42737866528993668 -0.38851991802351837 0 -0.41490815953589899 -0.39063670661057232 0 -0.41139876677512383 -0.37874811591356711 0 -0.41139876677512383 -0.37874811591356711 0 -0.39418441473463173 -0.38698179637043689 0 -0.40448234684121381 -0.36134097920710168 0 -0.39418441473463173 -0.38698179637043689 0 -0.39797173467656438 -0.40572330321328048 0 -0.38388648262804997 -0.4126226135337725 0 -0.41052093588224842 -0.40333225794007471 0 -0.39418441473463173 -0.38698179637043689 0 -0.39797173467656438 -0.40572330321328048 0 -0.39418441473463173 -0.38698179637043689 0 -0.37523004537135962 -0.40058585603955082 0 -0.38388648262804997 -0.4126226135337725 0 -0.39418441473463173 -0.38698179637043689 0 -0.38388648262804997 -0.4126226135337725 0 -0.39418441473463173 -0.38698179637043689 0 -0.37523004537135962 -0.40058585603955082 0 -0.37645558751284619 -0.38463906907506168 0 -0.39418441473463173 -0.38698179637043689 0 -0.37645558751284619 -0.38463906907506168 0 -0.3879779817757511 -0.36997077579152249 0 -0.40329510546132769 -0.41995654500883789 0 -0.37932910466355618 -0.42407210187786898 0 -0.40329510546132769 -0.41995654500883789 0 -0.37932910466355618 -0.42407210187786898 0 -0.3948275380815725 -0.43791432295757382 0 -0.41297322678284942 -0.43414684501444312 0 -0.40329510546132769 -0.41995654500883789 0 -0.3948275380815725 -0.43791432295757382 0 -0.41052093588224842 -0.40333225794007471 0 -0.39797173467656438 -0.40572330321328048 0 -0.40329510546132769 -0.41995654500883789 0 -0.39797173467656438 -0.40572330321328048 0 -0.40329510546132769 -0.41995654500883789 0 -0.38388648262804997 -0.4126226135337725 0 -0.40329510546132769 -0.41995654500883789 0 -0.38388648262804997 -0.4126226135337725 0 -0.37932910466355618 -0.42407210187786898 0 -0.37523004537135962 -0.40058585603955082 0 -0.38388648262804997 -0.4126226135337725 0 -0.37122813695408302 -0.4151710294954587 0 -0.38388648262804997 -0.4126226135337725 0 -0.37932910466355618 -0.42407210187786898 0 -0.37122813695408302 -0.4151710294954587 0 -0.37932910466355618 -0.42407210187786898 0 -0.3819772994773119 -0.43981033241645939 0 -0.3948275380815725 -0.43791432295757382 0 -0.37932910466355618 -0.42407210187786898 0 -0.3819772994773119 -0.43981033241645939 0 -0.36903346868625481 -0.43700295944165979 0 -0.45308059359875369 -0.5 0 -0.38998610862596222 -0.50000000000000178 0 -0.41929417317869822 -0.49025389207174819 0 -0.3819772994773119 -0.43981033241645939 0 -0.3948275380815725 -0.43791432295757382 0 -0.39379274882553511 -0.45563263391875058 0 -0.3819772994773119 -0.43981033241645939 0 -0.39379274882553511 -0.45563263391875058 0 -0.37385505232340371 -0.45092355124284322 0 -0.3948275380815725 -0.43791432295757382 0 -0.39379274882553511 -0.45563263391875058 0 -0.41038491726423437 -0.44959012958319872 0 -0.41297322678284942 -0.43414684501444312 0 -0.3948275380815725 -0.43791432295757382 0 -0.41038491726423437 -0.44959012958319872 0 -0.39379274882553511 -0.45563263391875058 0 -0.40052795779708628 -0.4796035183735845 0 -0.41715118881537611 -0.46584599351726752 0 -0.39379274882553511 -0.45563263391875058 0 -0.38035033017363079 -0.46765994081286949 0 -0.40052795779708628 -0.4796035183735845 0 -0.39379274882553511 -0.45563263391875058 0 -0.38035033017363079 -0.46765994081286949 0 -0.37385505232340371 -0.45092355124284322 0 -0.38035033017363079 -0.46765994081286949 0 -0.38998610862596222 -0.50000000000000178 0 -0.36693175785602228 -0.48194238216350432 0 -0.38035033017363079 -0.46765994081286949 0 -0.38998610862596222 -0.50000000000000178 0 -0.40052795779708628 -0.4796035183735845 0 -0.38998610862596222 -0.50000000000000178 0 -0.36693175785602228 -0.48194238216350432 0 -0.38998610862596222 -0.50000000000000178 0 -0.40052795779708628 -0.4796035183735845 0 -0.41929417317869822 -0.49025389207174819 0 -0.40052795779708628 -0.4796035183735845 0 -0.41929417317869822 -0.49025389207174819 0 -0.41715118881537611 -0.46584599351726752 0 -0.44619611545246668 -0.48546727216818808 0 -0.41929417317869822 -0.49025389207174819 0 -0.43819159672332431 -0.46546700730528529 0 -0.41929417317869822 -0.49025389207174819 0 -0.41715118881537611 -0.46584599351726752 0 -0.44619611545246668 -0.48546727216818808 0 -0.43819159672332431 -0.46546700730528529 0 -0.41929417317869822 -0.49025389207174819 0 -0.442857329869486 -0.45018237785839038 0 -0.43819159672332431 -0.46546700730528529 0 -0.42802314659332252 -0.44559576224459868 0 -0.43819159672332431 -0.46546700730528529 0 -0.42802314659332252 -0.44559576224459868 0 -0.41715118881537611 -0.46584599351726752 0 -0.41297322678284942 -0.43414684501444312 0 -0.42802314659332252 -0.44559576224459868 0 -0.41038491726423437 -0.44959012958319872 0 -0.39379274882553511 -0.45563263391875058 0 -0.41038491726423437 -0.44959012958319872 0 -0.41715118881537611 -0.46584599351726752 0 -0.42802314659332252 -0.44559576224459868 0 -0.41038491726423437 -0.44959012958319872 0 -0.41715118881537611 -0.46584599351726752 0 -0.45242163007135899 -0.27541398582352927 0 -0.44962239678773019 -0.26827543551856742 0 -0.45707957377796588 -0.25251993593009492 0 -0.44121222731808057 -0.26472945880803522 0 -0.44962239678773019 -0.26827543551856742 0 -0.45707957377796588 -0.25251993593009492 0 -0.44121222731808057 -0.26472945880803522 0 -0.45707957377796588 -0.25251993593009492 0 -0.4400130151743441 -0.24738943500130309 0 -0.44121222731808057 -0.26472945880803522 0 -0.45707957377796588 -0.25251993593009492 0 -0.44121222731808057 -0.26472945880803522 0 -0.44463439945008409 -0.27297261081797852 0 -0.44962239678773019 -0.26827543551856742 0 -0.44121222731808057 -0.26472945880803522 0 -0.44463439945008409 -0.27297261081797852 0 -0.4372609148950809 -0.27618178322838288 0 -0.4426548281781697 -0.28026239071137848 0 -0.43766570938410071 -0.28489110031609788 0 -0.4372609148950809 -0.27618178322838288 0 -0.44463439945008409 -0.27297261081797852 0 -0.4426548281781697 -0.28026239071137848 0 -0.4372609148950809 -0.27618178322838288 0 -0.44463439945008409 -0.27297261081797852 0 -0.4426548281781697 -0.28026239071137848 0 -0.45242163007135899 -0.27541398582352927 0 -0.44121222731808057 -0.26472945880803522 0 -0.44962239678773019 -0.26827543551856742 0 -0.44463439945008409 -0.27297261081797852 0 -0.45242163007135899 -0.27541398582352927 0 -0.44962239678773019 -0.26827543551856742 0 -0.45242163007135899 -0.27541398582352927 0 -0.46863184190906731 -0.27250780562877541 0 -0.46017901135776312 -0.28958423527802868 0 -0.45242163007135899 -0.27541398582352927 0 -0.46863184190906731 -0.27250780562877541 0 -0.45707957377796588 -0.25251993593009492 0 -0.46863184190906731 -0.27250780562877541 0 -0.45707957377796588 -0.25251993593009492 0 -0.47066823282063319 -0.25697391365351752 0 -0.45242163007135899 -0.27541398582352927 0 -0.45707957377796588 -0.25251993593009492 0 -0.45707957377796588 -0.25251993593009492 0 -0.47066823282063319 -0.25697391365351752 0 -0.47071381627218861 -0.2420287302280229 0 -0.48535690813609511 -0.26112051823255888 0 -0.47071381627218861 -0.2420287302280229 0 -0.47066823282063319 -0.25697391365351752 0 -0.48535690813609511 -0.26112051823255888 0 -0.47071381627218861 -0.2420287302280229 0 -0.46863184190906731 -0.27250780562877541 0 -0.47066823282063319 -0.25697391365351752 0 -0.48535690813609511 -0.26112051823255888 0 -0.49999999999999922 -0.25312270956325039 0 -0.48535690813609511 -0.26112051823255888 0 -0.47970416047315168 -0.2402056193030136 0 -0.49999999999999922 -0.25312270956325039 0 -0.48535690813609511 -0.26112051823255888 0 -0.50000000000000133 -0.28021230623709509 0 -0.48535690813609511 -0.26112051823255888 0 -0.50000000000000133 -0.28021230623709509 0 -0.48535690813609511 -0.26112051823255888 0 -0.50000000000000133 -0.28021230623709509 0 -0.48238531981286392 -0.2803213291989578 0 -0.46863184190906731 -0.27250780562877541 0 -0.48535690813609511 -0.26112051823255888 0 -0.48238531981286392 -0.2803213291989578 0 -0.46863184190906731 -0.27250780562877541 0 -0.48238531981286392 -0.2803213291989578 0 -0.47327755800452109 -0.29075118154223051 0 -0.47327755800452109 -0.29075118154223051 0 -0.48766446123411772 -0.29492408561238093 0 -0.47785718988779952 -0.30470552263824718 0 -0.48238531981286392 -0.2803213291989578 0 -0.47327755800452109 -0.29075118154223051 0 -0.48766446123411772 -0.29492408561238093 0 -0.50000000000000133 -0.28021230623709509 0 -0.48766446123411772 -0.29492408561238093 0 -0.5 -0.30726447087362818 0 -0.50000000000000133 -0.28021230623709509 0 -0.48238531981286392 -0.2803213291989578 0 -0.48766446123411772 -0.29492408561238093 0 -0.48766446123411772 -0.29492408561238093 0 -0.5 -0.30726447087362818 0 -0.49169470547148059 -0.30804245210374892 0 -0.48766446123411772 -0.29492408561238093 0 -0.49169470547148059 -0.30804245210374892 0 -0.47785718988779952 -0.30470552263824718 0 -0.49169470547148059 -0.30804245210374892 0 -0.47785718988779952 -0.30470552263824718 0 -0.4836811274721301 -0.31528528720477872 0 -0.47785718988779952 -0.30470552263824718 0 -0.47063603238895391 -0.31725162924996753 0 -0.4836811274721301 -0.31528528720477872 0 -0.47327755800452109 -0.29075118154223051 0 -0.47785718988779952 -0.30470552263824718 0 -0.4623990660466698 -0.30391713548104449 0 -0.47785718988779952 -0.30470552263824718 0 -0.4623990660466698 -0.30391713548104449 0 -0.47063603238895391 -0.31725162924996753 0 -0.4623990660466698 -0.30391713548104449 0 -0.44662505624251209 -0.30329753886000671 0 -0.47063603238895391 -0.31725162924996753 0 -0.44662505624251209 -0.30329753886000671 0 -0.47063603238895391 -0.31725162924996753 0 -0.4623990660466698 -0.30391713548104449 0 -0.46017901135776312 -0.28958423527802868 0 -0.44775239109462311 -0.29830573762061752 0 -0.46863184190906731 -0.27250780562877541 0 -0.47327755800452109 -0.29075118154223051 0 -0.46017901135776312 -0.28958423527802868 0 -0.47327755800452109 -0.29075118154223051 0 -0.4623990660466698 -0.30391713548104449 0 -0.46017901135776312 -0.28958423527802868 0 -0.45242163007135899 -0.27541398582352927 0 -0.46017901135776312 -0.28958423527802868 0 -0.44775239109462311 -0.29830573762061752 0 -0.45242163007135899 -0.27541398582352927 0 -0.44775239109462311 -0.29830573762061752 0 -0.45242163007135899 -0.27541398582352927 0 -0.442142459419123 -0.29028618894060498 0 -0.44775239109462311 -0.29830573762061752 0 -0.4426548281781697 -0.28026239071137848 0 -0.45242163007135899 -0.27541398582352927 0 -0.442142459419123 -0.29028618894060498 0 -0.4426548281781697 -0.28026239071137848 0 -0.43766570938410071 -0.28489110031609788 0 -0.442142459419123 -0.29028618894060498 0 -0.442142459419123 -0.29028618894060498 0 -0.43753957959170259 -0.29851603737034249 0 -0.43486188910500029 -0.29394559864247938 0 -0.43766570938410071 -0.28489110031609788 0 -0.442142459419123 -0.29028618894060498 0 -0.43486188910500029 -0.29394559864247938 0 -0.442142459419123 -0.29028618894060498 0 -0.43753957959170259 -0.29851603737034249 0 -0.44210118850890567 -0.30066847209979009 0 -0.442142459419123 -0.29028618894060498 0 -0.44210118850890567 -0.30066847209979009 0 -0.44775239109462311 -0.29830573762061752 0 -0.4623990660466698 -0.30391713548104449 0 -0.44775239109462311 -0.29830573762061752 0 -0.44662505624251209 -0.30329753886000671 0 -0.44210118850890567 -0.30066847209979009 0 -0.44662505624251209 -0.30329753886000671 0 -0.44210118850890567 -0.30066847209979009 0 -0.44171040568291892 -0.30401571888785611 0 -0.44662505624251209 -0.30329753886000671 0 -0.44210118850890567 -0.30066847209979009 0 -0.44171040568291892 -0.30401571888785611 0 -0.43802783676994927 -0.30353628199644711 0 -0.43753957959170259 -0.29851603737034249 0 -0.44210118850890567 -0.30066847209979009 0 -0.43802783676994927 -0.30353628199644711 0 -0.43802783676994927 -0.30353628199644711 0 -0.44008754121030852 -0.30856058259518071 0 -0.43497524085359929 -0.30849915164577463 0 -0.44171040568291892 -0.30401571888785611 0 -0.43802783676994927 -0.30353628199644711 0 -0.44008754121030852 -0.30856058259518071 0 -0.44008754121030852 -0.30856058259518071 0 -0.44662505624251209 -0.30329753886000671 0 -0.43870464661114578 -0.31545299839626378 0 -0.44171040568291892 -0.30401571888785611 0 -0.44008754121030852 -0.30856058259518071 0 -0.44662505624251209 -0.30329753886000671 0 -0.44210118850890567 -0.30066847209979009 0 -0.44775239109462311 -0.29830573762061752 0 -0.44662505624251209 -0.30329753886000671 0 -0.44775239109462311 -0.29830573762061752 0 -0.44662505624251209 -0.30329753886000671 0 -0.44662505624251209 -0.30329753886000671 0 -0.44236267728558443 -0.32217121115009711 0 -0.44662505624251209 -0.30329753886000671 0 -0.43870464661114578 -0.31545299839626378 0 -0.44236267728558443 -0.32217121115009711 0 -0.44662505624251209 -0.30329753886000671 0 -0.44236267728558443 -0.32217121115009711 0 -0.45458283345262301 -0.32693319802338261 0 -0.44236267728558443 -0.32217121115009711 0 -0.44109244672213238 -0.32779574984778498 0 -0.45458283345262301 -0.32693319802338261 0 -0.44008754121030852 -0.30856058259518071 0 -0.43870464661114578 -0.31545299839626378 0 -0.43449938236872132 -0.31448788693110769 0 -0.43870464661114578 -0.31545299839626378 0 -0.44236267728558443 -0.32217121115009711 0 -0.44109244672213238 -0.32779574984778498 0 -0.44236267728558443 -0.32217121115009711 0 -0.44109244672213238 -0.32779574984778498 0 -0.44109244672213238 -0.32779574984778498 0 -0.43555983720175251 -0.35229396083556352 0 -0.44109244672213238 -0.32779574984778498 0 -0.44829629191375447 -0.34044738807163932 0 -0.43555983720175251 -0.35229396083556352 0 -0.44109244672213238 -0.32779574984778498 0 -0.44829629191375447 -0.34044738807163932 0 -0.45458283345262301 -0.32693319802338261 0 -0.45458283345262301 -0.32693319802338261 0 -0.47288619642213542 -0.33410648718299102 0 -0.46045517604472141 -0.34409516897758258 0 -0.44829629191375447 -0.34044738807163932 0 -0.45458283345262301 -0.32693319802338261 0 -0.46045517604472141 -0.34409516897758258 0 -0.45458283345262301 -0.32693319802338261 0 -0.47063603238895391 -0.31725162924996753 0 -0.47288619642213542 -0.33410648718299102 0 -0.44662505624251209 -0.30329753886000671 0 -0.45458283345262301 -0.32693319802338261 0 -0.47063603238895391 -0.31725162924996753 0 -0.47063603238895391 -0.31725162924996753 0 -0.4836811274721301 -0.31528528720477872 0 -0.4945365821402859 -0.33114154482715152 0 -0.47063603238895391 -0.31725162924996753 0 -0.4945365821402859 -0.33114154482715152 0 -0.47288619642213542 -0.33410648718299102 0 -0.47063603238895391 -0.31725162924996753 0 -0.4945365821402859 -0.33114154482715152 0 -0.5 -0.30726447087362818 0 -0.49169470547148059 -0.30804245210374892 0 -0.4945365821402859 -0.33114154482715152 0 -0.49169470547148059 -0.30804245210374892 0 -0.4836811274721301 -0.31528528720477872 0 -0.4945365821402859 -0.33114154482715152 0 -0.49169470547148059 -0.30804245210374892 0 -0.4945365821402859 -0.33114154482715152 0 -0.5 -0.30726447087362818 0 -0.49999999999999939 -0.33431663551016128 0 -0.4945365821402859 -0.33114154482715152 0 -0.4945365821402859 -0.33114154482715152 0 -0.49726829107014281 -0.3533451817959079 0 -0.49999999999999939 -0.33431663551016128 0 -0.4945365821402859 -0.33114154482715152 0 -0.49726829107014281 -0.3533451817959079 0 -0.49999999999999939 -0.33431663551016128 0 -0.4945365821402859 -0.33114154482715152 0 -0.4945365821402859 -0.33114154482715152 0 -0.47288619642213542 -0.33410648718299102 0 -0.4781889083697598 -0.35048474758725268 0 -0.47288619642213542 -0.33410648718299102 0 -0.4781889083697598 -0.35048474758725268 0 -0.46045517604472141 -0.34409516897758258 0 -0.49999999999999939 -0.33431663551016128 0 -0.5 -0.35493272713741281 0 -0.49726829107014281 -0.3533451817959079 0 -0.4781889083697598 -0.35048474758725268 0 -0.49726829107014281 -0.3533451817959079 0 -0.48648544733228999 -0.36594165214355451 0 -0.4945365821402859 -0.33114154482715152 0 -0.4781889083697598 -0.35048474758725268 0 -0.49726829107014281 -0.3533451817959079 0 -0.50000000000000011 -0.37554881876466428 0 -0.49726829107014281 -0.3533451817959079 0 -0.48648544733228999 -0.36594165214355451 0 -0.50000000000000011 -0.37554881876466428 0 -0.5 -0.35493272713741281 0 -0.49726829107014281 -0.3533451817959079 0 -0.50000000000000011 -0.37554881876466428 0 -0.49726829107014281 -0.3533451817959079 0 -0.4781889083697598 -0.35048474758725268 0 -0.47132803578186899 -0.37107715116434858 0 -0.45917015987911552 -0.35983142597744178 0 -0.48386056071607231 -0.38524471640964308 0 -0.48648544733228999 -0.36594165214355451 0 -0.47132803578186899 -0.37107715116434858 0 -0.4781889083697598 -0.35048474758725268 0 -0.48648544733228999 -0.36594165214355451 0 -0.47132803578186899 -0.37107715116434858 0 -0.45664811881057049 -0.37758651015383887 0 -0.45917015987911552 -0.35983142597744178 0 -0.44570328837050199 -0.36708158431690108 0 -0.45664811881057049 -0.37758651015383887 0 -0.47132803578186899 -0.37107715116434858 0 -0.45917015987911552 -0.35983142597744178 0 -0.45917015987911552 -0.35983142597744178 0 -0.46045517604472141 -0.34409516897758258 0 -0.44983695068196933 -0.35274990563582559 0 -0.4781889083697598 -0.35048474758725268 0 -0.45917015987911552 -0.35983142597744178 0 -0.46045517604472141 -0.34409516897758258 0 -0.44829629191375447 -0.34044738807163932 0 -0.46045517604472141 -0.34409516897758258 0 -0.44983695068196933 -0.35274990563582559 0 -0.44829629191375447 -0.34044738807163932 0 -0.44983695068196933 -0.35274990563582559 0 -0.43555983720175251 -0.35229396083556352 0 -0.44983695068196933 -0.35274990563582559 0 -0.44570328837050199 -0.36708158431690108 0 -0.43555983720175251 -0.35229396083556352 0 -0.45917015987911552 -0.35983142597744178 0 -0.44983695068196933 -0.35274990563582559 0 -0.44570328837050199 -0.36708158431690108 0 -0.43002722768137319 -0.37679217182334201 0 -0.43555983720175251 -0.35229396083556352 0 -0.43002722768137319 -0.37679217182334201 0 -0.44570328837050199 -0.36708158431690108 0 -0.43555983720175251 -0.35229396083556352 0 -0.43002722768137319 -0.37679217182334201 0 -0.43555983720175251 -0.35229396083556352 0 -0.42062534810480168 -0.35799357520503478 0 -0.43555983720175251 -0.35229396083556352 0 -0.42062534810480168 -0.35799357520503478 0 -0.4124319806948672 -0.34154718895413189 0 -0.42062534810480168 -0.35799357520503478 0 -0.40448234684121381 -0.36134097920710168 0 -0.4124319806948672 -0.34154718895413189 0 -0.40448234684121381 -0.36134097920710168 0 -0.4124319806948672 -0.34154718895413189 0 -0.43002722768137319 -0.37679217182334201 0 -0.40448234684121381 -0.36134097920710168 0 -0.43002722768137319 -0.37679217182334201 0 -0.41139876677512383 -0.37874811591356711 0 -0.40448234684121381 -0.36134097920710168 0 -0.43002722768137319 -0.37679217182334201 0 -0.42062534810480168 -0.35799357520503478 0 -0.40448234684121381 -0.36134097920710168 0 -0.40448234684121381 -0.36134097920710168 0 -0.38014042669974268 -0.34661741486133751 0 -0.4124319806948672 -0.34154718895413189 0 -0.39418441473463173 -0.38698179637043689 0 -0.40448234684121381 -0.36134097920710168 0 -0.3879779817757511 -0.36997077579152249 0 -0.39418441473463173 -0.38698179637043689 0 -0.40448234684121381 -0.36134097920710168 0 -0.37645558751284619 -0.38463906907506168 0 -0.3879779817757511 -0.36997077579152249 0 -0.37113431237396549 -0.37011217495999638 0 -0.3879779817757511 -0.36997077579152249 0 -0.38014042669974268 -0.34661741486133751 0 -0.37113431237396549 -0.37011217495999638 0 -0.40448234684121381 -0.36134097920710168 0 -0.3879779817757511 -0.36997077579152249 0 -0.38014042669974268 -0.34661741486133751 0 -0.40448234684121381 -0.36134097920710168 0 -0.38014042669974268 -0.34661741486133751 0 -0.38014042669974268 -0.34661741486133751 0 -0.38509162557693749 -0.32917958069611303 0 -0.4124319806948672 -0.34154718895413189 0 -0.38509162557693749 -0.32917958069611303 0 -0.40290275128984998 -0.3231238636337912 0 -0.4124319806948672 -0.34154718895413189 0 -0.38509162557693749 -0.32917958069611303 0 -0.3888702843306911 -0.31387702967377501 0 -0.37040580388820282 -0.31801813653806899 0 -0.38509162557693749 -0.32917958069611303 0 -0.3888702843306911 -0.31387702967377501 0 -0.40290275128984998 -0.3231238636337912 0 -0.3888702843306911 -0.31387702967377501 0 -0.40290275128984998 -0.3231238636337912 0 -0.40910574547017331 -0.30797305891178078 0 -0.42038161454852102 -0.32175339870116249 0 -0.42658739695376829 -0.31120862304113478 0 -0.40910574547017331 -0.30797305891178078 0 -0.40290275128984998 -0.3231238636337912 0 -0.42038161454852102 -0.32175339870116249 0 -0.40910574547017331 -0.30797305891178078 0 -0.40290275128984998 -0.3231238636337912 0 -0.42038161454852102 -0.32175339870116249 0 -0.4124319806948672 -0.34154718895413189 0 -0.42038161454852102 -0.32175339870116249 0 -0.4124319806948672 -0.34154718895413189 0 -0.42743844274135612 -0.33608085201705751 0 -0.42038161454852102 -0.32175339870116249 0 -0.4124319806948672 -0.34154718895413189 0 -0.43555983720175251 -0.35229396083556352 0 -0.4124319806948672 -0.34154718895413189 0 -0.42743844274135612 -0.33608085201705751 0 -0.44109244672213238 -0.32779574984778498 0 -0.43555983720175251 -0.35229396083556352 0 -0.42743844274135612 -0.33608085201705751 0 -0.44109244672213238 -0.32779574984778498 0 -0.42743844274135612 -0.33608085201705751 0 -0.43121880651205452 -0.32312323374723889 0 -0.43870464661114578 -0.31545299839626378 0 -0.44109244672213238 -0.32779574984778498 0 -0.43121880651205452 -0.32312323374723889 0 -0.43121880651205452 -0.32312323374723889 0 -0.43449938236872132 -0.31448788693110769 0 -0.42658739695376829 -0.31120862304113478 0 -0.43870464661114578 -0.31545299839626378 0 -0.43121880651205452 -0.32312323374723889 0 -0.43449938236872132 -0.31448788693110769 0 -0.42038161454852102 -0.32175339870116249 0 -0.43121880651205452 -0.32312323374723889 0 -0.42658739695376829 -0.31120862304113478 0 -0.42038161454852102 -0.32175339870116249 0 -0.42743844274135612 -0.33608085201705751 0 -0.43121880651205452 -0.32312323374723889 0 -0.42310270419832863 -0.29980190900376757 0 -0.42658739695376829 -0.31120862304113478 0 -0.43261282725675881 -0.30267933430063282 0 -0.42658739695376829 -0.31120862304113478 0 -0.43497524085359929 -0.30849915164577463 0 -0.43261282725675881 -0.30267933430063282 0 -0.43449938236872132 -0.31448788693110769 0 -0.42658739695376829 -0.31120862304113478 0 -0.43497524085359929 -0.30849915164577463 0 -0.44008754121030852 -0.30856058259518071 0 -0.43449938236872132 -0.31448788693110769 0 -0.43497524085359929 -0.30849915164577463 0 -0.43802783676994927 -0.30353628199644711 0 -0.43497524085359929 -0.30849915164577463 0 -0.43261282725675881 -0.30267933430063282 0 -0.43753957959170259 -0.29851603737034249 0 -0.43261282725675881 -0.30267933430063282 0 -0.43486188910500029 -0.29394559864247938 0 -0.42310270419832863 -0.29980190900376757 0 -0.43261282725675881 -0.30267933430063282 0 -0.43486188910500029 -0.29394559864247938 0 -0.43753957959170259 -0.29851603737034249 0 -0.43802783676994927 -0.30353628199644711 0 -0.43261282725675881 -0.30267933430063282 0 -0.43486188910500029 -0.29394559864247938 0 -0.43159253931540742 -0.28729780286565793 0 -0.42537770463948332 -0.2907590287068863 0 -0.43766570938410071 -0.28489110031609788 0 -0.43486188910500029 -0.29394559864247938 0 -0.43159253931540742 -0.28729780286565793 0 -0.43766570938410071 -0.28489110031609788 0 -0.43159253931540742 -0.28729780286565793 0 -0.43184271175482958 -0.28177334504577728 0 -0.43159253931540742 -0.28729780286565793 0 -0.43184271175482958 -0.28177334504577728 0 -0.42525275702103948 -0.28469793053699999 0 -0.43159253931540742 -0.28729780286565793 0 -0.42525275702103948 -0.28469793053699999 0 -0.42537770463948332 -0.2907590287068863 0 -0.42310270419832863 -0.29980190900376757 0 -0.43486188910500029 -0.29394559864247938 0 -0.42537770463948332 -0.2907590287068863 0 -0.42525275702103948 -0.28469793053699999 0 -0.42537770463948332 -0.2907590287068863 0 -0.40930925814754421 -0.28927798889444928 0 -0.42310270419832863 -0.29980190900376757 0 -0.42537770463948332 -0.2907590287068863 0 -0.40930925814754421 -0.28927798889444928 0 -0.42525275702103948 -0.28469793053699999 0 -0.40930925814754421 -0.28927798889444928 0 -0.42526074273281272 -0.27700372385124278 0 -0.40930925814754421 -0.28927798889444928 0 -0.42526074273281272 -0.27700372385124278 0 -0.42310270419832863 -0.29980190900376757 0 -0.42658739695376829 -0.31120862304113478 0 -0.40910574547017331 -0.30797305891178078 0 -0.42310270419832863 -0.29980190900376757 0 -0.40930925814754421 -0.28927798889444928 0 -0.40910574547017331 -0.30797305891178078 0 -0.40930925814754421 -0.28927798889444928 0 -0.40910574547017331 -0.30797305891178078 0 -0.39122571074917228 -0.29667840259454842 0 -0.3888702843306911 -0.31387702967377501 0 -0.40910574547017331 -0.30797305891178078 0 -0.39122571074917228 -0.29667840259454842 0 -0.3888702843306911 -0.31387702967377501 0 -0.37692216353751817 -0.30399919650956447 0 -0.37040580388820282 -0.31801813653806899 0 -0.3888702843306911 -0.31387702967377501 0 -0.37692216353751817 -0.30399919650956447 0 -0.39122571074917228 -0.29667840259454842 0 -0.37692216353751817 -0.30399919650956447 0 -0.37506482485931752 -0.28642292767843891 0 -0.39122571074917228 -0.29667840259454842 0 -0.37506482485931752 -0.28642292767843891 0 -0.39122571074917228 -0.29667840259454842 0 -0.38743895564093173 -0.27901759584181002 0 -0.40930925814754421 -0.28927798889444928 0 -0.39122571074917228 -0.29667840259454842 0 -0.38743895564093173 -0.27901759584181002 0 -0.40930925814754421 -0.28927798889444928 0 -0.39992918693268698 -0.268664720032112 0 -0.38743895564093173 -0.27901759584181002 0 -0.39992918693268698 -0.268664720032112 0 -0.38743895564093173 -0.27901759584181002 0 -0.38705805278995858 -0.26696961669784319 0 -0.38743895564093173 -0.27901759584181002 0 -0.38705805278995858 -0.26696961669784319 0 -0.37754827439480088 -0.26827022105131021 0 -0.37506482485931752 -0.28642292767843891 0 -0.38743895564093173 -0.27901759584181002 0 -0.37218056159804641 -0.27678210300175859 0 -0.38743895564093173 -0.27901759584181002 0 -0.37754827439480088 -0.26827022105131021 0 -0.37218056159804641 -0.27678210300175859 0 -0.38302462721060548 -0.25958607851519588 0 -0.38530828728861949 -0.25088579952195222 0 -0.37464738056692998 -0.25325066522078848 0 -0.37754827439480088 -0.26827022105131021 0 -0.38302462721060548 -0.25958607851519588 0 -0.37464738056692998 -0.25325066522078848 0 -0.38705805278995858 -0.26696961669784319 0 -0.37754827439480088 -0.26827022105131021 0 -0.38302462721060548 -0.25958607851519588 0 -0.38705805278995858 -0.26696961669784319 0 -0.38302462721060548 -0.25958607851519588 0 -0.39080432099772372 -0.25849689914187551 0 -0.38302462721060548 -0.25958607851519588 0 -0.38530828728861949 -0.25088579952195222 0 -0.39080432099772372 -0.25849689914187551 0 -0.39992918693268698 -0.268664720032112 0 -0.41168714468827883 -0.26454032020793772 0 -0.40202307172178348 -0.24820614931333251 0 -0.39992918693268698 -0.268664720032112 0 -0.39080432099772372 -0.25849689914187551 0 -0.40202307172178348 -0.24820614931333251 0 -0.38530828728861949 -0.25088579952195222 0 -0.39080432099772372 -0.25849689914187551 0 -0.40202307172178348 -0.24820614931333251 0 -0.39992918693268698 -0.268664720032112 0 -0.38705805278995858 -0.26696961669784319 0 -0.39080432099772372 -0.25849689914187551 0 -0.41168714468827883 -0.26454032020793772 0 -0.42404619106771452 -0.25749174915478329 0 -0.40202307172178348 -0.24820614931333251 0 -0.41168714468827883 -0.26454032020793772 0 -0.42182104471911208 -0.27324591599661258 0 -0.42404619106771452 -0.25749174915478329 0 -0.42404619106771452 -0.25749174915478329 0 -0.40202307172178348 -0.24820614931333251 0 -0.40930925814754421 -0.28927798889444928 0 -0.39992918693268698 -0.268664720032112 0 -0.41360147544408687 -0.27454653379647093 0 -0.39992918693268698 -0.268664720032112 0 -0.41168714468827883 -0.26454032020793772 0 -0.41360147544408687 -0.27454653379647093 0 -0.40930925814754421 -0.28927798889444928 0 -0.41360147544408687 -0.27454653379647093 0 -0.42526074273281272 -0.27700372385124278 0 -0.41360147544408687 -0.27454653379647093 0 -0.42182104471911208 -0.27324591599661258 0 -0.42526074273281272 -0.27700372385124278 0 -0.41168714468827883 -0.26454032020793772 0 -0.41360147544408687 -0.27454653379647093 0 -0.42182104471911208 -0.27324591599661258 0 -0.42671255710076261 -0.27110423882409879 0 -0.42526074273281272 -0.27700372385124278 0 -0.43115217914229897 -0.26815785292053729 0 -0.44121222731808057 -0.26472945880803522 0 -0.42526074273281272 -0.27700372385124278 0 -0.44121222731808057 -0.26472945880803522 0 -0.42526074273281272 -0.27700372385124278 0 -0.43115217914229897 -0.26815785292053729 0 -0.44121222731808057 -0.26472945880803522 0 -0.42526074273281272 -0.27700372385124278 0 -0.4372609148950809 -0.27618178322838288 0 -0.42182104471911208 -0.27324591599661258 0 -0.42671255710076261 -0.27110423882409879 0 -0.42404619106771452 -0.25749174915478329 0 -0.42182104471911208 -0.27324591599661258 0 -0.42671255710076261 -0.27110423882409879 0 -0.42526074273281272 -0.27700372385124278 0 -0.43184271175482958 -0.28177334504577728 0 -0.42525275702103948 -0.28469793053699999 0 -0.42526074273281272 -0.27700372385124278 0 -0.43184271175482958 -0.28177334504577728 0 -0.42526074273281272 -0.27700372385124278 0 -0.4372609148950809 -0.27618178322838288 0 -0.43766570938410071 -0.28489110031609788 0 -0.43184271175482958 -0.28177334504577728 0 -0.4372609148950809 -0.27618178322838288 0 -0.44121222731808057 -0.26472945880803522 0 -0.42404619106771452 -0.25749174915478329 0 -0.42182104471911208 -0.27324591599661258 0 -0.42404619106771452 -0.25749174915478329 0 -0.44121222731808057 -0.26472945880803522 0 -0.43115217914229897 -0.26815785292053729 0 -0.42404619106771452 -0.25749174915478329 0 -0.44121222731808057 -0.26472945880803522 0 -0.42404619106771452 -0.25749174915478329 0 -0.4400130151743441 -0.24738943500130309 0 -0.42671255710076261 -0.27110423882409879 0 -0.43115217914229897 -0.26815785292053729 0 -0.42404619106771452 -0.25749174915478329 0 -0.32832167151183378 -0.25192562827051029 0 -0.31189878498660473 -0.25853362302682459 0 -0.31500916105078952 -0.2439033222451335 0 -0.32132139773664292 -0.26932814547777389 0 -0.32832167151183378 -0.25192562827051029 0 -0.31189878498660473 -0.25853362302682459 0 -0.32132139773664292 -0.26932814547777389 0 -0.33316211197355922 -0.27370465762759272 0 -0.32832167151183378 -0.25192562827051029 0 -0.32132139773664292 -0.26932814547777389 0 -0.32667973306088338 -0.28687007613395932 0 -0.30654468715033328 -0.27560674232998278 0 -0.32132139773664292 -0.26932814547777389 0 -0.33316211197355922 -0.27370465762759272 0 -0.32667973306088338 -0.28687007613395932 0 -0.32132139773664292 -0.26932814547777389 0 -0.30654468715033328 -0.27560674232998278 0 -0.31189878498660473 -0.25853362302682459 0 -0.32667973306088338 -0.28687007613395932 0 -0.30654468715033328 -0.27560674232998278 0 -0.33316211197355922 -0.27370465762759272 0 -0.34483123964219758 -0.26004102011148678 0 -0.34880625756091133 -0.27146294933196552 0 -0.33316211197355922 -0.27370465762759272 0 -0.34880625756091133 -0.27146294933196552 0 -0.34275112215219311 -0.28172966466764382 0 -0.33316211197355922 -0.27370465762759272 0 -0.32832167151183378 -0.25192562827051029 0 -0.34483123964219758 -0.26004102011148678 0 -0.32832167151183378 -0.25192562827051029 0 -0.34483123964219758 -0.26004102011148678 0 -0.34150357883167121 -0.24285447295938989 0 -0.33316211197355922 -0.27370465762759272 0 -0.32832167151183378 -0.25192562827051029 0 -0.34483123964219758 -0.26004102011148678 0 -0.35952592661323601 -0.25556234700535002 0 -0.34150357883167121 -0.24285447295938989 0 -0.34483123964219758 -0.26004102011148678 0 -0.35663092299969762 -0.26445053711260891 0 -0.34880625756091133 -0.27146294933196552 0 -0.34483123964219758 -0.26004102011148678 0 -0.35663092299969762 -0.26445053711260891 0 -0.35952592661323601 -0.25556234700535002 0 -0.37754827439480088 -0.26827022105131021 0 -0.35952592661323601 -0.25556234700535002 0 -0.36612637688720417 -0.26874398615178452 0 -0.37754827439480088 -0.26827022105131021 0 -0.35952592661323601 -0.25556234700535002 0 -0.37754827439480088 -0.26827022105131021 0 -0.35952592661323601 -0.25556234700535002 0 -0.37464738056692998 -0.25325066522078848 0 -0.35952592661323601 -0.25556234700535002 0 -0.37464738056692998 -0.25325066522078848 0 -0.36501681307239509 -0.24237634289844559 0 -0.35663092299969762 -0.26445053711260891 0 -0.35952592661323601 -0.25556234700535002 0 -0.36612637688720417 -0.26874398615178452 0 -0.36612637688720417 -0.26874398615178452 0 -0.35103356663901719 -0.28626736472634251 0 -0.36350004755993082 -0.28223140354859189 0 -0.37218056159804641 -0.27678210300175859 0 -0.36612637688720417 -0.26874398615178452 0 -0.36350004755993082 -0.28223140354859189 0 -0.37754827439480088 -0.26827022105131021 0 -0.37218056159804641 -0.27678210300175859 0 -0.36612637688720417 -0.26874398615178452 0 -0.35663092299969762 -0.26445053711260891 0 -0.36612637688720417 -0.26874398615178452 0 -0.34880625756091133 -0.27146294933196552 0 -0.36612637688720417 -0.26874398615178452 0 -0.34880625756091133 -0.27146294933196552 0 -0.35103356663901719 -0.28626736472634251 0 -0.36612637688720417 -0.26874398615178452 0 -0.35103356663901719 -0.28626736472634251 0 -0.34880625756091133 -0.27146294933196552 0 -0.35103356663901719 -0.28626736472634251 0 -0.34275112215219311 -0.28172966466764382 0 -0.35103356663901719 -0.28626736472634251 0 -0.36350004755993082 -0.28223140354859189 0 -0.35904419386020758 -0.30499948606299132 0 -0.35103356663901719 -0.28626736472634251 0 -0.3380025524352846 -0.29548368698467481 0 -0.34275112215219311 -0.28172966466764382 0 -0.37506482485931752 -0.28642292767843891 0 -0.36350004755993082 -0.28223140354859189 0 -0.35904419386020758 -0.30499948606299132 0 -0.37506482485931752 -0.28642292767843891 0 -0.35904419386020758 -0.30499948606299132 0 -0.37506482485931752 -0.28642292767843891 0 -0.37218056159804641 -0.27678210300175859 0 -0.36350004755993082 -0.28223140354859189 0 -0.37692216353751817 -0.30399919650956447 0 -0.35904419386020758 -0.30499948606299132 0 -0.37040580388820282 -0.31801813653806899 0 -0.37692216353751817 -0.30399919650956447 0 -0.37506482485931752 -0.28642292767843891 0 -0.35904419386020758 -0.30499948606299132 0 -0.35103356663901719 -0.28626736472634251 0 -0.35904419386020758 -0.30499948606299132 0 -0.34755103518557301 -0.30120012918548988 0 -0.35103356663901719 -0.28626736472634251 0 -0.34755103518557301 -0.30120012918548988 0 -0.33594075639082999 -0.30379074330090039 0 -0.35904419386020758 -0.30499948606299132 0 -0.34755103518557301 -0.30120012918548988 0 -0.34418562385223722 -0.30974292265172543 0 -0.34755103518557301 -0.30120012918548988 0 -0.34418562385223722 -0.30974292265172543 0 -0.33594075639082999 -0.30379074330090039 0 -0.34418562385223722 -0.30974292265172543 0 -0.33594075639082999 -0.30379074330090039 0 -0.33513094432182872 -0.31761442180126281 0 -0.33594075639082999 -0.30379074330090039 0 -0.3380025524352846 -0.29548368698467481 0 -0.32682866374652542 -0.29607935861114498 0 -0.33316211197355922 -0.27370465762759272 0 -0.3380025524352846 -0.29548368698467481 0 -0.34275112215219311 -0.28172966466764382 0 -0.33316211197355922 -0.27370465762759272 0 -0.3380025524352846 -0.29548368698467481 0 -0.35103356663901719 -0.28626736472634251 0 -0.33594075639082999 -0.30379074330090039 0 -0.3380025524352846 -0.29548368698467481 0 -0.35103356663901719 -0.28626736472634251 0 -0.33594075639082999 -0.30379074330090039 0 -0.33316211197355922 -0.27370465762759272 0 -0.3380025524352846 -0.29548368698467481 0 -0.32667973306088338 -0.28687007613395932 0 -0.3380025524352846 -0.29548368698467481 0 -0.32682866374652542 -0.29607935861114498 0 -0.32667973306088338 -0.28687007613395932 0 -0.32667973306088338 -0.28687007613395932 0 -0.31535772771580051 -0.29107694618209418 0 -0.30654468715033328 -0.27560674232998278 0 -0.32682866374652542 -0.29607935861114498 0 -0.32667973306088338 -0.28687007613395932 0 -0.31535772771580051 -0.29107694618209418 0 -0.32682866374652542 -0.29607935861114498 0 -0.31535772771580051 -0.29107694618209418 0 -0.31816254912982861 -0.30317534045409628 0 -0.33594075639082999 -0.30379074330090039 0 -0.31816254912982861 -0.30317534045409628 0 -0.32084794614264289 -0.32131412187545849 0 -0.31816254912982861 -0.30317534045409628 0 -0.32084794614264289 -0.32131412187545849 0 -0.30680428383374009 -0.31202217737011162 0 -0.33594075639082999 -0.30379074330090039 0 -0.32682866374652542 -0.29607935861114498 0 -0.31816254912982861 -0.30317534045409628 0 -0.32084794614264289 -0.32131412187545849 0 -0.32453115856879222 -0.33050396204054872 0 -0.33067488397943701 -0.32600114770003852 0 -0.3191192056351676 -0.33511690797774207 0 -0.31622659501973122 -0.33319989921085919 0 -0.30575513589445569 -0.33883750045001648 0 -0.32931576013844238 -0.33731378627042452 0 -0.30575513589445569 -0.33883750045001648 0 -0.31493808160586312 -0.34099036878748212 0 -0.32931576013844238 -0.33731378627042452 0 -0.30575513589445569 -0.33883750045001648 0 -0.32084794614264289 -0.32131412187545849 0 -0.30575513589445569 -0.33883750045001648 0 -0.3191192056351676 -0.33511690797774207 0 -0.31622659501973122 -0.33319989921085919 0 -0.32453115856879222 -0.33050396204054872 0 -0.32084794614264289 -0.32131412187545849 0 -0.31622659501973122 -0.33319989921085919 0 -0.30575513589445569 -0.33883750045001648 0 -0.3191192056351676 -0.33511690797774207 0 -0.32931576013844238 -0.33731378627042452 0 -0.30575513589445569 -0.33883750045001648 0 -0.31493808160586312 -0.34099036878748212 0 -0.31310415650100581 -0.34367663028444051 0 -0.31058109486806268 -0.34211776119324999 0 -0.31493808160586312 -0.34099036878748212 0 -0.31310415650100581 -0.34367663028444051 0 -0.31730013297236759 -0.34386102127234242 0 -0.31493808160586312 -0.34099036878748212 0 -0.32213922664466521 -0.34107944479058627 0 -0.31730013297236759 -0.34386102127234242 0 -0.32213922664466521 -0.34107944479058627 0 -0.32700293186198781 -0.34215260283209609 0 -0.31730013297236759 -0.34386102127234242 0 -0.31493808160586312 -0.34099036878748212 0 -0.32213922664466521 -0.34107944479058627 0 -0.32931576013844238 -0.33731378627042452 0 -0.32213922664466521 -0.34107944479058627 0 -0.32700293186198781 -0.34215260283209609 0 -0.32931576013844238 -0.33731378627042452 0 -0.32084794614264289 -0.32131412187545849 0 -0.31622659501973122 -0.33319989921085919 0 -0.32453115856879222 -0.33050396204054872 0 -0.3191192056351676 -0.33511690797774207 0 -0.32453115856879222 -0.33050396204054872 0 -0.32931576013844238 -0.33731378627042452 0 -0.32700293186198781 -0.34215260283209609 0 -0.3430235628610977 -0.32357604444754368 0 -0.32700293186198781 -0.34215260283209609 0 -0.32931576013844238 -0.33731378627042452 0 -0.3430235628610977 -0.32357604444754368 0 -0.32453115856879222 -0.33050396204054872 0 -0.32931576013844238 -0.33731378627042452 0 -0.33067488397943701 -0.32600114770003852 0 -0.32700293186198781 -0.34215260283209609 0 -0.33927899108417031 -0.33831563217292759 0 -0.3430235628610977 -0.32357604444754368 0 -0.32931576013844238 -0.33731378627042452 0 -0.3430235628610977 -0.32357604444754368 0 -0.33067488397943701 -0.32600114770003852 0 -0.32700293186198781 -0.34215260283209609 0 -0.33927899108417031 -0.33831563217292759 0 -0.33494219136525533 -0.35023642057642512 0 -0.33927899108417031 -0.33831563217292759 0 -0.34550791516566909 -0.34251389479525829 0 -0.33494219136525533 -0.35023642057642512 0 -0.33927899108417031 -0.33831563217292759 0 -0.34591835416684152 -0.33309919821331491 0 -0.34550791516566909 -0.34251389479525829 0 -0.33927899108417031 -0.33831563217292759 0 -0.3430235628610977 -0.32357604444754368 0 -0.34591835416684152 -0.33309919821331491 0 -0.33594075639082999 -0.30379074330090039 0 -0.32084794614264289 -0.32131412187545849 0 -0.33594075639082999 -0.30379074330090039 0 -0.32084794614264289 -0.32131412187545849 0 -0.33513094432182872 -0.31761442180126281 0 -0.3430235628610977 -0.32357604444754368 0 -0.33067488397943701 -0.32600114770003852 0 -0.33513094432182872 -0.31761442180126281 0 -0.32084794614264289 -0.32131412187545849 0 -0.33067488397943701 -0.32600114770003852 0 -0.33513094432182872 -0.31761442180126281 0 -0.34418562385223722 -0.30974292265172543 0 -0.3430235628610977 -0.32357604444754368 0 -0.33513094432182872 -0.31761442180126281 0 -0.35904419386020758 -0.30499948606299132 0 -0.3430235628610977 -0.32357604444754368 0 -0.35904419386020758 -0.30499948606299132 0 -0.3430235628610977 -0.32357604444754368 0 -0.35706801679194489 -0.31962187939104431 0 -0.35904419386020758 -0.30499948606299132 0 -0.34418562385223722 -0.30974292265172543 0 -0.3430235628610977 -0.32357604444754368 0 -0.3430235628610977 -0.32357604444754368 0 -0.35706801679194489 -0.31962187939104431 0 -0.35579850655827172 -0.3318938505155733 0 -0.35904419386020758 -0.30499948606299132 0 -0.35706801679194489 -0.31962187939104431 0 -0.37040580388820282 -0.31801813653806899 0 -0.38509162557693749 -0.32917958069611303 0 -0.37040580388820282 -0.31801813653806899 0 -0.35579850655827172 -0.3318938505155733 0 -0.35706801679194489 -0.31962187939104431 0 -0.37040580388820282 -0.31801813653806899 0 -0.35579850655827172 -0.3318938505155733 0 -0.38014042669974268 -0.34661741486133751 0 -0.38509162557693749 -0.32917958069611303 0 -0.35579850655827172 -0.3318938505155733 0 -0.38014042669974268 -0.34661741486133751 0 -0.35579850655827172 -0.3318938505155733 0 -0.35683629040061049 -0.34754111929728282 0 -0.38014042669974268 -0.34661741486133751 0 -0.35579850655827172 -0.3318938505155733 0 -0.35579850655827172 -0.3318938505155733 0 -0.34550791516566909 -0.34251389479525829 0 -0.35683629040061049 -0.34754111929728282 0 -0.3430235628610977 -0.32357604444754368 0 -0.35579850655827172 -0.3318938505155733 0 -0.34591835416684152 -0.33309919821331491 0 -0.35579850655827172 -0.3318938505155733 0 -0.34591835416684152 -0.33309919821331491 0 -0.34550791516566909 -0.34251389479525829 0 -0.34550791516566909 -0.34251389479525829 0 -0.34390084714872099 -0.35153177420468262 0 -0.35683629040061049 -0.34754111929728282 0 -0.34390084714872099 -0.35153177420468262 0 -0.35683629040061049 -0.34754111929728282 0 -0.34890433466625792 -0.36003482808292259 0 -0.35683629040061049 -0.34754111929728282 0 -0.36226133438016589 -0.35950164175482729 0 -0.34890433466625792 -0.36003482808292259 0 -0.38014042669974268 -0.34661741486133751 0 -0.35683629040061049 -0.34754111929728282 0 -0.36226133438016589 -0.35950164175482729 0 -0.38014042669974268 -0.34661741486133751 0 -0.37113431237396549 -0.37011217495999638 0 -0.36226133438016589 -0.35950164175482729 0 -0.37113431237396549 -0.37011217495999638 0 -0.35429130776025269 -0.37320267157259712 0 -0.36397761553627939 -0.38127316896893448 0 -0.37113431237396549 -0.37011217495999638 0 -0.36226133438016589 -0.35950164175482729 0 -0.35429130776025269 -0.37320267157259712 0 -0.35429130776025269 -0.37320267157259712 0 -0.34890433466625792 -0.36003482808292259 0 -0.33849119503398117 -0.37017619284777081 0 -0.36226133438016589 -0.35950164175482729 0 -0.35429130776025269 -0.37320267157259712 0 -0.34890433466625792 -0.36003482808292259 0 -0.33849119503398117 -0.37017619284777081 0 -0.32326404293198452 -0.37468988602303782 0 -0.32738468513544461 -0.3597661431642567 0 -0.33849119503398117 -0.37017619284777081 0 -0.33830847603454473 -0.35882770092103522 0 -0.32738468513544461 -0.3597661431642567 0 -0.34890433466625792 -0.36003482808292259 0 -0.33849119503398117 -0.37017619284777081 0 -0.33830847603454473 -0.35882770092103522 0 -0.34390084714872099 -0.35153177420468262 0 -0.34890433466625792 -0.36003482808292259 0 -0.33830847603454473 -0.35882770092103522 0 -0.34390084714872099 -0.35153177420468262 0 -0.33830847603454473 -0.35882770092103522 0 -0.33494219136525533 -0.35023642057642512 0 -0.34550791516566909 -0.34251389479525829 0 -0.34390084714872099 -0.35153177420468262 0 -0.33494219136525533 -0.35023642057642512 0 -0.32700293186198781 -0.34215260283209609 0 -0.33494219136525533 -0.35023642057642512 0 -0.32507802730639129 -0.35322108194735669 0 -0.33830847603454473 -0.35882770092103522 0 -0.33494219136525533 -0.35023642057642512 0 -0.32738468513544461 -0.3597661431642567 0 -0.33494219136525533 -0.35023642057642512 0 -0.32507802730639129 -0.35322108194735669 0 -0.32738468513544461 -0.3597661431642567 0 -0.32700293186198781 -0.34215260283209609 0 -0.31098230086287793 -0.36072916121664861 0 -0.32507802730639129 -0.35322108194735669 0 -0.32738468513544461 -0.3597661431642567 0 -0.31098230086287793 -0.36072916121664861 0 -0.32700293186198781 -0.34215260283209609 0 -0.31590583040487957 -0.34902895186595639 0 -0.31098230086287793 -0.36072916121664861 0 -0.32700293186198781 -0.34215260283209609 0 -0.32507802730639129 -0.35322108194735669 0 -0.31098230086287793 -0.36072916121664861 0 -0.32700293186198781 -0.34215260283209609 0 -0.31730013297236759 -0.34386102127234242 0 -0.31590583040487957 -0.34902895186595639 0 -0.31590583040487957 -0.34902895186595639 0 -0.31306944352090632 -0.34693987667954629 0 -0.31056400563856212 -0.35192305122159812 0 -0.31730013297236759 -0.34386102127234242 0 -0.31590583040487957 -0.34902895186595639 0 -0.31306944352090632 -0.34693987667954629 0 -0.31310415650100581 -0.34367663028444051 0 -0.31730013297236759 -0.34386102127234242 0 -0.31306944352090632 -0.34693987667954629 0 -0.31790104862101642 -0.3650815731404215 0 -0.32326404293198452 -0.37468988602303782 0 -0.30236883067606629 -0.36436738422421089 0 -0.31790104862101642 -0.3650815731404215 0 -0.32738468513544461 -0.3597661431642567 0 -0.31098230086287793 -0.36072916121664861 0 -0.32326404293198452 -0.37468988602303782 0 -0.30236883067606629 -0.36436738422421089 0 -0.31790104862101642 -0.3650815731404215 0 -0.32326404293198452 -0.37468988602303782 0 -0.32738468513544461 -0.3597661431642567 0 -0.32326404293198452 -0.37468988602303782 0 -0.30236883067606629 -0.36436738422421089 0 -0.30898941296363469 -0.37504930306572171 0 -0.30236883067606629 -0.36436738422421089 0 -0.29800808079933311 -0.37809460824777152 0 -0.30898941296363469 -0.37504930306572171 0 -0.30236883067606629 -0.36436738422421089 0 -0.29225138948858548 -0.37014568230255113 0 -0.29800808079933311 -0.37809460824777152 0 -0.30236883067606629 -0.36436738422421089 0 -0.31098230086287793 -0.36072916121664861 0 -0.30750825555986688 -0.35615245946021412 0 -0.31790104862101642 -0.3650815731404215 0 -0.30236883067606629 -0.36436738422421089 0 -0.31098230086287793 -0.36072916121664861 0 -0.31590583040487957 -0.34902895186595639 0 -0.31098230086287793 -0.36072916121664861 0 -0.31056400563856212 -0.35192305122159812 0 -0.31098230086287793 -0.36072916121664861 0 -0.31056400563856212 -0.35192305122159812 0 -0.30750825555986688 -0.35615245946021412 0 -0.30750825555986688 -0.35615245946021412 0 -0.30713586085940098 -0.35104845029603648 0 -0.30263511541984223 -0.35139856212950332 0 -0.31056400563856212 -0.35192305122159812 0 -0.30750825555986688 -0.35615245946021412 0 -0.30713586085940098 -0.35104845029603648 0 -0.31306944352090632 -0.34693987667954629 0 -0.30963202953782892 -0.34447412348958167 0 -0.30864608551202372 -0.34793505183003959 0 -0.31310415650100581 -0.34367663028444051 0 -0.31306944352090632 -0.34693987667954629 0 -0.30963202953782892 -0.34447412348958167 0 -0.31306944352090632 -0.34693987667954629 0 -0.31056400563856212 -0.35192305122159812 0 -0.30864608551202372 -0.34793505183003959 0 -0.31056400563856212 -0.35192305122159812 0 -0.30864608551202372 -0.34793505183003959 0 -0.30713586085940098 -0.35104845029603648 0 -0.30864608551202372 -0.34793505183003959 0 -0.30713586085940098 -0.35104845029603648 0 -0.30452936375692569 -0.34770291195429509 0 -0.30713586085940098 -0.35104845029603648 0 -0.30263511541984223 -0.35139856212950332 0 -0.30452936375692569 -0.34770291195429509 0 -0.30864608551202372 -0.34793505183003959 0 -0.30694580975851871 -0.34552189733917982 0 -0.30452936375692569 -0.34770291195429509 0 -0.30963202953782892 -0.34447412348958167 0 -0.30864608551202372 -0.34793505183003959 0 -0.30694580975851871 -0.34552189733917982 0 -0.30483978072720558 -0.34493846975382048 0 -0.30694580975851871 -0.34552189733917982 0 -0.30452936375692569 -0.34770291195429509 0 -0.30483978072720558 -0.34493846975382048 0 -0.30694580975851871 -0.34552189733917982 0 -0.30686216945276013 -0.34356601734511522 0 -0.30483978072720558 -0.34493846975382048 0 -0.30686216945276013 -0.34356601734511522 0 -0.30501954687857752 -0.342863916677004 0 -0.30963202953782892 -0.34447412348958167 0 -0.30694580975851871 -0.34552189733917982 0 -0.30686216945276013 -0.34356601734511522 0 -0.30483978072720558 -0.34493846975382048 0 -0.30085068830062661 -0.34550944504855502 0 -0.30501954687857752 -0.342863916677004 0 -0.30483978072720558 -0.34493846975382048 0 -0.30085068830062661 -0.34550944504855502 0 -0.30452936375692569 -0.34770291195429509 0 -0.30085068830062661 -0.34550944504855502 0 -0.30263511541984223 -0.35139856212950332 0 -0.30452936375692569 -0.34770291195429509 0 -0.30085068830062661 -0.34550944504855502 0 -0.30263511541984223 -0.35139856212950332 0 -0.2961451296003807 -0.35326244505639781 0 -0.30236883067606629 -0.36436738422421089 0 -0.30192631976005918 -0.356146198400972 0 -0.2961451296003807 -0.35326244505639781 0 -0.30236883067606629 -0.36436738422421089 0 -0.30750825555986688 -0.35615245946021412 0 -0.30192631976005918 -0.356146198400972 0 -0.30750825555986688 -0.35615245946021412 0 -0.30263511541984223 -0.35139856212950332 0 -0.30192631976005918 -0.356146198400972 0 -0.30263511541984223 -0.35139856212950332 0 -0.30192631976005918 -0.356146198400972 0 -0.2961451296003807 -0.35326244505639781 0 -0.30085068830062661 -0.34550944504855502 0 -0.28977245261336232 -0.34863065300829371 0 -0.28349085748896707 -0.34158618250784739 0 -0.30236883067606629 -0.36436738422421089 0 -0.2961451296003807 -0.35326244505639781 0 -0.28147361842014818 -0.35404488242538401 0 -0.30236883067606629 -0.36436738422421089 0 -0.28147361842014818 -0.35404488242538401 0 -0.2961451296003807 -0.35326244505639781 0 -0.28977245261336232 -0.34863065300829371 0 -0.28147361842014818 -0.35404488242538401 0 -0.30085068830062661 -0.34550944504855502 0 -0.2961451296003807 -0.35326244505639781 0 -0.28977245261336232 -0.34863065300829371 0 -0.28977245261336232 -0.34863065300829371 0 -0.28147361842014818 -0.35404488242538401 0 -0.28349085748896707 -0.34158618250784739 0 -0.30236883067606629 -0.36436738422421089 0 -0.28147361842014818 -0.35404488242538401 0 -0.28631729305760978 -0.36509065786411993 0 -0.30236883067606629 -0.36436738422421089 0 -0.28631729305760978 -0.36509065786411993 0 -0.29225138948858548 -0.37014568230255113 0 -0.29225138948858548 -0.37014568230255113 0 -0.28415457449404402 -0.3749292589651938 0 -0.29800808079933311 -0.37809460824777152 0 -0.28631729305760978 -0.36509065786411993 0 -0.28415457449404402 -0.3749292589651938 0 -0.27502449435462711 -0.36576444158544319 0 -0.28631729305760978 -0.36509065786411993 0 -0.29225138948858548 -0.37014568230255113 0 -0.28415457449404402 -0.3749292589651938 0 -0.28415457449404402 -0.3749292589651938 0 -0.27502449435462711 -0.36576444158544319 0 -0.26971818092854072 -0.38131455838694539 0 -0.28147361842014818 -0.35404488242538401 0 -0.28631729305760978 -0.36509065786411993 0 -0.27502449435462711 -0.36576444158544319 0 -0.27502449435462711 -0.36576444158544319 0 -0.25964335541429961 -0.36887273487009647 0 -0.26615976380516831 -0.35774508271259542 0 -0.27502449435462711 -0.36576444158544319 0 -0.25964335541429961 -0.36887273487009647 0 -0.26971818092854072 -0.38131455838694539 0 -0.25964335541429961 -0.36887273487009647 0 -0.25407894467253711 -0.35632097405549418 0 -0.2381632478828658 -0.36932284841584723 0 -0.25964335541429961 -0.36887273487009647 0 -0.25407894467253711 -0.35632097405549418 0 -0.26615976380516831 -0.35774508271259542 0 -0.25407894467253711 -0.35632097405549418 0 -0.26057840616422939 -0.34372238062655802 0 -0.24370457331024559 -0.34529557982237002 0 -0.26057840616422939 -0.34372238062655802 0 -0.24370457331024559 -0.34529557982237002 0 -0.25407894467253711 -0.35632097405549418 0 -0.26615976380516831 -0.35774508271259542 0 -0.26057840616422939 -0.34372238062655802 0 -0.28147361842014818 -0.35404488242538401 0 -0.26057840616422939 -0.34372238062655802 0 -0.28147361842014818 -0.35404488242538401 0 -0.26615976380516831 -0.35774508271259542 0 -0.26057840616422939 -0.34372238062655802 0 -0.28147361842014818 -0.35404488242538401 0 -0.26057840616422939 -0.34372238062655802 0 -0.28349085748896707 -0.34158618250784739 0 -0.28147361842014818 -0.35404488242538401 0 -0.27502449435462711 -0.36576444158544319 0 -0.26615976380516831 -0.35774508271259542 0 -0.27154312559407889 -0.33338899093201407 0 -0.26057840616422939 -0.34372238062655802 0 -0.28349085748896707 -0.34158618250784739 0 -0.26057840616422939 -0.34372238062655802 0 -0.28349085748896707 -0.34158618250784739 0 -0.28046312054316541 -0.32973251187511587 0 -0.27154312559407889 -0.33338899093201407 0 -0.27311607098049778 -0.32319448582546612 0 -0.28046312054316541 -0.32973251187511587 0 -0.27154312559407889 -0.33338899093201407 0 -0.28349085748896707 -0.34158618250784739 0 -0.27154312559407889 -0.33338899093201407 0 -0.26006717279353458 -0.32870939382508252 0 -0.27311607098049778 -0.32319448582546612 0 -0.26057840616422939 -0.34372238062655802 0 -0.24370457331024559 -0.34529557982237002 0 -0.24575613268857729 -0.33639998816931682 0 -0.27154312559407889 -0.33338899093201407 0 -0.26057840616422939 -0.34372238062655802 0 -0.26006717279353458 -0.32870939382508252 0 -0.26057840616422939 -0.34372238062655802 0 -0.24575613268857729 -0.33639998816931682 0 -0.26057840616422939 -0.34372238062655802 0 -0.26006717279353458 -0.32870939382508252 0 -0.24575613268857729 -0.33639998816931682 0 -0.26006717279353458 -0.32870939382508252 0 -0.24575613268857729 -0.33639998816931682 0 -0.24987039731162189 -0.31856047622257549 0 -0.26006717279353458 -0.32870939382508252 0 -0.26382294133709328 -0.3142159059790729 0 -0.24987039731162189 -0.31856047622257549 0 -0.26382294133709328 -0.3142159059790729 0 -0.27311607098049778 -0.32319448582546612 0 -0.27802319860838592 -0.3118190628232963 0 -0.26006717279353458 -0.32870939382508252 0 -0.26382294133709328 -0.3142159059790729 0 -0.27311607098049778 -0.32319448582546612 0 -0.28046312054316541 -0.32973251187511587 0 -0.27311607098049778 -0.32319448582546612 0 -0.28558346873573509 -0.32005626553165267 0 -0.27311607098049778 -0.32319448582546612 0 -0.28558346873573509 -0.32005626553165267 0 -0.27802319860838592 -0.3118190628232963 0 -0.28558346873573509 -0.32005626553165267 0 -0.29248196445171731 -0.30942645109546107 0 -0.27802319860838592 -0.3118190628232963 0 -0.28558346873573509 -0.32005626553165267 0 -0.29680767137778258 -0.32087259516212058 0 -0.29248196445171731 -0.30942645109546107 0 -0.29680767137778258 -0.32087259516212058 0 -0.28998771206672708 -0.32826325290815411 0 -0.29899120350225739 -0.33082134604764363 0 -0.28558346873573509 -0.32005626553165267 0 -0.29680767137778258 -0.32087259516212058 0 -0.28998771206672708 -0.32826325290815411 0 -0.28046312054316541 -0.32973251187511587 0 -0.28558346873573509 -0.32005626553165267 0 -0.28998771206672708 -0.32826325290815411 0 -0.28349085748896707 -0.34158618250784739 0 -0.30575513589445569 -0.33883750045001648 0 -0.28349085748896707 -0.34158618250784739 0 -0.29899120350225739 -0.33082134604764363 0 -0.30575513589445569 -0.33883750045001648 0 -0.28046312054316541 -0.32973251187511587 0 -0.28349085748896707 -0.34158618250784739 0 -0.28998771206672708 -0.32826325290815411 0 -0.30085068830062661 -0.34550944504855502 0 -0.28349085748896707 -0.34158618250784739 0 -0.30575513589445569 -0.33883750045001648 0 -0.28349085748896707 -0.34158618250784739 0 -0.28998771206672708 -0.32826325290815411 0 -0.29899120350225739 -0.33082134604764363 0 -0.32084794614264289 -0.32131412187545849 0 -0.30575513589445569 -0.33883750045001648 0 -0.30699739567651879 -0.32464607801970058 0 -0.29899120350225739 -0.33082134604764363 0 -0.30575513589445569 -0.33883750045001648 0 -0.30699739567651879 -0.32464607801970058 0 -0.30085068830062661 -0.34550944504855502 0 -0.30501954687857752 -0.342863916677004 0 -0.30575513589445569 -0.33883750045001648 0 -0.31493808160586312 -0.34099036878748212 0 -0.30575513589445569 -0.33883750045001648 0 -0.31058109486806268 -0.34211776119324999 0 -0.30812813444276349 -0.34202441550481 0 -0.30575513589445569 -0.33883750045001648 0 -0.31058109486806268 -0.34211776119324999 0 -0.30501954687857752 -0.342863916677004 0 -0.30660771537166642 -0.34157328130629488 0 -0.30575513589445569 -0.33883750045001648 0 -0.30686216945276013 -0.34356601734511522 0 -0.30812813444276349 -0.34202441550481 0 -0.30660771537166642 -0.34157328130629488 0 -0.30963202953782892 -0.34447412348958167 0 -0.30686216945276013 -0.34356601734511522 0 -0.30812813444276349 -0.34202441550481 0 -0.30686216945276013 -0.34356601734511522 0 -0.30501954687857752 -0.342863916677004 0 -0.30660771537166642 -0.34157328130629488 0 -0.30812813444276349 -0.34202441550481 0 -0.30660771537166642 -0.34157328130629488 0 -0.30575513589445569 -0.33883750045001648 0 -0.31310415650100581 -0.34367663028444051 0 -0.30963202953782892 -0.34447412348958167 0 -0.31058109486806268 -0.34211776119324999 0 -0.30963202953782892 -0.34447412348958167 0 -0.30812813444276349 -0.34202441550481 0 -0.31058109486806268 -0.34211776119324999 0 -0.32084794614264289 -0.32131412187545849 0 -0.30699739567651879 -0.32464607801970058 0 -0.30680428383374009 -0.31202217737011162 0 -0.29680767137778258 -0.32087259516212058 0 -0.30680428383374009 -0.31202217737011162 0 -0.29248196445171731 -0.30942645109546107 0 -0.29680767137778258 -0.32087259516212058 0 -0.30699739567651879 -0.32464607801970058 0 -0.30680428383374009 -0.31202217737011162 0 -0.29680767137778258 -0.32087259516212058 0 -0.29899120350225739 -0.33082134604764363 0 -0.30699739567651879 -0.32464607801970058 0 -0.30680428383374009 -0.31202217737011162 0 -0.30198282298852308 -0.29638840531920813 0 -0.29248196445171731 -0.30942645109546107 0 -0.31535772771580051 -0.29107694618209418 0 -0.31816254912982861 -0.30317534045409628 0 -0.30198282298852308 -0.29638840531920813 0 -0.31816254912982861 -0.30317534045409628 0 -0.30680428383374009 -0.31202217737011162 0 -0.30198282298852308 -0.29638840531920813 0 -0.30198282298852308 -0.29638840531920813 0 -0.2908053887909689 -0.28282569643755451 0 -0.30654468715033328 -0.27560674232998278 0 -0.31535772771580051 -0.29107694618209418 0 -0.30198282298852308 -0.29638840531920813 0 -0.30654468715033328 -0.27560674232998278 0 -0.30198282298852308 -0.29638840531920813 0 -0.2908053887909689 -0.28282569643755451 0 -0.28411082139032051 -0.29636865263023221 0 -0.2908053887909689 -0.28282569643755451 0 -0.28411082139032051 -0.29636865263023221 0 -0.27289349014804692 -0.2787698081226152 0 -0.30198282298852308 -0.29638840531920813 0 -0.28411082139032051 -0.29636865263023221 0 -0.29248196445171731 -0.30942645109546107 0 -0.28411082139032051 -0.29636865263023221 0 -0.29248196445171731 -0.30942645109546107 0 -0.27802319860838592 -0.3118190628232963 0 -0.28411082139032051 -0.29636865263023221 0 -0.27802319860838592 -0.3118190628232963 0 -0.26847806335428098 -0.2989824919832581 0 -0.26382294133709328 -0.3142159059790729 0 -0.27802319860838592 -0.3118190628232963 0 -0.26847806335428098 -0.2989824919832581 0 -0.26382294133709328 -0.3142159059790729 0 -0.26847806335428098 -0.2989824919832581 0 -0.25338274497423868 -0.30402952519475901 0 -0.26382294133709328 -0.3142159059790729 0 -0.25338274497423868 -0.30402952519475901 0 -0.24987039731162189 -0.31856047622257549 0 -0.26847806335428098 -0.2989824919832581 0 -0.25494575038128747 -0.28739440028075108 0 -0.27289349014804692 -0.2787698081226152 0 -0.26847806335428098 -0.2989824919832581 0 -0.25338274497423868 -0.30402952519475901 0 -0.25494575038128747 -0.28739440028075108 0 -0.28411082139032051 -0.29636865263023221 0 -0.26847806335428098 -0.2989824919832581 0 -0.27289349014804692 -0.2787698081226152 0 -0.27289349014804692 -0.2787698081226152 0 -0.25331903158984048 -0.26654067686892091 0 -0.26627459532923292 -0.2530800747220297 0 -0.25494575038128747 -0.28739440028075108 0 -0.27289349014804692 -0.2787698081226152 0 -0.25331903158984048 -0.26654067686892091 0 -0.25331903158984048 -0.26654067686892091 0 -0.26627459532923292 -0.2530800747220297 0 -0.24613954941868271 -0.24181674091805319 0 -0.27289349014804692 -0.2787698081226152 0 -0.26627459532923292 -0.2530800747220297 0 -0.28640964123978307 -0.26434340852600618 0 -0.26627459532923292 -0.2530800747220297 0 -0.28640964123978307 -0.26434340852600618 0 -0.28474250388175992 -0.24335367980098499 0 -0.26627459532923292 -0.2530800747220297 0 -0.28640964123978307 -0.26434340852600618 0 -0.28640964123978307 -0.26434340852600618 0 -0.30143001487116627 -0.24532242953246711 0 -0.28474250388175992 -0.24335367980098499 0 -0.2908053887909689 -0.28282569643755451 0 -0.27289349014804692 -0.2787698081226152 0 -0.28640964123978307 -0.26434340852600618 0 -0.28640964123978307 -0.26434340852600618 0 -0.30654468715033328 -0.27560674232998278 0 -0.2908053887909689 -0.28282569643755451 0 -0.28640964123978307 -0.26434340852600618 0 -0.30654468715033328 -0.27560674232998278 0 -0.28640964123978307 -0.26434340852600618 0 -0.30654468715033328 -0.27560674232998278 0 -0.31189878498660473 -0.25853362302682459 0 -0.28640964123978307 -0.26434340852600618 0 -0.31189878498660473 -0.25853362302682459 0 -0.30143001487116627 -0.24532242953246711 0 -0.31666757606948909 -0.4586908698052079 0 -0.34387740708608322 -0.46388476432700559 0 -0.33139710306801318 -0.43230321561592883 0 -0.34387740708608322 -0.46388476432700559 0 -0.35511849069809831 -0.44526810660242722 0 -0.33139710306801318 -0.43230321561592883 0 -0.31666757606948909 -0.4586908698052079 0 -0.33139710306801318 -0.43230321561592883 0 -0.30713447022026907 -0.43646971156658648 0 -0.31666757606948909 -0.4586908698052079 0 -0.33139710306801318 -0.43230321561592883 0 -0.31666757606948909 -0.4586908698052079 0 -0.32133415733022669 -0.48103238346636779 0 -0.34387740708608322 -0.46388476432700559 0 -0.32133415733022669 -0.48103238346636779 0 -0.3345345593202016 -0.5 0 -0.3068087846673212 -0.5 0 -0.32133415733022669 -0.48103238346636779 0 -0.3345345593202016 -0.5 0 -0.34653272441965632 -0.48428729748104071 0 -0.32133415733022669 -0.48103238346636779 0 -0.34653272441965632 -0.48428729748104071 0 -0.34387740708608322 -0.46388476432700559 0 -0.34653272441965632 -0.48428729748104071 0 -0.36693175785602228 -0.48194238216350432 0 -0.34387740708608322 -0.46388476432700559 0 -0.36693175785602228 -0.48194238216350432 0 -0.36402660762744771 -0.46193574902972989 0 -0.34387740708608322 -0.46388476432700559 0 -0.36693175785602228 -0.48194238216350432 0 -0.34387740708608322 -0.46388476432700559 0 -0.34653272441965632 -0.48428729748104071 0 -0.36226033397308188 -0.5 0 -0.36693175785602228 -0.48194238216350432 0 -0.3345345593202016 -0.5 0 -0.34653272441965632 -0.48428729748104071 0 -0.36226033397308188 -0.5 0 -0.38998610862596222 -0.50000000000000178 0 -0.36226033397308188 -0.5 0 -0.36693175785602228 -0.48194238216350432 0 -0.38035033017363079 -0.46765994081286949 0 -0.36693175785602228 -0.48194238216350432 0 -0.36402660762744771 -0.46193574902972989 0 -0.38035033017363079 -0.46765994081286949 0 -0.36402660762744771 -0.46193574902972989 0 -0.37385505232340371 -0.45092355124284322 0 -0.36402660762744771 -0.46193574902972989 0 -0.34387740708608322 -0.46388476432700559 0 -0.35511849069809831 -0.44526810660242722 0 -0.35511849069809831 -0.44526810660242722 0 -0.37385505232340371 -0.45092355124284322 0 -0.36903346868625481 -0.43700295944165979 0 -0.36402660762744771 -0.46193574902972989 0 -0.35511849069809831 -0.44526810660242722 0 -0.37385505232340371 -0.45092355124284322 0 -0.3819772994773119 -0.43981033241645939 0 -0.37385505232340371 -0.45092355124284322 0 -0.36903346868625481 -0.43700295944165979 0 -0.37932910466355618 -0.42407210187786898 0 -0.37122813695408302 -0.4151710294954587 0 -0.35536310386578501 -0.42818765874690018 0 -0.37932910466355618 -0.42407210187786898 0 -0.35536310386578501 -0.42818765874690018 0 -0.37932910466355618 -0.42407210187786898 0 -0.36903346868625481 -0.43700295944165979 0 -0.35536310386578501 -0.42818765874690018 0 -0.35511849069809831 -0.44526810660242722 0 -0.36903346868625481 -0.43700295944165979 0 -0.35536310386578501 -0.42818765874690018 0 -0.37122813695408302 -0.4151710294954587 0 -0.36124729055343702 -0.40733774247339072 0 -0.35536310386578501 -0.42818765874690018 0 -0.37523004537135962 -0.40058585603955082 0 -0.37122813695408302 -0.4151710294954587 0 -0.36124729055343702 -0.40733774247339072 0 -0.36124729055343702 -0.40733774247339072 0 -0.35536310386578501 -0.42818765874690018 0 -0.34331297941521249 -0.41095616051742961 0 -0.35511849069809831 -0.44526810660242722 0 -0.35536310386578501 -0.42818765874690018 0 -0.33139710306801318 -0.43230321561592883 0 -0.37645558751284619 -0.38463906907506168 0 -0.37113431237396549 -0.37011217495999638 0 -0.36397761553627939 -0.38127316896893448 0 -0.37645558751284619 -0.38463906907506168 0 -0.36397761553627939 -0.38127316896893448 0 -0.36642787894726753 -0.39268898839517408 0 -0.36397761553627939 -0.38127316896893448 0 -0.36642787894726753 -0.39268898839517408 0 -0.35522885576241542 -0.38960910541893229 0 -0.37523004537135962 -0.40058585603955082 0 -0.37645558751284619 -0.38463906907506168 0 -0.36642787894726753 -0.39268898839517408 0 -0.36124729055343702 -0.40733774247339072 0 -0.36642787894726753 -0.39268898839517408 0 -0.35522885576241542 -0.38960910541893229 0 -0.37523004537135962 -0.40058585603955082 0 -0.36124729055343702 -0.40733774247339072 0 -0.36642787894726753 -0.39268898839517408 0 -0.35522885576241542 -0.38960910541893229 0 -0.34415925518790258 -0.38501238782186459 0 -0.33744971432770599 -0.39739661570995749 0 -0.35522885576241542 -0.38960910541893229 0 -0.34331297941521249 -0.41095616051742961 0 -0.35522885576241542 -0.38960910541893229 0 -0.33744971432770599 -0.39739661570995749 0 -0.34331297941521249 -0.41095616051742961 0 -0.36124729055343702 -0.40733774247339072 0 -0.35522885576241542 -0.38960910541893229 0 -0.34331297941521249 -0.41095616051742961 0 -0.35429130776025269 -0.37320267157259712 0 -0.35522885576241542 -0.38960910541893229 0 -0.34415925518790258 -0.38501238782186459 0 -0.35429130776025269 -0.37320267157259712 0 -0.33849119503398117 -0.37017619284777081 0 -0.34415925518790258 -0.38501238782186459 0 -0.35429130776025269 -0.37320267157259712 0 -0.36397761553627939 -0.38127316896893448 0 -0.35522885576241542 -0.38960910541893229 0 -0.32326404293198452 -0.37468988602303782 0 -0.34415925518790258 -0.38501238782186459 0 -0.33849119503398117 -0.37017619284777081 0 -0.32326404293198452 -0.37468988602303782 0 -0.34415925518790258 -0.38501238782186459 0 -0.32326404293198452 -0.37468988602303782 0 -0.34415925518790258 -0.38501238782186459 0 -0.3291032960546012 -0.38768347901275207 0 -0.34415925518790258 -0.38501238782186459 0 -0.3291032960546012 -0.38768347901275207 0 -0.33744971432770599 -0.39739661570995749 0 -0.3291032960546012 -0.38768347901275207 0 -0.33744971432770599 -0.39739661570995749 0 -0.32192923505314708 -0.39837669244621171 0 -0.33744971432770599 -0.39739661570995749 0 -0.32192923505314708 -0.39837669244621171 0 -0.32815912381145551 -0.41228574375559818 0 -0.3291032960546012 -0.38768347901275207 0 -0.32192923505314708 -0.39837669244621171 0 -0.31231669744715518 -0.38304533376786692 0 -0.32326404293198452 -0.37468988602303782 0 -0.3291032960546012 -0.38768347901275207 0 -0.31231669744715518 -0.38304533376786692 0 -0.32326404293198452 -0.37468988602303782 0 -0.30898941296363469 -0.37504930306572171 0 -0.31231669744715518 -0.38304533376786692 0 -0.35536310386578501 -0.42818765874690018 0 -0.33139710306801318 -0.43230321561592883 0 -0.34331297941521249 -0.41095616051742961 0 -0.35536310386578501 -0.42818765874690018 0 -0.33139710306801318 -0.43230321561592883 0 -0.33139710306801318 -0.43230321561592883 0 -0.34331297941521249 -0.41095616051742961 0 -0.33139710306801318 -0.43230321561592883 0 -0.34331297941521249 -0.41095616051742961 0 -0.32815912381145551 -0.41228574375559818 0 -0.33744971432770599 -0.39739661570995749 0 -0.34331297941521249 -0.41095616051742961 0 -0.32815912381145551 -0.41228574375559818 0 -0.32192923505314708 -0.39837669244621171 0 -0.32815912381145551 -0.41228574375559818 0 -0.31229355614000848 -0.415179995321795 0 -0.33139710306801318 -0.43230321561592883 0 -0.32815912381145551 -0.41228574375559818 0 -0.31229355614000848 -0.415179995321795 0 -0.33139710306801318 -0.43230321561592883 0 -0.30713447022026907 -0.43646971156658648 0 -0.31229355614000848 -0.415179995321795 0 -0.33139710306801318 -0.43230321561592883 0 -0.30713447022026907 -0.43646971156658648 0 -0.30713447022026907 -0.43646971156658648 0 -0.31229355614000848 -0.415179995321795 0 -0.28965937719685242 -0.41774755506108252 0 -0.31229355614000848 -0.415179995321795 0 -0.28965937719685242 -0.41774755506108252 0 -0.30142317151760528 -0.39724357143100902 0 -0.28965937719685242 -0.41774755506108252 0 -0.28459654733313189 -0.4019515578437593 0 -0.27021485565429731 -0.4090942432964485 0 -0.28965937719685242 -0.41774755506108252 0 -0.27240211809720483 -0.42274626951373889 0 -0.28287183737252458 -0.44063620751724181 0 -0.30713447022026907 -0.43646971156658648 0 -0.28965937719685242 -0.41774755506108252 0 -0.28287183737252458 -0.44063620751724181 0 -0.29800808079933311 -0.37809460824777152 0 -0.31231669744715518 -0.38304533376786692 0 -0.30142317151760528 -0.39724357143100902 0 -0.29800808079933311 -0.37809460824777152 0 -0.30898941296363469 -0.37504930306572171 0 -0.31231669744715518 -0.38304533376786692 0 -0.32192923505314708 -0.39837669244621171 0 -0.31231669744715518 -0.38304533376786692 0 -0.30142317151760528 -0.39724357143100902 0 -0.32192923505314708 -0.39837669244621171 0 -0.31229355614000848 -0.415179995321795 0 -0.30142317151760528 -0.39724357143100902 0 -0.30142317151760528 -0.39724357143100902 0 -0.28459654733313189 -0.4019515578437593 0 -0.28605698305342969 -0.38862207370420337 0 -0.28965937719685242 -0.41774755506108252 0 -0.30142317151760528 -0.39724357143100902 0 -0.28459654733313189 -0.4019515578437593 0 -0.28459654733313189 -0.4019515578437593 0 -0.28605698305342969 -0.38862207370420337 0 -0.27421911910766539 -0.39503942817553922 0 -0.29800808079933311 -0.37809460824777152 0 -0.30142317151760528 -0.39724357143100902 0 -0.28605698305342969 -0.38862207370420337 0 -0.28415457449404402 -0.3749292589651938 0 -0.29800808079933311 -0.37809460824777152 0 -0.28605698305342969 -0.38862207370420337 0 -0.28415457449404402 -0.3749292589651938 0 -0.28605698305342969 -0.38862207370420337 0 -0.26971818092854072 -0.38131455838694539 0 -0.28605698305342969 -0.38862207370420337 0 -0.26971818092854072 -0.38131455838694539 0 -0.27421911910766539 -0.39503942817553922 0 -0.26971818092854072 -0.38131455838694539 0 -0.27421911910766539 -0.39503942817553922 0 -0.26131619800665951 -0.39638931687904327 0 -0.28459654733313189 -0.4019515578437593 0 -0.27421911910766539 -0.39503942817553922 0 -0.27021485565429731 -0.4090942432964485 0 -0.27421911910766539 -0.39503942817553922 0 -0.26131619800665951 -0.39638931687904327 0 -0.27021485565429731 -0.4090942432964485 0 -0.26131619800665951 -0.39638931687904327 0 -0.27021485565429731 -0.4090942432964485 0 -0.25367533682219767 -0.40933210928171387 0 -0.26131619800665951 -0.39638931687904327 0 -0.25367533682219767 -0.40933210928171387 0 -0.2485496135030231 -0.3985239110419857 0 -0.26131619800665951 -0.39638931687904327 0 -0.2515200820242332 -0.38503165109162768 0 -0.2485496135030231 -0.3985239110419857 0 -0.26971818092854072 -0.38131455838694539 0 -0.26131619800665951 -0.39638931687904327 0 -0.2515200820242332 -0.38503165109162768 0 -0.25964335541429961 -0.36887273487009647 0 -0.26971818092854072 -0.38131455838694539 0 -0.2515200820242332 -0.38503165109162768 0 -0.27240211809720483 -0.42274626951373889 0 -0.26128778130502001 -0.42990807672456272 0 -0.28287183737252458 -0.44063620751724181 0 -0.28965937719685242 -0.41774755506108252 0 -0.27240211809720483 -0.42274626951373889 0 -0.27021485565429731 -0.4090942432964485 0 -0.27240211809720483 -0.42274626951373889 0 -0.27021485565429731 -0.4090942432964485 0 -0.2614505393413295 -0.41835211995440769 0 -0.27021485565429731 -0.4090942432964485 0 -0.2614505393413295 -0.41835211995440769 0 -0.25367533682219767 -0.40933210928171387 0 -0.2614505393413295 -0.41835211995440769 0 -0.25367533682219767 -0.40933210928171387 0 -0.25068693301679851 -0.42139894143770651 0 -0.26128778130502001 -0.42990807672456272 0 -0.25860920452477998 -0.44480270346789702 0 -0.2417060554774825 -0.43151221845638471 0 -0.25068693301679851 -0.42139894143770651 0 -0.26128778130502001 -0.42990807672456272 0 -0.2417060554774825 -0.43151221845638471 0 -0.2614505393413295 -0.41835211995440769 0 -0.25068693301679851 -0.42139894143770651 0 -0.26128778130502001 -0.42990807672456272 0 -0.27240211809720483 -0.42274626951373889 0 -0.2614505393413295 -0.41835211995440769 0 -0.26128778130502001 -0.42990807672456272 0 -0.25860920452477998 -0.44480270346789702 0 -0.26310914512716171 -0.4713125360001531 0 -0.24266855827565889 -0.46290007739280969 0 -0.25860920452477998 -0.44480270346789702 0 -0.27684589589253322 -0.45720485355882168 0 -0.26310914512716171 -0.4713125360001531 0 -0.27684589589253322 -0.45720485355882168 0 -0.29061679755953113 -0.47212413353634169 0 -0.26310914512716171 -0.4713125360001531 0 -0.26128778130502001 -0.42990807672456272 0 -0.25860920452477998 -0.44480270346789702 0 -0.28287183737252458 -0.44063620751724181 0 -0.25860920452477998 -0.44480270346789702 0 -0.28287183737252458 -0.44063620751724181 0 -0.25860920452477998 -0.44480270346789702 0 -0.27684589589253322 -0.45720485355882168 0 -0.28287183737252458 -0.44063620751724181 0 -0.30713447022026907 -0.43646971156658648 0 -0.28287183737252458 -0.44063620751724181 0 -0.30713447022026907 -0.43646971156658648 0 -0.28287183737252458 -0.44063620751724181 0 -0.29699718595400881 -0.45348571450227843 0 -0.27684589589253322 -0.45720485355882168 0 -0.28287183737252458 -0.44063620751724181 0 -0.29699718595400881 -0.45348571450227843 0 -0.27684589589253322 -0.45720485355882168 0 -0.29699718595400881 -0.45348571450227843 0 -0.29061679755953113 -0.47212413353634169 0 -0.31666757606948909 -0.4586908698052079 0 -0.29699718595400881 -0.45348571450227843 0 -0.29061679755953113 -0.47212413353634169 0 -0.31666757606948909 -0.4586908698052079 0 -0.30713447022026907 -0.43646971156658648 0 -0.29699718595400881 -0.45348571450227843 0 -0.32133415733022669 -0.48103238346636779 0 -0.3068087846673212 -0.5 0 -0.29061679755953113 -0.47212413353634169 0 -0.31666757606948909 -0.4586908698052079 0 -0.32133415733022669 -0.48103238346636779 0 -0.29061679755953113 -0.47212413353634169 0 -0.3068087846673212 -0.5 0 -0.29061679755953113 -0.47212413353634169 0 -0.2790830100144408 -0.5 0 -0.29061679755953113 -0.47212413353634169 0 -0.2790830100144408 -0.5 0 -0.26310914512716171 -0.4713125360001531 0 -0.26310914512716171 -0.4713125360001531 0 -0.25135723536156052 -0.5 0 -0.2396069713285611 -0.4805627757435833 0 -0.2790830100144408 -0.5 0 -0.26310914512716171 -0.4713125360001531 0 -0.25135723536156052 -0.5 0 -0.25135723536156052 -0.5 0 -0.2396069713285611 -0.4805627757435833 0 -0.22264187471401251 -0.49603358565249089 0 -0.2396069713285611 -0.4805627757435833 0 -0.22981837856768231 -0.47217805744541769 0 -0.24266855827565889 -0.46290007739280969 0 -0.26310914512716171 -0.4713125360001531 0 -0.2396069713285611 -0.4805627757435833 0 -0.24266855827565889 -0.46290007739280969 0 -0.2396069713285611 -0.4805627757435833 0 -0.22659359082086639 -0.48196005532783359 0 -0.22981837856768231 -0.47217805744541769 0 -0.22659359082086639 -0.48196005532783359 0 -0.22264187471401251 -0.49603358565249089 0 -0.21632623791859729 -0.47466178604092801 0 -0.22981837856768231 -0.47217805744541769 0 -0.22389653449472779 -0.46080559272193361 0 -0.21632623791859729 -0.47466178604092801 0 -0.22659359082086639 -0.48196005532783359 0 -0.22981837856768231 -0.47217805744541769 0 -0.21632623791859729 -0.47466178604092801 0 -0.2396069713285611 -0.4805627757435833 0 -0.22659359082086639 -0.48196005532783359 0 -0.22264187471401251 -0.49603358565249089 0 -0.22264187471401251 -0.49603358565249089 0 -0.21632623791859729 -0.47466178604092801 0 -0.25135723536156052 -0.5 0 -0.22264187471401251 -0.49603358565249089 0 -0.22363146070868009 -0.50000000000000133 0 -0.25860920452477998 -0.44480270346789702 0 -0.23434657167703529 -0.44896919941855229 0 -0.2417060554774825 -0.43151221845638471 0 -0.25860920452477998 -0.44480270346789702 0 -0.23434657167703529 -0.44896919941855229 0 -0.23434657167703529 -0.44896919941855229 0 -0.23276061450875171 -0.437074726975063 0 -0.2417060554774825 -0.43151221845638471 0 -0.25860920452477998 -0.44480270346789702 0 -0.24266855827565889 -0.46290007739280969 0 -0.23434657167703529 -0.44896919941855229 0 -0.24266855827565889 -0.46290007739280969 0 -0.22389653449472779 -0.46080559272193361 0 -0.23434657167703529 -0.44896919941855229 0 -0.22389653449472779 -0.46080559272193361 0 -0.23434657167703529 -0.44896919941855229 0 -0.2100217633625879 -0.45319360482481591 0 -0.22981837856768231 -0.47217805744541769 0 -0.24266855827565889 -0.46290007739280969 0 -0.22389653449472779 -0.46080559272193361 0 -0.23434657167703529 -0.44896919941855229 0 -0.2100217633625879 -0.45319360482481591 0 -0.22257919020368841 -0.43689555183147899 0 -0.23434657167703529 -0.44896919941855229 0 -0.2100217633625879 -0.45319360482481591 0 -0.23434657167703529 -0.44896919941855229 0 -0.23276061450875171 -0.437074726975063 0 -0.22257919020368841 -0.43689555183147899 0 -0.2100217633625879 -0.45319360482481591 0 -0.21858226792869859 -0.43525654048600487 0 -0.2100217633625879 -0.45319360482481591 0 -0.21109743179597831 -0.43701126472663998 0 -0.21858226792869859 -0.43525654048600487 0 -0.2100217633625879 -0.45319360482481591 0 -0.21109743179597831 -0.43701126472663998 0 -0.20419794721361281 -0.43362025579240571 0 -0.2100217633625879 -0.45319360482481591 0 -0.21858226792869859 -0.43525654048600487 0 -0.22257919020368841 -0.43689555183147899 0 -0.2100217633625879 -0.45319360482481591 0 -0.20419794721361281 -0.43362025579240571 0 -0.2100217633625879 -0.45319360482481591 0 -0.20310216891710109 -0.46782424698432928 0 -0.21632623791859729 -0.47466178604092801 0 -0.22389653449472779 -0.46080559272193361 0 -0.2100217633625879 -0.45319360482481591 0 -0.21632623791859729 -0.47466178604092801 0 -0.2100217633625879 -0.45319360482481591 0 -0.21632623791859729 -0.47466178604092801 0 -0.2100217633625879 -0.45319360482481591 0 -0.20310216891710109 -0.46782424698432928 0 -0.2100217633625879 -0.45319360482481591 0 -0.20310216891710109 -0.46782424698432928 0 -0.18661123559382101 -0.45716654080940511 0 -0.2100217633625879 -0.45319360482481591 0 -0.18661123559382101 -0.45716654080940511 0 -0.20310216891710109 -0.46782424698432928 0 -0.19140746752590709 -0.46977938089353599 0 -0.18661123559382101 -0.45716654080940511 0 -0.2100217633625879 -0.45319360482481591 0 -0.19254049336618401 -0.4423971822330291 0 -0.18661123559382101 -0.45716654080940511 0 -0.2100217633625879 -0.45319360482481591 0 -0.19254049336618401 -0.4423971822330291 0 -0.20419794721361281 -0.43362025579240571 0 -0.22363146070868009 -0.50000000000000133 0 -0.20991259870985021 -0.49117925376964777 0 -0.19558678489574319 -0.5 0 -0.22264187471401251 -0.49603358565249089 0 -0.20991259870985021 -0.49117925376964777 0 -0.21632623791859729 -0.47466178604092801 0 -0.22264187471401251 -0.49603358565249089 0 -0.22363146070868009 -0.50000000000000133 0 -0.20991259870985021 -0.49117925376964777 0 -0.22363146070868009 -0.50000000000000133 0 -0.20991259870985021 -0.49117925376964777 0 -0.20991259870985021 -0.49117925376964777 0 -0.21632623791859729 -0.47466178604092801 0 -0.2063836855641423 -0.47900594858354961 0 -0.20310216891710109 -0.46782424698432928 0 -0.21632623791859729 -0.47466178604092801 0 -0.2063836855641423 -0.47900594858354961 0 -0.20991259870985021 -0.49117925376964777 0 -0.2063836855641423 -0.47900594858354961 0 -0.19619373671102061 -0.48235850753929371 0 -0.19619373671102061 -0.48235850753929371 0 -0.19495982497912151 -0.48495446478086057 0 -0.17972272888168561 -0.47176822824111619 0 -0.19619373671102061 -0.48235850753929371 0 -0.19140746752590709 -0.46977938089353599 0 -0.17972272888168561 -0.47176822824111619 0 -0.19619373671102061 -0.48235850753929371 0 -0.17972272888168561 -0.47176822824111619 0 -0.19619373671102061 -0.48235850753929371 0 -0.19495982497912151 -0.48495446478086057 0 -0.20310216891710109 -0.46782424698432928 0 -0.19619373671102061 -0.48235850753929371 0 -0.20310216891710109 -0.46782424698432928 0 -0.19619373671102061 -0.48235850753929371 0 -0.19140746752590709 -0.46977938089353599 0 -0.20310216891710109 -0.46782424698432928 0 -0.2063836855641423 -0.47900594858354961 0 -0.19619373671102061 -0.48235850753929371 0 -0.19495982497912151 -0.48495446478086057 0 -0.19558678489574319 -0.5 0 -0.17928648349474591 -0.48755096986548058 0 -0.20991259870985021 -0.49117925376964777 0 -0.19619373671102061 -0.48235850753929371 0 -0.19495982497912151 -0.48495446478086057 0 -0.20991259870985021 -0.49117925376964777 0 -0.19619373671102061 -0.48235850753929371 0 -0.20991259870985021 -0.49117925376964777 0 -0.19495982497912151 -0.48495446478086057 0 -0.19558678489574319 -0.5 0 -0.19558678489574319 -0.5 0 -0.17928648349474591 -0.48755096986548058 0 -0.1675421090828064 -0.5 0 -0.17928648349474591 -0.48755096986548058 0 -0.1675421090828064 -0.5 0 -0.15862096963437311 -0.48103215630542651 0 -0.15862096963437311 -0.48103215630542651 0 -0.17972272888168561 -0.47176822824111619 0 -0.1632517210523515 -0.46117794894293729 0 -0.17928648349474591 -0.48755096986548058 0 -0.15862096963437311 -0.48103215630542651 0 -0.17972272888168561 -0.47176822824111619 0 -0.19495982497912151 -0.48495446478086057 0 -0.17928648349474591 -0.48755096986548058 0 -0.17972272888168561 -0.47176822824111619 0 -0.18661123559382101 -0.45716654080940511 0 -0.1632517210523515 -0.46117794894293729 0 -0.18661123559382101 -0.45716654080940511 0 -0.17131221865042251 -0.44396646533894402 0 -0.1632517210523515 -0.46117794894293729 0 -0.17972272888168561 -0.47176822824111619 0 -0.18661123559382101 -0.45716654080940511 0 -0.1632517210523515 -0.46117794894293729 0 -0.19140746752590709 -0.46977938089353599 0 -0.17972272888168561 -0.47176822824111619 0 -0.18661123559382101 -0.45716654080940511 0 -0.19254049336618401 -0.4423971822330291 0 -0.17131221865042251 -0.44396646533894402 0 -0.17990370802357289 -0.43017910386515201 0 -0.19254049336618401 -0.4423971822330291 0 -0.18661123559382101 -0.45716654080940511 0 -0.17131221865042251 -0.44396646533894402 0 -0.17131221865042251 -0.44396646533894402 0 -0.1632517210523515 -0.46117794894293729 0 -0.15210064351192409 -0.44489406654167302 0 -0.17972272888168561 -0.47176822824111619 0 -0.1632517210523515 -0.46117794894293729 0 -0.1632517210523515 -0.46117794894293729 0 -0.14236895666157209 -0.46476403763407931 0 -0.14083136060357559 -0.44676244495080092 0 -0.1632517210523515 -0.46117794894293729 0 -0.14236895666157209 -0.46476403763407931 0 -0.1632517210523515 -0.46117794894293729 0 -0.14083136060357559 -0.44676244495080092 0 -0.1632517210523515 -0.46117794894293729 0 -0.15210064351192409 -0.44489406654167302 0 -0.14083136060357559 -0.44676244495080092 0 -0.15210064351192409 -0.44489406654167302 0 -0.14083136060357559 -0.44676244495080092 0 -0.1437910187846802 -0.42969386715983271 0 -0.14083136060357559 -0.44676244495080092 0 -0.1184110001548008 -0.43234694095866261 0 -0.14083136060357559 -0.44676244495080092 0 -0.1228399064619701 -0.45010157398010681 0 -0.1184110001548008 -0.43234694095866261 0 -0.14236895666157209 -0.46476403763407931 0 -0.12148619227079301 -0.46835012632522299 0 -0.14236895666157209 -0.46476403763407931 0 -0.14083136060357559 -0.44676244495080092 0 -0.1228399064619701 -0.45010157398010681 0 -0.14236895666157209 -0.46476403763407931 0 -0.12148619227079301 -0.46835012632522299 0 -0.1228399064619701 -0.45010157398010681 0 -0.13852546741967081 -0.4809857702993392 0 -0.1226346943328091 -0.48533339245354079 0 -0.12148619227079301 -0.46835012632522299 0 -0.14236895666157209 -0.46476403763407931 0 -0.13852546741967081 -0.4809857702993392 0 -0.12148619227079301 -0.46835012632522299 0 -0.13852546741967081 -0.4809857702993392 0 -0.13949743326986949 -0.5 0 -0.1226346943328091 -0.48533339245354079 0 -0.1675421090828064 -0.5 0 -0.15862096963437311 -0.48103215630542651 0 -0.13949743326986949 -0.5 0 -0.15862096963437311 -0.48103215630542651 0 -0.13852546741967081 -0.4809857702993392 0 -0.13949743326986949 -0.5 0 -0.15862096963437311 -0.48103215630542651 0 -0.1632517210523515 -0.46117794894293729 0 -0.14236895666157209 -0.46476403763407931 0 -0.15862096963437311 -0.48103215630542651 0 -0.14236895666157209 -0.46476403763407931 0 -0.13852546741967081 -0.4809857702993392 0 -0.14621088533489551 -0.40411469440624442 0 -0.1578066838399404 -0.41951265616044447 0 -0.1635127241679567 -0.39413124577921599 0 -0.14621088533489551 -0.40411469440624442 0 -0.1635127241679567 -0.39413124577921599 0 -0.1415333796211557 -0.37362514247251549 0 -0.12840811959989359 -0.39806301558833979 0 -0.1415333796211557 -0.37362514247251549 0 -0.1125719657568152 -0.38622125221252918 0 -0.14621088533489551 -0.40411469440624442 0 -0.12840811959989359 -0.39806301558833979 0 -0.12981618641440601 -0.41609917673097552 0 -0.14621088533489551 -0.40411469440624442 0 -0.12840811959989359 -0.39806301558833979 0 -0.1415333796211557 -0.37362514247251549 0 -0.14621088533489551 -0.40411469440624442 0 -0.12981618641440601 -0.41609917673097552 0 -0.1437910187846802 -0.42969386715983271 0 -0.14083136060357559 -0.44676244495080092 0 -0.1437910187846802 -0.42969386715983271 0 -0.1184110001548008 -0.43234694095866261 0 -0.12981618641440601 -0.41609917673097552 0 -0.1437910187846802 -0.42969386715983271 0 -0.1184110001548008 -0.43234694095866261 0 -0.15210064351192409 -0.44489406654167302 0 -0.1578066838399404 -0.41951265616044447 0 -0.15210064351192409 -0.44489406654167302 0 -0.1437910187846802 -0.42969386715983271 0 -0.1578066838399404 -0.41951265616044447 0 -0.14621088533489551 -0.40411469440624442 0 -0.1437910187846802 -0.42969386715983271 0 -0.1578066838399404 -0.41951265616044447 0 -0.1578066838399404 -0.41951265616044447 0 -0.1800829555080711 -0.41208475587670962 0 -0.1635127241679567 -0.39413124577921599 0 -0.1578066838399404 -0.41951265616044447 0 -0.1635127241679567 -0.39413124577921599 0 -0.17131221865042251 -0.44396646533894402 0 -0.15210064351192409 -0.44489406654167302 0 -0.1578066838399404 -0.41951265616044447 0 -0.17131221865042251 -0.44396646533894402 0 -0.1578066838399404 -0.41951265616044447 0 -0.17990370802357289 -0.43017910386515201 0 -0.17990370802357289 -0.43017910386515201 0 -0.1800829555080711 -0.41208475587670962 0 -0.192365784947683 -0.42638764748252578 0 -0.1578066838399404 -0.41951265616044447 0 -0.17990370802357289 -0.43017910386515201 0 -0.1800829555080711 -0.41208475587670962 0 -0.1800829555080711 -0.41208475587670962 0 -0.1635127241679567 -0.39413124577921599 0 -0.19265234137025741 -0.39455050202546782 0 -0.1635127241679567 -0.39413124577921599 0 -0.16921876449597301 -0.36874983539798761 0 -0.1635127241679567 -0.39413124577921599 0 -0.16921876449597301 -0.36874983539798761 0 -0.1415333796211557 -0.37362514247251549 0 -0.1635127241679567 -0.39413124577921599 0 -0.18687307669621139 -0.37625738481376392 0 -0.16921876449597301 -0.36874983539798761 0 -0.1635127241679567 -0.39413124577921599 0 -0.18687307669621139 -0.37625738481376392 0 -0.19265234137025741 -0.39455050202546782 0 -0.18687307669621139 -0.37625738481376392 0 -0.201318705438152 -0.38220237190901379 0 -0.19265234137025741 -0.39455050202546782 0 -0.18687307669621139 -0.37625738481376392 0 -0.201318705438152 -0.38220237190901379 0 -0.20385425482033731 -0.36733115229323737 0 -0.19265234137025741 -0.39455050202546782 0 -0.2098698256399307 -0.39644625638880993 0 -0.19842514429193511 -0.41408537890893671 0 -0.19265234137025741 -0.39455050202546782 0 -0.19842514429193511 -0.41408537890893671 0 -0.201318705438152 -0.38220237190901379 0 -0.19265234137025741 -0.39455050202546782 0 -0.2098698256399307 -0.39644625638880993 0 -0.201318705438152 -0.38220237190901379 0 -0.21640361343447309 -0.38236890800932138 0 -0.20385425482033731 -0.36733115229323737 0 -0.201318705438152 -0.38220237190901379 0 -0.2098698256399307 -0.39644625638880993 0 -0.21640361343447309 -0.38236890800932138 0 -0.19842514429193511 -0.41408537890893671 0 -0.20419794721361281 -0.43362025579240571 0 -0.192365784947683 -0.42638764748252578 0 -0.19842514429193511 -0.41408537890893671 0 -0.20419794721361281 -0.43362025579240571 0 -0.19254049336618401 -0.4423971822330291 0 -0.17990370802357289 -0.43017910386515201 0 -0.192365784947683 -0.42638764748252578 0 -0.19254049336618401 -0.4423971822330291 0 -0.192365784947683 -0.42638764748252578 0 -0.20419794721361281 -0.43362025579240571 0 -0.1800829555080711 -0.41208475587670962 0 -0.192365784947683 -0.42638764748252578 0 -0.19842514429193511 -0.41408537890893671 0 -0.1800829555080711 -0.41208475587670962 0 -0.19265234137025741 -0.39455050202546782 0 -0.19842514429193511 -0.41408537890893671 0 -0.2098698256399307 -0.39644625638880993 0 -0.19842514429193511 -0.41408537890893671 0 -0.21683830937561199 -0.41014834798164868 0 -0.19842514429193511 -0.41408537890893671 0 -0.21683830937561199 -0.41014834798164868 0 -0.21313554281572161 -0.42039314436041569 0 -0.21683830937561199 -0.41014834798164868 0 -0.21313554281572161 -0.42039314436041569 0 -0.21939873709256849 -0.41900370231898332 0 -0.21313554281572161 -0.42039314436041569 0 -0.21782556368801359 -0.42427121498285308 0 -0.21939873709256849 -0.41900370231898332 0 -0.19842514429193511 -0.41408537890893671 0 -0.21313554281572161 -0.42039314436041569 0 -0.21065446598974941 -0.42797839576283342 0 -0.19842514429193511 -0.41408537890893671 0 -0.21065446598974941 -0.42797839576283342 0 -0.20419794721361281 -0.43362025579240571 0 -0.21313554281572161 -0.42039314436041569 0 -0.21065446598974941 -0.42797839576283342 0 -0.21782556368801359 -0.42427121498285308 0 -0.21065446598974941 -0.42797839576283342 0 -0.21782556368801359 -0.42427121498285308 0 -0.21858226792869859 -0.43525654048600487 0 -0.21065446598974941 -0.42797839576283342 0 -0.21109743179597831 -0.43701126472663998 0 -0.21858226792869859 -0.43525654048600487 0 -0.21065446598974941 -0.42797839576283342 0 -0.21109743179597831 -0.43701126472663998 0 -0.20419794721361281 -0.43362025579240571 0 -0.21858226792869859 -0.43525654048600487 0 -0.22257919020368841 -0.43689555183147899 0 -0.2270805970281061 -0.41737738560280158 0 -0.22257919020368841 -0.43689555183147899 0 -0.2270805970281061 -0.41737738560280158 0 -0.22257919020368841 -0.43689555183147899 0 -0.22999742659196321 -0.4256989542191727 0 -0.2270805970281061 -0.41737738560280158 0 -0.21782556368801359 -0.42427121498285308 0 -0.21858226792869859 -0.43525654048600487 0 -0.2270805970281061 -0.41737738560280158 0 -0.21858226792869859 -0.43525654048600487 0 -0.2270805970281061 -0.41737738560280158 0 -0.23241064067680081 -0.43092193819383617 0 -0.22257919020368841 -0.43689555183147899 0 -0.22999742659196321 -0.4256989542191727 0 -0.23276061450875171 -0.437074726975063 0 -0.23241064067680081 -0.43092193819383617 0 -0.22257919020368841 -0.43689555183147899 0 -0.23241064067680081 -0.43092193819383617 0 -0.22999742659196321 -0.4256989542191727 0 -0.2355382344139561 -0.42540058915223999 0 -0.22999742659196321 -0.4256989542191727 0 -0.23293440003576471 -0.4180512098575121 0 -0.2355382344139561 -0.42540058915223999 0 -0.2270805970281061 -0.41737738560280158 0 -0.22897891919779589 -0.41338361274544438 0 -0.23262192245548599 -0.39335011700932437 0 -0.21683830937561199 -0.41014834798164868 0 -0.2270805970281061 -0.41737738560280158 0 -0.23262192245548599 -0.39335011700932437 0 -0.22999742659196321 -0.4256989542191727 0 -0.23293440003576471 -0.4180512098575121 0 -0.2270805970281061 -0.41737738560280158 0 -0.23293440003576471 -0.4180512098575121 0 -0.22897891919779589 -0.41338361274544438 0 -0.23769523586453711 -0.41483415490917991 0 -0.2270805970281061 -0.41737738560280158 0 -0.22897891919779589 -0.41338361274544438 0 -0.23293440003576471 -0.4180512098575121 0 -0.2270805970281061 -0.41737738560280158 0 -0.22897891919779589 -0.41338361274544438 0 -0.21782556368801359 -0.42427121498285308 0 -0.2270805970281061 -0.41737738560280158 0 -0.21939873709256849 -0.41900370231898332 0 -0.21683830937561199 -0.41014834798164868 0 -0.2270805970281061 -0.41737738560280158 0 -0.21939873709256849 -0.41900370231898332 0 -0.22897891919779589 -0.41338361274544438 0 -0.2406345201292433 -0.40713598791729178 0 -0.23769523586453711 -0.41483415490917991 0 -0.2406345201292433 -0.40713598791729178 0 -0.24528569067211231 -0.41478133899135672 0 -0.23769523586453711 -0.41483415490917991 0 -0.25367533682219767 -0.40933210928171387 0 -0.2406345201292433 -0.40713598791729178 0 -0.24528569067211231 -0.41478133899135672 0 -0.25367533682219767 -0.40933210928171387 0 -0.25068693301679851 -0.42139894143770651 0 -0.24528569067211231 -0.41478133899135672 0 -0.25068693301679851 -0.42139894143770651 0 -0.24528569067211231 -0.41478133899135672 0 -0.24064264928776921 -0.42081862503429462 0 -0.24528569067211231 -0.41478133899135672 0 -0.24064264928776921 -0.42081862503429462 0 -0.23769523586453711 -0.41483415490917991 0 -0.23293440003576471 -0.4180512098575121 0 -0.24064264928776921 -0.42081862503429462 0 -0.23769523586453711 -0.41483415490917991 0 -0.23293440003576471 -0.4180512098575121 0 -0.24064264928776921 -0.42081862503429462 0 -0.2355382344139561 -0.42540058915223999 0 -0.23241064067680081 -0.43092193819383617 0 -0.2355382344139561 -0.42540058915223999 0 -0.2417060554774825 -0.43151221845638471 0 -0.24064264928776921 -0.42081862503429462 0 -0.2355382344139561 -0.42540058915223999 0 -0.2417060554774825 -0.43151221845638471 0 -0.25068693301679851 -0.42139894143770651 0 -0.24064264928776921 -0.42081862503429462 0 -0.2417060554774825 -0.43151221845638471 0 -0.23276061450875171 -0.437074726975063 0 -0.23241064067680081 -0.43092193819383617 0 -0.2417060554774825 -0.43151221845638471 0 -0.21640361343447309 -0.38236890800932138 0 -0.23262192245548599 -0.39335011700932437 0 -0.2381632478828658 -0.36932284841584723 0 -0.2098698256399307 -0.39644625638880993 0 -0.21640361343447309 -0.38236890800932138 0 -0.23262192245548599 -0.39335011700932437 0 -0.2270805970281061 -0.41737738560280158 0 -0.23262192245548599 -0.39335011700932437 0 -0.2098698256399307 -0.39644625638880993 0 -0.21683830937561199 -0.41014834798164868 0 -0.23262192245548599 -0.39335011700932437 0 -0.22897891919779589 -0.41338361274544438 0 -0.2406345201292433 -0.40713598791729178 0 -0.23262192245548599 -0.39335011700932437 0 -0.2406345201292433 -0.40713598791729178 0 -0.23262192245548599 -0.39335011700932437 0 -0.2485496135030231 -0.3985239110419857 0 -0.2515200820242332 -0.38503165109162768 0 -0.23262192245548599 -0.39335011700932437 0 -0.2485496135030231 -0.3985239110419857 0 -0.25367533682219767 -0.40933210928171387 0 -0.2406345201292433 -0.40713598791729178 0 -0.2485496135030231 -0.3985239110419857 0 -0.2515200820242332 -0.38503165109162768 0 -0.23262192245548599 -0.39335011700932437 0 -0.2381632478828658 -0.36932284841584723 0 -0.23262192245548599 -0.39335011700932437 0 -0.2381632478828658 -0.36932284841584723 0 -0.25964335541429961 -0.36887273487009647 0 -0.2515200820242332 -0.38503165109162768 0 -0.2381632478828658 -0.36932284841584723 0 -0.21640361343447309 -0.38236890800932138 0 -0.2381632478828658 -0.36932284841584723 0 -0.21984680958951611 -0.36469159831064218 0 -0.2381632478828658 -0.36932284841584723 0 -0.21984680958951611 -0.36469159831064218 0 -0.2251617862106341 -0.34702438074185449 0 -0.2251617862106341 -0.34702438074185449 0 -0.24370457331024559 -0.34529557982237002 0 -0.25407894467253711 -0.35632097405549418 0 -0.2381632478828658 -0.36932284841584723 0 -0.24370457331024559 -0.34529557982237002 0 -0.2381632478828658 -0.36932284841584723 0 -0.24370457331024559 -0.34529557982237002 0 -0.2381632478828658 -0.36932284841584723 0 -0.2251617862106341 -0.34702438074185449 0 -0.24370457331024559 -0.34529557982237002 0 -0.24370457331024559 -0.34529557982237002 0 -0.24575613268857729 -0.33639998816931682 0 -0.24575613268857729 -0.33639998816931682 0 -0.239138411594193 -0.32289101279873389 0 -0.22339222684231819 -0.32535193297373599 0 -0.24575613268857729 -0.33639998816931682 0 -0.22339222684231819 -0.32535193297373599 0 -0.24370457331024559 -0.34529557982237002 0 -0.24575613268857729 -0.33639998816931682 0 -0.23091803802366709 -0.33817777407193561 0 -0.24575613268857729 -0.33639998816931682 0 -0.24987039731162189 -0.31856047622257549 0 -0.239138411594193 -0.32289101279873389 0 -0.24575613268857729 -0.33639998816931682 0 -0.24987039731162189 -0.31856047622257549 0 -0.24987039731162189 -0.31856047622257549 0 -0.239138411594193 -0.32289101279873389 0 -0.23559999063710221 -0.31274167965208233 0 -0.239138411594193 -0.32289101279873389 0 -0.23559999063710221 -0.31274167965208233 0 -0.22339222684231819 -0.32535193297373599 0 -0.23559999063710221 -0.31274167965208233 0 -0.22339222684231819 -0.32535193297373599 0 -0.2214482759290555 -0.31382357050766091 0 -0.2251617862106341 -0.34702438074185449 0 -0.24370457331024559 -0.34529557982237002 0 -0.23091803802366709 -0.33817777407193561 0 -0.24575613268857729 -0.33639998816931682 0 -0.22339222684231819 -0.32535193297373599 0 -0.23091803802366709 -0.33817777407193561 0 -0.22339222684231819 -0.32535193297373599 0 -0.23091803802366709 -0.33817777407193561 0 -0.21665142924972899 -0.33796484525241821 0 -0.2251617862106341 -0.34702438074185449 0 -0.23091803802366709 -0.33817777407193561 0 -0.21665142924972899 -0.33796484525241821 0 -0.22339222684231819 -0.32535193297373599 0 -0.21665142924972899 -0.33796484525241821 0 -0.20738224527577701 -0.32876613242421571 0 -0.21665142924972899 -0.33796484525241821 0 -0.20738224527577701 -0.32876613242421571 0 -0.2031536467669835 -0.33899966133179038 0 -0.21665142924972899 -0.33796484525241821 0 -0.2031536467669835 -0.33899966133179038 0 -0.2100829320186002 -0.3522240458110194 0 -0.22339222684231819 -0.32535193297373599 0 -0.20738224527577701 -0.32876613242421571 0 -0.2010283209960598 -0.31430387777815338 0 -0.22339222684231819 -0.32535193297373599 0 -0.20950693229181139 -0.31728332741617332 0 -0.2010283209960598 -0.31430387777815338 0 -0.22339222684231819 -0.32535193297373599 0 -0.2010283209960598 -0.31430387777815338 0 -0.22339222684231819 -0.32535193297373599 0 -0.2214482759290555 -0.31382357050766091 0 -0.20950693229181139 -0.31728332741617332 0 -0.2214482759290555 -0.31382357050766091 0 -0.20950693229181139 -0.31728332741617332 0 -0.21556776439855471 -0.30681771465312918 0 -0.2010283209960598 -0.31430387777815338 0 -0.19276156070696371 -0.32835820138499783 0 -0.1806308451520055 -0.31798701463553081 0 -0.20738224527577701 -0.32876613242421571 0 -0.2010283209960598 -0.31430387777815338 0 -0.19276156070696371 -0.32835820138499783 0 -0.2031536467669835 -0.33899966133179038 0 -0.19276156070696371 -0.32835820138499783 0 -0.1914579785892255 -0.35285261525372741 0 -0.20738224527577701 -0.32876613242421571 0 -0.2031536467669835 -0.33899966133179038 0 -0.19276156070696371 -0.32835820138499783 0 -0.2031536467669835 -0.33899966133179038 0 -0.1914579785892255 -0.35285261525372741 0 -0.2100829320186002 -0.3522240458110194 0 -0.1914579785892255 -0.35285261525372741 0 -0.20385425482033731 -0.36733115229323737 0 -0.2100829320186002 -0.3522240458110194 0 -0.18687307669621139 -0.37625738481376392 0 -0.1914579785892255 -0.35285261525372741 0 -0.20385425482033731 -0.36733115229323737 0 -0.21640361343447309 -0.38236890800932138 0 -0.21984680958951611 -0.36469159831064218 0 -0.20385425482033731 -0.36733115229323737 0 -0.21984680958951611 -0.36469159831064218 0 -0.20385425482033731 -0.36733115229323737 0 -0.2100829320186002 -0.3522240458110194 0 -0.21984680958951611 -0.36469159831064218 0 -0.2251617862106341 -0.34702438074185449 0 -0.2100829320186002 -0.3522240458110194 0 -0.2251617862106341 -0.34702438074185449 0 -0.21665142924972899 -0.33796484525241821 0 -0.2100829320186002 -0.3522240458110194 0 -0.22266169715777201 -0.25375765599846162 0 -0.234639290159884 -0.26685958449240138 0 -0.2214962352675125 -0.27602291290179898 0 -0.25331903158984048 -0.26654067686892091 0 -0.234639290159884 -0.26685958449240138 0 -0.24613954941868271 -0.24181674091805319 0 -0.22266169715777201 -0.25375765599846162 0 -0.234639290159884 -0.26685958449240138 0 -0.24613954941868271 -0.24181674091805319 0 -0.25494575038128747 -0.28739440028075108 0 -0.25331903158984048 -0.26654067686892091 0 -0.23762053656533749 -0.28089839982001941 0 -0.25331903158984048 -0.26654067686892091 0 -0.234639290159884 -0.26685958449240138 0 -0.23762053656533749 -0.28089839982001941 0 -0.234639290159884 -0.26685958449240138 0 -0.23762053656533749 -0.28089839982001941 0 -0.2214962352675125 -0.27602291290179898 0 -0.23762053656533749 -0.28089839982001941 0 -0.2214962352675125 -0.27602291290179898 0 -0.22197836937924759 -0.29133612555308452 0 -0.23762053656533749 -0.28089839982001941 0 -0.22197836937924759 -0.29133612555308452 0 -0.23934454261425289 -0.29723669882315978 0 -0.25338274497423868 -0.30402952519475901 0 -0.25494575038128747 -0.28739440028075108 0 -0.23934454261425289 -0.29723669882315978 0 -0.25494575038128747 -0.28739440028075108 0 -0.23762053656533749 -0.28089839982001941 0 -0.23934454261425289 -0.29723669882315978 0 -0.25338274497423868 -0.30402952519475901 0 -0.24987039731162189 -0.31856047622257549 0 -0.23559999063710221 -0.31274167965208233 0 -0.25338274497423868 -0.30402952519475901 0 -0.23559999063710221 -0.31274167965208233 0 -0.23934454261425289 -0.29723669882315978 0 -0.23559999063710221 -0.31274167965208233 0 -0.2214482759290555 -0.31382357050766091 0 -0.22491134322657549 -0.30446931540022643 0 -0.22197836937924759 -0.29133612555308452 0 -0.23934454261425289 -0.29723669882315978 0 -0.22491134322657549 -0.30446931540022643 0 -0.23559999063710221 -0.31274167965208233 0 -0.23934454261425289 -0.29723669882315978 0 -0.22491134322657549 -0.30446931540022643 0 -0.22197836937924759 -0.29133612555308452 0 -0.22491134322657549 -0.30446931540022643 0 -0.21723332506015869 -0.29973632662101379 0 -0.22491134322657549 -0.30446931540022643 0 -0.21556776439855471 -0.30681771465312918 0 -0.21723332506015869 -0.29973632662101379 0 -0.2214482759290555 -0.31382357050766091 0 -0.22491134322657549 -0.30446931540022643 0 -0.21556776439855471 -0.30681771465312918 0 -0.20950693229181139 -0.31728332741617332 0 -0.2010283209960598 -0.31430387777815338 0 -0.20821270098734149 -0.2938682684346583 0 -0.20950693229181139 -0.31728332741617332 0 -0.21556776439855471 -0.30681771465312918 0 -0.20821270098734149 -0.2938682684346583 0 -0.20950693229181139 -0.31728332741617332 0 -0.20821270098734149 -0.2938682684346583 0 -0.21556776439855471 -0.30681771465312918 0 -0.21723332506015869 -0.29973632662101379 0 -0.20821270098734149 -0.2938682684346583 0 -0.2010283209960598 -0.31430387777815338 0 -0.20821270098734149 -0.2938682684346583 0 -0.18447403556240791 -0.29823490657837509 0 -0.2010283209960598 -0.31430387777815338 0 -0.18447403556240791 -0.29823490657837509 0 -0.1806308451520055 -0.31798701463553081 0 -0.19013203428983749 -0.28232902972422041 0 -0.20821270098734149 -0.2938682684346583 0 -0.18447403556240791 -0.29823490657837509 0 -0.19013203428983749 -0.28232902972422041 0 -0.20821270098734149 -0.2938682684346583 0 -0.2069589773221627 -0.27118606822416419 0 -0.20821270098734149 -0.2938682684346583 0 -0.18447403556240791 -0.29823490657837509 0 -0.20821270098734149 -0.2938682684346583 0 -0.2069589773221627 -0.27118606822416419 0 -0.2214962352675125 -0.27602291290179898 0 -0.22197836937924759 -0.29133612555308452 0 -0.20821270098734149 -0.2938682684346583 0 -0.22197836937924759 -0.29133612555308452 0 -0.20821270098734149 -0.2938682684346583 0 -0.22197836937924759 -0.29133612555308452 0 -0.21723332506015869 -0.29973632662101379 0 -0.20821270098734149 -0.2938682684346583 0 -0.22266169715777201 -0.25375765599846162 0 -0.2214962352675125 -0.27602291290179898 0 -0.2069589773221627 -0.27118606822416419 0 -0.2214962352675125 -0.27602291290179898 0 -0.20821270098734149 -0.2938682684346583 0 -0.2069589773221627 -0.27118606822416419 0 -0.19013203428983749 -0.28232902972422041 0 -0.2069589773221627 -0.27118606822416419 0 -0.18938613547542621 -0.26491558219404021 0 -0.2069589773221627 -0.27118606822416419 0 -0.18938613547542621 -0.26491558219404021 0 -0.205705253656984 -0.24850386801367019 0 -0.18938613547542621 -0.26491558219404021 0 -0.18478090970842381 -0.24771052407825739 0 -0.205705253656984 -0.24850386801367019 0 -0.22266169715777201 -0.25375765599846162 0 -0.2069589773221627 -0.27118606822416419 0 -0.205705253656984 -0.24850386801367019 0 -0.2069589773221627 -0.27118606822416419 0 -0.205705253656984 -0.24850386801367019 0 -0.17271997040605941 -0.25860282223408909 0 -0.14493050638948829 -0.26630168056274722 0 -0.16393078608286479 -0.24650562829992281 0 -0.18938613547542621 -0.26491558219404021 0 -0.17271997040605941 -0.25860282223408909 0 -0.18478090970842381 -0.24771052407825739 0 -0.17271997040605941 -0.25860282223408909 0 -0.18478090970842381 -0.24771052407825739 0 -0.16393078608286479 -0.24650562829992281 0 -0.18938613547542621 -0.26491558219404021 0 -0.17271997040605941 -0.25860282223408909 0 -0.1717438078736806 -0.27372778139252341 0 -0.19013203428983749 -0.28232902972422041 0 -0.18938613547542621 -0.26491558219404021 0 -0.1717438078736806 -0.27372778139252341 0 -0.17271997040605941 -0.25860282223408909 0 -0.1717438078736806 -0.27372778139252341 0 -0.14493050638948829 -0.26630168056274722 0 -0.1705569048240628 -0.2892856356360769 0 -0.1607353701374741 -0.30260154472209078 0 -0.15181558677222631 -0.28749709300080267 0 -0.1717438078736806 -0.27372778139252341 0 -0.1705569048240628 -0.2892856356360769 0 -0.15181558677222631 -0.28749709300080267 0 -0.1705569048240628 -0.2892856356360769 0 -0.18447403556240791 -0.29823490657837509 0 -0.1607353701374741 -0.30260154472209078 0 -0.19013203428983749 -0.28232902972422041 0 -0.1705569048240628 -0.2892856356360769 0 -0.18447403556240791 -0.29823490657837509 0 -0.19013203428983749 -0.28232902972422041 0 -0.1717438078736806 -0.27372778139252341 0 -0.1705569048240628 -0.2892856356360769 0 -0.18447403556240791 -0.29823490657837509 0 -0.1607353701374741 -0.30260154472209078 0 -0.18447403556240791 -0.29823490657837509 0 -0.1607353701374741 -0.30260154472209078 0 -0.1806308451520055 -0.31798701463553081 0 -0.1607353701374741 -0.30260154472209078 0 -0.1369967047125403 -0.3069681828658064 0 -0.1607353701374741 -0.30260154472209078 0 -0.1369967047125403 -0.3069681828658064 0 -0.15464384642047599 -0.32756111071048222 0 -0.1607353701374741 -0.30260154472209078 0 -0.1369967047125403 -0.3069681828658064 0 -0.15181558677222631 -0.28749709300080267 0 -0.1369967047125403 -0.3069681828658064 0 -0.1132580392876066 -0.31133482100952209 0 -0.1369967047125403 -0.3069681828658064 0 -0.12593022669611181 -0.28609773282557149 0 -0.15181558677222631 -0.28749709300080267 0 -0.1717438078736806 -0.27372778139252341 0 -0.15181558677222631 -0.28749709300080267 0 -0.14493050638948829 -0.26630168056274722 0 -0.12593022669611181 -0.28609773282557149 0 -0.15181558677222631 -0.28749709300080267 0 -0.14493050638948829 -0.26630168056274722 0 -0.12593022669611181 -0.28609773282557149 0 -0.14493050638948829 -0.26630168056274722 0 -0.12593022669611181 -0.28609773282557149 0 -0.14493050638948829 -0.26630168056274722 0 -0.12492952334576481 -0.25997552798718271 0 -0.14493050638948829 -0.26630168056274722 0 -0.12492952334576481 -0.25997552798718271 0 -0.13882735349323549 -0.24106164698828261 0 -0.14493050638948829 -0.26630168056274722 0 -0.13882735349323549 -0.24106164698828261 0 -0.16393078608286479 -0.24650562829992281 0 -0.14493050638948829 -0.26630168056274722 0 -0.16393078608286479 -0.24650562829992281 0 -0.16921876449597301 -0.36874983539798761 0 -0.17492480482398931 -0.34336842501675918 0 -0.15231981834487929 -0.35550222076113519 0 -0.18687307669621139 -0.37625738481376392 0 -0.1914579785892255 -0.35285261525372741 0 -0.16921876449597301 -0.36874983539798761 0 -0.1914579785892255 -0.35285261525372741 0 -0.16921876449597301 -0.36874983539798761 0 -0.17492480482398931 -0.34336842501675918 0 -0.16921876449597301 -0.36874983539798761 0 -0.17492480482398931 -0.34336842501675918 0 -0.17492480482398931 -0.34336842501675918 0 -0.1806308451520055 -0.31798701463553081 0 -0.19276156070696371 -0.32835820138499783 0 -0.1914579785892255 -0.35285261525372741 0 -0.17492480482398931 -0.34336842501675918 0 -0.19276156070696371 -0.32835820138499783 0 -0.17492480482398931 -0.34336842501675918 0 -0.1806308451520055 -0.31798701463553081 0 -0.1607353701374741 -0.30260154472209078 0 -0.1806308451520055 -0.31798701463553081 0 -0.15464384642047599 -0.32756111071048222 0 -0.17492480482398931 -0.34336842501675918 0 -0.15464384642047599 -0.32756111071048222 0 -0.15231981834487929 -0.35550222076113519 0 -0.17492480482398931 -0.34336842501675918 0 -0.1806308451520055 -0.31798701463553081 0 -0.15464384642047599 -0.32756111071048222 0 -0.15464384642047599 -0.32756111071048222 0 -0.13998932138980319 -0.3413301938462574 0 -0.15231981834487929 -0.35550222076113519 0 -0.1369967047125403 -0.3069681828658064 0 -0.1260744971528088 -0.32706170138448148 0 -0.1132580392876066 -0.31133482100952209 0 -0.1369967047125403 -0.3069681828658064 0 -0.15464384642047599 -0.32756111071048222 0 -0.1260744971528088 -0.32706170138448148 0 -0.1260744971528088 -0.32706170138448148 0 -0.13998932138980319 -0.3413301938462574 0 -0.1252766957454349 -0.35068478538797659 0 -0.15464384642047599 -0.32756111071048222 0 -0.1260744971528088 -0.32706170138448148 0 -0.13998932138980319 -0.3413301938462574 0 -0.13998932138980319 -0.3413301938462574 0 -0.1252766957454349 -0.35068478538797659 0 -0.15231981834487929 -0.35550222076113519 0 -0.16921876449597301 -0.36874983539798761 0 -0.15231981834487929 -0.35550222076113519 0 -0.1415333796211557 -0.37362514247251549 0 -0.1252766957454349 -0.35068478538797659 0 -0.15231981834487929 -0.35550222076113519 0 -0.1415333796211557 -0.37362514247251549 0 -0.1252766957454349 -0.35068478538797659 0 -0.1415333796211557 -0.37362514247251549 0 -0.11442742970972029 -0.36617419393313738 0 -0.11442742970972029 -0.36617419393313738 0 -0.097527147386595348 -0.36839789869716788 0 -0.10381373531126779 -0.35396695505140119 0 -0.11442742970972029 -0.36617419393313738 0 -0.097527147386595348 -0.36839789869716788 0 -0.1125719657568152 -0.38622125221252918 0 -0.097527147386595348 -0.36839789869716788 0 -0.10381373531126779 -0.35396695505140119 0 -0.087771593061373929 -0.35604466098191367 0 -0.10381373531126779 -0.35396695505140119 0 -0.089782955189929778 -0.34050716226066008 0 -0.087771593061373929 -0.35604466098191367 0 -0.10381373531126779 -0.35396695505140119 0 -0.1095599402302936 -0.33884583343532809 0 -0.089782955189929778 -0.34050716226066008 0 -0.1252766957454349 -0.35068478538797659 0 -0.11442742970972029 -0.36617419393313738 0 -0.10381373531126779 -0.35396695505140119 0 -0.1252766957454349 -0.35068478538797659 0 -0.10381373531126779 -0.35396695505140119 0 -0.1095599402302936 -0.33884583343532809 0 -0.1260744971528088 -0.32706170138448148 0 -0.1252766957454349 -0.35068478538797659 0 -0.1095599402302936 -0.33884583343532809 0 -0.1260744971528088 -0.32706170138448148 0 -0.1095599402302936 -0.33884583343532809 0 -0.1132580392876066 -0.31133482100952209 0 -0.097636375651863894 -0.32512612961633569 0 -0.1132580392876066 -0.31133482100952209 0 -0.093626002893408972 -0.3085445723053884 0 -0.1095599402302936 -0.33884583343532809 0 -0.097636375651863894 -0.32512612961633569 0 -0.1132580392876066 -0.31133482100952209 0 -0.1095599402302936 -0.33884583343532809 0 -0.097636375651863894 -0.32512612961633569 0 -0.089782955189929778 -0.34050716226066008 0 -0.097636375651863894 -0.32512612961633569 0 -0.089782955189929778 -0.34050716226066008 0 -0.081954940658080608 -0.32639825907078007 0 -0.089782955189929778 -0.34050716226066008 0 -0.081954940658080608 -0.32639825907078007 0 -0.071890072988796475 -0.34360339679059188 0 -0.081954940658080608 -0.32639825907078007 0 -0.093626002893408972 -0.3085445723053884 0 -0.077054939709608028 -0.31097516285842303 0 -0.097636375651863894 -0.32512612961633569 0 -0.081954940658080608 -0.32639825907078007 0 -0.093626002893408972 -0.3085445723053884 0 -0.06825636370030376 -0.32266213876380317 0 -0.077054939709608028 -0.31097516285842303 0 -0.061262130124499208 -0.31287758791893211 0 -0.081954940658080608 -0.32639825907078007 0 -0.06825636370030376 -0.32266213876380317 0 -0.077054939709608028 -0.31097516285842303 0 -0.081954940658080608 -0.32639825907078007 0 -0.06825636370030376 -0.32266213876380317 0 -0.071890072988796475 -0.34360339679059188 0 -0.06825636370030376 -0.32266213876380317 0 -0.071890072988796475 -0.34360339679059188 0 -0.058304390987518523 -0.32941602488016353 0 -0.071890072988796475 -0.34360339679059188 0 -0.075376210553919909 -0.36575283847360063 0 -0.059777420490438188 -0.36147304631292282 0 -0.075376210553919909 -0.36575283847360063 0 -0.057884441907496448 -0.37492017849484832 0 -0.059777420490438188 -0.36147304631292282 0 -0.075376210553919909 -0.36575283847360063 0 -0.057884441907496448 -0.37492017849484832 0 -0.069672178880008651 -0.38378204106478808 0 -0.097527147386595348 -0.36839789869716788 0 -0.075376210553919909 -0.36575283847360063 0 -0.092004184538285377 -0.38560376656045381 0 -0.097527147386595348 -0.36839789869716788 0 -0.075376210553919909 -0.36575283847360063 0 -0.087771593061373929 -0.35604466098191367 0 -0.089782955189929778 -0.34050716226066008 0 -0.071890072988796475 -0.34360339679059188 0 -0.087771593061373929 -0.35604466098191367 0 -0.071890072988796475 -0.34360339679059188 0 -0.075376210553919909 -0.36575283847360063 0 -0.087771593061373929 -0.35604466098191367 0 -0.097913528590199625 -0.26357797666139088 0 -0.10878086241107481 -0.25345300724896019 0 -0.1110185166179951 -0.27406252195247749 0 -0.096802277181896712 -0.25047269806465983 0 -0.097913528590199625 -0.26357797666139088 0 -0.10878086241107481 -0.25345300724896019 0 -0.10878086241107481 -0.25345300724896019 0 -0.12492952334576481 -0.25997552798718271 0 -0.1171341615731636 -0.23838965339439949 0 -0.10878086241107481 -0.25345300724896019 0 -0.12492952334576481 -0.25997552798718271 0 -0.1110185166179951 -0.27406252195247749 0 -0.12593022669611181 -0.28609773282557149 0 -0.12492952334576481 -0.25997552798718271 0 -0.1110185166179951 -0.27406252195247749 0 -0.097913528590199625 -0.26357797666139088 0 -0.1110185166179951 -0.27406252195247749 0 -0.096610022070478821 -0.28639446296027732 0 -0.097913528590199625 -0.26357797666139088 0 -0.096610022070478821 -0.28639446296027732 0 -0.086825364573089703 -0.27178785321556143 0 -0.096610022070478821 -0.28639446296027732 0 -0.11194693659434091 -0.29487642403148268 0 -0.093626002893408972 -0.3085445723053884 0 -0.1110185166179951 -0.27406252195247749 0 -0.096610022070478821 -0.28639446296027732 0 -0.11194693659434091 -0.29487642403148268 0 -0.1369967047125403 -0.3069681828658064 0 -0.12593022669611181 -0.28609773282557149 0 -0.11194693659434091 -0.29487642403148268 0 -0.12593022669611181 -0.28609773282557149 0 -0.1110185166179951 -0.27406252195247749 0 -0.11194693659434091 -0.29487642403148268 0 -0.1369967047125403 -0.3069681828658064 0 -0.11194693659434091 -0.29487642403148268 0 -0.1132580392876066 -0.31133482100952209 0 -0.11194693659434091 -0.29487642403148268 0 -0.1132580392876066 -0.31133482100952209 0 -0.093626002893408972 -0.3085445723053884 0 -0.093626002893408972 -0.3085445723053884 0 -0.08405000884571931 -0.29770540631374581 0 -0.077054939709608028 -0.31097516285842303 0 -0.096610022070478821 -0.28639446296027732 0 -0.093626002893408972 -0.3085445723053884 0 -0.08405000884571931 -0.29770540631374581 0 -0.077054939709608028 -0.31097516285842303 0 -0.071771103458559915 -0.29866424303450489 0 -0.061262130124499208 -0.31287758791893211 0 -0.071771103458559915 -0.29866424303450489 0 -0.058232004970390008 -0.3000107243015912 0 -0.061262130124499208 -0.31287758791893211 0 -0.08405000884571931 -0.29770540631374581 0 -0.077054939709608028 -0.31097516285842303 0 -0.071771103458559915 -0.29866424303450489 0 -0.071771103458559915 -0.29866424303450489 0 -0.067341161350629328 -0.28471258953172962 0 -0.081187976096540826 -0.28394859041013509 0 -0.071771103458559915 -0.29866424303450489 0 -0.067341161350629328 -0.28471258953172962 0 -0.058232004970390008 -0.3000107243015912 0 -0.08405000884571931 -0.29770540631374581 0 -0.071771103458559915 -0.29866424303450489 0 -0.081187976096540826 -0.28394859041013509 0 -0.096610022070478821 -0.28639446296027732 0 -0.08405000884571931 -0.29770540631374581 0 -0.081187976096540826 -0.28394859041013509 0 -0.096610022070478821 -0.28639446296027732 0 -0.081187976096540826 -0.28394859041013509 0 -0.086825364573089703 -0.27178785321556143 0 -0.081187976096540826 -0.28394859041013509 0 -0.086825364573089703 -0.27178785321556143 0 -0.074951937629960552 -0.26933132071378812 0 -0.067341161350629328 -0.28471258953172962 0 -0.081187976096540826 -0.28394859041013509 0 -0.074951937629960552 -0.26933132071378812 0 -0.074951937629960552 -0.26933132071378812 0 -0.063837354597986048 -0.25516887162990298 0 -0.062354096676522613 -0.27253482554208441 0 -0.067341161350629328 -0.28471258953172962 0 -0.074951937629960552 -0.26933132071378812 0 -0.062354096676522613 -0.27253482554208441 0 -0.063837354597986048 -0.25516887162990298 0 -0.083463358478268676 -0.25568691533221571 0 -0.073645866817058162 -0.24170425137741011 0 -0.074951937629960552 -0.26933132071378812 0 -0.063837354597986048 -0.25516887162990298 0 -0.083463358478268676 -0.25568691533221571 0 -0.086825364573089703 -0.27178785321556143 0 -0.074951937629960552 -0.26933132071378812 0 -0.083463358478268676 -0.25568691533221571 0 -0.097913528590199625 -0.26357797666139088 0 -0.086825364573089703 -0.27178785321556143 0 -0.083463358478268676 -0.25568691533221571 0 -0.096802277181896712 -0.25047269806465983 0 -0.097913528590199625 -0.26357797666139088 0 -0.083463358478268676 -0.25568691533221571 0 -0.033931419553162992 -0.25243443967869411 0 -0.040355687393542339 -0.26545751599264228 0 -0.024496784770800691 -0.26545238102148061 0 -0.033931419553162992 -0.25243443967869411 0 -0.0479699143464224 -0.25594123721609341 0 -0.049807630765952113 -0.24433781378872521 0 -0.033931419553162992 -0.25243443967869411 0 -0.040355687393542339 -0.26545751599264228 0 -0.0479699143464224 -0.25594123721609341 0 -0.063837354597986048 -0.25516887162990298 0 -0.053018835755254082 -0.26543439994687451 0 -0.062354096676522613 -0.27253482554208441 0 -0.063837354597986048 -0.25516887162990298 0 -0.0479699143464224 -0.25594123721609341 0 -0.053018835755254082 -0.26543439994687451 0 -0.063837354597986048 -0.25516887162990298 0 -0.0479699143464224 -0.25594123721609341 0 -0.049807630765952113 -0.24433781378872521 0 -0.040355687393542339 -0.26545751599264228 0 -0.0479699143464224 -0.25594123721609341 0 -0.053018835755254082 -0.26543439994687451 0 -0.053018835755254082 -0.26543439994687451 0 -0.062354096676522613 -0.27253482554208441 0 -0.046041491585377542 -0.27638873221117288 0 -0.062354096676522613 -0.27253482554208441 0 -0.046041491585377542 -0.27638873221117288 0 -0.053131041592113112 -0.28744462798575571 0 -0.040355687393542339 -0.26545751599264228 0 -0.033599092354777427 -0.27747810350666979 0 -0.024496784770800691 -0.26545238102148061 0 -0.040355687393542339 -0.26545751599264228 0 -0.046041491585377542 -0.27638873221117288 0 -0.033599092354777427 -0.27747810350666979 0 -0.040355687393542339 -0.26545751599264228 0 -0.053018835755254082 -0.26543439994687451 0 -0.046041491585377542 -0.27638873221117288 0 -0.033599092354777427 -0.27747810350666979 0 -0.039302231122222447 -0.29006283646456832 0 -0.029518747989731892 -0.28708597692186161 0 -0.039302231122222447 -0.29006283646456832 0 -0.04549500361592717 -0.29998880776752651 0 -0.031785220204890142 -0.30012966687057469 0 -0.039302231122222447 -0.29006283646456832 0 -0.031785220204890142 -0.30012966687057469 0 -0.029518747989731892 -0.28708597692186161 0 -0.039302231122222447 -0.29006283646456832 0 -0.053131041592113112 -0.28744462798575571 0 -0.04549500361592717 -0.29998880776752651 0 -0.046041491585377542 -0.27638873221117288 0 -0.039302231122222447 -0.29006283646456832 0 -0.053131041592113112 -0.28744462798575571 0 -0.046041491585377542 -0.27638873221117288 0 -0.033599092354777427 -0.27747810350666979 0 -0.039302231122222447 -0.29006283646456832 0 -0.067341161350629328 -0.28471258953172962 0 -0.062354096676522613 -0.27253482554208441 0 -0.053131041592113112 -0.28744462798575571 0 -0.067341161350629328 -0.28471258953172962 0 -0.053131041592113112 -0.28744462798575571 0 -0.058232004970390008 -0.3000107243015912 0 -0.053131041592113112 -0.28744462798575571 0 -0.058232004970390008 -0.3000107243015912 0 -0.04549500361592717 -0.29998880776752651 0 -0.058232004970390008 -0.3000107243015912 0 -0.04549500361592717 -0.29998880776752651 0 -0.046451624885272928 -0.31292460837073771 0 -0.058232004970390008 -0.3000107243015912 0 -0.061262130124499208 -0.31287758791893211 0 -0.046451624885272928 -0.31292460837073771 0 -0.04549500361592717 -0.29998880776752651 0 -0.038279652417818888 -0.30739685680095391 0 -0.046451624885272928 -0.31292460837073771 0 -0.04549500361592717 -0.29998880776752651 0 -0.031785220204890142 -0.30012966687057469 0 -0.038279652417818888 -0.30739685680095391 0 -0.031785220204890142 -0.30012966687057469 0 -0.038279652417818888 -0.30739685680095391 0 -0.031389584557428948 -0.31290931140041223 0 -0.031785220204890142 -0.30012966687057469 0 -0.024953760930732909 -0.30748789046258379 0 -0.031389584557428948 -0.31290931140041223 0 -0.031785220204890142 -0.30012966687057469 0 -0.02006905777324075 -0.30160194142255531 0 -0.023750172863124159 -0.29421333752260531 0 -0.031785220204890142 -0.30012966687057469 0 -0.024953760930732909 -0.30748789046258379 0 -0.02006905777324075 -0.30160194142255531 0 -0.02006905777324075 -0.30160194142255531 0 -0.01466638490223281 -0.29658526055596968 0 -0.023750172863124159 -0.29421333752260531 0 -0.02006905777324075 -0.30160194142255531 0 -0.018464604443252559 -0.31233182418412331 0 -0.01132255391880823 -0.30560022420624389 0 -0.024953760930732909 -0.30748789046258379 0 -0.02006905777324075 -0.30160194142255531 0 -0.018464604443252559 -0.31233182418412331 0 -0.018464604443252559 -0.31233182418412331 0 -0.01132255391880823 -0.30560022420624389 0 -0.01055452582461943 -0.31590966665787001 0 -0.01132255391880823 -0.30560022420624389 0 -0.0034640868095865982 -0.31060087838599021 0 -0.01055452582461943 -0.31590966665787001 0 -0.01132255391880823 -0.30560022420624389 0 -0.0034640868095865982 -0.31060087838599021 0 -0.0034232451820304941 -0.30331653818697141 0 -0.0034640868095865982 -0.31060087838599021 0 -0.0034232451820304941 -0.30331653818697141 0 0.0010257972367942951 -0.30443570348051402 0 -0.0034640868095865982 -0.31060087838599021 0 0.00229542296049295 -0.31122964705265632 0 0.0010257972367942951 -0.30443570348051402 0 -0.01132255391880823 -0.30560022420624389 0 -0.0034232451820304941 -0.30331653818697141 0 -0.0081106099153279848 -0.29919863257814872 0 -0.0021474977539600809 -0.29714664822596559 0 -0.0034232451820304941 -0.30331653818697141 0 -0.0001018891203435732 -0.30094362704210798 0 -0.0034232451820304941 -0.30331653818697141 0 -0.0001018891203435732 -0.30094362704210798 0 0.0010257972367942951 -0.30443570348051402 0 -0.0021474977539600809 -0.29714664822596559 0 -0.0034232451820304941 -0.30331653818697141 0 -0.0081106099153279848 -0.29919863257814872 0 -0.01132255391880823 -0.30560022420624389 0 -0.0081106099153279848 -0.29919863257814872 0 -0.01466638490223281 -0.29658526055596968 0 -0.02006905777324075 -0.30160194142255531 0 -0.01132255391880823 -0.30560022420624389 0 -0.01466638490223281 -0.29658526055596968 0 -0.001934363279334723 -0.29061153365542308 0 -0.0087191888922782991 -0.28224006133233009 0 0.0071531630381951464 -0.28302568377767501 0 -0.01466638490223281 -0.29658526055596968 0 -0.0092336571537862903 -0.29168161589571229 0 -0.01804062767326561 -0.28853149607499767 0 -0.0081106099153279848 -0.29919863257814872 0 -0.01466638490223281 -0.29658526055596968 0 -0.0092336571537862903 -0.29168161589571229 0 -0.0021474977539600809 -0.29714664822596559 0 -0.001934363279334723 -0.29061153365542308 0 0.0039235629823402007 -0.29959465834849702 0 -0.0021474977539600809 -0.29714664822596559 0 -0.0081106099153279848 -0.29919863257814872 0 -0.0092336571537862903 -0.29168161589571229 0 -0.0021474977539600809 -0.29714664822596559 0 -0.0092336571537862903 -0.29168161589571229 0 -0.001934363279334723 -0.29061153365542308 0 -0.0092336571537862903 -0.29168161589571229 0 -0.001934363279334723 -0.29061153365542308 0 -0.0087191888922782991 -0.28224006133233009 0 -0.0092336571537862903 -0.29168161589571229 0 -0.0087191888922782991 -0.28224006133233009 0 -0.01804062767326561 -0.28853149607499767 0 -0.01804062767326561 -0.28853149607499767 0 -0.029518747989731892 -0.28708597692186161 0 -0.02117177046388647 -0.2803425829549539 0 -0.0087191888922782991 -0.28224006133233009 0 -0.01804062767326561 -0.28853149607499767 0 -0.02117177046388647 -0.2803425829549539 0 -0.01466638490223281 -0.29658526055596968 0 -0.01804062767326561 -0.28853149607499767 0 -0.023750172863124159 -0.29421333752260531 0 -0.031785220204890142 -0.30012966687057469 0 -0.023750172863124159 -0.29421333752260531 0 -0.029518747989731892 -0.28708597692186161 0 -0.01804062767326561 -0.28853149607499767 0 -0.023750172863124159 -0.29421333752260531 0 -0.029518747989731892 -0.28708597692186161 0 -0.033599092354777427 -0.27747810350666979 0 -0.029518747989731892 -0.28708597692186161 0 -0.02117177046388647 -0.2803425829549539 0 -0.033599092354777427 -0.27747810350666979 0 -0.02117177046388647 -0.2803425829549539 0 -0.024496784770800691 -0.26545238102148061 0 -0.01376838080126792 -0.27182322160885503 0 -0.0091696910790564305 -0.26246785701139191 0 -0.024496784770800691 -0.26545238102148061 0 -0.02117177046388647 -0.2803425829549539 0 -0.01376838080126792 -0.27182322160885503 0 -0.024496784770800691 -0.26545238102148061 0 -0.0087191888922782991 -0.28224006133233009 0 -0.0030813648392770988 -0.27223975344966711 0 -0.01376838080126792 -0.27182322160885503 0 -0.0087191888922782991 -0.28224006133233009 0 -0.0030813648392770988 -0.27223975344966711 0 0.0071531630381951464 -0.28302568377767501 0 -0.0030813648392770988 -0.27223975344966711 0 -0.0091696910790564305 -0.26246785701139191 0 0.0075336796531474334 -0.26372292552974141 0 -0.0087191888922782991 -0.28224006133233009 0 -0.02117177046388647 -0.2803425829549539 0 -0.01376838080126792 -0.27182322160885503 0 -0.0030813648392770988 -0.27223975344966711 0 -0.01376838080126792 -0.27182322160885503 0 -0.0091696910790564305 -0.26246785701139191 0 -0.0091696910790564305 -0.26246785701139191 0 -0.002950157048249026 -0.25282991239742242 0 0.0075336796531474334 -0.26372292552974141 0 -0.0091696910790564305 -0.26246785701139191 0 -0.002950157048249026 -0.25282991239742242 0 -0.016667998652543831 -0.2535907064639833 0 -0.033931419553162992 -0.25243443967869411 0 -0.016667998652543831 -0.2535907064639833 0 -0.024496784770800691 -0.26545238102148061 0 -0.0091696910790564305 -0.26246785701139191 0 -0.016667998652543831 -0.2535907064639833 0 -0.024496784770800691 -0.26545238102148061 0 -0.037474132798204621 -0.35332162499630598 0 -0.044253489425070222 -0.36807898565151542 0 -0.054281514083226991 -0.34729148282381339 0 -0.037474132798204621 -0.35332162499630598 0 -0.054281514083226991 -0.34729148282381339 0 -0.039311616741979381 -0.34019776531064289 0 -0.037474132798204621 -0.35332162499630598 0 -0.039311616741979381 -0.34019776531064289 0 -0.023588305220887611 -0.34910171688691488 0 -0.037474132798204621 -0.35332162499630598 0 -0.044253489425070222 -0.36807898565151542 0 -0.02593573851985892 -0.36193817430864322 0 -0.044253489425070222 -0.36807898565151542 0 -0.02872955835970244 -0.37468492499010853 0 -0.02593573851985892 -0.36193817430864322 0 -0.044253489425070222 -0.36807898565151542 0 -0.02872955835970244 -0.37468492499010853 0 -0.044253489425070222 -0.36807898565151542 0 -0.059777420490438188 -0.36147304631292282 0 -0.044253489425070222 -0.36807898565151542 0 -0.057884441907496448 -0.37492017849484832 0 -0.059777420490438188 -0.36147304631292282 0 -0.044253489425070222 -0.36807898565151542 0 -0.059777420490438188 -0.36147304631292282 0 -0.054281514083226991 -0.34729148282381339 0 -0.071890072988796475 -0.34360339679059188 0 -0.059777420490438188 -0.36147304631292282 0 -0.054281514083226991 -0.34729148282381339 0 -0.071890072988796475 -0.34360339679059188 0 -0.054281514083226991 -0.34729148282381339 0 -0.058304390987518523 -0.32941602488016353 0 -0.054281514083226991 -0.34729148282381339 0 -0.058304390987518523 -0.32941602488016353 0 -0.049154214821390617 -0.3360399027666644 0 -0.058304390987518523 -0.32941602488016353 0 -0.049154214821390617 -0.3360399027666644 0 -0.044719337472837621 -0.32725433805203791 0 -0.054281514083226991 -0.34729148282381339 0 -0.049154214821390617 -0.3360399027666644 0 -0.039311616741979381 -0.34019776531064289 0 -0.06825636370030376 -0.32266213876380317 0 -0.061262130124499208 -0.31287758791893211 0 -0.053581725618547883 -0.32043774983497852 0 -0.06825636370030376 -0.32266213876380317 0 -0.058304390987518523 -0.32941602488016353 0 -0.053581725618547883 -0.32043774983497852 0 -0.058304390987518523 -0.32941602488016353 0 -0.053581725618547883 -0.32043774983497852 0 -0.044719337472837621 -0.32725433805203791 0 -0.053581725618547883 -0.32043774983497852 0 -0.046451624885272928 -0.31292460837073771 0 -0.044719337472837621 -0.32725433805203791 0 -0.061262130124499208 -0.31287758791893211 0 -0.053581725618547883 -0.32043774983497852 0 -0.046451624885272928 -0.31292460837073771 0 -0.038279652417818888 -0.30739685680095391 0 -0.046451624885272928 -0.31292460837073771 0 -0.037749158146265338 -0.31869032214462051 0 -0.046451624885272928 -0.31292460837073771 0 -0.044719337472837621 -0.32725433805203791 0 -0.037749158146265338 -0.31869032214462051 0 -0.044719337472837621 -0.32725433805203791 0 -0.037749158146265338 -0.31869032214462051 0 -0.031077098774420581 -0.32548914904373139 0 -0.037749158146265338 -0.31869032214462051 0 -0.031389584557428948 -0.31290931140041223 0 -0.031077098774420581 -0.32548914904373139 0 -0.038279652417818888 -0.30739685680095391 0 -0.037749158146265338 -0.31869032214462051 0 -0.031389584557428948 -0.31290931140041223 0 -0.049154214821390617 -0.3360399027666644 0 -0.044719337472837621 -0.32725433805203791 0 -0.039311616741979381 -0.34019776531064289 0 -0.044719337472837621 -0.32725433805203791 0 -0.039311616741979381 -0.34019776531064289 0 -0.031077098774420581 -0.32548914904373139 0 -0.039311616741979381 -0.34019776531064289 0 -0.025950853777243821 -0.33685717584251917 0 -0.031077098774420581 -0.32548914904373139 0 -0.039311616741979381 -0.34019776531064289 0 -0.025950853777243821 -0.33685717584251917 0 -0.023588305220887611 -0.34910171688691488 0 -0.025950853777243821 -0.33685717584251917 0 -0.031077098774420581 -0.32548914904373139 0 -0.019151995326426152 -0.32383197416400522 0 -0.025950853777243821 -0.33685717584251917 0 -0.019151995326426152 -0.32383197416400522 0 -0.014029406448907419 -0.33411467320893617 0 -0.025950853777243821 -0.33685717584251917 0 -0.014029406448907419 -0.33411467320893617 0 -0.023588305220887611 -0.34910171688691488 0 -0.031389584557428948 -0.31290931140041223 0 -0.02480375262951845 -0.31831176930860838 0 -0.031077098774420581 -0.32548914904373139 0 -0.024953760930732909 -0.30748789046258379 0 -0.031389584557428948 -0.31290931140041223 0 -0.02480375262951845 -0.31831176930860838 0 -0.02480375262951845 -0.31831176930860838 0 -0.031077098774420581 -0.32548914904373139 0 -0.019151995326426152 -0.32383197416400522 0 -0.024953760930732909 -0.30748789046258379 0 -0.018464604443252559 -0.31233182418412331 0 -0.02480375262951845 -0.31831176930860838 0 -0.018464604443252559 -0.31233182418412331 0 -0.02480375262951845 -0.31831176930860838 0 -0.019151995326426152 -0.32383197416400522 0 -0.018464604443252559 -0.31233182418412331 0 -0.019151995326426152 -0.32383197416400522 0 -0.01055452582461943 -0.31590966665787001 0 -0.019151995326426152 -0.32383197416400522 0 -0.01055452582461943 -0.31590966665787001 0 -0.0086783628056537783 -0.32415273343016893 0 -0.019151995326426152 -0.32383197416400522 0 -0.0086783628056537783 -0.32415273343016893 0 -0.014029406448907419 -0.33411467320893617 0 -0.0086783628056537783 -0.32415273343016893 0 -0.0010326814487084379 -0.3197639796436984 0 -0.0032348283285651052 -0.33063069068097423 0 -0.01055452582461943 -0.31590966665787001 0 -0.0086783628056537783 -0.32415273343016893 0 -0.0010326814487084379 -0.3197639796436984 0 -0.0034640868095865982 -0.31060087838599021 0 -0.01055452582461943 -0.31590966665787001 0 -0.0010326814487084379 -0.3197639796436984 0 -0.0034640868095865982 -0.31060087838599021 0 -0.0010326814487084379 -0.3197639796436984 0 0.00229542296049295 -0.31122964705265632 0 -0.014029406448907419 -0.33411467320893617 0 -0.0067310561763213013 -0.34456988467537958 0 -0.023588305220887611 -0.34910171688691488 0 -0.014029406448907419 -0.33411467320893617 0 -0.0032348283285651052 -0.33063069068097423 0 -0.0067310561763213013 -0.34456988467537958 0 -0.0086783628056537783 -0.32415273343016893 0 -0.014029406448907419 -0.33411467320893617 0 -0.0032348283285651052 -0.33063069068097423 0 -0.0032348283285651052 -0.33063069068097423 0 -0.0067310561763213013 -0.34456988467537958 0 0.0061066593841971233 -0.33611247748115858 0 -0.0067310561763213013 -0.34456988467537958 0 -0.01147291546927998 -0.36358950995223982 0 0.005783727421145201 -0.35249409491437522 0 -0.0067310561763213013 -0.34456988467537958 0 -0.023588305220887611 -0.34910171688691488 0 -0.01147291546927998 -0.36358950995223982 0 -0.01147291546927998 -0.36358950995223982 0 0.005783727421145201 -0.35249409491437522 0 -0.023588305220887611 -0.34910171688691488 0 -0.02593573851985892 -0.36193817430864322 0 -0.01147291546927998 -0.36358950995223982 0 -0.037474132798204621 -0.35332162499630598 0 -0.023588305220887611 -0.34910171688691488 0 -0.02593573851985892 -0.36193817430864322 0 -0.02872955835970244 -0.37468492499010853 0 -0.01147291546927998 -0.36358950995223982 0 -0.02872955835970244 -0.37468492499010853 0 -0.02593573851985892 -0.36193817430864322 0 -0.01147291546927998 -0.36358950995223982 0 -0.02872955835970244 -0.37468492499010853 0 -0.01147291546927998 -0.36358950995223982 0 -0.0064145476522704794 -0.37079448180321728 0 -0.01147291546927998 -0.36358950995223982 0 -0.0064145476522704794 -0.37079448180321728 0 0.005783727421145201 -0.35249409491437522 0 -0.0064145476522704794 -0.37079448180321728 0 -0.0013738327214499069 -0.37718743810894501 0 0.0023036431624136882 -0.37201589625552062 0 -0.0013738327214499069 -0.37718743810894501 0 -0.0091041324141213614 -0.38303618426487851 0 0.003469052552645202 -0.38272666565252927 0 -0.02872955835970244 -0.37468492499010853 0 -0.0064145476522704794 -0.37079448180321728 0 -0.0091041324141213614 -0.38303618426487851 0 -0.0091041324141213614 -0.38303618426487851 0 -0.0052600663956949281 -0.39665458557681388 0 0.01052129353145956 -0.39138744353964888 0 -0.0064145476522704794 -0.37079448180321728 0 -0.0013738327214499069 -0.37718743810894501 0 -0.0091041324141213614 -0.38303618426487851 0 -0.0052600663956949281 -0.39665458557681388 0 -0.026398809331575651 -0.39644314001879177 0 -0.01074906716519978 -0.4088580781313354 0 -0.0091041324141213614 -0.38303618426487851 0 -0.0052600663956949281 -0.39665458557681388 0 -0.026398809331575651 -0.39644314001879177 0 -0.0052600663956949281 -0.39665458557681388 0 -0.01074906716519978 -0.4088580781313354 0 0.0041565920089453659 -0.40677442097444511 0 -0.02872955835970244 -0.37468492499010853 0 -0.0091041324141213614 -0.38303618426487851 0 -0.02872955835970244 -0.37468492499010853 0 -0.0091041324141213614 -0.38303618426487851 0 -0.026398809331575651 -0.39644314001879177 0 -0.044253489425070222 -0.36807898565151542 0 -0.02872955835970244 -0.37468492499010853 0 -0.051149918808476837 -0.3891004289822475 0 -0.02872955835970244 -0.37468492499010853 0 -0.051149918808476837 -0.3891004289822475 0 -0.02872955835970244 -0.37468492499010853 0 -0.026398809331575651 -0.39644314001879177 0 -0.051149918808476837 -0.3891004289822475 0 -0.026398809331575651 -0.39644314001879177 0 -0.051149918808476837 -0.3891004289822475 0 -0.055272657265987263 -0.40733124331174242 0 -0.051149918808476837 -0.3891004289822475 0 -0.073570279257251486 -0.40351593297438593 0 -0.051149918808476837 -0.3891004289822475 0 -0.055272657265987263 -0.40733124331174242 0 -0.073570279257251486 -0.40351593297438593 0 -0.044253489425070222 -0.36807898565151542 0 -0.057884441907496448 -0.37492017849484832 0 -0.051149918808476837 -0.3891004289822475 0 -0.057884441907496448 -0.37492017849484832 0 -0.051149918808476837 -0.3891004289822475 0 -0.069672178880008651 -0.38378204106478808 0 -0.05147194147581112 -0.43651553784270181 0 -0.04258790860908164 -0.42105919709286671 0 -0.070346077472481658 -0.4226880616113004 0 -0.055272657265987263 -0.40733124331174242 0 -0.04258790860908164 -0.42105919709286671 0 -0.070346077472481658 -0.4226880616113004 0 -0.026398809331575651 -0.39644314001879177 0 -0.055272657265987263 -0.40733124331174242 0 -0.04258790860908164 -0.42105919709286671 0 -0.04258790860908164 -0.42105919709286671 0 -0.035977082160774269 -0.43520867470807573 0 -0.022887918124319132 -0.42256777897096542 0 -0.05147194147581112 -0.43651553784270181 0 -0.04258790860908164 -0.42105919709286671 0 -0.035977082160774269 -0.43520867470807573 0 -0.022887918124319132 -0.42256777897096542 0 -0.0077384208787153784 -0.42454613935415131 0 -0.01907266337142445 -0.44162376069801029 0 -0.035977082160774269 -0.43520867470807573 0 -0.022887918124319132 -0.42256777897096542 0 -0.01907266337142445 -0.44162376069801029 0 -0.026398809331575651 -0.39644314001879177 0 -0.022887918124319132 -0.42256777897096542 0 -0.01074906716519978 -0.4088580781313354 0 -0.026398809331575651 -0.39644314001879177 0 -0.04258790860908164 -0.42105919709286671 0 -0.022887918124319132 -0.42256777897096542 0 -0.022887918124319132 -0.42256777897096542 0 -0.01074906716519978 -0.4088580781313354 0 -0.0077384208787153784 -0.42454613935415131 0 -0.01074906716519978 -0.4088580781313354 0 -0.0077384208787153784 -0.42454613935415131 0 0.0041565920089453659 -0.40677442097444511 0 -0.0077384208787153784 -0.42454613935415131 0 -0.01907266337142445 -0.44162376069801029 0 0.0061123916992451011 -0.43099409775433761 0 -0.01907266337142445 -0.44162376069801029 0 0.0061123916992451011 -0.43099409775433761 0 -0.0060416623437871027 -0.44784308303042869 0 -0.01907266337142445 -0.44162376069801029 0 0.0061123916992451011 -0.43099409775433761 0 -0.0060416623437871027 -0.44784308303042869 0 -0.0157286939033803 -0.45372763512147463 0 -0.01907266337142445 -0.44162376069801029 0 -0.0060416623437871027 -0.44784308303042869 0 -0.0043557217703525178 -0.459051300468168 0 0.0062368346562517631 -0.44763810525095771 0 -0.0043557217703525178 -0.459051300468168 0 -0.0157286939033803 -0.45372763512147463 0 -0.02580965427476218 -0.46121496748038709 0 -0.0043557217703525178 -0.459051300468168 0 -0.02580965427476218 -0.46121496748038709 0 -0.0049689105650129184 -0.47133880685411028 0 -0.02580965427476218 -0.46121496748038709 0 -0.0049689105650129184 -0.47133880685411028 0 -0.0043557217703525178 -0.459051300468168 0 -0.02580965427476218 -0.46121496748038709 0 -0.0043557217703525178 -0.459051300468168 0 -0.0049689105650129184 -0.47133880685411028 0 0.0068738434278103333 -0.46757890054221152 0 -0.0060416623437871027 -0.44784308303042869 0 -0.0043557217703525178 -0.459051300468168 0 -0.0157286939033803 -0.45372763512147463 0 -0.02580965427476218 -0.46121496748038709 0 -0.01907266337142445 -0.44162376069801029 0 -0.044257718442095043 -0.45225342364168059 0 -0.0157286939033803 -0.45372763512147463 0 -0.02580965427476218 -0.46121496748038709 0 -0.01907266337142445 -0.44162376069801029 0 -0.01367655667743602 -0.48561589414303941 0 0.0028177711664636798 -0.48327941428068377 0 0.00072594579481488619 -0.5 0 -0.01367655667743602 -0.48561589414303941 0 -0.027318730018121962 -0.5 0 0.00072594579481488619 -0.5 0 -0.01367655667743602 -0.48561589414303941 0 -0.0049689105650129184 -0.47133880685411028 0 0.0028177711664636798 -0.48327941428068377 0 -0.01367655667743602 -0.48561589414303941 0 -0.0049689105650129184 -0.47133880685411028 0 -0.018979960316175049 -0.47464661974753691 0 -0.02580965427476218 -0.46121496748038709 0 -0.018979960316175049 -0.47464661974753691 0 -0.031464719747489059 -0.48041681051261098 0 -0.02580965427476218 -0.46121496748038709 0 -0.0049689105650129184 -0.47133880685411028 0 -0.018979960316175049 -0.47464661974753691 0 -0.01367655667743602 -0.48561589414303941 0 -0.018979960316175049 -0.47464661974753691 0 -0.031464719747489059 -0.48041681051261098 0 -0.01367655667743602 -0.48561589414303941 0 -0.027318730018121962 -0.5 0 -0.031464719747489059 -0.48041681051261098 0 -0.027318730018121962 -0.5 0 -0.031464719747489059 -0.48041681051261098 0 -0.055363405831058872 -0.5 0 -0.046127716902370969 -0.4799725956897623 0 -0.031464719747489059 -0.48041681051261098 0 -0.055363405831058872 -0.5 0 -0.046127716902370969 -0.4799725956897623 0 -0.031464719747489059 -0.48041681051261098 0 -0.040839990103981129 -0.46273080341440792 0 -0.046127716902370969 -0.4799725956897623 0 -0.056842751926954808 -0.47674276883203021 0 -0.040839990103981129 -0.46273080341440792 0 -0.056842751926954808 -0.47674276883203021 0 -0.055363405831058872 -0.5 0 -0.073813198869208591 -0.48261213079940429 0 -0.046127716902370969 -0.4799725956897623 0 -0.056842751926954808 -0.47674276883203021 0 -0.055363405831058872 -0.5 0 -0.035977082160774269 -0.43520867470807573 0 -0.01907266337142445 -0.44162376069801029 0 -0.044257718442095043 -0.45225342364168059 0 -0.01907266337142445 -0.44162376069801029 0 -0.044257718442095043 -0.45225342364168059 0 -0.05147194147581112 -0.43651553784270181 0 -0.035977082160774269 -0.43520867470807573 0 -0.044257718442095043 -0.45225342364168059 0 -0.02580965427476218 -0.46121496748038709 0 -0.044257718442095043 -0.45225342364168059 0 -0.02580965427476218 -0.46121496748038709 0 -0.044257718442095043 -0.45225342364168059 0 -0.040839990103981129 -0.46273080341440792 0 -0.02580965427476218 -0.46121496748038709 0 -0.031464719747489059 -0.48041681051261098 0 -0.040839990103981129 -0.46273080341440792 0 -0.02580965427476218 -0.46121496748038709 0 -0.040839990103981129 -0.46273080341440792 0 -0.044257718442095043 -0.45225342364168059 0 -0.040839990103981129 -0.46273080341440792 0 -0.070383377072332387 -0.46328007991230241 0 -0.044257718442095043 -0.45225342364168059 0 -0.070383377072332387 -0.46328007991230241 0 -0.056842751926954808 -0.47674276883203021 0 -0.040839990103981129 -0.46273080341440792 0 -0.070383377072332387 -0.46328007991230241 0 -0.05147194147581112 -0.43651553784270181 0 -0.044257718442095043 -0.45225342364168059 0 -0.066076068945151181 -0.44165469074765079 0 -0.044257718442095043 -0.45225342364168059 0 -0.066076068945151181 -0.44165469074765079 0 -0.070383377072332387 -0.46328007991230241 0 -0.044257718442095043 -0.45225342364168059 0 -0.066076068945151181 -0.44165469074765079 0 -0.066076068945151181 -0.44165469074765079 0 -0.070383377072332387 -0.46328007991230241 0 -0.087084930714866782 -0.44948006075562691 0 -0.070383377072332387 -0.46328007991230241 0 -0.087084930714866782 -0.44948006075562691 0 -0.096509035702570745 -0.47430673618292157 0 -0.087084930714866782 -0.44948006075562691 0 -0.10042928813774191 -0.43607082047996859 0 -0.087894419448207972 -0.43105595785362261 0 -0.066076068945151181 -0.44165469074765079 0 -0.087084930714866782 -0.44948006075562691 0 -0.087894419448207972 -0.43105595785362261 0 -0.055363405831058872 -0.5 0 -0.073813198869208591 -0.48261213079940429 0 -0.083408081643995713 -0.5 0 -0.056842751926954808 -0.47674276883203021 0 -0.070383377072332387 -0.46328007991230241 0 -0.073813198869208591 -0.48261213079940429 0 -0.070383377072332387 -0.46328007991230241 0 -0.096509035702570745 -0.47430673618292157 0 -0.070383377072332387 -0.46328007991230241 0 -0.073813198869208591 -0.48261213079940429 0 -0.096509035702570745 -0.47430673618292157 0 -0.073813198869208591 -0.48261213079940429 0 -0.083408081643995713 -0.5 0 -0.096509035702570745 -0.47430673618292157 0 -0.083408081643995713 -0.5 0 -0.096509035702570745 -0.47430673618292157 0 -0.1114527574569326 -0.5 0 -0.096509035702570745 -0.47430673618292157 0 -0.1226346943328091 -0.48533339245354079 0 -0.12148619227079301 -0.46835012632522299 0 -0.096509035702570745 -0.47430673618292157 0 -0.1226346943328091 -0.48533339245354079 0 -0.13949743326986949 -0.5 0 -0.1226346943328091 -0.48533339245354079 0 -0.1114527574569326 -0.5 0 -0.096509035702570745 -0.47430673618292157 0 -0.1226346943328091 -0.48533339245354079 0 -0.1114527574569326 -0.5 0 -0.1076011216590774 -0.45160030399385731 0 -0.1184110001548008 -0.43234694095866261 0 -0.10042928813774191 -0.43607082047996859 0 -0.087084930714866782 -0.44948006075562691 0 -0.1076011216590774 -0.45160030399385731 0 -0.10042928813774191 -0.43607082047996859 0 -0.096509035702570745 -0.47430673618292157 0 -0.1076011216590774 -0.45160030399385731 0 -0.12148619227079301 -0.46835012632522299 0 -0.087084930714866782 -0.44948006075562691 0 -0.096509035702570745 -0.47430673618292157 0 -0.1076011216590774 -0.45160030399385731 0 -0.1076011216590774 -0.45160030399385731 0 -0.12148619227079301 -0.46835012632522299 0 -0.1228399064619701 -0.45010157398010681 0 -0.1076011216590774 -0.45160030399385731 0 -0.1228399064619701 -0.45010157398010681 0 -0.1184110001548008 -0.43234694095866261 0 -0.1184110001548008 -0.43234694095866261 0 -0.10042928813774191 -0.43607082047996859 0 -0.095990639706026212 -0.41793143696652418 0 -0.10042928813774191 -0.43607082047996859 0 -0.095990639706026212 -0.41793143696652418 0 -0.087894419448207972 -0.43105595785362261 0 -0.1184110001548008 -0.43234694095866261 0 -0.095990639706026212 -0.41793143696652418 0 -0.1184110001548008 -0.43234694095866261 0 -0.095990639706026212 -0.41793143696652418 0 -0.11284199289691731 -0.40624326413390938 0 -0.12840811959989359 -0.39806301558833979 0 -0.12981618641440601 -0.41609917673097552 0 -0.11284199289691731 -0.40624326413390938 0 -0.12981618641440601 -0.41609917673097552 0 -0.1184110001548008 -0.43234694095866261 0 -0.11284199289691731 -0.40624326413390938 0 -0.095990639706026212 -0.41793143696652418 0 -0.11284199289691731 -0.40624326413390938 0 -0.092004184538285377 -0.38560376656045381 0 -0.12840811959989359 -0.39806301558833979 0 -0.11284199289691731 -0.40624326413390938 0 -0.1125719657568152 -0.38622125221252918 0 -0.1415333796211557 -0.37362514247251549 0 -0.11442742970972029 -0.36617419393313738 0 -0.1125719657568152 -0.38622125221252918 0 -0.097527147386595348 -0.36839789869716788 0 -0.1125719657568152 -0.38622125221252918 0 -0.092004184538285377 -0.38560376656045381 0 -0.11284199289691731 -0.40624326413390938 0 -0.1125719657568152 -0.38622125221252918 0 -0.092004184538285377 -0.38560376656045381 0 -0.092004184538285377 -0.38560376656045381 0 -0.069672178880008651 -0.38378204106478808 0 -0.073570279257251486 -0.40351593297438593 0 -0.095990639706026212 -0.41793143696652418 0 -0.092004184538285377 -0.38560376656045381 0 -0.073570279257251486 -0.40351593297438593 0 -0.075376210553919909 -0.36575283847360063 0 -0.092004184538285377 -0.38560376656045381 0 -0.069672178880008651 -0.38378204106478808 0 -0.051149918808476837 -0.3891004289822475 0 -0.069672178880008651 -0.38378204106478808 0 -0.073570279257251486 -0.40351593297438593 0 -0.055272657265987263 -0.40733124331174242 0 -0.073570279257251486 -0.40351593297438593 0 -0.070346077472481658 -0.4226880616113004 0 -0.066076068945151181 -0.44165469074765079 0 -0.087894419448207972 -0.43105595785362261 0 -0.05147194147581112 -0.43651553784270181 0 -0.066076068945151181 -0.44165469074765079 0 -0.070346077472481658 -0.4226880616113004 0 -0.066076068945151181 -0.44165469074765079 0 -0.070346077472481658 -0.4226880616113004 0 -0.087894419448207972 -0.43105595785362261 0 -0.095990639706026212 -0.41793143696652418 0 -0.070346077472481658 -0.4226880616113004 0 -0.087894419448207972 -0.43105595785362261 0 -0.095990639706026212 -0.41793143696652418 0 -0.073570279257251486 -0.40351593297438593 0 -0.070346077472481658 -0.4226880616113004 0 -0.095990639706026212 -0.41793143696652418 0 -0.073570279257251486 -0.40351593297438593 0 -0.090863316895174712 -0.087050544743528746 0 -0.067205781126149083 -0.082194967041249081 0 -0.090863316895174712 -0.087050544743528746 0 -0.067205781126149083 -0.082194967041249081 0 -0.077891993757698688 -0.097016132115362808 0 -0.090863316895174712 -0.087050544743528746 0 -0.087358501235196825 -0.065127692327583461 0 -0.067205781126149083 -0.082194967041249081 0 -0.087358501235196825 -0.065127692327583461 0 -0.067205781126149083 -0.082194967041249081 0 -0.065055316169906369 -0.053945705618353039 0 -0.067205781126149083 -0.082194967041249081 0 -0.065055316169906369 -0.053945705618353039 0 -0.067205781126149083 -0.082194967041249081 0 -0.068542655937565741 -0.099756623150879103 0 -0.077891993757698688 -0.097016132115362808 0 -0.067205781126149083 -0.082194967041249081 0 -0.068542655937565741 -0.099756623150879103 0 -0.067205781126149083 -0.082194967041249081 0 -0.068542655937565741 -0.099756623150879103 0 -0.052123654667948847 -0.095379626281394181 0 -0.068542655937565741 -0.099756623150879103 0 -0.076261901028473869 -0.10751299863610619 0 -0.069879530748981331 -0.1173182792605092 0 -0.068542655937565741 -0.099756623150879103 0 -0.069879530748981331 -0.1173182792605092 0 -0.068542655937565741 -0.099756623150879103 0 -0.076261901028473869 -0.10751299863610619 0 -0.077891993757698688 -0.097016132115362808 0 -0.059898573951802481 -0.11325556709576701 0 -0.080068129834039492 -0.1257904236908339 0 -0.068025095322454779 -0.1319399044817792 0 -0.069879530748981331 -0.1173182792605092 0 -0.059898573951802481 -0.11325556709576701 0 -0.080068129834039492 -0.1257904236908339 0 -0.068542655937565741 -0.099756623150879103 0 -0.069879530748981331 -0.1173182792605092 0 -0.059898573951802481 -0.11325556709576701 0 -0.059898573951802481 -0.11325556709576701 0 -0.080068129834039492 -0.1257904236908339 0 -0.059898573951802481 -0.11325556709576701 0 -0.068025095322454779 -0.1319399044817792 0 -0.069879530748981331 -0.1173182792605092 0 -0.078100377918237165 -0.1144934430062757 0 -0.078825923273236176 -0.1194100429831919 0 -0.076261901028473869 -0.10751299863610619 0 -0.069879530748981331 -0.1173182792605092 0 -0.078100377918237165 -0.1144934430062757 0 -0.069879530748981331 -0.1173182792605092 0 -0.078825923273236176 -0.1194100429831919 0 -0.080068129834039492 -0.1257904236908339 0 -0.083519995364105273 -0.1240278130506613 0 -0.082404244225256218 -0.1166600345164516 0 -0.08747711551536777 -0.114680046463552 0 -0.083519995364105273 -0.1240278130506613 0 -0.078825923273236176 -0.1194100429831919 0 -0.080068129834039492 -0.1257904236908339 0 -0.083519995364105273 -0.1240278130506613 0 -0.080068129834039492 -0.1257904236908339 0 -0.083519995364105273 -0.1240278130506613 0 -0.078825923273236176 -0.1194100429831919 0 -0.082404244225256218 -0.1166600345164516 0 -0.082404244225256218 -0.1166600345164516 0 -0.082919117146023361 -0.1114604256958641 0 -0.08747711551536777 -0.114680046463552 0 -0.078100377918237165 -0.1144934430062757 0 -0.082404244225256218 -0.1166600345164516 0 -0.082919117146023361 -0.1114604256958641 0 -0.078100377918237165 -0.1144934430062757 0 -0.078825923273236176 -0.1194100429831919 0 -0.082404244225256218 -0.1166600345164516 0 -0.076261901028473869 -0.10751299863610619 0 -0.078100377918237165 -0.1144934430062757 0 -0.082919117146023361 -0.1114604256958641 0 -0.088317837547908326 -0.1100354038052201 0 -0.09296658117563561 -0.1119904271548587 0 -0.08747711551536777 -0.114680046463552 0 -0.082919117146023361 -0.1114604256958641 0 -0.088317837547908326 -0.1100354038052201 0 -0.08747711551536777 -0.114680046463552 0 -0.088317837547908326 -0.1100354038052201 0 -0.09296658117563561 -0.1119904271548587 0 -0.094143861010201849 -0.1062988037826937 0 -0.09296658117563561 -0.1119904271548587 0 -0.08747711551536777 -0.114680046463552 0 -0.09115717055638814 -0.117223578091773 0 -0.083519995364105273 -0.1240278130506613 0 -0.08747711551536777 -0.114680046463552 0 -0.09115717055638814 -0.117223578091773 0 -0.083519995364105273 -0.1240278130506613 0 -0.097673337184180004 -0.11680075548750821 0 -0.083519995364105273 -0.1240278130506613 0 -0.092575504128851183 -0.12448010836379519 0 -0.097673337184180004 -0.11680075548750821 0 -0.083519995364105273 -0.1240278130506613 0 -0.09115717055638814 -0.117223578091773 0 -0.097673337184180004 -0.11680075548750821 0 -0.090863316895174712 -0.087050544743528746 0 -0.077891993757698688 -0.097016132115362808 0 -0.08401015108298554 -0.1054618388127805 0 -0.090863316895174712 -0.087050544743528746 0 -0.08401015108298554 -0.1054618388127805 0 -0.094143861010201849 -0.1062988037826937 0 -0.076261901028473869 -0.10751299863610619 0 -0.077891993757698688 -0.097016132115362808 0 -0.08401015108298554 -0.1054618388127805 0 -0.076261901028473869 -0.10751299863610619 0 -0.082919117146023361 -0.1114604256958641 0 -0.08401015108298554 -0.1054618388127805 0 -0.082919117146023361 -0.1114604256958641 0 -0.088317837547908326 -0.1100354038052201 0 -0.08401015108298554 -0.1054618388127805 0 -0.088317837547908326 -0.1100354038052201 0 -0.08401015108298554 -0.1054618388127805 0 -0.094143861010201849 -0.1062988037826937 0 -0.1035832189317937 -0.10004170585998121 0 -0.1089837484145684 -0.11102537084238071 0 -0.11452085266420101 -0.091906122445804567 0 -0.090863316895174712 -0.087050544743528746 0 -0.094143861010201849 -0.1062988037826937 0 -0.1035832189317937 -0.10004170585998121 0 -0.094143861010201849 -0.1062988037826937 0 -0.1035832189317937 -0.10004170585998121 0 -0.0990165515171465 -0.1104267977317745 0 -0.1035832189317937 -0.10004170585998121 0 -0.0990165515171465 -0.1104267977317745 0 -0.1089837484145684 -0.11102537084238071 0 -0.092575504128851183 -0.12448010836379519 0 -0.097673337184180004 -0.11680075548750821 0 -0.1062453270689438 -0.12048095548755471 0 -0.09296658117563561 -0.1119904271548587 0 -0.09115717055638814 -0.117223578091773 0 -0.097673337184180004 -0.11680075548750821 0 -0.09296658117563561 -0.1119904271548587 0 -0.094143861010201849 -0.1062988037826937 0 -0.0990165515171465 -0.1104267977317745 0 -0.09296658117563561 -0.1119904271548587 0 -0.097673337184180004 -0.11680075548750821 0 -0.0990165515171465 -0.1104267977317745 0 -0.097673337184180004 -0.11680075548750821 0 -0.1089837484145684 -0.11102537084238071 0 -0.097673337184180004 -0.11680075548750821 0 -0.1089837484145684 -0.11102537084238071 0 -0.1062453270689438 -0.12048095548755471 0 -0.1089837484145684 -0.11102537084238071 0 -0.1062453270689438 -0.12048095548755471 0 -0.097673337184180004 -0.11680075548750821 0 -0.0990165515171465 -0.1104267977317745 0 -0.1089837484145684 -0.11102537084238071 0 -0.097673337184180004 -0.11680075548750821 0 -0.1062453270689438 -0.12048095548755471 0 -0.1089837484145684 -0.11102537084238071 0 -0.1062453270689438 -0.12048095548755471 0 -0.1266901189146723 -0.11636094711718201 0 -0.1062453270689438 -0.12048095548755471 0 -0.13376864667402091 -0.13229750242399019 0 -0.1266901189146723 -0.11636094711718201 0 -0.1089837484145684 -0.11102537084238071 0 -0.11452085266420101 -0.091906122445804567 0 -0.1089837484145684 -0.11102537084238071 0 -0.1358712595175208 -0.09729592143451464 0 -0.1089837484145684 -0.11102537084238071 0 -0.11452085266420101 -0.091906122445804567 0 -0.1358712595175208 -0.09729592143451464 0 -0.1089837484145684 -0.11102537084238071 0 -0.1358712595175208 -0.09729592143451464 0 -0.1266901189146723 -0.11636094711718201 0 -0.1164221566124615 -0.08534104784627447 0 -0.11452085266420101 -0.091906122445804567 0 -0.12532025114402709 -0.088793788438863611 0 -0.1164221566124615 -0.08534104784627447 0 -0.1144321571001687 -0.074063281498452871 0 -0.12558292430317611 -0.07834756572090365 0 -0.1164221566124615 -0.08534104784627447 0 -0.12558292430317611 -0.07834756572090365 0 -0.12532025114402709 -0.088793788438863611 0 -0.1164221566124615 -0.08534104784627447 0 -0.103312357151124 -0.081256261555363557 0 -0.1144321571001687 -0.074063281498452871 0 -0.1164221566124615 -0.08534104784627447 0 -0.11452085266420101 -0.091906122445804567 0 -0.103312357151124 -0.081256261555363557 0 -0.1164221566124615 -0.08534104784627447 0 -0.11452085266420101 -0.091906122445804567 0 -0.090863316895174712 -0.087050544743528746 0 -0.1035832189317937 -0.10004170585998121 0 -0.11452085266420101 -0.091906122445804567 0 -0.090863316895174712 -0.087050544743528746 0 -0.11452085266420101 -0.091906122445804567 0 -0.090863316895174712 -0.087050544743528746 0 -0.11452085266420101 -0.091906122445804567 0 -0.103312357151124 -0.081256261555363557 0 -0.090863316895174712 -0.087050544743528746 0 -0.087358501235196825 -0.065127692327583461 0 -0.103312357151124 -0.081256261555363557 0 -0.103312357151124 -0.081256261555363557 0 -0.1053414356116788 -0.063624858386974348 0 -0.1144321571001687 -0.074063281498452871 0 -0.087358501235196825 -0.065127692327583461 0 -0.103312357151124 -0.081256261555363557 0 -0.1053414356116788 -0.063624858386974348 0 -0.1053414356116788 -0.063624858386974348 0 -0.1144321571001687 -0.074063281498452871 0 -0.1194328917565281 -0.064170440014843233 0 -0.1144321571001687 -0.074063281498452871 0 -0.1194328917565281 -0.064170440014843233 0 -0.12558292430317611 -0.07834756572090365 0 -0.1194328917565281 -0.064170440014843233 0 -0.12188488863174129 -0.053265039890056341 0 -0.1290982905329128 -0.059632400421765042 0 -0.1194328917565281 -0.064170440014843233 0 -0.11170820235931039 -0.053470077601310798 0 -0.12188488863174129 -0.053265039890056341 0 -0.1053414356116788 -0.063624858386974348 0 -0.1194328917565281 -0.064170440014843233 0 -0.11170820235931039 -0.053470077601310798 0 -0.11170820235931039 -0.053470077601310798 0 -0.12188488863174129 -0.053265039890056341 0 -0.1163916171099672 -0.04304002481377546 0 -0.12188488863174129 -0.053265039890056341 0 -0.1163916171099672 -0.04304002481377546 0 -0.1268240780369419 -0.046076455732373602 0 -0.1163916171099672 -0.04304002481377546 0 -0.1252816462006961 -0.038091455574512302 0 -0.1268240780369419 -0.046076455732373602 0 -0.11882269097568 -0.032900057960112639 0 -0.1163916171099672 -0.04304002481377546 0 -0.1252816462006961 -0.038091455574512302 0 -0.11882269097568 -0.032900057960112639 0 -0.125941384420133 -0.028209853202777729 0 -0.1252816462006961 -0.038091455574512302 0 -0.11882269097568 -0.032900057960112639 0 -0.1163916171099672 -0.04304002481377546 0 -0.1082598270502081 -0.03107499512626195 0 -0.099510893492082364 -0.046660074296084 0 -0.1082598270502081 -0.03107499512626195 0 -0.095133149957980848 -0.028083677438991862 0 -0.1163916171099672 -0.04304002481377546 0 -0.099510893492082364 -0.046660074296084 0 -0.1082598270502081 -0.03107499512626195 0 -0.087358501235196825 -0.065127692327583461 0 -0.1053414356116788 -0.063624858386974348 0 -0.099510893492082364 -0.046660074296084 0 -0.1053414356116788 -0.063624858386974348 0 -0.11170820235931039 -0.053470077601310798 0 -0.099510893492082364 -0.046660074296084 0 -0.11170820235931039 -0.053470077601310798 0 -0.1163916171099672 -0.04304002481377546 0 -0.099510893492082364 -0.046660074296084 0 -0.1181101929107005 -0.01205589487452241 0 -0.10535663015721609 -0.0040785661226313266 0 -0.1220156274706712 0.0019540870090877772 0 -0.1181101929107005 -0.01205589487452241 0 -0.12971617288639531 -0.0048886410824493919 0 -0.1220156274706712 0.0019540870090877772 0 -0.1181101929107005 -0.01205589487452241 0 -0.1149251264817667 -0.02442930281721329 0 -0.125941384420133 -0.028209853202777729 0 -0.1181101929107005 -0.01205589487452241 0 -0.125941384420133 -0.028209853202777729 0 -0.12910209615565699 -0.024012301780688989 0 -0.1181101929107005 -0.01205589487452241 0 -0.1149251264817667 -0.02442930281721329 0 -0.1031115079677508 -0.01794531633225151 0 -0.11882269097568 -0.032900057960112639 0 -0.1149251264817667 -0.02442930281721329 0 -0.125941384420133 -0.028209853202777729 0 -0.11882269097568 -0.032900057960112639 0 -0.1149251264817667 -0.02442930281721329 0 -0.1082598270502081 -0.03107499512626195 0 -0.095133149957980848 -0.028083677438991862 0 -0.1031115079677508 -0.01794531633225151 0 -0.087014999526487571 -0.015349776798960491 0 -0.1149251264817667 -0.02442930281721329 0 -0.1082598270502081 -0.03107499512626195 0 -0.1031115079677508 -0.01794531633225151 0 -0.1082598270502081 -0.03107499512626195 0 -0.095133149957980848 -0.028083677438991862 0 -0.1031115079677508 -0.01794531633225151 0 -0.1181101929107005 -0.01205589487452241 0 -0.093136072529625635 -0.0001400556527918449 0 -0.1181101929107005 -0.01205589487452241 0 -0.1031115079677508 -0.01794531633225151 0 -0.093136072529625635 -0.0001400556527918449 0 -0.1181101929107005 -0.01205589487452241 0 -0.10535663015721609 -0.0040785661226313266 0 -0.093136072529625635 -0.0001400556527918449 0 -0.1031115079677508 -0.01794531633225151 0 -0.093136072529625635 -0.0001400556527918449 0 -0.087014999526487571 -0.015349776798960491 0 -0.093136072529625635 -0.0001400556527918449 0 -0.087014999526487571 -0.015349776798960491 0 -0.076424423994879476 -0.003132457239380148 0 -0.087014999526487571 -0.015349776798960491 0 -0.073341747925620523 -0.01406173783103015 0 -0.076424423994879476 -0.003132457239380148 0 -0.087014999526487571 -0.015349776798960491 0 -0.079712762934880332 -0.025217179089156931 0 -0.073341747925620523 -0.01406173783103015 0 -0.095133149957980848 -0.028083677438991862 0 -0.087014999526487571 -0.015349776798960491 0 -0.079712762934880332 -0.025217179089156931 0 -0.079712762934880332 -0.025217179089156931 0 -0.062904851213662585 -0.025696444195457049 0 -0.073341747925620523 -0.01406173783103015 0 -0.079712762934880332 -0.025217179089156931 0 -0.062904851213662585 -0.025696444195457049 0 -0.080220408200263174 -0.041161434651527613 0 -0.062904851213662585 -0.025696444195457049 0 -0.073341747925620523 -0.01406173783103015 0 -0.060754386257418823 0.0025528172274389281 0 -0.073341747925620523 -0.01406173783103015 0 -0.076424423994879476 -0.003132457239380148 0 -0.060754386257418823 0.0025528172274389281 0 -0.087358501235196825 -0.065127692327583461 0 -0.099510893492082364 -0.046660074296084 0 -0.080220408200263174 -0.041161434651527613 0 -0.095133149957980848 -0.028083677438991862 0 -0.079712762934880332 -0.025217179089156931 0 -0.080220408200263174 -0.041161434651527613 0 -0.099510893492082364 -0.046660074296084 0 -0.095133149957980848 -0.028083677438991862 0 -0.080220408200263174 -0.041161434651527613 0 -0.062904851213662585 -0.025696444195457049 0 -0.065055316169906369 -0.053945705618353039 0 -0.062904851213662585 -0.025696444195457049 0 -0.080220408200263174 -0.041161434651527613 0 -0.065055316169906369 -0.053945705618353039 0 -0.087358501235196825 -0.065127692327583461 0 -0.080220408200263174 -0.041161434651527613 0 -0.065055316169906369 -0.053945705618353039 0 -0.065055316169906369 -0.053945705618353039 0 -0.047894605280251877 -0.054340058651941803 0 -0.048929668687345503 -0.03900248772134815 0 -0.065055316169906369 -0.053945705618353039 0 -0.047894605280251877 -0.054340058651941803 0 -0.053004971159974698 -0.066189882034686634 0 -0.062904851213662585 -0.025696444195457049 0 -0.065055316169906369 -0.053945705618353039 0 -0.048929668687345503 -0.03900248772134815 0 -0.048929668687345503 -0.03900248772134815 0 -0.03275369178043732 -0.032312294903841292 0 -0.035351394645226693 -0.047839064434689549 0 -0.048929668687345503 -0.03900248772134815 0 -0.03275369178043732 -0.032312294903841292 0 -0.046129727701333521 -0.02248458507507458 0 -0.035351394645226693 -0.047839064434689549 0 -0.021908808482846751 -0.057090181928296853 0 -0.038657251529640897 -0.064417938231102978 0 -0.047894605280251877 -0.054340058651941803 0 -0.035351394645226693 -0.047839064434689549 0 -0.038657251529640897 -0.064417938231102978 0 -0.047894605280251877 -0.054340058651941803 0 -0.038657251529640897 -0.064417938231102978 0 -0.053004971159974698 -0.066189882034686634 0 -0.047894605280251877 -0.054340058651941803 0 -0.048929668687345503 -0.03900248772134815 0 -0.035351394645226693 -0.047839064434689549 0 -0.062904851213662585 -0.025696444195457049 0 -0.060754386257418823 0.0025528172274389281 0 -0.062904851213662585 -0.025696444195457049 0 -0.051335033538331562 -0.009168731427739359 0 -0.060754386257418823 0.0025528172274389281 0 -0.051335033538331562 -0.009168731427739359 0 -0.060754386257418823 0.0025528172274389281 0 -0.048704724972793469 0.0044012681014438436 0 -0.062904851213662585 -0.025696444195457049 0 -0.051335033538331562 -0.009168731427739359 0 -0.046129727701333521 -0.02248458507507458 0 -0.062904851213662585 -0.025696444195457049 0 -0.048929668687345503 -0.03900248772134815 0 -0.046129727701333521 -0.02248458507507458 0 -0.03275369178043732 -0.032312294903841292 0 -0.046129727701333521 -0.02248458507507458 0 -0.026176507965860671 -0.017277770419762039 0 -0.046129727701333521 -0.02248458507507458 0 -0.037153593021232917 -0.0041909662260797122 0 -0.026176507965860671 -0.017277770419762039 0 -0.051335033538331562 -0.009168731427739359 0 -0.046129727701333521 -0.02248458507507458 0 -0.037153593021232917 -0.0041909662260797122 0 -0.051335033538331562 -0.009168731427739359 0 -0.037153593021232917 -0.0041909662260797122 0 -0.048704724972793469 0.0044012681014438436 0 -0.037153593021232917 -0.0041909662260797122 0 -0.026176507965860671 -0.017277770419762039 0 -0.01210134886455932 0.0019878388550685811 0 -0.026176507965860671 -0.017277770419762039 0 -0.0095215086785958962 -0.017551244150769529 0 -0.01210134886455932 0.0019878388550685811 0 -0.026176507965860671 -0.017277770419762039 0 -0.01837129322378861 -0.028689624046907461 0 -0.0095215086785958962 -0.017551244150769529 0 -0.03275369178043732 -0.032312294903841292 0 -0.026176507965860671 -0.017277770419762039 0 -0.01837129322378861 -0.028689624046907461 0 -0.0095215086785958962 -0.017551244150769529 0 -0.0058690393437316642 -0.036918505388539302 0 0.01017072979538342 -0.016746828848781731 0 -0.01837129322378861 -0.028689624046907461 0 -0.0095215086785958962 -0.017551244150769529 0 -0.0058690393437316642 -0.036918505388539302 0 -0.0095215086785958962 -0.017551244150769529 0 -0.01210134886455932 0.0019878388550685811 0 0.01017072979538342 -0.016746828848781731 0 -0.01210134886455932 0.0019878388550685811 0 0.01017072979538342 -0.016746828848781731 0 -0.035351394645226693 -0.047839064434689549 0 -0.021908808482846751 -0.057090181928296853 0 -0.022440173209047839 -0.040604213471996969 0 -0.03275369178043732 -0.032312294903841292 0 -0.035351394645226693 -0.047839064434689549 0 -0.022440173209047839 -0.040604213471996969 0 -0.021908808482846751 -0.057090181928296853 0 -0.022440173209047839 -0.040604213471996969 0 -0.0058690393437316642 -0.036918505388539302 0 -0.03275369178043732 -0.032312294903841292 0 -0.01837129322378861 -0.028689624046907461 0 -0.022440173209047839 -0.040604213471996969 0 -0.01837129322378861 -0.028689624046907461 0 -0.022440173209047839 -0.040604213471996969 0 -0.0058690393437316642 -0.036918505388539302 0 -0.021908808482846751 -0.057090181928296853 0 -0.0058690393437316642 -0.036918505388539302 0 -0.0023445621031648492 -0.046493714565991447 0 -0.0058690393437316642 -0.036918505388539302 0 -0.0023445621031648492 -0.046493714565991447 0 0.004820284750702987 -0.03667376296375658 0 -0.021908808482846751 -0.057090181928296853 0 -0.0092003180421990557 -0.067620420789558502 0 0.0010188698430845979 -0.055986475845041232 0 -0.021908808482846751 -0.057090181928296853 0 -0.0023445621031648492 -0.046493714565991447 0 0.0010188698430845979 -0.055986475845041232 0 -0.021908808482846751 -0.057090181928296853 0 -0.0058690393437316642 -0.036918505388539302 0 -0.0092003180421990557 -0.067620420789558502 0 0.0080700504204770651 -0.071014827416368193 0 0.0010188698430845979 -0.055986475845041232 0 -0.010213971945732019 -0.082377873766006179 0 0.0080700504204770651 -0.071014827416368193 0 -0.0092003180421990557 -0.067620420789558502 0 -0.010213971945732019 -0.082377873766006179 0 0.0080700504204770651 -0.071014827416368193 0 -0.0092003180421990557 -0.067620420789558502 0 -0.010213971945732019 -0.082377873766006179 0 -0.021991894853867058 -0.07330033546964429 0 -0.010213971945732019 -0.082377873766006179 0 -0.001063838671142459 -0.094957297204889449 0 0.01075992232450191 -0.087804584712857237 0 -0.010213971945732019 -0.082377873766006179 0 -0.030199880580540121 -0.082985137635087691 0 -0.021991894853867058 -0.07330033546964429 0 -0.010213971945732019 -0.082377873766006179 0 -0.028497994311941079 -0.093740920115644139 0 -0.010213971945732019 -0.082377873766006179 0 -0.030199880580540121 -0.082985137635087691 0 -0.028497994311941079 -0.093740920115644139 0 -0.010213971945732019 -0.082377873766006179 0 -0.028497994311941079 -0.093740920115644139 0 -0.017194440580496871 -0.1049168989353247 0 -0.021908808482846751 -0.057090181928296853 0 -0.037948577621961778 -0.077261858468054362 0 -0.021908808482846751 -0.057090181928296853 0 -0.0092003180421990557 -0.067620420789558502 0 -0.021991894853867058 -0.07330033546964429 0 -0.030199880580540121 -0.082985137635087691 0 -0.021991894853867058 -0.07330033546964429 0 -0.037948577621961778 -0.077261858468054362 0 -0.021908808482846751 -0.057090181928296853 0 -0.021991894853867058 -0.07330033546964429 0 -0.037948577621961778 -0.077261858468054362 0 -0.021908808482846751 -0.057090181928296853 0 -0.038657251529640897 -0.064417938231102978 0 -0.037948577621961778 -0.077261858468054362 0 -0.038657251529640897 -0.064417938231102978 0 -0.044348735384096977 -0.077503685467020605 0 -0.053004971159974698 -0.066189882034686634 0 -0.038657251529640897 -0.064417938231102978 0 -0.044348735384096977 -0.077503685467020605 0 -0.042543024469576522 -0.077133073339919409 0 -0.038657251529640897 -0.064417938231102978 0 -0.042543024469576522 -0.077133073339919409 0 -0.037948577621961778 -0.077261858468054362 0 -0.038657251529640897 -0.064417938231102978 0 -0.044348735384096977 -0.077503685467020605 0 -0.044348735384096977 -0.077503685467020605 0 -0.042543024469576522 -0.077133073339919409 0 -0.030199880580540121 -0.082985137635087691 0 -0.037948577621961778 -0.077261858468054362 0 -0.04041554962020668 -0.08325329559493079 0 -0.030199880580540121 -0.082985137635087691 0 -0.0386064186570617 -0.090592661122599921 0 -0.04041554962020668 -0.08325329559493079 0 -0.030199880580540121 -0.082985137635087691 0 -0.028497994311941079 -0.093740920115644139 0 -0.0386064186570617 -0.090592661122599921 0 -0.0386064186570617 -0.090592661122599921 0 -0.044606321335321573 -0.089183764262061607 0 -0.047537248347293407 -0.099189552844363746 0 -0.0386064186570617 -0.090592661122599921 0 -0.044606321335321573 -0.089183764262061607 0 -0.04041554962020668 -0.08325329559493079 0 -0.044348735384096977 -0.077503685467020605 0 -0.044606321335321573 -0.089183764262061607 0 -0.04041554962020668 -0.08325329559493079 0 -0.042543024469576522 -0.077133073339919409 0 -0.037948577621961778 -0.077261858468054362 0 -0.04041554962020668 -0.08325329559493079 0 -0.044348735384096977 -0.077503685467020605 0 -0.042543024469576522 -0.077133073339919409 0 -0.04041554962020668 -0.08325329559493079 0 -0.067205781126149083 -0.082194967041249081 0 -0.044348735384096977 -0.077503685467020605 0 -0.044348735384096977 -0.077503685467020605 0 -0.044606321335321573 -0.089183764262061607 0 -0.052123654667948847 -0.095379626281394181 0 -0.067205781126149083 -0.082194967041249081 0 -0.044348735384096977 -0.077503685467020605 0 -0.052123654667948847 -0.095379626281394181 0 -0.044348735384096977 -0.077503685467020605 0 -0.052123654667948847 -0.095379626281394181 0 -0.067205781126149083 -0.082194967041249081 0 -0.044348735384096977 -0.077503685467020605 0 -0.053004971159974698 -0.066189882034686634 0 -0.067205781126149083 -0.082194967041249081 0 -0.065055316169906369 -0.053945705618353039 0 -0.053004971159974698 -0.066189882034686634 0 -0.059898573951802481 -0.11325556709576701 0 -0.056770408704823 -0.12508197542173599 0 -0.068025095322454779 -0.1319399044817792 0 -0.050600280783225593 -0.1152297950263053 0 -0.059898573951802481 -0.11325556709576701 0 -0.046782016678150747 -0.105103966465281 0 -0.050600280783225593 -0.1152297950263053 0 -0.046782016678150747 -0.105103966465281 0 -0.044527226245596921 -0.1137164528467873 0 -0.050600280783225593 -0.1152297950263053 0 -0.044527226245596921 -0.1137164528467873 0 -0.045600985079070219 -0.12093449970778709 0 -0.050600280783225593 -0.1152297950263053 0 -0.045600985079070219 -0.12093449970778709 0 -0.056770408704823 -0.12508197542173599 0 -0.050600280783225593 -0.1152297950263053 0 -0.059898573951802481 -0.11325556709576701 0 -0.056770408704823 -0.12508197542173599 0 -0.059898573951802481 -0.11325556709576701 0 -0.052123654667948847 -0.095379626281394181 0 -0.048217634836739992 -0.10511304316497271 0 -0.068542655937565741 -0.099756623150879103 0 -0.059898573951802481 -0.11325556709576701 0 -0.052123654667948847 -0.095379626281394181 0 -0.059898573951802481 -0.11325556709576701 0 -0.052123654667948847 -0.095379626281394181 0 -0.044606321335321573 -0.089183764262061607 0 -0.052123654667948847 -0.095379626281394181 0 -0.047537248347293407 -0.099189552844363746 0 -0.052123654667948847 -0.095379626281394181 0 -0.047537248347293407 -0.099189552844363746 0 -0.048217634836739992 -0.10511304316497271 0 -0.059898573951802481 -0.11325556709576701 0 -0.046782016678150747 -0.105103966465281 0 -0.059898573951802481 -0.11325556709576701 0 -0.048217634836739992 -0.10511304316497271 0 -0.046782016678150747 -0.105103966465281 0 -0.047537248347293407 -0.099189552844363746 0 -0.048217634836739992 -0.10511304316497271 0 -0.046782016678150747 -0.105103966465281 0 -0.048217634836739992 -0.10511304316497271 0 -0.046782016678150747 -0.105103966465281 0 -0.028497994311941079 -0.093740920115644139 0 -0.047537248347293407 -0.099189552844363746 0 -0.046782016678150747 -0.105103966465281 0 -0.046782016678150747 -0.105103966465281 0 -0.035125622441941118 -0.11359755018777599 0 -0.017194440580496871 -0.1049168989353247 0 -0.028497994311941079 -0.093740920115644139 0 -0.0386064186570617 -0.090592661122599921 0 -0.047537248347293407 -0.099189552844363746 0 -0.028497994311941079 -0.093740920115644139 0 -0.046782016678150747 -0.105103966465281 0 -0.046782016678150747 -0.105103966465281 0 -0.017194440580496871 -0.1049168989353247 0 -0.035125622441941118 -0.11359755018777599 0 -0.044527226245596921 -0.1137164528467873 0 -0.045600985079070219 -0.12093449970778709 0 -0.046782016678150747 -0.105103966465281 0 -0.035125622441941118 -0.11359755018777599 0 -0.044527226245596921 -0.1137164528467873 0 -0.035125622441941118 -0.11359755018777599 0 -0.045600985079070219 -0.12093449970778709 0 -0.032379243433970292 -0.12468195852329481 0 -0.02426070907452978 -0.11675661835985671 0 -0.017194440580496871 -0.1049168989353247 0 -0.012343529841710841 -0.1238300657930313 0 -0.032379243433970292 -0.12468195852329481 0 -0.02426070907452978 -0.11675661835985671 0 -0.012343529841710841 -0.1238300657930313 0 -0.035125622441941118 -0.11359755018777599 0 -0.032379243433970292 -0.12468195852329481 0 -0.02426070907452978 -0.11675661835985671 0 -0.035125622441941118 -0.11359755018777599 0 -0.02426070907452978 -0.11675661835985671 0 -0.017194440580496871 -0.1049168989353247 0 -0.028497994311941079 -0.093740920115644139 0 -0.046782016678150747 -0.105103966465281 0 -0.017194440580496871 -0.1049168989353247 0 -0.017194440580496871 -0.1049168989353247 0 -0.001063838671142459 -0.094957297204889449 0 0.01239313551715715 -0.1047298314053698 0 -0.017194440580496871 -0.1049168989353247 0 -0.0014550555111774201 -0.1139112530899648 0 0.01239313551715715 -0.1047298314053698 0 -0.010213971945732019 -0.082377873766006179 0 -0.017194440580496871 -0.1049168989353247 0 -0.001063838671142459 -0.094957297204889449 0 -0.017194440580496871 -0.1049168989353247 0 0.01239313551715715 -0.1047298314053698 0 -0.017194440580496871 -0.1049168989353247 0 -0.012343529841710841 -0.1238300657930313 0 -0.0014550555111774201 -0.1139112530899648 0 -0.012343529841710841 -0.1238300657930313 0 -0.0014550555111774201 -0.1139112530899648 0 0.0070693487391517221 -0.1259227580274058 0 -0.012343529841710841 -0.1238300657930313 0 -0.00381057756564823 -0.13881115303130631 0 -0.016566936872562828 -0.14546743768385589 0 -0.012343529841710841 -0.1238300657930313 0 -0.00381057756564823 -0.13881115303130631 0 0.0070693487391517221 -0.1259227580274058 0 -0.032379243433970292 -0.12468195852329481 0 -0.012343529841710841 -0.1238300657930313 0 -0.029469495912781859 -0.13872591108130611 0 -0.012343529841710841 -0.1238300657930313 0 -0.029469495912781859 -0.13872591108130611 0 -0.016566936872562828 -0.14546743768385589 0 -0.0292270739544549 -0.1537995698564954 0 -0.016566936872562828 -0.14546743768385589 0 -0.010182590445576289 -0.1584724389503685 0 -0.029469495912781859 -0.13872591108130611 0 -0.0292270739544549 -0.1537995698564954 0 -0.016566936872562828 -0.14546743768385589 0 -0.00381057756564823 -0.13881115303130631 0 -0.016566936872562828 -0.14546743768385589 0 -0.010182590445576289 -0.1584724389503685 0 -0.00381057756564823 -0.13881115303130631 0 -0.010182590445576289 -0.1584724389503685 0 0.0098523375760143639 -0.1461025862696651 0 -0.010182590445576289 -0.1584724389503685 0 -0.01297221461876409 -0.18517992099496211 0 0.009367802249035646 -0.1706819815227007 0 -0.01297221461876409 -0.18517992099496211 0 -0.025375782479776 -0.1703830094249093 0 -0.036232641864642097 -0.18273266130428359 0 -0.0292270739544549 -0.1537995698564954 0 -0.010182590445576289 -0.1584724389503685 0 -0.025375782479776 -0.1703830094249093 0 -0.010182590445576289 -0.1584724389503685 0 -0.01297221461876409 -0.18517992099496211 0 -0.025375782479776 -0.1703830094249093 0 -0.0292270739544549 -0.1537995698564954 0 -0.025375782479776 -0.1703830094249093 0 -0.046443237821030117 -0.1666616636309044 0 -0.046443237821030117 -0.1666616636309044 0 -0.036232641864642097 -0.18273266130428359 0 -0.056687002549577009 -0.18544334016044969 0 -0.025375782479776 -0.1703830094249093 0 -0.046443237821030117 -0.1666616636309044 0 -0.036232641864642097 -0.18273266130428359 0 -0.046443237821030117 -0.1666616636309044 0 -0.056687002549577009 -0.18544334016044969 0 -0.060570824692343428 -0.16910891475416401 0 -0.046443237821030117 -0.1666616636309044 0 -0.060570824692343428 -0.16910891475416401 0 -0.060932322909960972 -0.1585462574386366 0 -0.060932322909960972 -0.1585462574386366 0 -0.046604662515852747 -0.14287772417757491 0 -0.068870367979083802 -0.14860034083089249 0 -0.046443237821030117 -0.1666616636309044 0 -0.060932322909960972 -0.1585462574386366 0 -0.046604662515852747 -0.14287772417757491 0 -0.046604662515852747 -0.14287772417757491 0 -0.070239497201191867 -0.13703121353314371 0 -0.068870367979083802 -0.14860034083089249 0 -0.056770408704823 -0.12508197542173599 0 -0.046604662515852747 -0.14287772417757491 0 -0.068025095322454779 -0.1319399044817792 0 -0.046604662515852747 -0.14287772417757491 0 -0.068025095322454779 -0.1319399044817792 0 -0.070239497201191867 -0.13703121353314371 0 -0.045600985079070219 -0.12093449970778709 0 -0.056770408704823 -0.12508197542173599 0 -0.046604662515852747 -0.14287772417757491 0 -0.046604662515852747 -0.14287772417757491 0 -0.068025095322454779 -0.1319399044817792 0 -0.045600985079070219 -0.12093449970778709 0 -0.032379243433970292 -0.12468195852329481 0 -0.046604662515852747 -0.14287772417757491 0 -0.032379243433970292 -0.12468195852329481 0 -0.029469495912781859 -0.13872591108130611 0 -0.046604662515852747 -0.14287772417757491 0 -0.0292270739544549 -0.1537995698564954 0 -0.046443237821030117 -0.1666616636309044 0 -0.046604662515852747 -0.14287772417757491 0 -0.029469495912781859 -0.13872591108130611 0 -0.0292270739544549 -0.1537995698564954 0 -0.046604662515852747 -0.14287772417757491 0 -0.033931419553162992 -0.25243443967869411 0 -0.021034020291300609 -0.24182918951964291 0 -0.031774297013784841 -0.23497656571417069 0 -0.033931419553162992 -0.25243443967869411 0 -0.016667998652543831 -0.2535907064639833 0 -0.021034020291300609 -0.24182918951964291 0 -0.016667998652543831 -0.2535907064639833 0 -0.021034020291300609 -0.24182918951964291 0 -0.0091768495658898688 -0.24338301083334629 0 -0.021034020291300609 -0.24182918951964291 0 -0.0091768495658898688 -0.24338301083334629 0 -0.01361953667112153 -0.22476122490802031 0 -0.01361953667112153 -0.22476122490802031 0 0.0079141962681041587 -0.2444201672818079 0 -0.002950157048249026 -0.25282991239742242 0 -0.016667998652543831 -0.2535907064639833 0 -0.0091768495658898688 -0.24338301083334629 0 -0.0091768495658898688 -0.24338301083334629 0 -0.01361953667112153 -0.22476122490802031 0 0.0079141962681041587 -0.2444201672818079 0 -0.002950157048249026 -0.25282991239742242 0 -0.0091768495658898688 -0.24338301083334629 0 0.0079141962681041587 -0.2444201672818079 0 -0.01361953667112153 -0.22476122490802031 0 -0.035153269610349307 -0.20510228253423499 0 -0.031774297013784841 -0.23497656571417069 0 -0.021034020291300609 -0.24182918951964291 0 -0.01361953667112153 -0.22476122490802031 0 -0.031774297013784841 -0.23497656571417069 0 -0.01361953667112153 -0.22476122490802031 0 -0.035153269610349307 -0.20510228253423499 0 -0.01361953667112153 -0.22476122490802031 0 -0.0084393550421175672 -0.20623500431534419 0 -0.035153269610349307 -0.20510228253423499 0 -0.01361953667112153 -0.22476122490802031 0 -0.0084393550421175672 -0.20623500431534419 0 0.008398731595078205 -0.21984077202877211 0 -0.01297221461876409 -0.18517992099496211 0 -0.0084393550421175672 -0.20623500431534419 0 0.0088832669220569264 -0.19526137677573641 0 -0.01297221461876409 -0.18517992099496211 0 -0.036232641864642097 -0.18273266130428359 0 -0.035153269610349307 -0.20510228253423499 0 -0.01297221461876409 -0.18517992099496211 0 -0.0084393550421175672 -0.20623500431534419 0 -0.035153269610349307 -0.20510228253423499 0 -0.036232641864642097 -0.18273266130428359 0 -0.056687002549577009 -0.18544334016044969 0 -0.035153269610349307 -0.20510228253423499 0 -0.056687002549577009 -0.18544334016044969 0 -0.035153269610349307 -0.20510228253423499 0 -0.056687002549577009 -0.18544334016044969 0 -0.06035188063312568 -0.20230109626797341 0 -0.035153269610349307 -0.20510228253423499 0 -0.06035188063312568 -0.20230109626797341 0 -0.056258402668821053 -0.2163765145418908 0 -0.035153269610349307 -0.20510228253423499 0 -0.056258402668821053 -0.2163765145418908 0 -0.035153269610349307 -0.20510228253423499 0 -0.049007985759082023 -0.22961030573120669 0 -0.035153269610349307 -0.20510228253423499 0 -0.049007985759082023 -0.22961030573120669 0 -0.031774297013784841 -0.23497656571417069 0 -0.056258402668821053 -0.2163765145418908 0 -0.049007985759082023 -0.22961030573120669 0 -0.064899788998583008 -0.22911420536043969 0 -0.049007985759082023 -0.22961030573120669 0 -0.061377056948709673 -0.24181230716576871 0 -0.064899788998583008 -0.22911420536043969 0 -0.049007985759082023 -0.22961030573120669 0 -0.061377056948709673 -0.24181230716576871 0 -0.049807630765952113 -0.24433781378872521 0 -0.063837354597986048 -0.25516887162990298 0 -0.061377056948709673 -0.24181230716576871 0 -0.049807630765952113 -0.24433781378872521 0 -0.033931419553162992 -0.25243443967869411 0 -0.049807630765952113 -0.24433781378872521 0 -0.031774297013784841 -0.23497656571417069 0 -0.049007985759082023 -0.22961030573120669 0 -0.049807630765952113 -0.24433781378872521 0 -0.031774297013784841 -0.23497656571417069 0 -0.089834384669079642 -0.23857642899715339 0 -0.073645866817058162 -0.24170425137741011 0 -0.078345847243283057 -0.22803705971669361 0 -0.083463358478268676 -0.25568691533221571 0 -0.089834384669079642 -0.23857642899715339 0 -0.073645866817058162 -0.24170425137741011 0 -0.096802277181896712 -0.25047269806465983 0 -0.083463358478268676 -0.25568691533221571 0 -0.089834384669079642 -0.23857642899715339 0 -0.063837354597986048 -0.25516887162990298 0 -0.061377056948709673 -0.24181230716576871 0 -0.073645866817058162 -0.24170425137741011 0 -0.061377056948709673 -0.24181230716576871 0 -0.073645866817058162 -0.24170425137741011 0 -0.064899788998583008 -0.22911420536043969 0 -0.073645866817058162 -0.24170425137741011 0 -0.064899788998583008 -0.22911420536043969 0 -0.078345847243283057 -0.22803705971669361 0 -0.056258402668821053 -0.2163765145418908 0 -0.064899788998583008 -0.22911420536043969 0 -0.071879088342965261 -0.2157546828155992 0 -0.078345847243283057 -0.22803705971669361 0 -0.083993017435262107 -0.21748677113090131 0 -0.071879088342965261 -0.2157546828155992 0 -0.064899788998583008 -0.22911420536043969 0 -0.078345847243283057 -0.22803705971669361 0 -0.071879088342965261 -0.2157546828155992 0 -0.078345847243283057 -0.22803705971669361 0 -0.090800718000585243 -0.22473062294136051 0 -0.083993017435262107 -0.21748677113090131 0 -0.089834384669079642 -0.23857642899715339 0 -0.078345847243283057 -0.22803705971669361 0 -0.090800718000585243 -0.22473062294136051 0 -0.081485931507977838 -0.20597348236400931 0 -0.093790249856704186 -0.1990202889443714 0 -0.097453502081499097 -0.21293800781684369 0 -0.081485931507977838 -0.20597348236400931 0 -0.083993017435262107 -0.21748677113090131 0 -0.097453502081499097 -0.21293800781684369 0 -0.090800718000585243 -0.22473062294136051 0 -0.083993017435262107 -0.21748677113090131 0 -0.097453502081499097 -0.21293800781684369 0 -0.081485931507977838 -0.20597348236400931 0 -0.083993017435262107 -0.21748677113090131 0 -0.071879088342965261 -0.2157546828155992 0 -0.081485931507977838 -0.20597348236400931 0 -0.071879088342965261 -0.2157546828155992 0 -0.075049911915885448 -0.19076954030113211 0 -0.071879088342965261 -0.2157546828155992 0 -0.075049911915885448 -0.19076954030113211 0 -0.06035188063312568 -0.20230109626797341 0 -0.056258402668821053 -0.2163765145418908 0 -0.071879088342965261 -0.2157546828155992 0 -0.056687002549577009 -0.18544334016044969 0 -0.06035188063312568 -0.20230109626797341 0 -0.075049911915885448 -0.19076954030113211 0 -0.06035188063312568 -0.20230109626797341 0 -0.071879088342965261 -0.2157546828155992 0 -0.075049911915885448 -0.19076954030113211 0 -0.081485931507977838 -0.20597348236400931 0 -0.093790249856704186 -0.1990202889443714 0 -0.087151295875610324 -0.18641136041026041 0 -0.081485931507977838 -0.20597348236400931 0 -0.075049911915885448 -0.19076954030113211 0 -0.087151295875610324 -0.18641136041026041 0 -0.081485931507977838 -0.20597348236400931 0 -0.087151295875610324 -0.18641136041026041 0 -0.099726791202246853 -0.18966149380611191 0 -0.093790249856704186 -0.1990202889443714 0 -0.087151295875610324 -0.18641136041026041 0 -0.099726791202246853 -0.18966149380611191 0 -0.093790249856704186 -0.1990202889443714 0 -0.1061850985527374 -0.20154409204954249 0 -0.099726791202246853 -0.18966149380611191 0 -0.1061850985527374 -0.20154409204954249 0 -0.1136088609244944 -0.18972333928780799 0 -0.1136088609244944 -0.18972333928780799 0 -0.1204680589688355 -0.2000694149225376 0 -0.12818043582608571 -0.18821346595889371 0 -0.1061850985527374 -0.20154409204954249 0 -0.1136088609244944 -0.18972333928780799 0 -0.1204680589688355 -0.2000694149225376 0 -0.1061850985527374 -0.20154409204954249 0 -0.1204680589688355 -0.2000694149225376 0 -0.1152094845488187 -0.2105528084927 0 -0.1204680589688355 -0.2000694149225376 0 -0.1152094845488187 -0.2105528084927 0 -0.13133896320757771 -0.20736648349470299 0 -0.1152094845488187 -0.2105528084927 0 -0.1261997592058175 -0.2236346186630925 0 -0.13133896320757771 -0.20736648349470299 0 -0.1061850985527374 -0.20154409204954249 0 -0.1152094845488187 -0.2105528084927 0 -0.097453502081499097 -0.21293800781684369 0 -0.1152094845488187 -0.2105528084927 0 -0.097453502081499097 -0.21293800781684369 0 -0.11290223528196749 -0.22219343093613331 0 -0.093790249856704186 -0.1990202889443714 0 -0.1061850985527374 -0.20154409204954249 0 -0.097453502081499097 -0.21293800781684369 0 -0.097453502081499097 -0.21293800781684369 0 -0.1022849576054347 -0.22924006292471411 0 -0.11290223528196749 -0.22219343093613331 0 -0.090800718000585243 -0.22473062294136051 0 -0.097453502081499097 -0.21293800781684369 0 -0.1022849576054347 -0.22924006292471411 0 -0.089834384669079642 -0.23857642899715339 0 -0.090800718000585243 -0.22473062294136051 0 -0.1022849576054347 -0.22924006292471411 0 -0.1022849576054347 -0.22924006292471411 0 -0.11290223528196749 -0.22219343093613331 0 -0.1171341615731636 -0.23838965339439949 0 -0.11290223528196749 -0.22219343093613331 0 -0.1171341615731636 -0.23838965339439949 0 -0.1261997592058175 -0.2236346186630925 0 -0.1152094845488187 -0.2105528084927 0 -0.11290223528196749 -0.22219343093613331 0 -0.1261997592058175 -0.2236346186630925 0 -0.10878086241107481 -0.25345300724896019 0 -0.1171341615731636 -0.23838965339439949 0 -0.1040192517608609 -0.24106916208357901 0 -0.096802277181896712 -0.25047269806465983 0 -0.10878086241107481 -0.25345300724896019 0 -0.1040192517608609 -0.24106916208357901 0 -0.1022849576054347 -0.22924006292471411 0 -0.1171341615731636 -0.23838965339439949 0 -0.1040192517608609 -0.24106916208357901 0 -0.089834384669079642 -0.23857642899715339 0 -0.1022849576054347 -0.22924006292471411 0 -0.1040192517608609 -0.24106916208357901 0 -0.096802277181896712 -0.25047269806465983 0 -0.089834384669079642 -0.23857642899715339 0 -0.1040192517608609 -0.24106916208357901 0 -0.080640523345950912 -0.14671719235086331 0 -0.078220735488805121 -0.16578439778666501 0 -0.098482024610874158 -0.1472871165027623 0 -0.080640523345950912 -0.14671719235086331 0 -0.092378549823930151 -0.13344103087818929 0 -0.098482024610874158 -0.1472871165027623 0 -0.080640523345950912 -0.14671719235086331 0 -0.083060311203096121 -0.12764998691506149 0 -0.080640523345950912 -0.14671719235086331 0 -0.092378549823930151 -0.13344103087818929 0 -0.083060311203096121 -0.12764998691506149 0 -0.080640523345950912 -0.14671719235086331 0 -0.083060311203096121 -0.12764998691506149 0 -0.077418497486261159 -0.13339099501147361 0 -0.092378549823930151 -0.13344103087818929 0 -0.083060311203096121 -0.12764998691506149 0 -0.092575504128851183 -0.12448010836379519 0 -0.092378549823930151 -0.13344103087818929 0 -0.083060311203096121 -0.12764998691506149 0 -0.083519995364105273 -0.1240278130506613 0 -0.092575504128851183 -0.12448010836379519 0 -0.083060311203096121 -0.12764998691506149 0 -0.083519995364105273 -0.1240278130506613 0 -0.083060311203096121 -0.12764998691506149 0 -0.080068129834039492 -0.1257904236908339 0 -0.083519995364105273 -0.1240278130506613 0 -0.083060311203096121 -0.12764998691506149 0 -0.083060311203096121 -0.12764998691506149 0 -0.080068129834039492 -0.1257904236908339 0 -0.077418497486261159 -0.13339099501147361 0 -0.083060311203096121 -0.12764998691506149 0 -0.080068129834039492 -0.1257904236908339 0 -0.077418497486261159 -0.13339099501147361 0 -0.068025095322454779 -0.1319399044817792 0 -0.070239497201191867 -0.13703121353314371 0 -0.080640523345950912 -0.14671719235086331 0 -0.077418497486261159 -0.13339099501147361 0 -0.074947148620155862 -0.1412093137935585 0 -0.077418497486261159 -0.13339099501147361 0 -0.070239497201191867 -0.13703121353314371 0 -0.074947148620155862 -0.1412093137935585 0 -0.080068129834039492 -0.1257904236908339 0 -0.068025095322454779 -0.1319399044817792 0 -0.080068129834039492 -0.1257904236908339 0 -0.077418497486261159 -0.13339099501147361 0 -0.068025095322454779 -0.1319399044817792 0 -0.068025095322454779 -0.1319399044817792 0 -0.070239497201191867 -0.13703121353314371 0 -0.080640523345950912 -0.14671719235086331 0 -0.068870367979083802 -0.14860034083089249 0 -0.078220735488805121 -0.16578439778666501 0 -0.070239497201191867 -0.13703121353314371 0 -0.074947148620155862 -0.1412093137935585 0 -0.068870367979083802 -0.14860034083089249 0 -0.080640523345950912 -0.14671719235086331 0 -0.074947148620155862 -0.1412093137935585 0 -0.068870367979083802 -0.14860034083089249 0 -0.060570824692343428 -0.16910891475416401 0 -0.060932322909960972 -0.1585462574386366 0 -0.078220735488805121 -0.16578439778666501 0 -0.060932322909960972 -0.1585462574386366 0 -0.068870367979083802 -0.14860034083089249 0 -0.078220735488805121 -0.16578439778666501 0 -0.075049911915885448 -0.19076954030113211 0 -0.078220735488805121 -0.16578439778666501 0 -0.056687002549577009 -0.18544334016044969 0 -0.078220735488805121 -0.16578439778666501 0 -0.056687002549577009 -0.18544334016044969 0 -0.075049911915885448 -0.19076954030113211 0 -0.078220735488805121 -0.16578439778666501 0 -0.056687002549577009 -0.18544334016044969 0 -0.060570824692343428 -0.16910891475416401 0 -0.078220735488805121 -0.16578439778666501 0 -0.087151295875610324 -0.18641136041026041 0 -0.09281666024324281 -0.16684923845651151 0 -0.09782226460960175 -0.17869746297737199 0 -0.087151295875610324 -0.18641136041026041 0 -0.078220735488805121 -0.16578439778666501 0 -0.09281666024324281 -0.16684923845651151 0 -0.075049911915885448 -0.19076954030113211 0 -0.087151295875610324 -0.18641136041026041 0 -0.078220735488805121 -0.16578439778666501 0 -0.087151295875610324 -0.18641136041026041 0 -0.09281666024324281 -0.16684923845651151 0 -0.080640523345950912 -0.14671719235086331 0 -0.078220735488805121 -0.16578439778666501 0 -0.078220735488805121 -0.16578439778666501 0 -0.098482024610874158 -0.1472871165027623 0 -0.078220735488805121 -0.16578439778666501 0 -0.09281666024324281 -0.16684923845651151 0 -0.098482024610874158 -0.1472871165027623 0 -0.09281666024324281 -0.16684923845651151 0 -0.098482024610874158 -0.1472871165027623 0 -0.09281666024324281 -0.16684923845651151 0 -0.10800341727814761 -0.17057248207326289 0 -0.1101999503197772 -0.15425804835977339 0 -0.099726791202246853 -0.18966149380611191 0 -0.09782226460960175 -0.17869746297737199 0 -0.10681524379206379 -0.18153592774745139 0 -0.099726791202246853 -0.18966149380611191 0 -0.087151295875610324 -0.18641136041026041 0 -0.09782226460960175 -0.17869746297737199 0 -0.09281666024324281 -0.16684923845651151 0 -0.10800341727814761 -0.17057248207326289 0 -0.09782226460960175 -0.17869746297737199 0 -0.10800341727814761 -0.17057248207326289 0 -0.09782226460960175 -0.17869746297737199 0 -0.10681524379206379 -0.18153592774745139 0 -0.099726791202246853 -0.18966149380611191 0 -0.1136088609244944 -0.18972333928780799 0 -0.10681524379206379 -0.18153592774745139 0 -0.1136088609244944 -0.18972333928780799 0 -0.10681524379206379 -0.18153592774745139 0 -0.1181783987624356 -0.1774357369677671 0 -0.10800341727814761 -0.17057248207326289 0 -0.10681524379206379 -0.18153592774745139 0 -0.1181783987624356 -0.1774357369677671 0 -0.1136088609244944 -0.18972333928780799 0 -0.1181783987624356 -0.1774357369677671 0 -0.12818043582608571 -0.18821346595889371 0 -0.120088847499203 -0.16477857365615839 0 -0.1101999503197772 -0.15425804835977339 0 -0.12678476152627699 -0.153271567209292 0 -0.10800341727814761 -0.17057248207326289 0 -0.120088847499203 -0.16477857365615839 0 -0.1101999503197772 -0.15425804835977339 0 -0.10800341727814761 -0.17057248207326289 0 -0.1181783987624356 -0.1774357369677671 0 -0.120088847499203 -0.16477857365615839 0 -0.1181783987624356 -0.1774357369677671 0 -0.120088847499203 -0.16477857365615839 0 -0.13237358725461901 -0.16979063308302811 0 -0.11887397517068379 -0.14109556395341491 0 -0.1101999503197772 -0.15425804835977339 0 -0.12678476152627699 -0.153271567209292 0 -0.11887397517068379 -0.14109556395341491 0 -0.1101999503197772 -0.15425804835977339 0 -0.10456741117886451 -0.14173154171226979 0 -0.09281666024324281 -0.16684923845651151 0 -0.1101999503197772 -0.15425804835977339 0 -0.098482024610874158 -0.1472871165027623 0 -0.1101999503197772 -0.15425804835977339 0 -0.10456741117886451 -0.14173154171226979 0 -0.098482024610874158 -0.1472871165027623 0 -0.10456741117886451 -0.14173154171226979 0 -0.098482024610874158 -0.1472871165027623 0 -0.1062453270689438 -0.12048095548755471 0 -0.092378549823930151 -0.13344103087818929 0 -0.098482024610874158 -0.1472871165027623 0 -0.1062453270689438 -0.12048095548755471 0 -0.098482024610874158 -0.1472871165027623 0 -0.1062453270689438 -0.12048095548755471 0 -0.10456741117886451 -0.14173154171226979 0 -0.098482024610874158 -0.1472871165027623 0 -0.092575504128851183 -0.12448010836379519 0 -0.1062453270689438 -0.12048095548755471 0 -0.092378549823930151 -0.13344103087818929 0 -0.1062453270689438 -0.12048095548755471 0 -0.11887397517068379 -0.14109556395341491 0 -0.13376864667402091 -0.13229750242399019 0 -0.1062453270689438 -0.12048095548755471 0 -0.11887397517068379 -0.14109556395341491 0 -0.10456741117886451 -0.14173154171226979 0 -0.1062453270689438 -0.12048095548755471 0 -0.13376864667402091 -0.13229750242399019 0 -0.13376864667402091 -0.13229750242399019 0 -0.1612919662790977 -0.14411404936042599 0 -0.1612919662790977 -0.14411404936042599 0 -0.1485816128983081 -0.1207049853974709 0 -0.13376864667402091 -0.13229750242399019 0 -0.1612919662790977 -0.14411404936042599 0 -0.1485816128983081 -0.1207049853974709 0 -0.14540356223935841 -0.15740908177938709 0 -0.1571479287386543 -0.15981501019160971 0 -0.1612919662790977 -0.14411404936042599 0 -0.13376864667402091 -0.13229750242399019 0 -0.14540356223935841 -0.15740908177938709 0 -0.1612919662790977 -0.14411404936042599 0 -0.13376864667402091 -0.13229750242399019 0 -0.12678476152627699 -0.153271567209292 0 -0.14540356223935841 -0.15740908177938709 0 -0.11887397517068379 -0.14109556395341491 0 -0.13376864667402091 -0.13229750242399019 0 -0.12678476152627699 -0.153271567209292 0 -0.12678476152627699 -0.153271567209292 0 -0.13237358725461901 -0.16979063308302811 0 -0.14540356223935841 -0.15740908177938709 0 -0.120088847499203 -0.16477857365615839 0 -0.12678476152627699 -0.153271567209292 0 -0.13237358725461901 -0.16979063308302811 0 -0.14946375986723651 -0.1774778365047853 0 -0.12818043582608571 -0.18821346595889371 0 -0.14272344783918589 -0.1961386324160489 0 -0.1181783987624356 -0.1774357369677671 0 -0.13237358725461901 -0.16979063308302811 0 -0.12818043582608571 -0.18821346595889371 0 -0.13237358725461901 -0.16979063308302811 0 -0.14946375986723651 -0.1774778365047853 0 -0.12818043582608571 -0.18821346595889371 0 -0.14946375986723651 -0.1774778365047853 0 -0.14540356223935841 -0.15740908177938709 0 -0.1571479287386543 -0.15981501019160971 0 -0.13237358725461901 -0.16979063308302811 0 -0.14946375986723651 -0.1774778365047853 0 -0.14540356223935841 -0.15740908177938709 0 -0.14946375986723651 -0.1774778365047853 0 -0.1571479287386543 -0.15981501019160971 0 -0.16444780893899841 -0.1693625524286308 0 -0.16444780893899841 -0.1693625524286308 0 -0.17722471411959981 -0.16192638402783771 0 -0.16579143825890089 -0.15240087067996291 0 -0.1571479287386543 -0.15981501019160971 0 -0.16444780893899841 -0.1693625524286308 0 -0.16579143825890089 -0.15240087067996291 0 -0.14946375986723651 -0.1774778365047853 0 -0.16420381359076161 -0.182379273854156 0 -0.16093014052739221 -0.1975551867897602 0 -0.14946375986723651 -0.1774778365047853 0 -0.16444780893899841 -0.1693625524286308 0 -0.16420381359076161 -0.182379273854156 0 -0.16444780893899841 -0.1693625524286308 0 -0.16420381359076161 -0.182379273854156 0 -0.17912683133848051 -0.18352078136425801 0 -0.17912683133848051 -0.18352078136425801 0 -0.17722471411959981 -0.16192638402783771 0 -0.19239889323963941 -0.17147075577025081 0 -0.17912683133848051 -0.18352078136425801 0 -0.17722471411959981 -0.16192638402783771 0 -0.17722471411959981 -0.16192638402783771 0 -0.18600437187716279 -0.1547237906580505 0 -0.16579143825890089 -0.15240087067996291 0 -0.16444780893899841 -0.1693625524286308 0 -0.17912683133848051 -0.18352078136425801 0 -0.17722471411959981 -0.16192638402783771 0 -0.17722471411959981 -0.16192638402783771 0 -0.18600437187716279 -0.1547237906580505 0 -0.19239889323963941 -0.17147075577025081 0 -0.18600437187716279 -0.1547237906580505 0 -0.17808474545803271 -0.13926311859666551 0 -0.19096882045603861 -0.13814824474411641 0 -0.18600437187716279 -0.1547237906580505 0 -0.17808474545803271 -0.13926311859666551 0 -0.1612919662790977 -0.14411404936042599 0 -0.18600437187716279 -0.1547237906580505 0 -0.1612919662790977 -0.14411404936042599 0 -0.18349579613772041 -0.12680997936755911 0 -0.17808474545803271 -0.13926311859666551 0 -0.19096882045603861 -0.13814824474411641 0 -0.18349579613772041 -0.12680997936755911 0 -0.17808474545803271 -0.13926311859666551 0 -0.16880128043931711 -0.12819777995409951 0 -0.16880128043931711 -0.12819777995409951 0 -0.1612919662790977 -0.14411404936042599 0 -0.1485816128983081 -0.1207049853974709 0 -0.17808474545803271 -0.13926311859666551 0 -0.16880128043931711 -0.12819777995409951 0 -0.1612919662790977 -0.14411404936042599 0 -0.1612919662790977 -0.14411404936042599 0 -0.16579143825890089 -0.15240087067996291 0 -0.18600437187716279 -0.1547237906580505 0 -0.1612919662790977 -0.14411404936042599 0 -0.16579143825890089 -0.15240087067996291 0 -0.1571479287386543 -0.15981501019160971 0 -0.1612919662790977 -0.14411404936042599 0 -0.16579143825890089 -0.15240087067996291 0 -0.13882735349323549 -0.24106164698828261 0 -0.15371528247998029 -0.23143054953621539 0 -0.16393078608286479 -0.24650562829992281 0 -0.12492952334576481 -0.25997552798718271 0 -0.1171341615731636 -0.23838965339439949 0 -0.13882735349323549 -0.24106164698828261 0 -0.1171341615731636 -0.23838965339439949 0 -0.13882735349323549 -0.24106164698828261 0 -0.1261997592058175 -0.2236346186630925 0 -0.13882735349323549 -0.24106164698828261 0 -0.1261997592058175 -0.2236346186630925 0 -0.14178635713014201 -0.2222436886723366 0 -0.13882735349323549 -0.24106164698828261 0 -0.14178635713014201 -0.2222436886723366 0 -0.15371528247998029 -0.23143054953621539 0 -0.14178635713014201 -0.2222436886723366 0 -0.15371528247998029 -0.23143054953621539 0 -0.1563864530595738 -0.2180278181231981 0 -0.14579617732844941 -0.20878459830860729 0 -0.16093014052739221 -0.1975551867897602 0 -0.1563864530595738 -0.2180278181231981 0 -0.14178635713014201 -0.2222436886723366 0 -0.14579617732844941 -0.20878459830860729 0 -0.1563864530595738 -0.2180278181231981 0 -0.1261997592058175 -0.2236346186630925 0 -0.14178635713014201 -0.2222436886723366 0 -0.13133896320757771 -0.20736648349470299 0 -0.14178635713014201 -0.2222436886723366 0 -0.14579617732844941 -0.20878459830860729 0 -0.13133896320757771 -0.20736648349470299 0 -0.14579617732844941 -0.20878459830860729 0 -0.13133896320757771 -0.20736648349470299 0 -0.14272344783918589 -0.1961386324160489 0 -0.13133896320757771 -0.20736648349470299 0 -0.12818043582608571 -0.18821346595889371 0 -0.14272344783918589 -0.1961386324160489 0 -0.1204680589688355 -0.2000694149225376 0 -0.13133896320757771 -0.20736648349470299 0 -0.12818043582608571 -0.18821346595889371 0 -0.14946375986723651 -0.1774778365047853 0 -0.14272344783918589 -0.1961386324160489 0 -0.16093014052739221 -0.1975551867897602 0 -0.14579617732844941 -0.20878459830860729 0 -0.14272344783918589 -0.1961386324160489 0 -0.16093014052739221 -0.1975551867897602 0 -0.16420381359076161 -0.182379273854156 0 -0.17912683133848051 -0.18352078136425801 0 -0.16093014052739221 -0.1975551867897602 0 -0.17912683133848051 -0.18352078136425801 0 -0.16093014052739221 -0.1975551867897602 0 -0.1810289485573611 -0.2051151787006783 0 -0.17912683133848051 -0.18352078136425801 0 -0.1810289485573611 -0.2051151787006783 0 -0.17912683133848051 -0.18352078136425801 0 -0.1810289485573611 -0.2051151787006783 0 -0.19292147054622291 -0.19204770238689151 0 -0.1810289485573611 -0.2051151787006783 0 -0.18293106577624141 -0.22670957603709871 0 -0.1810289485573611 -0.2051151787006783 0 -0.17057176224496121 -0.21527097262310221 0 -0.18293106577624141 -0.22670957603709871 0 -0.16093014052739221 -0.1975551867897602 0 -0.1810289485573611 -0.2051151787006783 0 -0.17057176224496121 -0.21527097262310221 0 -0.16093014052739221 -0.1975551867897602 0 -0.17057176224496121 -0.21527097262310221 0 -0.1563864530595738 -0.2180278181231981 0 -0.16559139993116059 -0.22760776226289789 0 -0.18293106577624141 -0.22670957603709871 0 -0.16393078608286479 -0.24650562829992281 0 -0.15371528247998029 -0.23143054953621539 0 -0.1563864530595738 -0.2180278181231981 0 -0.16559139993116059 -0.22760776226289789 0 -0.17057176224496121 -0.21527097262310221 0 -0.1563864530595738 -0.2180278181231981 0 -0.16559139993116059 -0.22760776226289789 0 -0.17057176224496121 -0.21527097262310221 0 -0.16559139993116059 -0.22760776226289789 0 -0.18293106577624141 -0.22670957603709871 0 -0.18293106577624141 -0.22670957603709871 0 -0.18478090970842381 -0.24771052407825739 0 -0.19446718978336361 -0.2371864089830506 0 -0.18293106577624141 -0.22670957603709871 0 -0.16393078608286479 -0.24650562829992281 0 -0.18293106577624141 -0.22670957603709871 0 -0.18478090970842381 -0.24771052407825739 0 -0.18293106577624141 -0.22670957603709871 0 -0.18478090970842381 -0.24771052407825739 0 -0.16393078608286479 -0.24650562829992281 0 -0.15371528247998029 -0.23143054953621539 0 -0.16559139993116059 -0.22760776226289789 0 -0.16393078608286479 -0.24650562829992281 0 -0.205705253656984 -0.24850386801367019 0 -0.20445152999180541 -0.22582166780317611 0 -0.22219861934884089 -0.2345698281173674 0 -0.205705253656984 -0.24850386801367019 0 -0.20445152999180541 -0.22582166780317611 0 -0.22266169715777201 -0.25375765599846162 0 -0.205705253656984 -0.24850386801367019 0 -0.22219861934884089 -0.2345698281173674 0 -0.18478090970842381 -0.24771052407825739 0 -0.205705253656984 -0.24850386801367019 0 -0.19446718978336361 -0.2371864089830506 0 -0.205705253656984 -0.24850386801367019 0 -0.19446718978336361 -0.2371864089830506 0 -0.20445152999180541 -0.22582166780317611 0 -0.18293106577624141 -0.22670957603709871 0 -0.19446718978336361 -0.2371864089830506 0 -0.20445152999180541 -0.22582166780317611 0 -0.18293106577624141 -0.22670957603709871 0 -0.20445152999180541 -0.22582166780317611 0 -0.19882685186361421 -0.21014804024802231 0 -0.20445152999180541 -0.22582166780317611 0 -0.215883391475167 -0.21373889299014509 0 -0.22219861934884089 -0.2345698281173674 0 -0.20445152999180541 -0.22582166780317611 0 -0.215883391475167 -0.21373889299014509 0 -0.19882685186361421 -0.21014804024802231 0 -0.215883391475167 -0.21373889299014509 0 -0.19882685186361421 -0.21014804024802231 0 -0.21322582773201931 -0.18998375585124769 0 -0.1810289485573611 -0.2051151787006783 0 -0.18293106577624141 -0.22670957603709871 0 -0.19882685186361421 -0.21014804024802231 0 -0.18293106577624141 -0.22670957603709871 0 -0.19882685186361421 -0.21014804024802231 0 -0.19882685186361421 -0.21014804024802231 0 -0.19292147054622291 -0.19204770238689151 0 -0.21322582773201931 -0.18998375585124769 0 -0.1810289485573611 -0.2051151787006783 0 -0.19882685186361421 -0.21014804024802231 0 -0.19292147054622291 -0.19204770238689151 0 -0.24771049473209261 -0.19768117856553941 0 -0.23069094287863989 -0.20755926791230031 0 -0.235429183073292 -0.17594327325330181 0 -0.21322582773201931 -0.18998375585124769 0 -0.23069094287863989 -0.20755926791230031 0 -0.235429183073292 -0.17594327325330181 0 -0.24771049473209261 -0.19768117856553941 0 -0.23069094287863989 -0.20755926791230031 0 -0.25675186192423449 -0.21294858151105589 0 -0.23069094287863989 -0.20755926791230031 0 -0.2393233671183744 -0.22376497838463641 0 -0.25675186192423449 -0.21294858151105589 0 -0.215883391475167 -0.21373889299014509 0 -0.21322582773201931 -0.18998375585124769 0 -0.23069094287863989 -0.20755926791230031 0 -0.215883391475167 -0.21373889299014509 0 -0.23069094287863989 -0.20755926791230031 0 -0.2393233671183744 -0.22376497838463641 0 -0.215883391475167 -0.21373889299014509 0 -0.2393233671183744 -0.22376497838463641 0 -0.22219861934884089 -0.2345698281173674 0 -0.2393233671183744 -0.22376497838463641 0 -0.24613954941868271 -0.24181674091805319 0 -0.22219861934884089 -0.2345698281173674 0 -0.22266169715777201 -0.25375765599846162 0 -0.24613954941868271 -0.24181674091805319 0 -0.22219861934884089 -0.2345698281173674 0 -0.20856856095162679 -0.1452288614530487 0 -0.21071677747522741 -0.1653335319556761 0 -0.22542699401948171 -0.15671967513077431 0 -0.20856856095162679 -0.1452288614530487 0 -0.2004025489538257 -0.12783764387353741 0 -0.22082910684220561 -0.12892698991843229 0 -0.18349579613772041 -0.12680997936755911 0 -0.2004025489538257 -0.12783764387353741 0 -0.19096882045603861 -0.13814824474411641 0 -0.20856856095162679 -0.1452288614530487 0 -0.2004025489538257 -0.12783764387353741 0 -0.19096882045603861 -0.13814824474411641 0 -0.18600437187716279 -0.1547237906580505 0 -0.20856856095162679 -0.1452288614530487 0 -0.19096882045603861 -0.13814824474411641 0 -0.18600437187716279 -0.1547237906580505 0 -0.20856856095162679 -0.1452288614530487 0 -0.21071677747522741 -0.1653335319556761 0 -0.18600437187716279 -0.1547237906580505 0 -0.21071677747522741 -0.1653335319556761 0 -0.18600437187716279 -0.1547237906580505 0 -0.19239889323963941 -0.17147075577025081 0 -0.21071677747522741 -0.1653335319556761 0 -0.17912683133848051 -0.18352078136425801 0 -0.19292147054622291 -0.19204770238689151 0 -0.19239889323963941 -0.17147075577025081 0 -0.19292147054622291 -0.19204770238689151 0 -0.21322582773201931 -0.18998375585124769 0 -0.19239889323963941 -0.17147075577025081 0 -0.21322582773201931 -0.18998375585124769 0 -0.19239889323963941 -0.17147075577025081 0 -0.21071677747522741 -0.1653335319556761 0 -0.21071677747522741 -0.1653335319556761 0 -0.22542699401948171 -0.15671967513077431 0 -0.235429183073292 -0.17594327325330181 0 -0.21071677747522741 -0.1653335319556761 0 -0.235429183073292 -0.17594327325330181 0 -0.21322582773201931 -0.18998375585124769 0 -0.21071677747522741 -0.1653335319556761 0 -0.235429183073292 -0.17594327325330181 0 -0.24771049473209261 -0.19768117856553941 0 -0.235429183073292 -0.17594327325330181 0 -0.26014158867135673 -0.1865530145509276 0 -0.235429183073292 -0.17594327325330181 0 -0.26014158867135673 -0.1865530145509276 0 -0.235429183073292 -0.17594327325330181 0 -0.24329735308453859 -0.15473057364303339 0 -0.26063647979420768 -0.16748750478630181 0 -0.22542699401948171 -0.15671967513077431 0 -0.235429183073292 -0.17594327325330181 0 -0.24329735308453859 -0.15473057364303339 0 -0.24312827046847521 -0.14110956805416841 0 -0.25177498087438482 -0.14470540750455441 0 -0.25092318259372781 -0.13795402302542531 0 -0.24329735308453859 -0.15473057364303339 0 -0.24312827046847521 -0.14110956805416841 0 -0.25177498087438482 -0.14470540750455441 0 -0.24329735308453859 -0.15473057364303339 0 -0.24312827046847521 -0.14110956805416841 0 -0.2291230955127235 -0.1423621353488112 0 -0.22542699401948171 -0.15671967513077431 0 -0.24329735308453859 -0.15473057364303339 0 -0.2291230955127235 -0.1423621353488112 0 -0.20856856095162679 -0.1452288614530487 0 -0.22542699401948171 -0.15671967513077431 0 -0.2291230955127235 -0.1423621353488112 0 -0.20856856095162679 -0.1452288614530487 0 -0.2291230955127235 -0.1423621353488112 0 -0.22082910684220561 -0.12892698991843229 0 -0.22082910684220561 -0.12892698991843229 0 -0.2359580234661727 -0.13173543435754481 0 -0.23991785209883271 -0.11433772565505559 0 -0.2291230955127235 -0.1423621353488112 0 -0.22082910684220561 -0.12892698991843229 0 -0.2359580234661727 -0.13173543435754481 0 -0.24547060127154391 -0.13178575194574621 0 -0.23991785209883271 -0.11433772565505559 0 -0.25717849632168299 -0.13345303375459991 0 -0.2359580234661727 -0.13173543435754481 0 -0.24547060127154391 -0.13178575194574621 0 -0.23991785209883271 -0.11433772565505559 0 -0.24312827046847521 -0.14110956805416841 0 -0.2359580234661727 -0.13173543435754481 0 -0.24547060127154391 -0.13178575194574621 0 -0.24312827046847521 -0.14110956805416841 0 -0.2291230955127235 -0.1423621353488112 0 -0.2359580234661727 -0.13173543435754481 0 -0.24312827046847521 -0.14110956805416841 0 -0.24547060127154391 -0.13178575194574621 0 -0.25092318259372781 -0.13795402302542531 0 -0.23991785209883271 -0.11433772565505559 0 -0.25717849632168299 -0.13345303375459991 0 -0.23991785209883271 -0.11433772565505559 0 -0.222657207875983 -0.095222417555510655 0 -0.25028935766715599 -0.093711477972156232 0 -0.23991785209883271 -0.11433772565505559 0 -0.25028935766715599 -0.093711477972156232 0 -0.25510649943842822 -0.1163175323995409 0 -0.23991785209883271 -0.11433772565505559 0 -0.222657207875983 -0.095222417555510655 0 -0.23991785209883271 -0.11433772565505559 0 -0.222657207875983 -0.095222417555510655 0 -0.21029645478954009 -0.1146191552318005 0 -0.22082910684220561 -0.12892698991843229 0 -0.23991785209883271 -0.11433772565505559 0 -0.21029645478954009 -0.1146191552318005 0 -0.222657207875983 -0.095222417555510655 0 -0.2383179812864358 -0.070647222862611617 0 -0.25028935766715599 -0.093711477972156232 0 -0.222657207875983 -0.095222417555510655 0 -0.2383179812864358 -0.070647222862611617 0 -0.222657207875983 -0.095222417555510655 0 -0.2383179812864358 -0.070647222862611617 0 -0.20772210750560541 -0.078682534026747658 0 -0.2383179812864358 -0.070647222862611617 0 -0.20772210750560541 -0.078682534026747658 0 -0.22319065822084361 -0.059970866644831131 0 -0.20879572910939709 -0.062585566031013548 0 -0.20772210750560541 -0.078682534026747658 0 -0.22319065822084361 -0.059970866644831131 0 -0.222657207875983 -0.095222417555510655 0 -0.20772210750560541 -0.078682534026747658 0 -0.19823213469292611 -0.097446389573982509 0 -0.222657207875983 -0.095222417555510655 0 -0.20772210750560541 -0.078682534026747658 0 -0.20772210750560541 -0.078682534026747658 0 -0.19295657669441341 -0.086144780299409682 0 -0.19181588680325609 -0.076097132743495527 0 -0.20772210750560541 -0.078682534026747658 0 -0.19295657669441341 -0.086144780299409682 0 -0.19823213469292611 -0.097446389573982509 0 -0.19295657669441341 -0.086144780299409682 0 -0.19823213469292611 -0.097446389573982509 0 -0.18308162116347779 -0.091190759075587338 0 -0.19295657669441341 -0.086144780299409682 0 -0.19181588680325609 -0.076097132743495527 0 -0.1836808600411394 -0.082281109201002664 0 -0.20772210750560541 -0.078682534026747658 0 -0.19181588680325609 -0.076097132743495527 0 -0.19278700713523131 -0.062142650497981657 0 -0.20879572910939709 -0.062585566031013548 0 -0.20772210750560541 -0.078682534026747658 0 -0.19278700713523131 -0.062142650497981657 0 -0.20772210750560541 -0.078682534026747658 0 -0.19278700713523131 -0.062142650497981657 0 -0.19181588680325609 -0.076097132743495527 0 -0.1792823984775776 -0.072083767134113505 0 -0.19278700713523131 -0.062142650497981657 0 -0.2004025489538257 -0.12783764387353741 0 -0.22082910684220561 -0.12892698991843229 0 -0.21029645478954009 -0.1146191552318005 0 -0.222657207875983 -0.095222417555510655 0 -0.21029645478954009 -0.1146191552318005 0 -0.222657207875983 -0.095222417555510655 0 -0.21029645478954009 -0.1146191552318005 0 -0.19823213469292611 -0.097446389573982509 0 -0.19823213469292611 -0.097446389573982509 0 -0.1904903517473045 -0.1129726906388742 0 -0.17840918950284079 -0.1029530493569398 0 -0.21029645478954009 -0.1146191552318005 0 -0.19823213469292611 -0.097446389573982509 0 -0.1904903517473045 -0.1129726906388742 0 -0.18349579613772041 -0.12680997936755911 0 -0.2004025489538257 -0.12783764387353741 0 -0.1904903517473045 -0.1129726906388742 0 -0.2004025489538257 -0.12783764387353741 0 -0.21029645478954009 -0.1146191552318005 0 -0.1904903517473045 -0.1129726906388742 0 -0.18349579613772041 -0.12680997936755911 0 -0.1904903517473045 -0.1129726906388742 0 -0.17791905285696941 -0.11601825971995811 0 -0.1904903517473045 -0.1129726906388742 0 -0.17791905285696941 -0.11601825971995811 0 -0.17840918950284079 -0.1029530493569398 0 -0.17791905285696941 -0.11601825971995811 0 -0.1661078290104977 -0.1141111939221352 0 -0.17840918950284079 -0.1029530493569398 0 -0.18349579613772041 -0.12680997936755911 0 -0.16880128043931711 -0.12819777995409951 0 -0.17791905285696941 -0.11601825971995811 0 -0.16880128043931711 -0.12819777995409951 0 -0.1661078290104977 -0.1141111939221352 0 -0.1485816128983081 -0.1207049853974709 0 -0.16880128043931711 -0.12819777995409951 0 -0.17791905285696941 -0.11601825971995811 0 -0.1661078290104977 -0.1141111939221352 0 -0.1661078290104977 -0.1141111939221352 0 -0.16085102632032161 -0.1062756979040386 0 -0.1485816128983081 -0.1207049853974709 0 -0.16123777644918619 -0.095946155627980881 0 -0.16085102632032161 -0.1062756979040386 0 -0.15382855044866409 -0.099973808901125241 0 -0.16123777644918619 -0.095946155627980881 0 -0.16085102632032161 -0.1062756979040386 0 -0.16758359835058101 -0.10070937112754 0 -0.1661078290104977 -0.1141111939221352 0 -0.16085102632032161 -0.1062756979040386 0 -0.16758359835058101 -0.10070937112754 0 -0.1661078290104977 -0.1141111939221352 0 -0.16758359835058101 -0.10070937112754 0 -0.17840918950284079 -0.1029530493569398 0 -0.16123777644918619 -0.095946155627980881 0 -0.16758359835058101 -0.10070937112754 0 -0.17033424969989791 -0.092354607373493408 0 -0.17840918950284079 -0.1029530493569398 0 -0.18308162116347779 -0.091190759075587338 0 -0.17033424969989791 -0.092354607373493408 0 -0.16758359835058101 -0.10070937112754 0 -0.17840918950284079 -0.1029530493569398 0 -0.17033424969989791 -0.092354607373493408 0 -0.19823213469292611 -0.097446389573982509 0 -0.17840918950284079 -0.1029530493569398 0 -0.18308162116347779 -0.091190759075587338 0 -0.18308162116347779 -0.091190759075587338 0 -0.1836808600411394 -0.082281109201002664 0 -0.1748245760859698 -0.084917540132814301 0 -0.19295657669441341 -0.086144780299409682 0 -0.18308162116347779 -0.091190759075587338 0 -0.1836808600411394 -0.082281109201002664 0 -0.1748245760859698 -0.084917540132814301 0 -0.1792823984775776 -0.072083767134113505 0 -0.17023674349563461 -0.079748028219419703 0 -0.1836808600411394 -0.082281109201002664 0 -0.1748245760859698 -0.084917540132814301 0 -0.1792823984775776 -0.072083767134113505 0 -0.18308162116347779 -0.091190759075587338 0 -0.1748245760859698 -0.084917540132814301 0 -0.17033424969989791 -0.092354607373493408 0 -0.1792823984775776 -0.072083767134113505 0 -0.1838168841505512 -0.062422911905507257 0 -0.19278700713523131 -0.062142650497981657 0 -0.1792823984775776 -0.072083767134113505 0 -0.19278700713523131 -0.062142650497981657 0 -0.1792823984775776 -0.072083767134113505 0 -0.17725866411134289 -0.060905890986584783 0 -0.1838168841505512 -0.062422911905507257 0 -0.19181588680325609 -0.076097132743495527 0 -0.1836808600411394 -0.082281109201002664 0 -0.1792823984775776 -0.072083767134113505 0 -0.1792823984775776 -0.072083767134113505 0 -0.16577778981992439 -0.082024883770246027 0 -0.1792823984775776 -0.072083767134113505 0 -0.16937431881547441 -0.066484784626385018 0 -0.1704722266458944 -0.072408771487773041 0 -0.1792823984775776 -0.072083767134113505 0 -0.1704722266458944 -0.072408771487773041 0 -0.16818268740968159 -0.075997965900709077 0 -0.1792823984775776 -0.072083767134113505 0 -0.16937431881547441 -0.066484784626385018 0 -0.17725866411134289 -0.060905890986584783 0 -0.16937431881547441 -0.066484784626385018 0 -0.16168846610501969 -0.064631781037457606 0 -0.16578606193432979 -0.059716706801597852 0 -0.16937431881547441 -0.066484784626385018 0 -0.16687211868026749 -0.072442188877017685 0 -0.16280625542420071 -0.07092395216889151 0 -0.16937431881547441 -0.066484784626385018 0 -0.16280625542420071 -0.07092395216889151 0 -0.16168846610501969 -0.064631781037457606 0 -0.1792823984775776 -0.072083767134113505 0 -0.17023674349563461 -0.079748028219419703 0 -0.16577778981992439 -0.082024883770246027 0 -0.1792823984775776 -0.072083767134113505 0 -0.16818268740968159 -0.075997965900709077 0 -0.16577778981992439 -0.082024883770246027 0 -0.16687211868026749 -0.072442188877017685 0 -0.1635251051060862 -0.076395470201329835 0 -0.16280625542420071 -0.07092395216889151 0 -0.16937431881547441 -0.066484784626385018 0 -0.16687211868026749 -0.072442188877017685 0 -0.1704722266458944 -0.072408771487773041 0 -0.16687211868026749 -0.072442188877017685 0 -0.1704722266458944 -0.072408771487773041 0 -0.16818268740968159 -0.075997965900709077 0 -0.16687211868026749 -0.072442188877017685 0 -0.16818268740968159 -0.075997965900709077 0 -0.1635251051060862 -0.076395470201329835 0 -0.16818268740968159 -0.075997965900709077 0 -0.1635251051060862 -0.076395470201329835 0 -0.1640466803919621 -0.079319168834338469 0 -0.1635251051060862 -0.076395470201329835 0 -0.1609779379606823 -0.077914536584715019 0 -0.1640466803919621 -0.079319168834338469 0 -0.1635251051060862 -0.076395470201329835 0 -0.1609779379606823 -0.077914536584715019 0 -0.1596350243551013 -0.074573230741499269 0 -0.1596350243551013 -0.074573230741499269 0 -0.15769910470421181 -0.07839858457045186 0 -0.15561437901635189 -0.074789011495980731 0 -0.1609779379606823 -0.077914536584715019 0 -0.1596350243551013 -0.074573230741499269 0 -0.15769910470421181 -0.07839858457045186 0 -0.1596350243551013 -0.074573230741499269 0 -0.15695052835450909 -0.069682659804194982 0 -0.15561437901635189 -0.074789011495980731 0 -0.1596350243551013 -0.074573230741499269 0 -0.16280625542420071 -0.07092395216889151 0 -0.15695052835450909 -0.069682659804194982 0 -0.1635251051060862 -0.076395470201329835 0 -0.1596350243551013 -0.074573230741499269 0 -0.16280625542420071 -0.07092395216889151 0 -0.16280625542420071 -0.07092395216889151 0 -0.15695052835450909 -0.069682659804194982 0 -0.16168846610501969 -0.064631781037457606 0 -0.15695052835450909 -0.069682659804194982 0 -0.16168846610501969 -0.064631781037457606 0 -0.1554468906404714 -0.062580098380443899 0 -0.16123777644918619 -0.095946155627980881 0 -0.17033424969989791 -0.092354607373493408 0 -0.16340142275143801 -0.088607049288168149 0 -0.16812929731740589 -0.086633728791118039 0 -0.16554447714405421 -0.08557494538960625 0 -0.16340142275143801 -0.088607049288168149 0 -0.17033424969989791 -0.092354607373493408 0 -0.16812929731740589 -0.086633728791118039 0 -0.16340142275143801 -0.088607049288168149 0 -0.1748245760859698 -0.084917540132814301 0 -0.17033424969989791 -0.092354607373493408 0 -0.16812929731740589 -0.086633728791118039 0 -0.1748245760859698 -0.084917540132814301 0 -0.16812929731740589 -0.086633728791118039 0 -0.16918413831637891 -0.083191220654166231 0 -0.1748245760859698 -0.084917540132814301 0 -0.16918413831637891 -0.083191220654166231 0 -0.17023674349563461 -0.079748028219419703 0 -0.16812929731740589 -0.086633728791118039 0 -0.16918413831637891 -0.083191220654166231 0 -0.1666125897004451 -0.084088767034835671 0 -0.17023674349563461 -0.079748028219419703 0 -0.16577778981992439 -0.082024883770246027 0 -0.16918413831637891 -0.083191220654166231 0 -0.17023674349563461 -0.079748028219419703 0 -0.16577778981992439 -0.082024883770246027 0 -0.16818268740968159 -0.075997965900709077 0 -0.16577778981992439 -0.082024883770246027 0 -0.1640466803919621 -0.079319168834338469 0 -0.16577778981992439 -0.082024883770246027 0 -0.16554447714405421 -0.08557494538960625 0 -0.16340142275143801 -0.088607049288168149 0 -0.16812929731740589 -0.086633728791118039 0 -0.1666125897004451 -0.084088767034835671 0 -0.16554447714405421 -0.08557494538960625 0 -0.16918413831637891 -0.083191220654166231 0 -0.16577778981992439 -0.082024883770246027 0 -0.1666125897004451 -0.084088767034835671 0 -0.16577778981992439 -0.082024883770246027 0 -0.1666125897004451 -0.084088767034835671 0 -0.16554447714405421 -0.08557494538960625 0 -0.16577778981992439 -0.082024883770246027 0 -0.1515283862093936 -0.089300992935350321 0 -0.1556507103636659 -0.082798060432107259 0 -0.16577778981992439 -0.082024883770246027 0 -0.1515283862093936 -0.089300992935350321 0 -0.16577778981992439 -0.082024883770246027 0 -0.1606988305398844 -0.080400743139762476 0 -0.1556507103636659 -0.082798060432107259 0 -0.16577778981992439 -0.082024883770246027 0 -0.1640466803919621 -0.079319168834338469 0 -0.1606988305398844 -0.080400743139762476 0 -0.1609779379606823 -0.077914536584715019 0 -0.1640466803919621 -0.079319168834338469 0 -0.1606988305398844 -0.080400743139762476 0 -0.1606988305398844 -0.080400743139762476 0 -0.15769910470421181 -0.07839858457045186 0 -0.1556507103636659 -0.082798060432107259 0 -0.1609779379606823 -0.077914536584715019 0 -0.1606988305398844 -0.080400743139762476 0 -0.15769910470421181 -0.07839858457045186 0 -0.16577778981992439 -0.082024883770246027 0 -0.16340142275143801 -0.088607049288168149 0 -0.1515283862093936 -0.089300992935350321 0 -0.16123777644918619 -0.095946155627980881 0 -0.16340142275143801 -0.088607049288168149 0 -0.1515283862093936 -0.089300992935350321 0 -0.1515283862093936 -0.089300992935350321 0 -0.1358712595175208 -0.09729592143451464 0 -0.1515283862093936 -0.089300992935350321 0 -0.14272633938449189 -0.088026257350921497 0 -0.1358712595175208 -0.09729592143451464 0 -0.1515283862093936 -0.089300992935350321 0 -0.1556507103636659 -0.082798060432107259 0 -0.14844969208011341 -0.081411100445493281 0 -0.1556507103636659 -0.082798060432107259 0 -0.15359177496470211 -0.078405473518974589 0 -0.14844969208011341 -0.081411100445493281 0 -0.15769910470421181 -0.07839858457045186 0 -0.1556507103636659 -0.082798060432107259 0 -0.15359177496470211 -0.078405473518974589 0 -0.14844969208011341 -0.081411100445493281 0 -0.14319437227947099 -0.07445657074242143 0 -0.1389882770241494 -0.081925351716253023 0 -0.14844969208011341 -0.081411100445493281 0 -0.14272633938449189 -0.088026257350921497 0 -0.1389882770241494 -0.081925351716253023 0 -0.1515283862093936 -0.089300992935350321 0 -0.14844969208011341 -0.081411100445493281 0 -0.14272633938449189 -0.088026257350921497 0 -0.15173431432118831 -0.066653962292980054 0 -0.14692815013612279 -0.064150417229905804 0 -0.1504156128528043 -0.0595734635186854 0 -0.15695052835450909 -0.069682659804194982 0 -0.1554468906404714 -0.062580098380443899 0 -0.15173431432118831 -0.066653962292980054 0 -0.1554468906404714 -0.062580098380443899 0 -0.15173431432118831 -0.066653962292980054 0 -0.1504156128528043 -0.0595734635186854 0 -0.15695052835450909 -0.069682659804194982 0 -0.15173431432118831 -0.066653962292980054 0 -0.15104984916914049 -0.073321647180650915 0 -0.15173431432118831 -0.066653962292980054 0 -0.15104984916914049 -0.073321647180650915 0 -0.1466162888707512 -0.06925695061353547 0 -0.15359177496470211 -0.078405473518974589 0 -0.14844969208011341 -0.081411100445493281 0 -0.15104984916914049 -0.073321647180650915 0 -0.15695052835450909 -0.069682659804194982 0 -0.15104984916914049 -0.073321647180650915 0 -0.15561437901635189 -0.074789011495980731 0 -0.15769910470421181 -0.07839858457045186 0 -0.15359177496470211 -0.078405473518974589 0 -0.15561437901635189 -0.074789011495980731 0 -0.15359177496470211 -0.078405473518974589 0 -0.15104984916914049 -0.073321647180650915 0 -0.15561437901635189 -0.074789011495980731 0 -0.14844969208011341 -0.081411100445493281 0 -0.15104984916914049 -0.073321647180650915 0 -0.14319437227947099 -0.07445657074242143 0 -0.15104984916914049 -0.073321647180650915 0 -0.14319437227947099 -0.07445657074242143 0 -0.1466162888707512 -0.06925695061353547 0 -0.14319437227947099 -0.07445657074242143 0 -0.1466162888707512 -0.06925695061353547 0 -0.1402287119846983 -0.066090492945792181 0 -0.1466162888707512 -0.06925695061353547 0 -0.14692815013612279 -0.064150417229905804 0 -0.1402287119846983 -0.066090492945792181 0 -0.15173431432118831 -0.066653962292980054 0 -0.1466162888707512 -0.06925695061353547 0 -0.14692815013612279 -0.064150417229905804 0 -0.14692815013612279 -0.064150417229905804 0 -0.1402287119846983 -0.066090492945792181 0 -0.1453592624539882 -0.059047387169355418 0 -0.1402287119846983 -0.066090492945792181 0 -0.13088220118532959 -0.067514101794340448 0 -0.13530042878379961 -0.061768860165916817 0 -0.1402287119846983 -0.066090492945792181 0 -0.13577529735536489 -0.073666816583942141 0 -0.13088220118532959 -0.067514101794340448 0 -0.14319437227947099 -0.07445657074242143 0 -0.13577529735536489 -0.073666816583942141 0 -0.1389882770241494 -0.081925351716253023 0 -0.14319437227947099 -0.07445657074242143 0 -0.1402287119846983 -0.066090492945792181 0 -0.13577529735536489 -0.073666816583942141 0 -0.13577529735536489 -0.073666816583942141 0 -0.1389882770241494 -0.081925351716253023 0 -0.12558292430317611 -0.07834756572090365 0 -0.13577529735536489 -0.073666816583942141 0 -0.13088220118532959 -0.067514101794340448 0 -0.12558292430317611 -0.07834756572090365 0 -0.1194328917565281 -0.064170440014843233 0 -0.13088220118532959 -0.067514101794340448 0 -0.1290982905329128 -0.059632400421765042 0 -0.13088220118532959 -0.067514101794340448 0 -0.1290982905329128 -0.059632400421765042 0 -0.13530042878379961 -0.061768860165916817 0 -0.1194328917565281 -0.064170440014843233 0 -0.13088220118532959 -0.067514101794340448 0 -0.12558292430317611 -0.07834756572090365 0 -0.13666188852096681 -0.089534531866608563 0 -0.12558292430317611 -0.07834756572090365 0 -0.1358712595175208 -0.09729592143451464 0 -0.11452085266420101 -0.091906122445804567 0 -0.12532025114402709 -0.088793788438863611 0 -0.1358712595175208 -0.09729592143451464 0 -0.12558292430317611 -0.07834756572090365 0 -0.1358712595175208 -0.09729592143451464 0 -0.12558292430317611 -0.07834756572090365 0 -0.12532025114402709 -0.088793788438863611 0 -0.1358712595175208 -0.09729592143451464 0 -0.14272633938449189 -0.088026257350921497 0 -0.13666188852096681 -0.089534531866608563 0 -0.1358712595175208 -0.09729592143451464 0 -0.14272633938449189 -0.088026257350921497 0 -0.13666188852096681 -0.089534531866608563 0 -0.1389882770241494 -0.081925351716253023 0 -0.13666188852096681 -0.089534531866608563 0 -0.1389882770241494 -0.081925351716253023 0 -0.12558292430317611 -0.07834756572090365 0 -0.11452085266420101 -0.091906122445804567 0 -0.1358712595175208 -0.09729592143451464 0 -0.1358712595175208 -0.09729592143451464 0 -0.1266901189146723 -0.11636094711718201 0 -0.1485816128983081 -0.1207049853974709 0 -0.13376864667402091 -0.13229750242399019 0 -0.1266901189146723 -0.11636094711718201 0 -0.1485816128983081 -0.1207049853974709 0 -0.1358712595175208 -0.09729592143451464 0 -0.1485816128983081 -0.1207049853974709 0 -0.1358712595175208 -0.09729592143451464 0 -0.15382855044866409 -0.099973808901125241 0 -0.1515283862093936 -0.089300992935350321 0 -0.1358712595175208 -0.09729592143451464 0 -0.15382855044866409 -0.099973808901125241 0 -0.1358712595175208 -0.09729592143451464 0 -0.1485816128983081 -0.1207049853974709 0 -0.15382855044866409 -0.099973808901125241 0 -0.16085102632032161 -0.1062756979040386 0 -0.1485816128983081 -0.1207049853974709 0 -0.15382855044866409 -0.099973808901125241 0 -0.16123777644918619 -0.095946155627980881 0 -0.1515283862093936 -0.089300992935350321 0 -0.15382855044866409 -0.099973808901125241 0 -0.14308431329177551 -0.023971734096252969 0 -0.15491621355604601 -0.028342290844696159 0 -0.16827496409620421 -0.018118988986463431 0 -0.14308431329177551 -0.023971734096252969 0 -0.15559412394961231 -0.01117502074595471 0 -0.16827496409620421 -0.018118988986463431 0 -0.14308431329177551 -0.023971734096252969 0 -0.16827496409620421 -0.018118988986463431 0 -0.14456699450207319 -0.01618984286763369 0 -0.14308431329177551 -0.023971734096252969 0 -0.15559412394961231 -0.01117502074595471 0 -0.14456699450207319 -0.01618984286763369 0 -0.1420907176151476 -0.019882644313020649 0 -0.13871301577969811 -0.017416387504943599 0 -0.14456699450207319 -0.01618984286763369 0 -0.1420907176151476 -0.019882644313020649 0 -0.14308431329177551 -0.023971734096252969 0 -0.1420907176151476 -0.019882644313020649 0 -0.14308431329177551 -0.023971734096252969 0 -0.13871301577969811 -0.017416387504943599 0 -0.14114525679035961 -0.02656400985667437 0 -0.14433502610495719 -0.027281026786138259 0 -0.14308431329177551 -0.023971734096252969 0 -0.14114525679035961 -0.02656400985667437 0 -0.14433502610495719 -0.027281026786138259 0 -0.14039804783369161 -0.029773723878892169 0 -0.14433502610495719 -0.027281026786138259 0 -0.14039804783369161 -0.029773723878892169 0 -0.14488296584367791 -0.033422935658971219 0 -0.14433502610495719 -0.027281026786138259 0 -0.1476905260696732 -0.028401883884601971 0 -0.14488296584367791 -0.033422935658971219 0 -0.14433502610495719 -0.027281026786138259 0 -0.14308431329177551 -0.023971734096252969 0 -0.1476905260696732 -0.028401883884601971 0 -0.14308431329177551 -0.023971734096252969 0 -0.1476905260696732 -0.028401883884601971 0 -0.15491621355604601 -0.028342290844696159 0 -0.1476905260696732 -0.028401883884601971 0 -0.15491621355604601 -0.028342290844696159 0 -0.1503568692848041 -0.033454827167633767 0 -0.15559412394961231 -0.01117502074595471 0 -0.14863338206775739 -0.002425641076573675 0 -0.15749918475220409 0.0018061885736658111 0 -0.15559412394961231 -0.01117502074595471 0 -0.14863338206775739 -0.002425641076573675 0 -0.14337578284730279 -0.0097953960770113119 0 -0.14863338206775739 -0.002425641076573675 0 -0.14337578284730279 -0.0097953960770113119 0 -0.138196097687317 -0.0012428439792985841 0 -0.14456699450207319 -0.01618984286763369 0 -0.15559412394961231 -0.01117502074595471 0 -0.14337578284730279 -0.0097953960770113119 0 -0.14456699450207319 -0.01618984286763369 0 -0.14337578284730279 -0.0097953960770113119 0 -0.13871301577969811 -0.017416387504943599 0 -0.1363442009302363 -0.0086984780369898807 0 -0.13203880739597959 -0.01454911171992147 0 -0.13871301577969811 -0.017416387504943599 0 -0.14337578284730279 -0.0097953960770113119 0 -0.1363442009302363 -0.0086984780369898807 0 -0.13871301577969811 -0.017416387504943599 0 -0.138196097687317 -0.0012428439792985841 0 -0.12971617288639531 -0.0048886410824493919 0 -0.1314233852820951 0.0045994308721778159 0 -0.14337578284730279 -0.0097953960770113119 0 -0.1363442009302363 -0.0086984780369898807 0 -0.138196097687317 -0.0012428439792985841 0 -0.1363442009302363 -0.0086984780369898807 0 -0.138196097687317 -0.0012428439792985841 0 -0.12971617288639531 -0.0048886410824493919 0 -0.1181101929107005 -0.01205589487452241 0 -0.12971617288639531 -0.0048886410824493919 0 -0.13203880739597959 -0.01454911171992147 0 -0.1363442009302363 -0.0086984780369898807 0 -0.12971617288639531 -0.0048886410824493919 0 -0.13203880739597959 -0.01454911171992147 0 -0.1181101929107005 -0.01205589487452241 0 -0.14308431329177551 -0.023971734096252969 0 -0.13676363993101401 -0.02522955466541409 0 -0.1181101929107005 -0.01205589487452241 0 -0.14308431329177551 -0.023971734096252969 0 -0.13203880739597959 -0.01454911171992147 0 -0.1181101929107005 -0.01205589487452241 0 -0.14308431329177551 -0.023971734096252969 0 -0.1181101929107005 -0.01205589487452241 0 -0.13676363993101401 -0.02522955466541409 0 -0.12910209615565699 -0.024012301780688989 0 -0.14308431329177551 -0.023971734096252969 0 -0.13203880739597959 -0.01454911171992147 0 -0.13871301577969811 -0.017416387504943599 0 -0.14039804783369161 -0.029773723878892169 0 -0.13676363993101401 -0.02522955466541409 0 -0.13559316736078031 -0.030553904380041741 0 -0.14114525679035961 -0.02656400985667437 0 -0.14308431329177551 -0.023971734096252969 0 -0.13676363993101401 -0.02522955466541409 0 -0.14114525679035961 -0.02656400985667437 0 -0.14039804783369161 -0.029773723878892169 0 -0.13676363993101401 -0.02522955466541409 0 -0.13676363993101401 -0.02522955466541409 0 -0.13559316736078031 -0.030553904380041741 0 -0.12910209615565699 -0.024012301780688989 0 -0.13559316736078031 -0.030553904380041741 0 -0.125941384420133 -0.028209853202777729 0 -0.12910209615565699 -0.024012301780688989 0 -0.125941384420133 -0.028209853202777729 0 -0.1321170444800274 -0.035898679257747597 0 -0.1252816462006961 -0.038091455574512302 0 -0.13559316736078031 -0.030553904380041741 0 -0.125941384420133 -0.028209853202777729 0 -0.1321170444800274 -0.035898679257747597 0 -0.1321170444800274 -0.035898679257747597 0 -0.1252816462006961 -0.038091455574512302 0 -0.13100757443455999 -0.04160296113813744 0 -0.1252816462006961 -0.038091455574512302 0 -0.1268240780369419 -0.046076455732373602 0 -0.13100757443455999 -0.04160296113813744 0 -0.1268240780369419 -0.046076455732373602 0 -0.13100757443455999 -0.04160296113813744 0 -0.13427326012248189 -0.046800784895764287 0 -0.1321170444800274 -0.035898679257747597 0 -0.13100757443455999 -0.04160296113813744 0 -0.13654184333265279 -0.041147430230289411 0 -0.13100757443455999 -0.04160296113813744 0 -0.13654184333265279 -0.041147430230289411 0 -0.13427326012248189 -0.046800784895764287 0 -0.13654184333265279 -0.041147430230289411 0 -0.13427326012248189 -0.046800784895764287 0 -0.14116113641593739 -0.04616818029369902 0 -0.13654184333265279 -0.041147430230289411 0 -0.14250594739751399 -0.040216270959863749 0 -0.14116113641593739 -0.04616818029369902 0 -0.13654184333265279 -0.041147430230289411 0 -0.1387815647559015 -0.035217355619417592 0 -0.14250594739751399 -0.040216270959863749 0 -0.14039804783369161 -0.029773723878892169 0 -0.13559316736078031 -0.030553904380041741 0 -0.1387815647559015 -0.035217355619417592 0 -0.13559316736078031 -0.030553904380041741 0 -0.1321170444800274 -0.035898679257747597 0 -0.1387815647559015 -0.035217355619417592 0 -0.1321170444800274 -0.035898679257747597 0 -0.13654184333265279 -0.041147430230289411 0 -0.1387815647559015 -0.035217355619417592 0 -0.12188488863174129 -0.053265039890056341 0 -0.1290982905329128 -0.059632400421765042 0 -0.13178342031206339 -0.052524490303700391 0 -0.1290982905329128 -0.059632400421765042 0 -0.13178342031206339 -0.052524490303700391 0 -0.13497239916844819 -0.056947206475452421 0 -0.12188488863174129 -0.053265039890056341 0 -0.1268240780369419 -0.046076455732373602 0 -0.13178342031206339 -0.052524490303700391 0 -0.1268240780369419 -0.046076455732373602 0 -0.13427326012248189 -0.046800784895764287 0 -0.13178342031206339 -0.052524490303700391 0 -0.13427326012248189 -0.046800784895764287 0 -0.13178342031206339 -0.052524490303700391 0 -0.1387753232174416 -0.052331228112925073 0 -0.13427326012248189 -0.046800784895764287 0 -0.1387753232174416 -0.052331228112925073 0 -0.14116113641593739 -0.04616818029369902 0 -0.13178342031206339 -0.052524490303700391 0 -0.1387753232174416 -0.052331228112925073 0 -0.13497239916844819 -0.056947206475452421 0 -0.1387753232174416 -0.052331228112925073 0 -0.13497239916844819 -0.056947206475452421 0 -0.13990453299602371 -0.058479053372954802 0 -0.1402287119846983 -0.066090492945792181 0 -0.13990453299602371 -0.058479053372954802 0 -0.13530042878379961 -0.061768860165916817 0 -0.13497239916844819 -0.056947206475452421 0 -0.13990453299602371 -0.058479053372954802 0 -0.13530042878379961 -0.061768860165916817 0 -0.1290982905329128 -0.059632400421765042 0 -0.13497239916844819 -0.056947206475452421 0 -0.13530042878379961 -0.061768860165916817 0 -0.14692815013612279 -0.064150417229905804 0 -0.1453592624539882 -0.059047387169355418 0 -0.1504156128528043 -0.0595734635186854 0 -0.1402287119846983 -0.066090492945792181 0 -0.13990453299602371 -0.058479053372954802 0 -0.1453592624539882 -0.059047387169355418 0 -0.1387753232174416 -0.052331228112925073 0 -0.13990453299602371 -0.058479053372954802 0 -0.1436786286228236 -0.054950019672129258 0 -0.13990453299602371 -0.058479053372954802 0 -0.1453592624539882 -0.059047387169355418 0 -0.1436786286228236 -0.054950019672129258 0 -0.1453592624539882 -0.059047387169355418 0 -0.14777281876968429 -0.055763385739752369 0 -0.1504156128528043 -0.0595734635186854 0 -0.1453592624539882 -0.059047387169355418 0 -0.1436786286228236 -0.054950019672129258 0 -0.14777281876968429 -0.055763385739752369 0 -0.1436786286228236 -0.054950019672129258 0 -0.14750284961956811 -0.052133604437530817 0 -0.1434757021530253 -0.050648334227280753 0 -0.1436786286228236 -0.054950019672129258 0 -0.14777281876968429 -0.055763385739752369 0 -0.14750284961956811 -0.052133604437530817 0 -0.1387753232174416 -0.052331228112925073 0 -0.1436786286228236 -0.054950019672129258 0 -0.1434757021530253 -0.050648334227280753 0 -0.1434757021530253 -0.050648334227280753 0 -0.14678373392531949 -0.04789407001204149 0 -0.14116113641593739 -0.04616818029369902 0 -0.1387753232174416 -0.052331228112925073 0 -0.1434757021530253 -0.050648334227280753 0 -0.14116113641593739 -0.04616818029369902 0 -0.14750284961956811 -0.052133604437530817 0 -0.1434757021530253 -0.050648334227280753 0 -0.14678373392531949 -0.04789407001204149 0 -0.14750284961956811 -0.052133604437530817 0 -0.14678373392531949 -0.04789407001204149 0 -0.1520908508355536 -0.049375516506006738 0 -0.14678373392531949 -0.04789407001204149 0 -0.1520908508355536 -0.049375516506006738 0 -0.15089909941618271 -0.044231585246554309 0 -0.1520908508355536 -0.049375516506006738 0 -0.15613318195710851 -0.046206408850295068 0 -0.15810232597501231 -0.051869761897790419 0 -0.151694464637224 -0.054129498214665367 0 -0.15502344731774381 -0.057214922513829883 0 -0.15810232597501231 -0.051869761897790419 0 -0.1520908508355536 -0.049375516506006738 0 -0.151694464637224 -0.054129498214665367 0 -0.15810232597501231 -0.051869761897790419 0 -0.14777281876968429 -0.055763385739752369 0 -0.14750284961956811 -0.052133604437530817 0 -0.151694464637224 -0.054129498214665367 0 -0.14750284961956811 -0.052133604437530817 0 -0.1520908508355536 -0.049375516506006738 0 -0.151694464637224 -0.054129498214665367 0 -0.14777281876968429 -0.055763385739752369 0 -0.151694464637224 -0.054129498214665367 0 -0.1504156128528043 -0.0595734635186854 0 -0.151694464637224 -0.054129498214665367 0 -0.15502344731774381 -0.057214922513829883 0 -0.1504156128528043 -0.0595734635186854 0 -0.1554468906404714 -0.062580098380443899 0 -0.15502344731774381 -0.057214922513829883 0 -0.1504156128528043 -0.0595734635186854 0 -0.14488296584367791 -0.033422935658971219 0 -0.14250594739751399 -0.040216270959863749 0 -0.14860057267275581 -0.039043725642993021 0 -0.14488296584367791 -0.033422935658971219 0 -0.14860057267275581 -0.039043725642993021 0 -0.1503568692848041 -0.033454827167633767 0 -0.1476905260696732 -0.028401883884601971 0 -0.14488296584367791 -0.033422935658971219 0 -0.1503568692848041 -0.033454827167633767 0 -0.14039804783369161 -0.029773723878892169 0 -0.1387815647559015 -0.035217355619417592 0 -0.14488296584367791 -0.033422935658971219 0 -0.1387815647559015 -0.035217355619417592 0 -0.14488296584367791 -0.033422935658971219 0 -0.14250594739751399 -0.040216270959863749 0 -0.14250594739751399 -0.040216270959863749 0 -0.14116113641593739 -0.04616818029369902 0 -0.1459814905075594 -0.043555608627632268 0 -0.14678373392531949 -0.04789407001204149 0 -0.14116113641593739 -0.04616818029369902 0 -0.1459814905075594 -0.043555608627632268 0 -0.14678373392531949 -0.04789407001204149 0 -0.1459814905075594 -0.043555608627632268 0 -0.15089909941618271 -0.044231585246554309 0 -0.14250594739751399 -0.040216270959863749 0 -0.1459814905075594 -0.043555608627632268 0 -0.14860057267275581 -0.039043725642993021 0 -0.1459814905075594 -0.043555608627632268 0 -0.15089909941618271 -0.044231585246554309 0 -0.14860057267275581 -0.039043725642993021 0 -0.15089909941618271 -0.044231585246554309 0 -0.15613318195710851 -0.046206408850295068 0 -0.15569406828186749 -0.038063299806906488 0 -0.15089909941618271 -0.044231585246554309 0 -0.15569406828186749 -0.038063299806906488 0 -0.14860057267275581 -0.039043725642993021 0 -0.1520908508355536 -0.049375516506006738 0 -0.15089909941618271 -0.044231585246554309 0 -0.15613318195710851 -0.046206408850295068 0 -0.15491621355604601 -0.028342290844696159 0 -0.15569406828186749 -0.038063299806906488 0 -0.1503568692848041 -0.033454827167633767 0 -0.15569406828186749 -0.038063299806906488 0 -0.14860057267275581 -0.039043725642993021 0 -0.1503568692848041 -0.033454827167633767 0 -0.15569406828186749 -0.038063299806906488 0 -0.16253076256383539 -0.043990828500743803 0 -0.165801617998204 -0.032463579720955392 0 -0.15491621355604601 -0.028342290844696159 0 -0.15569406828186749 -0.038063299806906488 0 -0.165801617998204 -0.032463579720955392 0 -0.15613318195710851 -0.046206408850295068 0 -0.15569406828186749 -0.038063299806906488 0 -0.16253076256383539 -0.043990828500743803 0 -0.16253076256383539 -0.043990828500743803 0 -0.16666311580671939 -0.052090923024296923 0 -0.17250926479887349 -0.042521611809744883 0 -0.16253076256383539 -0.043990828500743803 0 -0.165801617998204 -0.032463579720955392 0 -0.17250926479887349 -0.042521611809744883 0 -0.16168846610501969 -0.064631781037457606 0 -0.15976674146113259 -0.0584024844432324 0 -0.16578606193432979 -0.059716706801597852 0 -0.1554468906404714 -0.062580098380443899 0 -0.15502344731774381 -0.057214922513829883 0 -0.15976674146113259 -0.0584024844432324 0 -0.16168846610501969 -0.064631781037457606 0 -0.1554468906404714 -0.062580098380443899 0 -0.15976674146113259 -0.0584024844432324 0 -0.15502344731774381 -0.057214922513829883 0 -0.15976674146113259 -0.0584024844432324 0 -0.15810232597501231 -0.051869761897790419 0 -0.15976674146113259 -0.0584024844432324 0 -0.15810232597501231 -0.051869761897790419 0 -0.16666311580671939 -0.052090923024296923 0 -0.16253076256383539 -0.043990828500743803 0 -0.15810232597501231 -0.051869761897790419 0 -0.16666311580671939 -0.052090923024296923 0 -0.15613318195710851 -0.046206408850295068 0 -0.16253076256383539 -0.043990828500743803 0 -0.15810232597501231 -0.051869761897790419 0 -0.16666311580671939 -0.052090923024296923 0 -0.1713862973278896 -0.056871219959289371 0 -0.17637710970242251 -0.051739276777619803 0 -0.16666311580671939 -0.052090923024296923 0 -0.17637710970242251 -0.051739276777619803 0 -0.17250926479887349 -0.042521611809744883 0 -0.16937431881547441 -0.066484784626385018 0 -0.1713862973278896 -0.056871219959289371 0 -0.16578606193432979 -0.059716706801597852 0 -0.16666311580671939 -0.052090923024296923 0 -0.1713862973278896 -0.056871219959289371 0 -0.16578606193432979 -0.059716706801597852 0 -0.15976674146113259 -0.0584024844432324 0 -0.16666311580671939 -0.052090923024296923 0 -0.16578606193432979 -0.059716706801597852 0 -0.1713862973278896 -0.056871219959289371 0 -0.17725866411134289 -0.060905890986584783 0 -0.17637710970242251 -0.051739276777619803 0 -0.16937431881547441 -0.066484784626385018 0 -0.1713862973278896 -0.056871219959289371 0 -0.17725866411134289 -0.060905890986584783 0 -0.17637710970242251 -0.051739276777619803 0 -0.18593946687805299 -0.054559339003349111 0 -0.1845058492916567 -0.043486675882453793 0 -0.17725866411134289 -0.060905890986584783 0 -0.17637710970242251 -0.051739276777619803 0 -0.18593946687805299 -0.054559339003349111 0 -0.17725866411134289 -0.060905890986584783 0 -0.18593946687805299 -0.054559339003349111 0 -0.1838168841505512 -0.062422911905507257 0 -0.17250926479887349 -0.042521611809744883 0 -0.1845058492916567 -0.043486675882453793 0 -0.17958778334171399 -0.030481023530066188 0 -0.165801617998204 -0.032463579720955392 0 -0.17250926479887349 -0.042521611809744883 0 -0.17958778334171399 -0.030481023530066188 0 -0.17637710970242251 -0.051739276777619803 0 -0.17250926479887349 -0.042521611809744883 0 -0.1845058492916567 -0.043486675882453793 0 -0.1845058492916567 -0.043486675882453793 0 -0.17958778334171399 -0.030481023530066188 0 -0.19332062821392351 -0.032993112263536697 0 -0.16827496409620421 -0.018118988986463431 0 -0.19311437565142209 -0.013302172517242951 0 -0.17958778334171399 -0.030481023530066188 0 -0.16827496409620421 -0.018118988986463431 0 -0.19311437565142209 -0.013302172517242951 0 -0.165801617998204 -0.032463579720955392 0 -0.17958778334171399 -0.030481023530066188 0 -0.16827496409620421 -0.018118988986463431 0 -0.15491621355604601 -0.028342290844696159 0 -0.165801617998204 -0.032463579720955392 0 -0.16827496409620421 -0.018118988986463431 0 -0.15559412394961231 -0.01117502074595471 0 -0.16572219389092219 -0.0044745056804275131 0 -0.15749918475220409 0.0018061885736658111 0 -0.15559412394961231 -0.01117502074595471 0 -0.16827496409620421 -0.018118988986463431 0 -0.16572219389092219 -0.0044745056804275131 0 -0.16572219389092219 -0.0044745056804275131 0 -0.19311437565142209 -0.013302172517242951 0 -0.17501020970268871 0.0078973388405579065 0 -0.16827496409620421 -0.018118988986463431 0 -0.16572219389092219 -0.0044745056804275131 0 -0.19311437565142209 -0.013302172517242951 0 -0.19311437565142209 -0.013302172517242951 0 -0.21076781800065181 -0.02895003026051501 0 -0.19332062821392351 -0.032993112263536697 0 -0.17958778334171399 -0.030481023530066188 0 -0.19311437565142209 -0.013302172517242951 0 -0.19332062821392351 -0.032993112263536697 0 -0.21076781800065181 -0.02895003026051501 0 -0.21795378720663991 -0.0084853560480224882 0 -0.22325102172674111 -0.022705289248269159 0 -0.19311437565142209 -0.013302172517242951 0 -0.21076781800065181 -0.02895003026051501 0 -0.21795378720663991 -0.0084853560480224882 0 -0.19311437565142209 -0.013302172517242951 0 -0.21795378720663991 -0.0084853560480224882 0 -0.19311437565142209 -0.013302172517242951 0 -0.21795378720663991 -0.0084853560480224882 0 -0.20649512966498809 0.002680520641606109 0 -0.19278700713523131 -0.062142650497981657 0 -0.19736546007108399 -0.046140820297086209 0 -0.21233167396692709 -0.047755279674161169 0 -0.19278700713523131 -0.062142650497981657 0 -0.21233167396692709 -0.047755279674161169 0 -0.18593946687805299 -0.054559339003349111 0 -0.19278700713523131 -0.062142650497981657 0 -0.19736546007108399 -0.046140820297086209 0 -0.18593946687805299 -0.054559339003349111 0 -0.1838168841505512 -0.062422911905507257 0 -0.19278700713523131 -0.062142650497981657 0 -0.18593946687805299 -0.054559339003349111 0 -0.19278700713523131 -0.062142650497981657 0 -0.18593946687805299 -0.054559339003349111 0 -0.1845058492916567 -0.043486675882453793 0 -0.19736546007108399 -0.046140820297086209 0 -0.21076781800065181 -0.02895003026051501 0 -0.19736546007108399 -0.046140820297086209 0 -0.19332062821392351 -0.032993112263536697 0 -0.1845058492916567 -0.043486675882453793 0 -0.19736546007108399 -0.046140820297086209 0 -0.19332062821392351 -0.032993112263536697 0 -0.21076781800065181 -0.02895003026051501 0 -0.21233167396692709 -0.047755279674161169 0 -0.23187634079862321 -0.033367908850340952 0 -0.21076781800065181 -0.02895003026051501 0 -0.19736546007108399 -0.046140820297086209 0 -0.21233167396692709 -0.047755279674161169 0 -0.20879572910939709 -0.062585566031013548 0 -0.19278700713523131 -0.062142650497981657 0 -0.21233167396692709 -0.047755279674161169 0 -0.20879572910939709 -0.062585566031013548 0 -0.21233167396692709 -0.047755279674161169 0 -0.22319065822084361 -0.059970866644831131 0 -0.2383179812864358 -0.070647222862611617 0 -0.22319065822084361 -0.059970866644831131 0 -0.236798190100525 -0.049041478622994898 0 -0.21233167396692709 -0.047755279674161169 0 -0.22319065822084361 -0.059970866644831131 0 -0.236798190100525 -0.049041478622994898 0 -0.21233167396692709 -0.047755279674161169 0 -0.23187634079862321 -0.033367908850340952 0 -0.236798190100525 -0.049041478622994898 0 -0.21233167396692709 -0.047755279674161169 0 -0.23187634079862321 -0.033367908850340952 0 -0.23187634079862321 -0.033367908850340952 0 -0.2434059839486323 -0.039174342349729108 0 -0.236798190100525 -0.049041478622994898 0 -0.2434059839486323 -0.039174342349729108 0 -0.236798190100525 -0.049041478622994898 0 -0.25397875469688569 -0.046072028169710767 0 -0.23187634079862321 -0.033367908850340952 0 -0.23934806356187821 -0.032391267798351622 0 -0.2434059839486323 -0.039174342349729108 0 -0.23934806356187821 -0.032391267798351622 0 -0.2434059839486323 -0.039174342349729108 0 -0.25301782550142482 -0.03095043801419535 0 -0.2383179812864358 -0.070647222862611617 0 -0.236798190100525 -0.049041478622994898 0 -0.25397875469688569 -0.046072028169710767 0 -0.2383179812864358 -0.070647222862611617 0 -0.25397875469688569 -0.046072028169710767 0 -0.21795378720663991 -0.0084853560480224882 0 -0.23254598001128921 -0.015377222249962449 0 -0.2427931987618577 -0.0036685395788020412 0 -0.21795378720663991 -0.0084853560480224882 0 -0.2427931987618577 -0.0036685395788020412 0 -0.23139089929136741 0.001727276763001965 0 -0.21795378720663991 -0.0084853560480224882 0 -0.2427931987618577 -0.0036685395788020412 0 -0.21795378720663991 -0.0084853560480224882 0 -0.23254598001128921 -0.015377222249962449 0 -0.22325102172674111 -0.022705289248269159 0 -0.21076781800065181 -0.02895003026051501 0 -0.23187634079862321 -0.033367908850340952 0 -0.22325102172674111 -0.022705289248269159 0 -0.23187634079862321 -0.033367908850340952 0 -0.22325102172674111 -0.022705289248269159 0 -0.23664461369281631 -0.02310166667895729 0 -0.23254598001128921 -0.015377222249962449 0 -0.22325102172674111 -0.022705289248269159 0 -0.23664461369281631 -0.02310166667895729 0 -0.23254598001128921 -0.015377222249962449 0 -0.23664461369281631 -0.02310166667895729 0 -0.2427933681454067 -0.0149111404838984 0 -0.23187634079862321 -0.033367908850340952 0 -0.23934806356187821 -0.032391267798351622 0 -0.23664461369281631 -0.02310166667895729 0 -0.23934806356187821 -0.032391267798351622 0 -0.2507697294239819 -0.021690373034311119 0 -0.23934806356187821 -0.032391267798351622 0 -0.23664461369281631 -0.02310166667895729 0 -0.2507697294239819 -0.021690373034311119 0 -0.23934806356187821 -0.032391267798351622 0 -0.25301782550142482 -0.03095043801419535 0 -0.2507697294239819 -0.021690373034311119 0 -0.23664461369281631 -0.02310166667895729 0 -0.2427933681454067 -0.0149111404838984 0 -0.2507697294239819 -0.021690373034311119 0 -0.2427933681454067 -0.0149111404838984 0 -0.25121331883708858 -0.01071790087745911 0 -0.2507697294239819 -0.021690373034311119 0 -0.2427933681454067 -0.0149111404838984 0 -0.2427931987618577 -0.0036685395788020412 0 -0.25121331883708858 -0.01071790087745911 0 -0.2427931987618577 -0.0036685395788020412 0 -0.25121331883708858 -0.01071790087745911 0 -0.24196154155457791 0.0090568506027661339 0 -0.23254598001128921 -0.015377222249962449 0 -0.2427933681454067 -0.0149111404838984 0 -0.2427931987618577 -0.0036685395788020412 0 -0.2621913952860857 -0.010989478270270549 0 -0.24196154155457791 0.0090568506027661339 0 -0.25121331883708858 -0.01071790087745911 0 -0.2621913952860857 -0.010989478270270549 0 -0.24196154155457791 0.0090568506027661339 0 -0.25121331883708858 -0.01071790087745911 0 -0.2621913952860857 -0.010989478270270549 0 -0.2507697294239819 -0.021690373034311119 0 -0.2621913952860857 -0.010989478270270549 0 -0.26553989178459259 -0.007852290658508938 0 -0.26830175130390849 -0.017044401251441979 0 -0.2621913952860857 -0.010989478270270549 0 -0.26166178156387648 -0.018052789538581981 0 -0.26830175130390849 -0.017044401251441979 0 -0.2621913952860857 -0.010989478270270549 0 -0.26830175130390849 -0.017044401251441979 0 -0.2621913952860857 -0.010989478270270549 0 -0.26553989178459259 -0.007852290658508938 0 -0.2621913952860857 -0.010989478270270549 0 -0.26553989178459259 -0.007852290658508938 0 -0.25679381805211909 0.0022949629822342789 0 -0.25301782550142482 -0.03095043801419535 0 -0.259959520727923 -0.022853488109733588 0 -0.26963952810733283 -0.02149683347680818 0 -0.25301782550142482 -0.03095043801419535 0 -0.2507697294239819 -0.021690373034311119 0 -0.259959520727923 -0.022853488109733588 0 -0.2621913952860857 -0.010989478270270549 0 -0.2507697294239819 -0.021690373034311119 0 -0.2507697294239819 -0.021690373034311119 0 -0.26166178156387648 -0.018052789538581981 0 -0.259959520727923 -0.022853488109733588 0 -0.26489064542576068 -0.019861878094141951 0 -0.259959520727923 -0.022853488109733588 0 -0.26963952810733283 -0.02149683347680818 0 -0.2621913952860857 -0.010989478270270549 0 -0.2507697294239819 -0.021690373034311119 0 -0.26166178156387648 -0.018052789538581981 0 -0.26166178156387648 -0.018052789538581981 0 -0.26489064542576068 -0.019861878094141951 0 -0.26830175130390849 -0.017044401251441979 0 -0.26166178156387648 -0.018052789538581981 0 -0.26489064542576068 -0.019861878094141951 0 -0.259959520727923 -0.022853488109733588 0 -0.27637570348944729 -0.025045106692250969 0 -0.27435209609309302 -0.014101778793480371 0 -0.29039201699024653 -0.028814715035008098 0 -0.27086086062795822 -0.019580294383087251 0 -0.26963952810733283 -0.02149683347680818 0 -0.27637570348944729 -0.025045106692250969 0 -0.27086086062795822 -0.019580294383087251 0 -0.26963952810733283 -0.02149683347680818 0 -0.26489064542576068 -0.019861878094141951 0 -0.26963952810733283 -0.02149683347680818 0 -0.26830175130390849 -0.017044401251441979 0 -0.26963952810733283 -0.02149683347680818 0 -0.26830175130390849 -0.017044401251441979 0 -0.27086086062795822 -0.019580294383087251 0 -0.26963952810733283 -0.02149683347680818 0 -0.26830175130390849 -0.017044401251441979 0 -0.27086086062795822 -0.019580294383087251 0 -0.27435209609309302 -0.014101778793480371 0 -0.27086086062795822 -0.019580294383087251 0 -0.26830175130390849 -0.017044401251441979 0 -0.27435209609309302 -0.014101778793480371 0 -0.27086086062795822 -0.019580294383087251 0 -0.26830175130390849 -0.017044401251441979 0 -0.27086086062795822 -0.019580294383087251 0 -0.27637570348944729 -0.025045106692250969 0 -0.27435209609309302 -0.014101778793480371 0 -0.27086086062795822 -0.019580294383087251 0 -0.27637570348944729 -0.025045106692250969 0 -0.26553989178459259 -0.007852290658508938 0 -0.28168073443546571 -0.0026015348797602121 0 -0.28230244522562142 0.0078524517595137365 0 -0.26553989178459259 -0.007852290658508938 0 -0.26830175130390849 -0.017044401251441979 0 -0.28168073443546571 -0.0026015348797602121 0 -0.26553989178459259 -0.007852290658508938 0 -0.26830175130390849 -0.017044401251441979 0 -0.26830175130390849 -0.017044401251441979 0 -0.27435209609309302 -0.014101778793480371 0 -0.28168073443546571 -0.0026015348797602121 0 -0.27435209609309302 -0.014101778793480371 0 -0.28168073443546571 -0.0026015348797602121 0 -0.28168073443546571 -0.0026015348797602121 0 -0.29052273526160982 -0.003781870298680645 0 -0.28889415719885048 -0.01475841409220589 0 -0.29052273526160982 -0.003781870298680645 0 -0.30080245369001019 -0.010013860695974279 0 -0.29857306936404171 0.0039812830147901244 0 -0.29052273526160982 -0.003781870298680645 0 -0.28889415719885048 -0.01475841409220589 0 -0.30080245369001019 -0.010013860695974279 0 -0.28889415719885048 -0.01475841409220589 0 -0.29814624210129048 -0.021141605701404931 0 -0.30080245369001019 -0.010013860695974279 0 -0.27435209609309302 -0.014101778793480371 0 -0.28168073443546571 -0.0026015348797602121 0 -0.28889415719885048 -0.01475841409220589 0 -0.27435209609309302 -0.014101778793480371 0 -0.29039201699024653 -0.028814715035008098 0 -0.27435209609309302 -0.014101778793480371 0 -0.28889415719885048 -0.01475841409220589 0 -0.29039201699024653 -0.028814715035008098 0 -0.28889415719885048 -0.01475841409220589 0 -0.29039201699024653 -0.028814715035008098 0 -0.29814624210129048 -0.021141605701404931 0 -0.29814624210129048 -0.021141605701404931 0 -0.3121640781458131 -0.0207877614999991 0 -0.30080245369001019 -0.010013860695974279 0 -0.29039201699024653 -0.028814715035008098 0 -0.29814624210129048 -0.021141605701404931 0 -0.30398827266858058 -0.029781004722873611 0 -0.30398827266858058 -0.029781004722873611 0 -0.3121640781458131 -0.0207877614999991 0 -0.31321876659637132 -0.034895636010774139 0 -0.29814624210129048 -0.021141605701404931 0 -0.30398827266858058 -0.029781004722873611 0 -0.3121640781458131 -0.0207877614999991 0 -0.3121640781458131 -0.0207877614999991 0 -0.30080245369001019 -0.010013860695974279 0 -0.31256906955991631 0.00065829470475784694 0 -0.30080245369001019 -0.010013860695974279 0 -0.29857306936404171 0.0039812830147901244 0 -0.31256906955991631 0.00065829470475784694 0 -0.30220815593739242 -0.048803260210823797 0 -0.30525195933905808 -0.056838771867699728 0 -0.32164850202811662 -0.057715895699355597 0 -0.30525195933905808 -0.056838771867699728 0 -0.3089166211012494 -0.065579794225842383 0 -0.32164850202811662 -0.057715895699355597 0 -0.30220815593739242 -0.048803260210823797 0 -0.3060202595091816 -0.043265305367181782 0 -0.32164850202811662 -0.057715895699355597 0 -0.30220815593739242 -0.048803260210823797 0 -0.32164850202811662 -0.057715895699355597 0 -0.30220815593739242 -0.048803260210823797 0 -0.29860074632309769 -0.054009883921686083 0 -0.30525195933905808 -0.056838771867699728 0 -0.29720807756325401 -0.060045269545997447 0 -0.30525195933905808 -0.056838771867699728 0 -0.3089166211012494 -0.065579794225842383 0 -0.29860074632309769 -0.054009883921686083 0 -0.29720807756325401 -0.060045269545997447 0 -0.30525195933905808 -0.056838771867699728 0 -0.29039201699024653 -0.028814715035008098 0 -0.3060202595091816 -0.043265305367181782 0 -0.29485705110252441 -0.039662031513040333 0 -0.29039201699024653 -0.028814715035008098 0 -0.30398827266858058 -0.029781004722873611 0 -0.3060202595091816 -0.043265305367181782 0 -0.29039201699024653 -0.028814715035008098 0 -0.3060202595091816 -0.043265305367181782 0 -0.30398827266858058 -0.029781004722873611 0 -0.3060202595091816 -0.043265305367181782 0 -0.31321876659637132 -0.034895636010774139 0 -0.30220815593739242 -0.048803260210823797 0 -0.3060202595091816 -0.043265305367181782 0 -0.29485705110252441 -0.039662031513040333 0 -0.30220815593739242 -0.048803260210823797 0 -0.28276780984666822 -0.039890624722291823 0 -0.28973479245268668 -0.050352234062223333 0 -0.30220815593739242 -0.048803260210823797 0 -0.28276780984666822 -0.039890624722291823 0 -0.30220815593739242 -0.048803260210823797 0 -0.29485705110252441 -0.039662031513040333 0 -0.28276780984666822 -0.039890624722291823 0 -0.29039201699024653 -0.028814715035008098 0 -0.29485705110252441 -0.039662031513040333 0 -0.28276780984666822 -0.039890624722291823 0 -0.27637570348944729 -0.025045106692250969 0 -0.29039201699024653 -0.028814715035008098 0 -0.28276780984666822 -0.039890624722291823 0 -0.28276780984666822 -0.039890624722291823 0 -0.28973479245268668 -0.050352234062223333 0 -0.27747571718658293 -0.047577492590679962 0 -0.29720807756325401 -0.060045269545997447 0 -0.28973479245268668 -0.050352234062223333 0 -0.28531190626583502 -0.073658151704551075 0 -0.28973479245268668 -0.050352234062223333 0 -0.27747571718658293 -0.047577492590679962 0 -0.28531190626583502 -0.073658151704551075 0 -0.27747571718658293 -0.047577492590679962 0 -0.28531190626583502 -0.073658151704551075 0 -0.30220815593739242 -0.048803260210823797 0 -0.29860074632309769 -0.054009883921686083 0 -0.28973479245268668 -0.050352234062223333 0 -0.29860074632309769 -0.054009883921686083 0 -0.29720807756325401 -0.060045269545997447 0 -0.28973479245268668 -0.050352234062223333 0 -0.26963952810733283 -0.02149683347680818 0 -0.27637570348944729 -0.025045106692250969 0 -0.27747571718658293 -0.047577492590679962 0 -0.26963952810733283 -0.02149683347680818 0 -0.27747571718658293 -0.047577492590679962 0 -0.25397875469688569 -0.046072028169710767 0 -0.26963952810733283 -0.02149683347680818 0 -0.27747571718658293 -0.047577492590679962 0 -0.27637570348944729 -0.025045106692250969 0 -0.28276780984666822 -0.039890624722291823 0 -0.27747571718658293 -0.047577492590679962 0 -0.25301782550142482 -0.03095043801419535 0 -0.26963952810733283 -0.02149683347680818 0 -0.25397875469688569 -0.046072028169710767 0 -0.26963952810733283 -0.02149683347680818 0 -0.25397875469688569 -0.046072028169710767 0 -0.2434059839486323 -0.039174342349729108 0 -0.25301782550142482 -0.03095043801419535 0 -0.25397875469688569 -0.046072028169710767 0 -0.27747571718658293 -0.047577492590679962 0 -0.25397875469688569 -0.046072028169710767 0 -0.26153501122081002 -0.069228150368101704 0 -0.2383179812864358 -0.070647222862611617 0 -0.25397875469688569 -0.046072028169710767 0 -0.26153501122081002 -0.069228150368101704 0 -0.2383179812864358 -0.070647222862611617 0 -0.26153501122081002 -0.069228150368101704 0 -0.25028935766715599 -0.093711477972156232 0 -0.26153501122081002 -0.069228150368101704 0 -0.25028935766715599 -0.093711477972156232 0 -0.26980884739660882 -0.087486941326767625 0 -0.26980884739660882 -0.087486941326767625 0 -0.2880486303194944 -0.1004414747847087 0 -0.28531190626583502 -0.073658151704551075 0 -0.26153501122081002 -0.069228150368101704 0 -0.26980884739660882 -0.087486941326767625 0 -0.28531190626583502 -0.073658151704551075 0 -0.27747571718658293 -0.047577492590679962 0 -0.26153501122081002 -0.069228150368101704 0 -0.28531190626583502 -0.073658151704551075 0 -0.23991785209883271 -0.11433772565505559 0 -0.25510649943842822 -0.1163175323995409 0 -0.25717849632168299 -0.13345303375459991 0 -0.26420647881487769 -0.1184031212040365 0 -0.25510649943842822 -0.1163175323995409 0 -0.25928079930920672 -0.13105489523489711 0 -0.26420647881487769 -0.1184031212040365 0 -0.25510649943842822 -0.1163175323995409 0 -0.26550487719623928 -0.1050852594706911 0 -0.25028935766715599 -0.093711477972156232 0 -0.25510649943842822 -0.1163175323995409 0 -0.26550487719623928 -0.1050852594706911 0 -0.25028935766715599 -0.093711477972156232 0 -0.26980884739660882 -0.087486941326767625 0 -0.26550487719623928 -0.1050852594706911 0 -0.26550487719623928 -0.1050852594706911 0 -0.27693373931563697 -0.1211547977110168 0 -0.2880486303194944 -0.1004414747847087 0 -0.26980884739660882 -0.087486941326767625 0 -0.26550487719623928 -0.1050852594706911 0 -0.2880486303194944 -0.1004414747847087 0 -0.26420647881487769 -0.1184031212040365 0 -0.27693373931563697 -0.1211547977110168 0 -0.25928079930920672 -0.13105489523489711 0 -0.26420647881487769 -0.1184031212040365 0 -0.26550487719623928 -0.1050852594706911 0 -0.27693373931563697 -0.1211547977110168 0 -0.27693373931563697 -0.1211547977110168 0 -0.2880486303194944 -0.1004414747847087 0 -0.30131057499860497 -0.1235232674229986 0 -0.2880486303194944 -0.1004414747847087 0 -0.304348831870417 -0.1028044102051673 0 -0.30131057499860497 -0.1235232674229986 0 -0.2880486303194944 -0.1004414747847087 0 -0.304348831870417 -0.1028044102051673 0 -0.30361449078967889 -0.089589274641349664 0 -0.304348831870417 -0.1028044102051673 0 -0.30361449078967889 -0.089589274641349664 0 -0.31628394201180521 -0.1002566270027429 0 -0.304348831870417 -0.1028044102051673 0 -0.31504874911728448 -0.10867380746926671 0 -0.31628394201180521 -0.1002566270027429 0 -0.30131057499860497 -0.1235232674229986 0 -0.31504874911728448 -0.10867380746926671 0 -0.31244693683324182 -0.1264037698354499 0 -0.304348831870417 -0.1028044102051673 0 -0.30131057499860497 -0.1235232674229986 0 -0.31504874911728448 -0.10867380746926671 0 -0.30131057499860497 -0.1235232674229986 0 -0.31504874911728448 -0.10867380746926671 0 -0.29720807756325401 -0.060045269545997447 0 -0.28531190626583502 -0.073658151704551075 0 -0.30159495028192002 -0.07346678408070377 0 -0.2880486303194944 -0.1004414747847087 0 -0.28531190626583502 -0.073658151704551075 0 -0.30361449078967889 -0.089589274641349664 0 -0.28531190626583502 -0.073658151704551075 0 -0.30361449078967889 -0.089589274641349664 0 -0.30159495028192002 -0.07346678408070377 0 -0.30361449078967889 -0.089589274641349664 0 -0.30159495028192002 -0.07346678408070377 0 -0.31292365568958258 -0.078461430285778247 0 -0.30361449078967889 -0.089589274641349664 0 -0.31292365568958258 -0.078461430285778247 0 -0.31795975855011122 -0.088822421645711747 0 -0.30159495028192002 -0.07346678408070377 0 -0.3089166211012494 -0.065579794225842383 0 -0.31292365568958258 -0.078461430285778247 0 -0.29720807756325401 -0.060045269545997447 0 -0.30159495028192002 -0.07346678408070377 0 -0.3089166211012494 -0.065579794225842383 0 -0.3089166211012494 -0.065579794225842383 0 -0.32213375803632133 -0.070792570542837246 0 -0.32164850202811662 -0.057715895699355597 0 -0.33324244542127102 -0.06843618789509627 0 -0.32164850202811662 -0.057715895699355597 0 -0.32213375803632133 -0.070792570542837246 0 -0.33324244542127102 -0.06843618789509627 0 -0.32164850202811662 -0.057715895699355597 0 -0.32213375803632133 -0.070792570542837246 0 -0.32639800910313399 -0.081526408041497078 0 -0.32909520443829088 -0.074617287331914126 0 -0.32213375803632133 -0.070792570542837246 0 -0.31292365568958258 -0.078461430285778247 0 -0.32639800910313399 -0.081526408041497078 0 -0.3089166211012494 -0.065579794225842383 0 -0.32213375803632133 -0.070792570542837246 0 -0.31292365568958258 -0.078461430285778247 0 -0.31292365568958258 -0.078461430285778247 0 -0.31795975855011122 -0.088822421645711747 0 -0.32639800910313399 -0.081526408041497078 0 -0.30361449078967889 -0.089589274641349664 0 -0.31795975855011122 -0.088822421645711747 0 -0.31628394201180521 -0.1002566270027429 0 -0.31795975855011122 -0.088822421645711747 0 -0.32639800910313399 -0.081526408041497078 0 -0.32778316645364708 -0.094909298544217036 0 -0.32639800910313399 -0.081526408041497078 0 -0.33412689081513369 -0.078192120643494331 0 -0.33676258481273308 -0.087523075980169951 0 -0.32639800910313399 -0.081526408041497078 0 -0.33676258481273308 -0.087523075980169951 0 -0.32778316645364708 -0.094909298544217036 0 -0.33676258481273308 -0.087523075980169951 0 -0.34581629338487663 -0.1010166214404483 0 -0.34659755722300661 -0.088633541307406069 0 -0.33676258481273308 -0.087523075980169951 0 -0.34483638881442508 -0.079156480090837006 0 -0.34659755722300661 -0.088633541307406069 0 -0.33412689081513369 -0.078192120643494331 0 -0.33676258481273308 -0.087523075980169951 0 -0.34483638881442508 -0.079156480090837006 0 -0.3398084835726678 -0.066041534308345376 0 -0.33324244542127102 -0.06843618789509627 0 -0.34483638881442508 -0.079156480090837006 0 -0.33412689081513369 -0.078192120643494331 0 -0.33324244542127102 -0.06843618789509627 0 -0.34483638881442508 -0.079156480090837006 0 -0.33324244542127102 -0.06843618789509627 0 -0.34483638881442508 -0.079156480090837006 0 -0.3398084835726678 -0.066041534308345376 0 -0.33324244542127102 -0.06843618789509627 0 -0.32164850202811662 -0.057715895699355597 0 -0.33412689081513369 -0.078192120643494331 0 -0.33324244542127102 -0.06843618789509627 0 -0.32909520443829088 -0.074617287331914126 0 -0.32213375803632133 -0.070792570542837246 0 -0.33324244542127102 -0.06843618789509627 0 -0.32909520443829088 -0.074617287331914126 0 -0.32639800910313399 -0.081526408041497078 0 -0.33412689081513369 -0.078192120643494331 0 -0.32909520443829088 -0.074617287331914126 0 -0.324584061510792 -0.1201952021537029 0 -0.31504874911728448 -0.10867380746926671 0 -0.31244693683324182 -0.1264037698354499 0 -0.31504874911728448 -0.10867380746926671 0 -0.31244693683324182 -0.1264037698354499 0 -0.324584061510792 -0.1201952021537029 0 -0.31504874911728448 -0.10867380746926671 0 -0.33024475049304691 -0.10939742536589581 0 -0.31504874911728448 -0.10867380746926671 0 -0.32778316645364708 -0.094909298544217036 0 -0.31504874911728448 -0.10867380746926671 0 -0.32778316645364708 -0.094909298544217036 0 -0.33024475049304691 -0.10939742536589581 0 -0.31504874911728448 -0.10867380746926671 0 -0.31628394201180521 -0.1002566270027429 0 -0.31504874911728448 -0.10867380746926671 0 -0.31628394201180521 -0.1002566270027429 0 -0.32778316645364708 -0.094909298544217036 0 -0.31795975855011122 -0.088822421645711747 0 -0.31628394201180521 -0.1002566270027429 0 -0.32778316645364708 -0.094909298544217036 0 -0.33676258481273308 -0.087523075980169951 0 -0.32778316645364708 -0.094909298544217036 0 -0.34581629338487663 -0.1010166214404483 0 -0.32778316645364708 -0.094909298544217036 0 -0.33024475049304691 -0.10939742536589581 0 -0.34581629338487663 -0.1010166214404483 0 -0.34069005289087823 -0.12365443832935 0 -0.33024475049304691 -0.10939742536589581 0 -0.34581629338487663 -0.1010166214404483 0 -0.324584061510792 -0.1201952021537029 0 -0.34069005289087823 -0.12365443832935 0 -0.33024475049304691 -0.10939742536589581 0 -0.34069005289087823 -0.12365443832935 0 -0.35737677730458528 -0.1140014441006437 0 -0.36329858314069979 -0.1348006158317121 0 -0.34069005289087823 -0.12365443832935 0 -0.35737677730458528 -0.1140014441006437 0 -0.34581629338487663 -0.1010166214404483 0 -0.35737677730458528 -0.1140014441006437 0 -0.34581629338487663 -0.1010166214404483 0 -0.36874708710513993 -0.1001892893914957 0 -0.34581629338487663 -0.1010166214404483 0 -0.36874708710513993 -0.1001892893914957 0 -0.35493857293934078 -0.090589029896099904 0 -0.35737677730458528 -0.1140014441006437 0 -0.36874708710513993 -0.1001892893914957 0 -0.37288382958077038 -0.11810123941290331 0 -0.35737677730458528 -0.1140014441006437 0 -0.37288382958077038 -0.11810123941290331 0 -0.36329858314069979 -0.1348006158317121 0 -0.35796846511721919 -0.074367172917335023 0 -0.36367793920817831 -0.053335638607415511 0 -0.35279965631024118 -0.061673237185267543 0 -0.3398084835726678 -0.066041534308345376 0 -0.35796846511721919 -0.074367172917335023 0 -0.35279965631024118 -0.061673237185267543 0 -0.3398084835726678 -0.066041534308345376 0 -0.35796846511721919 -0.074367172917335023 0 -0.34483638881442508 -0.079156480090837006 0 -0.3398084835726678 -0.066041534308345376 0 -0.35796846511721919 -0.074367172917335023 0 -0.34483638881442508 -0.079156480090837006 0 -0.34659755722300661 -0.088633541307406069 0 -0.35292786471497062 -0.082813826168346927 0 -0.34659755722300661 -0.088633541307406069 0 -0.35493857293934078 -0.090589029896099904 0 -0.35292786471497062 -0.082813826168346927 0 -0.34581629338487663 -0.1010166214404483 0 -0.34659755722300661 -0.088633541307406069 0 -0.35493857293934078 -0.090589029896099904 0 -0.35493857293934078 -0.090589029896099904 0 -0.35292786471497062 -0.082813826168346927 0 -0.36015890060666589 -0.084944356474546637 0 -0.35796846511721919 -0.074367172917335023 0 -0.35292786471497062 -0.082813826168346927 0 -0.36015890060666589 -0.084944356474546637 0 -0.35796846511721919 -0.074367172917335023 0 -0.34483638881442508 -0.079156480090837006 0 -0.35292786471497062 -0.082813826168346927 0 -0.36874708710513993 -0.1001892893914957 0 -0.36621251315665898 -0.076762463999455632 0 -0.38058469026443592 -0.091032756250012045 0 -0.35796846511721919 -0.074367172917335023 0 -0.36015890060666589 -0.084944356474546637 0 -0.36621251315665898 -0.076762463999455632 0 -0.36874708710513993 -0.1001892893914957 0 -0.36015890060666589 -0.084944356474546637 0 -0.36621251315665898 -0.076762463999455632 0 -0.36874708710513993 -0.1001892893914957 0 -0.36621251315665898 -0.076762463999455632 0 -0.36874708710513993 -0.1001892893914957 0 -0.35493857293934078 -0.090589029896099904 0 -0.36015890060666589 -0.084944356474546637 0 -0.36621251315665898 -0.076762463999455632 0 -0.37458905474278831 -0.065745233018988755 0 -0.36367793920817831 -0.053335638607415511 0 -0.36621251315665898 -0.076762463999455632 0 -0.36367793920817831 -0.053335638607415511 0 -0.35796846511721919 -0.074367172917335023 0 -0.36621251315665898 -0.076762463999455632 0 -0.36367793920817831 -0.053335638607415511 0 -0.36621251315665898 -0.076762463999455632 0 -0.37458905474278831 -0.065745233018988755 0 -0.38155676203276417 -0.077550547564278649 0 -0.37458905474278831 -0.065745233018988755 0 -0.36367793920817831 -0.053335638607415511 0 -0.38053965791724742 -0.053640745891621502 0 -0.36367793920817831 -0.053335638607415511 0 -0.37412605306959601 -0.039207828396772851 0 -0.38053965791724742 -0.053640745891621502 0 -0.36367793920817831 -0.053335638607415511 0 -0.35279965631024118 -0.061673237185267543 0 -0.35042912746364058 -0.042775018917502718 0 -0.35279965631024118 -0.061673237185267543 0 -0.35042912746364058 -0.042775018917502718 0 -0.34274989679977202 -0.055576664180614972 0 -0.3398084835726678 -0.066041534308345376 0 -0.35279965631024118 -0.061673237185267543 0 -0.34274989679977202 -0.055576664180614972 0 -0.35042912746364058 -0.042775018917502718 0 -0.36114336525969748 -0.029908813215375359 0 -0.34383355108506641 -0.021670382847445799 0 -0.36367793920817831 -0.053335638607415511 0 -0.35042912746364058 -0.042775018917502718 0 -0.36114336525969748 -0.029908813215375359 0 -0.36367793920817831 -0.053335638607415511 0 -0.37412605306959601 -0.039207828396772851 0 -0.36114336525969748 -0.029908813215375359 0 -0.36367793920817831 -0.053335638607415511 0 -0.36114336525969748 -0.029908813215375359 0 -0.36114336525969748 -0.029908813215375359 0 -0.37020677946765818 -0.02074076752593464 0 -0.35860879131121398 -0.0064819878233355072 0 -0.37412605306959601 -0.039207828396772851 0 -0.36114336525969748 -0.029908813215375359 0 -0.37020677946765818 -0.02074076752593464 0 -0.36114336525969748 -0.029908813215375359 0 -0.35860879131121398 -0.0064819878233355072 0 -0.35860879131121398 -0.0064819878233355072 0 -0.37586866045171891 -0.009158814210925393 0 -0.35860879131121398 -0.0064819878233355072 0 -0.37586866045171891 -0.009158814210925393 0 -0.37263177327601882 0.002071410791005375 0 -0.37020677946765818 -0.02074076752593464 0 -0.35860879131121398 -0.0064819878233355072 0 -0.37586866045171891 -0.009158814210925393 0 -0.35860879131121398 -0.0064819878233355072 0 -0.34383355108506641 -0.021670382847445799 0 -0.33558893043556498 -0.0029118465592891719 0 -0.35860879131121398 -0.0064819878233355072 0 -0.33558893043556498 -0.0029118465592891719 0 -0.35860879131121398 -0.0064819878233355072 0 -0.33558893043556498 -0.0029118465592891719 0 -0.34751463929860937 0.0059074409526803321 0 -0.36114336525969748 -0.029908813215375359 0 -0.35860879131121398 -0.0064819878233355072 0 -0.34383355108506641 -0.021670382847445799 0 -0.34383355108506641 -0.021670382847445799 0 -0.32654477697791678 -0.015856904039209991 0 -0.329455344980571 -0.032059999498342547 0 -0.34383355108506641 -0.021670382847445799 0 -0.33558893043556498 -0.0029118465592891719 0 -0.32654477697791678 -0.015856904039209991 0 -0.3121640781458131 -0.0207877614999991 0 -0.32654477697791678 -0.015856904039209991 0 -0.31256906955991631 0.00065829470475784694 0 -0.33558893043556498 -0.0029118465592891719 0 -0.31256906955991631 0.00065829470475784694 0 -0.33558893043556498 -0.0029118465592891719 0 -0.32654477697791678 -0.015856904039209991 0 -0.31256906955991631 0.00065829470475784694 0 -0.3121640781458131 -0.0207877614999991 0 -0.31321876659637132 -0.034895636010774139 0 -0.329455344980571 -0.032059999498342547 0 -0.3121640781458131 -0.0207877614999991 0 -0.32654477697791678 -0.015856904039209991 0 -0.329455344980571 -0.032059999498342547 0 -0.31321876659637132 -0.034895636010774139 0 -0.3207919229161868 -0.043220732765276937 0 -0.329455344980571 -0.032059999498342547 0 -0.3207919229161868 -0.043220732765276937 0 -0.33361674146669362 -0.048166827250730612 0 -0.329455344980571 -0.032059999498342547 0 -0.3060202595091816 -0.043265305367181782 0 -0.31321876659637132 -0.034895636010774139 0 -0.3207919229161868 -0.043220732765276937 0 -0.3060202595091816 -0.043265305367181782 0 -0.3207919229161868 -0.043220732765276937 0 -0.32164850202811662 -0.057715895699355597 0 -0.3060202595091816 -0.043265305367181782 0 -0.32164850202811662 -0.057715895699355597 0 -0.3207919229161868 -0.043220732765276937 0 -0.32164850202811662 -0.057715895699355597 0 -0.33361674146669362 -0.048166827250730612 0 -0.32164850202811662 -0.057715895699355597 0 -0.33361674146669362 -0.048166827250730612 0 -0.33445590596681252 -0.056875230359761643 0 -0.3398084835726678 -0.066041534308345376 0 -0.32164850202811662 -0.057715895699355597 0 -0.3398084835726678 -0.066041534308345376 0 -0.32164850202811662 -0.057715895699355597 0 -0.33445590596681252 -0.056875230359761643 0 -0.35042912746364058 -0.042775018917502718 0 -0.33361674146669362 -0.048166827250730612 0 -0.34274989679977202 -0.055576664180614972 0 -0.3398084835726678 -0.066041534308345376 0 -0.33445590596681252 -0.056875230359761643 0 -0.34274989679977202 -0.055576664180614972 0 -0.33361674146669362 -0.048166827250730612 0 -0.33445590596681252 -0.056875230359761643 0 -0.34274989679977202 -0.055576664180614972 0 -0.35042912746364058 -0.042775018917502718 0 -0.33361674146669362 -0.048166827250730612 0 -0.329455344980571 -0.032059999498342547 0 -0.35042912746364058 -0.042775018917502718 0 -0.34383355108506641 -0.021670382847445799 0 -0.329455344980571 -0.032059999498342547 0 -0.30143001487116627 -0.24532242953246711 0 -0.30991410283423559 -0.23358833148243691 0 -0.29664167226999799 -0.230288768957983 0 -0.31189878498660473 -0.25853362302682459 0 -0.30143001487116627 -0.24532242953246711 0 -0.31500916105078952 -0.2439033222451335 0 -0.30143001487116627 -0.24532242953246711 0 -0.30991410283423559 -0.23358833148243691 0 -0.31500916105078952 -0.2439033222451335 0 -0.30991410283423559 -0.23358833148243691 0 -0.30865727259013082 -0.21969396536894739 0 -0.29664167226999799 -0.230288768957983 0 -0.30865727259013082 -0.21969396536894739 0 -0.29664167226999799 -0.230288768957983 0 -0.29243212223922022 -0.21424700407933189 0 -0.28239546525664388 -0.22586104403231341 0 -0.29664167226999799 -0.230288768957983 0 -0.29243212223922022 -0.21424700407933189 0 -0.28239546525664388 -0.22586104403231341 0 -0.29664167226999799 -0.230288768957983 0 -0.28474250388175992 -0.24335367980098499 0 -0.30143001487116627 -0.24532242953246711 0 -0.29664167226999799 -0.230288768957983 0 -0.28474250388175992 -0.24335367980098499 0 -0.26627459532923292 -0.2530800747220297 0 -0.28474250388175992 -0.24335367980098499 0 -0.26475042304936142 -0.23051013317757341 0 -0.26627459532923292 -0.2530800747220297 0 -0.24613954941868271 -0.24181674091805319 0 -0.26475042304936142 -0.23051013317757341 0 -0.26627459532923292 -0.2530800747220297 0 -0.24613954941868271 -0.24181674091805319 0 -0.2393233671183744 -0.22376497838463641 0 -0.26475042304936142 -0.23051013317757341 0 -0.25675186192423449 -0.21294858151105589 0 -0.26475042304936142 -0.23051013317757341 0 -0.2749559761054251 -0.21362967297275409 0 -0.25675186192423449 -0.21294858151105589 0 -0.2393233671183744 -0.22376497838463641 0 -0.24613954941868271 -0.24181674091805319 0 -0.26475042304936142 -0.23051013317757341 0 -0.28239546525664388 -0.22586104403231341 0 -0.28474250388175992 -0.24335367980098499 0 -0.26475042304936142 -0.23051013317757341 0 -0.28239546525664388 -0.22586104403231341 0 -0.26475042304936142 -0.23051013317757341 0 -0.2749559761054251 -0.21362967297275409 0 -0.2749559761054251 -0.21362967297275409 0 -0.26855198989366952 -0.20104851918769681 0 -0.28485399426942137 -0.19716275584855331 0 -0.2749559761054251 -0.21362967297275409 0 -0.25675186192423449 -0.21294858151105589 0 -0.26855198989366952 -0.20104851918769681 0 -0.24771049473209261 -0.19768117856553941 0 -0.25675186192423449 -0.21294858151105589 0 -0.26855198989366952 -0.20104851918769681 0 -0.24771049473209261 -0.19768117856553941 0 -0.26855198989366952 -0.20104851918769681 0 -0.26014158867135673 -0.1865530145509276 0 -0.26855198989366952 -0.20104851918769681 0 -0.28485399426942137 -0.19716275584855331 0 -0.26014158867135673 -0.1865530145509276 0 -0.28485399426942137 -0.19716275584855331 0 -0.26014158867135673 -0.1865530145509276 0 -0.28485399426942137 -0.19716275584855331 0 -0.30366522825430048 -0.18624642780516301 0 -0.28978312534763101 -0.18224754205012961 0 -0.28485399426942137 -0.19716275584855331 0 -0.29243212223922022 -0.21424700407933189 0 -0.3056442293596412 -0.20360994127998289 0 -0.2749559761054251 -0.21362967297275409 0 -0.28485399426942137 -0.19716275584855331 0 -0.29243212223922022 -0.21424700407933189 0 -0.28239546525664388 -0.22586104403231341 0 -0.2749559761054251 -0.21362967297275409 0 -0.29243212223922022 -0.21424700407933189 0 -0.30865727259013082 -0.21969396536894739 0 -0.29243212223922022 -0.21424700407933189 0 -0.3056442293596412 -0.20360994127998289 0 -0.30865727259013082 -0.21969396536894739 0 -0.3056442293596412 -0.20360994127998289 0 -0.31978008413957482 -0.21349369555540329 0 -0.28485399426942137 -0.19716275584855331 0 -0.3056442293596412 -0.20360994127998289 0 -0.30366522825430048 -0.18624642780516301 0 -0.3056442293596412 -0.20360994127998289 0 -0.30366522825430048 -0.18624642780516301 0 -0.32239828164258738 -0.19355617483046139 0 -0.30366522825430048 -0.18624642780516301 0 -0.30675517640174937 -0.16519008000339799 0 -0.30366522825430048 -0.18624642780516301 0 -0.30675517640174937 -0.16519008000339799 0 -0.32613588949027422 -0.1730889894067541 0 -0.30366522825430048 -0.18624642780516301 0 -0.30675517640174937 -0.16519008000339799 0 -0.29119805201868237 -0.16870507702865559 0 -0.30675517640174937 -0.16519008000339799 0 -0.29119805201868237 -0.16870507702865559 0 -0.29398604696721209 -0.1527711314363846 0 -0.29119805201868237 -0.16870507702865559 0 -0.28656377980401643 -0.1611688649627675 0 -0.29398604696721209 -0.1527711314363846 0 -0.28656377980401643 -0.1611688649627675 0 -0.28208984516192559 -0.16560083138424669 0 -0.27898117506824582 -0.15759842000178309 0 -0.28656377980401643 -0.1611688649627675 0 -0.27898117506824582 -0.15759842000178309 0 -0.29398604696721209 -0.1527711314363846 0 -0.29119805201868237 -0.16870507702865559 0 -0.28208984516192559 -0.16560083138424669 0 -0.27785754653315181 -0.1774736968844873 0 -0.29119805201868237 -0.16870507702865559 0 -0.28656377980401643 -0.1611688649627675 0 -0.28208984516192559 -0.16560083138424669 0 -0.28485399426942137 -0.19716275584855331 0 -0.28978312534763101 -0.18224754205012961 0 -0.27785754653315181 -0.1774736968844873 0 -0.30366522825430048 -0.18624642780516301 0 -0.29119805201868237 -0.16870507702865559 0 -0.28978312534763101 -0.18224754205012961 0 -0.29119805201868237 -0.16870507702865559 0 -0.28978312534763101 -0.18224754205012961 0 -0.27785754653315181 -0.1774736968844873 0 -0.28485399426942137 -0.19716275584855331 0 -0.27785754653315181 -0.1774736968844873 0 -0.26014158867135673 -0.1865530145509276 0 -0.27785754653315181 -0.1774736968844873 0 -0.26014158867135673 -0.1865530145509276 0 -0.26063647979420768 -0.16748750478630181 0 -0.235429183073292 -0.17594327325330181 0 -0.26014158867135673 -0.1865530145509276 0 -0.26063647979420768 -0.16748750478630181 0 -0.24329735308453859 -0.15473057364303339 0 -0.26063647979420768 -0.16748750478630181 0 -0.25622011080169887 -0.15247070537693069 0 -0.26063647979420768 -0.16748750478630181 0 -0.27443914054453328 -0.15256834185414411 0 -0.27785754653315181 -0.1774736968844873 0 -0.26063647979420768 -0.16748750478630181 0 -0.27472632074709119 -0.16434818109086721 0 -0.26063647979420768 -0.16748750478630181 0 -0.27472632074709119 -0.16434818109086721 0 -0.27443914054453328 -0.15256834185414411 0 -0.28208984516192559 -0.16560083138424669 0 -0.27785754653315181 -0.1774736968844873 0 -0.27472632074709119 -0.16434818109086721 0 -0.28208984516192559 -0.16560083138424669 0 -0.27472632074709119 -0.16434818109086721 0 -0.27898117506824582 -0.15759842000178309 0 -0.27472632074709119 -0.16434818109086721 0 -0.27898117506824582 -0.15759842000178309 0 -0.27443914054453328 -0.15256834185414411 0 -0.27443914054453328 -0.15256834185414411 0 -0.26811972507041931 -0.14092399701753591 0 -0.25717849632168299 -0.13345303375459991 0 -0.27443914054453328 -0.15256834185414411 0 -0.26811972507041931 -0.14092399701753591 0 -0.28757240087992508 -0.13837272737673029 0 -0.27898117506824582 -0.15759842000178309 0 -0.27443914054453328 -0.15256834185414411 0 -0.28757240087992508 -0.13837272737673029 0 -0.27443914054453328 -0.15256834185414411 0 -0.25717849632168299 -0.13345303375459991 0 -0.26063647979420768 -0.16748750478630181 0 -0.27443914054453328 -0.15256834185414411 0 -0.26453372519605189 -0.14859750889521359 0 -0.27898117506824582 -0.15759842000178309 0 -0.27443914054453328 -0.15256834185414411 0 -0.27443914054453328 -0.15256834185414411 0 -0.28757240087992508 -0.13837272737673029 0 -0.27443914054453328 -0.15256834185414411 0 -0.26453372519605189 -0.14859750889521359 0 -0.25717849632168299 -0.13345303375459991 0 -0.26063647979420768 -0.16748750478630181 0 -0.26453372519605189 -0.14859750889521359 0 -0.25622011080169887 -0.15247070537693069 0 -0.26453372519605189 -0.14859750889521359 0 -0.25860984825090461 -0.14254429834240509 0 -0.25622011080169887 -0.15247070537693069 0 -0.26453372519605189 -0.14859750889521359 0 -0.25860984825090461 -0.14254429834240509 0 -0.25717849632168299 -0.13345303375459991 0 -0.25860984825090461 -0.14254429834240509 0 -0.25177498087438482 -0.14470540750455441 0 -0.25622011080169887 -0.15247070537693069 0 -0.25860984825090461 -0.14254429834240509 0 -0.25177498087438482 -0.14470540750455441 0 -0.25462162701017499 -0.1396641906567461 0 -0.25177498087438482 -0.14470540750455441 0 -0.25092318259372781 -0.13795402302542531 0 -0.25462162701017499 -0.1396641906567461 0 -0.24329735308453859 -0.15473057364303339 0 -0.25177498087438482 -0.14470540750455441 0 -0.25622011080169887 -0.15247070537693069 0 -0.25510649943842822 -0.1163175323995409 0 -0.25717849632168299 -0.13345303375459991 0 -0.25928079930920672 -0.13105489523489711 0 -0.24547060127154391 -0.13178575194574621 0 -0.25092318259372781 -0.13795402302542531 0 -0.25717849632168299 -0.13345303375459991 0 -0.25860984825090461 -0.14254429834240509 0 -0.25462162701017499 -0.1396641906567461 0 -0.25717849632168299 -0.13345303375459991 0 -0.25092318259372781 -0.13795402302542531 0 -0.25462162701017499 -0.1396641906567461 0 -0.25717849632168299 -0.13345303375459991 0 -0.26811972507041931 -0.14092399701753591 0 -0.25717849632168299 -0.13345303375459991 0 -0.26438684298387832 -0.1363758180411645 0 -0.25717849632168299 -0.13345303375459991 0 -0.26438684298387832 -0.1363758180411645 0 -0.25928079930920672 -0.13105489523489711 0 -0.27693373931563697 -0.1211547977110168 0 -0.25928079930920672 -0.13105489523489711 0 -0.28757240087992508 -0.13837272737673029 0 -0.26438684298387832 -0.1363758180411645 0 -0.25928079930920672 -0.13105489523489711 0 -0.28757240087992508 -0.13837272737673029 0 -0.26811972507041931 -0.14092399701753591 0 -0.26438684298387832 -0.1363758180411645 0 -0.28757240087992508 -0.13837272737673029 0 -0.25928079930920672 -0.13105489523489711 0 -0.28757240087992508 -0.13837272737673029 0 -0.27693373931563697 -0.1211547977110168 0 -0.30131057499860497 -0.1235232674229986 0 -0.28757240087992508 -0.13837272737673029 0 -0.30131057499860497 -0.1235232674229986 0 -0.28757240087992508 -0.13837272737673029 0 -0.27898117506824582 -0.15759842000178309 0 -0.28757240087992508 -0.13837272737673029 0 -0.29398604696721209 -0.1527711314363846 0 -0.30675517640174937 -0.16519008000339799 0 -0.30984512454919538 -0.14413373220163259 0 -0.28757240087992508 -0.13837272737673029 0 -0.29398604696721209 -0.1527711314363846 0 -0.30984512454919538 -0.14413373220163259 0 -0.30675517640174937 -0.16519008000339799 0 -0.29398604696721209 -0.1527711314363846 0 -0.30984512454919538 -0.14413373220163259 0 -0.30675517640174937 -0.16519008000339799 0 -0.30984512454919538 -0.14413373220163259 0 -0.32007941916172472 -0.1584301872604795 0 -0.28757240087992508 -0.13837272737673029 0 -0.30984512454919538 -0.14413373220163259 0 -0.30984512454919538 -0.14413373220163259 0 -0.31244693683324182 -0.1264037698354499 0 -0.30131057499860497 -0.1235232674229986 0 -0.28757240087992508 -0.13837272737673029 0 -0.30361318683010491 -0.13368643914280939 0 -0.30984512454919538 -0.14413373220163259 0 -0.31244693683324182 -0.1264037698354499 0 -0.30361318683010491 -0.13368643914280939 0 -0.28757240087992508 -0.13837272737673029 0 -0.30984512454919538 -0.14413373220163259 0 -0.30361318683010491 -0.13368643914280939 0 -0.30131057499860497 -0.1235232674229986 0 -0.31244693683324182 -0.1264037698354499 0 -0.30361318683010491 -0.13368643914280939 0 -0.30984512454919538 -0.14413373220163259 0 -0.31244693683324182 -0.1264037698354499 0 -0.32448981821950879 -0.13284656976855261 0 -0.324584061510792 -0.1201952021537029 0 -0.31244693683324182 -0.1264037698354499 0 -0.32448981821950879 -0.13284656976855261 0 -0.30984512454919538 -0.14413373220163259 0 -0.33758148620567691 -0.15130794743013279 0 -0.32007941916172472 -0.1584301872604795 0 -0.30984512454919538 -0.14413373220163259 0 -0.32448981821950879 -0.13284656976855261 0 -0.33758148620567691 -0.15130794743013279 0 -0.30984512454919538 -0.14413373220163259 0 -0.33758148620567691 -0.15130794743013279 0 -0.324584061510792 -0.1201952021537029 0 -0.34069005289087823 -0.12365443832935 0 -0.32448981821950879 -0.13284656976855261 0 -0.34069005289087823 -0.12365443832935 0 -0.32448981821950879 -0.13284656976855261 0 -0.33758148620567691 -0.15130794743013279 0 -0.34069005289087823 -0.12365443832935 0 -0.33758148620567691 -0.15130794743013279 0 -0.36329858314069979 -0.1348006158317121 0 -0.37288382958077038 -0.11810123941290331 0 -0.36329858314069979 -0.1348006158317121 0 -0.38548482967476339 -0.12942260471501629 0 -0.36329858314069979 -0.1348006158317121 0 -0.36531784786215821 -0.1584821626586326 0 -0.38503850301795067 -0.15040183141974681 0 -0.33758148620567691 -0.15130794743013279 0 -0.36329858314069979 -0.1348006158317121 0 -0.36531784786215821 -0.1584821626586326 0 -0.33758148620567691 -0.15130794743013279 0 -0.36531784786215821 -0.1584821626586326 0 -0.33758148620567691 -0.15130794743013279 0 -0.34705807563218211 -0.17007071835350909 0 -0.36531784786215821 -0.1584821626586326 0 -0.34705807563218211 -0.17007071835350909 0 -0.36531784786215821 -0.1584821626586326 0 -0.36157567543845037 -0.1815030516979686 0 -0.36531784786215821 -0.1584821626586326 0 -0.36157567543845037 -0.1815030516979686 0 -0.38049632685186402 -0.174613309568632 0 -0.36157567543845037 -0.1815030516979686 0 -0.37762060284018439 -0.19196521992464449 0 -0.38049632685186402 -0.174613309568632 0 -0.34705807563218211 -0.17007071835350909 0 -0.36157567543845037 -0.1815030516979686 0 -0.34311059919407499 -0.19056688355171331 0 -0.34705807563218211 -0.17007071835350909 0 -0.32613588949027422 -0.1730889894067541 0 -0.34311059919407499 -0.19056688355171331 0 -0.32613588949027422 -0.1730889894067541 0 -0.32239828164258738 -0.19355617483046139 0 -0.34311059919407499 -0.19056688355171331 0 -0.33758148620567691 -0.15130794743013279 0 -0.34705807563218211 -0.17007071835350909 0 -0.32613588949027422 -0.1730889894067541 0 -0.33758148620567691 -0.15130794743013279 0 -0.32007941916172472 -0.1584301872604795 0 -0.32613588949027422 -0.1730889894067541 0 -0.30675517640174937 -0.16519008000339799 0 -0.32007941916172472 -0.1584301872604795 0 -0.32613588949027422 -0.1730889894067541 0 -0.30366522825430048 -0.18624642780516301 0 -0.32613588949027422 -0.1730889894067541 0 -0.32239828164258738 -0.19355617483046139 0 -0.32239828164258738 -0.19355617483046139 0 -0.31978008413957482 -0.21349369555540329 0 -0.33368674429787942 -0.2054205922940027 0 -0.3056442293596412 -0.20360994127998289 0 -0.32239828164258738 -0.19355617483046139 0 -0.31978008413957482 -0.21349369555540329 0 -0.31978008413957482 -0.21349369555540329 0 -0.33368674429787942 -0.2054205922940027 0 -0.33595371368399068 -0.22034934978897941 0 -0.33368674429787942 -0.2054205922940027 0 -0.34895649543785839 -0.21033468974758401 0 -0.33595371368399068 -0.22034934978897941 0 -0.32239828164258738 -0.19355617483046139 0 -0.33368674429787942 -0.2054205922940027 0 -0.34311059919407499 -0.19056688355171331 0 -0.33368674429787942 -0.2054205922940027 0 -0.34311059919407499 -0.19056688355171331 0 -0.34895649543785839 -0.21033468974758401 0 -0.34311059919407499 -0.19056688355171331 0 -0.3614155844504004 -0.1998963131783148 0 -0.34895649543785839 -0.21033468974758401 0 -0.36157567543845037 -0.1815030516979686 0 -0.34311059919407499 -0.19056688355171331 0 -0.3614155844504004 -0.1998963131783148 0 -0.3614155844504004 -0.1998963131783148 0 -0.375267749307928 -0.2082807771005612 0 -0.37762060284018439 -0.19196521992464449 0 -0.36157567543845037 -0.1815030516979686 0 -0.3614155844504004 -0.1998963131783148 0 -0.37762060284018439 -0.19196521992464449 0 -0.36219190627343362 -0.21525920125792161 0 -0.37254354953930102 -0.22046827523500459 0 -0.375267749307928 -0.2082807771005612 0 -0.3614155844504004 -0.1998963131783148 0 -0.36219190627343362 -0.21525920125792161 0 -0.375267749307928 -0.2082807771005612 0 -0.36219190627343362 -0.21525920125792161 0 -0.34895649543785839 -0.21033468974758401 0 -0.35797683302992178 -0.22963494963043049 0 -0.3614155844504004 -0.1998963131783148 0 -0.36219190627343362 -0.21525920125792161 0 -0.34895649543785839 -0.21033468974758401 0 -0.35797683302992178 -0.22963494963043049 0 -0.33595371368399068 -0.22034934978897941 0 -0.34895649543785839 -0.21033468974758401 0 -0.35797683302992178 -0.22963494963043049 0 -0.33595371368399068 -0.22034934978897941 0 -0.35797683302992178 -0.22963494963043049 0 -0.34150357883167121 -0.24285447295938989 0 -0.33595371368399068 -0.22034934978897941 0 -0.35797683302992178 -0.22963494963043049 0 -0.37999995237585271 -0.23892054947188149 0 -0.37726219555477819 -0.22810444450516851 0 -0.35797683302992178 -0.22963494963043049 0 -0.37254354953930102 -0.22046827523500459 0 -0.37726219555477819 -0.22810444450516851 0 -0.36219190627343362 -0.21525920125792161 0 -0.35797683302992178 -0.22963494963043049 0 -0.37254354953930102 -0.22046827523500459 0 -0.35797683302992178 -0.22963494963043049 0 -0.37999995237585271 -0.23892054947188149 0 -0.35797683302992178 -0.22963494963043049 0 -0.36501681307239509 -0.24237634289844559 0 -0.37999995237585271 -0.23892054947188149 0 -0.37464738056692998 -0.25325066522078848 0 -0.36501681307239509 -0.24237634289844559 0 -0.37999995237585271 -0.23892054947188149 0 -0.35797683302992178 -0.22963494963043049 0 -0.36501681307239509 -0.24237634289844559 0 -0.34150357883167121 -0.24285447295938989 0 -0.35952592661323601 -0.25556234700535002 0 -0.36501681307239509 -0.24237634289844559 0 -0.34150357883167121 -0.24285447295938989 0 -0.35952592661323601 -0.25556234700535002 0 -0.34150357883167121 -0.24285447295938989 0 -0.32832167151183378 -0.25192562827051029 0 -0.34150357883167121 -0.24285447295938989 0 -0.32348123105010718 -0.2301465989134284 0 -0.34150357883167121 -0.24285447295938989 0 -0.32348123105010718 -0.2301465989134284 0 -0.34150357883167121 -0.24285447295938989 0 -0.33595371368399068 -0.22034934978897941 0 -0.32348123105010718 -0.2301465989134284 0 -0.31978008413957482 -0.21349369555540329 0 -0.33595371368399068 -0.22034934978897941 0 -0.32348123105010718 -0.2301465989134284 0 -0.31978008413957482 -0.21349369555540329 0 -0.32348123105010718 -0.2301465989134284 0 -0.30865727259013082 -0.21969396536894739 0 -0.31978008413957482 -0.21349369555540329 0 -0.32348123105010718 -0.2301465989134284 0 -0.30865727259013082 -0.21969396536894739 0 -0.32348123105010718 -0.2301465989134284 0 -0.30991410283423559 -0.23358833148243691 0 -0.30865727259013082 -0.21969396536894739 0 -0.32348123105010718 -0.2301465989134284 0 -0.32832167151183378 -0.25192562827051029 0 -0.32348123105010718 -0.2301465989134284 0 -0.31500916105078952 -0.2439033222451335 0 -0.32832167151183378 -0.25192562827051029 0 -0.32348123105010718 -0.2301465989134284 0 -0.30991410283423559 -0.23358833148243691 0 -0.32348123105010718 -0.2301465989134284 0 -0.31500916105078952 -0.2439033222451335 0 -0.42404619106771452 -0.25749174915478329 0 -0.42676110867520961 -0.23826997303335631 0 -0.41979712658233131 -0.2429622629323285 0 -0.42404619106771452 -0.25749174915478329 0 -0.42676110867520961 -0.23826997303335631 0 -0.42404619106771452 -0.25749174915478329 0 -0.42676110867520961 -0.23826997303335631 0 -0.4400130151743441 -0.24738943500130309 0 -0.42676110867520961 -0.23826997303335631 0 -0.44029951056761663 -0.22914787800199221 0 -0.4400130151743441 -0.24738943500130309 0 -0.42676110867520961 -0.23826997303335631 0 -0.41979712658233131 -0.2429622629323285 0 -0.42676110867520961 -0.23826997303335631 0 -0.42896533677492987 -0.2226639086222417 0 -0.44029951056761663 -0.22914787800199221 0 -0.42676110867520961 -0.23826997303335631 0 -0.44029951056761663 -0.22914787800199221 0 -0.42676110867520961 -0.23826997303335631 0 -0.42896533677492987 -0.2226639086222417 0 -0.41860803769028782 -0.23421898566685931 0 -0.42676110867520961 -0.23826997303335631 0 -0.42896533677492987 -0.2226639086222417 0 -0.40838120271664002 -0.22762984077988091 0 -0.40418435221305749 -0.21159008675821839 0 -0.41698208293555661 -0.2181367877900231 0 -0.42896533677492987 -0.2226639086222417 0 -0.40838120271664002 -0.22762984077988091 0 -0.42896533677492987 -0.2226639086222417 0 -0.40838120271664002 -0.22762984077988091 0 -0.41698208293555661 -0.2181367877900231 0 -0.42896533677492987 -0.2226639086222417 0 -0.41860803769028782 -0.23421898566685931 0 -0.40838120271664002 -0.22762984077988091 0 -0.41860803769028782 -0.23421898566685931 0 -0.40838120271664002 -0.22762984077988091 0 -0.40935481668771861 -0.23812690275644671 0 -0.40935481668771861 -0.23812690275644671 0 -0.41979712658233131 -0.2429622629323285 0 -0.40202307172178348 -0.24820614931333251 0 -0.42404619106771452 -0.25749174915478329 0 -0.41979712658233131 -0.2429622629323285 0 -0.40202307172178348 -0.24820614931333251 0 -0.41860803769028782 -0.23421898566685931 0 -0.40935481668771861 -0.23812690275644671 0 -0.41979712658233131 -0.2429622629323285 0 -0.42676110867520961 -0.23826997303335631 0 -0.41860803769028782 -0.23421898566685931 0 -0.41979712658233131 -0.2429622629323285 0 -0.40202307172178348 -0.24820614931333251 0 -0.37999995237585271 -0.23892054947188149 0 -0.40202307172178348 -0.24820614931333251 0 -0.39764077165934941 -0.2372448236341039 0 -0.37999995237585271 -0.23892054947188149 0 -0.40935481668771861 -0.23812690275644671 0 -0.40202307172178348 -0.24820614931333251 0 -0.39764077165934941 -0.2372448236341039 0 -0.39764077165934941 -0.2372448236341039 0 -0.37999995237585271 -0.23892054947188149 0 -0.38779706865835029 -0.23259577293752121 0 -0.38530828728861949 -0.25088579952195222 0 -0.40202307172178348 -0.24820614931333251 0 -0.37999995237585271 -0.23892054947188149 0 -0.38530828728861949 -0.25088579952195222 0 -0.37464738056692998 -0.25325066522078848 0 -0.37999995237585271 -0.23892054947188149 0 -0.37254354953930102 -0.22046827523500459 0 -0.37726219555477819 -0.22810444450516851 0 -0.38799357417046548 -0.21890267525100501 0 -0.37999995237585271 -0.23892054947188149 0 -0.37726219555477819 -0.22810444450516851 0 -0.38779706865835029 -0.23259577293752121 0 -0.37726219555477819 -0.22810444450516851 0 -0.38779706865835029 -0.23259577293752121 0 -0.38799357417046548 -0.21890267525100501 0 -0.40838120271664002 -0.22762984077988091 0 -0.38799357417046548 -0.21890267525100501 0 -0.40418435221305749 -0.21159008675821839 0 -0.40838120271664002 -0.22762984077988091 0 -0.38779706865835029 -0.23259577293752121 0 -0.40838120271664002 -0.22762984077988091 0 -0.39764077165934941 -0.2372448236341039 0 -0.38779706865835029 -0.23259577293752121 0 -0.40838120271664002 -0.22762984077988091 0 -0.38779706865835029 -0.23259577293752121 0 -0.38799357417046548 -0.21890267525100501 0 -0.40838120271664002 -0.22762984077988091 0 -0.40935481668771861 -0.23812690275644671 0 -0.39764077165934941 -0.2372448236341039 0 -0.38799357417046548 -0.21890267525100501 0 -0.40418435221305749 -0.21159008675821839 0 -0.39043768687633379 -0.202312128972335 0 -0.40418435221305749 -0.21159008675821839 0 -0.39043768687633379 -0.202312128972335 0 -0.40669197459022238 -0.19706068266461971 0 -0.38799357417046548 -0.21890267525100501 0 -0.375267749307928 -0.2082807771005612 0 -0.39043768687633379 -0.202312128972335 0 -0.37254354953930102 -0.22046827523500459 0 -0.38799357417046548 -0.21890267525100501 0 -0.375267749307928 -0.2082807771005612 0 -0.375267749307928 -0.2082807771005612 0 -0.39043768687633379 -0.202312128972335 0 -0.37762060284018439 -0.19196521992464449 0 -0.39043768687633379 -0.202312128972335 0 -0.37762060284018439 -0.19196521992464449 0 -0.39517666523199951 -0.1850533447423223 0 -0.39043768687633379 -0.202312128972335 0 -0.40669197459022238 -0.19706068266461971 0 -0.39517666523199951 -0.1850533447423223 0 -0.40669197459022238 -0.19706068266461971 0 -0.41276190899413362 -0.18272632239194 0 -0.39517666523199951 -0.1850533447423223 0 -0.4192091988402884 -0.1925012248280856 0 -0.40669197459022238 -0.19706068266461971 0 -0.41276190899413362 -0.18272632239194 0 -0.4192091988402884 -0.1925012248280856 0 -0.40669197459022238 -0.19706068266461971 0 -0.41750486623137101 -0.2064880999797801 0 -0.40418435221305749 -0.21159008675821839 0 -0.40669197459022238 -0.19706068266461971 0 -0.41750486623137101 -0.2064880999797801 0 -0.42896533677492987 -0.2226639086222417 0 -0.41698208293555661 -0.2181367877900231 0 -0.41750486623137101 -0.2064880999797801 0 -0.40418435221305749 -0.21159008675821839 0 -0.41698208293555661 -0.2181367877900231 0 -0.41750486623137101 -0.2064880999797801 0 -0.42896533677492987 -0.2226639086222417 0 -0.41750486623137101 -0.2064880999797801 0 -0.43308174066589661 -0.19351952729768901 0 -0.42896533677492987 -0.2226639086222417 0 -0.43308174066589661 -0.19351952729768901 0 -0.44241634500343868 -0.2051342459518555 0 -0.42896533677492987 -0.2226639086222417 0 -0.43308174066589661 -0.19351952729768901 0 -0.4192091988402884 -0.1925012248280856 0 -0.43308174066589661 -0.19351952729768901 0 -0.42532897399653219 -0.18264438217295309 0 -0.4192091988402884 -0.1925012248280856 0 -0.41750486623137101 -0.2064880999797801 0 -0.43308174066589661 -0.19351952729768901 0 -0.42532897399653219 -0.18264438217295309 0 -0.42161645094168121 -0.16832163388015389 0 -0.43862251109409012 -0.1760189832000045 0 -0.43308174066589661 -0.19351952729768901 0 -0.42532897399653219 -0.18264438217295309 0 -0.43862251109409012 -0.1760189832000045 0 -0.42161645094168121 -0.16832163388015389 0 -0.4280726822374688 -0.15045236848491661 0 -0.43862251109409012 -0.1760189832000045 0 -0.40428450454466652 -0.16253283902677429 0 -0.4280726822374688 -0.15045236848491661 0 -0.42161645094168121 -0.16832163388015389 0 -0.40428450454466652 -0.16253283902677429 0 -0.4280726822374688 -0.15045236848491661 0 -0.42161645094168121 -0.16832163388015389 0 -0.41276190899413362 -0.18272632239194 0 -0.40428450454466652 -0.16253283902677429 0 -0.42532897399653219 -0.18264438217295309 0 -0.42161645094168121 -0.16832163388015389 0 -0.41276190899413362 -0.18272632239194 0 -0.4192091988402884 -0.1925012248280856 0 -0.42532897399653219 -0.18264438217295309 0 -0.41276190899413362 -0.18272632239194 0 -0.39517666523199951 -0.1850533447423223 0 -0.38049632685186402 -0.174613309568632 0 -0.40428450454466652 -0.16253283902677429 0 -0.41276190899413362 -0.18272632239194 0 -0.39517666523199951 -0.1850533447423223 0 -0.40428450454466652 -0.16253283902677429 0 -0.37762060284018439 -0.19196521992464449 0 -0.39517666523199951 -0.1850533447423223 0 -0.38049632685186402 -0.174613309568632 0 -0.38049632685186402 -0.174613309568632 0 -0.40428450454466652 -0.16253283902677429 0 -0.38503850301795067 -0.15040183141974681 0 -0.36531784786215821 -0.1584821626586326 0 -0.38049632685186402 -0.174613309568632 0 -0.38503850301795067 -0.15040183141974681 0 -0.38049632685186402 -0.174613309568632 0 -0.40428450454466652 -0.16253283902677429 0 -0.40428450454466652 -0.16253283902677429 0 -0.38503850301795067 -0.15040183141974681 0 -0.40755586106180008 -0.13398956668594031 0 -0.36329858314069979 -0.1348006158317121 0 -0.38503850301795067 -0.15040183141974681 0 -0.38548482967476339 -0.12942260471501629 0 -0.38503850301795067 -0.15040183141974681 0 -0.38548482967476339 -0.12942260471501629 0 -0.40755586106180008 -0.13398956668594031 0 -0.40755586106180008 -0.13398956668594031 0 -0.4280726822374688 -0.15045236848491661 0 -0.42838096355141869 -0.1239088316752147 0 -0.40428450454466652 -0.16253283902677429 0 -0.40755586106180008 -0.13398956668594031 0 -0.4280726822374688 -0.15045236848491661 0 -0.4280726822374688 -0.15045236848491661 0 -0.45186085993027109 -0.13837189794305901 0 -0.42838096355141869 -0.1239088316752147 0 -0.4280726822374688 -0.15045236848491661 0 -0.45186085993027109 -0.13837189794305901 0 -0.45033575787093238 -0.16066039328155191 0 -0.4280726822374688 -0.15045236848491661 0 -0.45186085993027109 -0.13837189794305901 0 -0.45186085993027109 -0.13837189794305901 0 -0.4733777502741579 -0.15680969484552801 0 -0.45033575787093238 -0.16066039328155191 0 -0.45186085993027109 -0.13837189794305901 0 -0.47912957624999608 -0.12679962983891141 0 -0.4733777502741579 -0.15680969484552801 0 -0.45186085993027109 -0.13837189794305901 0 -0.47912957624999608 -0.12679962983891141 0 -0.46515070087259258 -0.1118654906176961 0 -0.47912957624999608 -0.12679962983891141 0 -0.5 -0.1377905076184319 0 -0.4733777502741579 -0.15680969484552801 0 -0.47912957624999608 -0.12679962983891141 0 -0.5 -0.1377905076184319 0 -0.5 -0.11222474056681341 0 -0.5 -0.1377905076184319 0 -0.4733777502741579 -0.15680969484552801 0 -0.5 -0.16335627467005051 0 -0.4733777502741579 -0.15680969484552801 0 -0.5 -0.16335627467005051 0 -0.48076263907274508 -0.18065938934866449 0 -0.5 -0.16335627467005051 0 -0.48076263907274508 -0.18065938934866449 0 -0.49999999999999961 -0.18892204172166899 0 -0.4733777502741579 -0.15680969484552801 0 -0.48076263907274508 -0.18065938934866449 0 -0.4597449858186739 -0.18164902193425139 0 -0.48076263907274508 -0.18065938934866449 0 -0.4597449858186739 -0.18164902193425139 0 -0.47064737199533468 -0.19136427326565791 0 -0.4733777502741579 -0.15680969484552801 0 -0.4597449858186739 -0.18164902193425139 0 -0.45033575787093238 -0.16066039328155191 0 -0.4280726822374688 -0.15045236848491661 0 -0.45033575787093238 -0.16066039328155191 0 -0.43862251109409012 -0.1760189832000045 0 -0.4597449858186739 -0.18164902193425139 0 -0.45033575787093238 -0.16066039328155191 0 -0.43862251109409012 -0.1760189832000045 0 -0.43308174066589661 -0.19351952729768901 0 -0.43862251109409012 -0.1760189832000045 0 -0.44645671881382859 -0.19100764785336671 0 -0.4597449858186739 -0.18164902193425139 0 -0.43862251109409012 -0.1760189832000045 0 -0.44645671881382859 -0.19100764785336671 0 -0.44645671881382859 -0.19100764785336671 0 -0.44241634500343868 -0.2051342459518555 0 -0.45841801148704381 -0.1987164608830331 0 -0.43308174066589661 -0.19351952729768901 0 -0.44645671881382859 -0.19100764785336671 0 -0.44241634500343868 -0.2051342459518555 0 -0.42896533677492987 -0.2226639086222417 0 -0.44241634500343868 -0.2051342459518555 0 -0.45166168806375939 -0.21718840305046569 0 -0.44241634500343868 -0.2051342459518555 0 -0.45384751962760428 -0.20861202814748961 0 -0.45841801148704381 -0.1987164608830331 0 -0.44241634500343868 -0.2051342459518555 0 -0.45166168806375939 -0.21718840305046569 0 -0.45166168806375939 -0.21718840305046569 0 -0.45383791246002331 -0.22002578297062761 0 -0.44241634500343868 -0.2051342459518555 0 -0.45166168806375939 -0.21718840305046569 0 -0.45384751962760428 -0.20861202814748961 0 -0.45384751962760428 -0.20861202814748961 0 -0.46161145269660853 -0.2147880175879901 0 -0.45841801148704381 -0.1987164608830331 0 -0.46310918772850979 -0.21442668829730899 0 -0.46161145269660853 -0.2147880175879901 0 -0.48080572634830421 -0.2018550296548299 0 -0.46161145269660853 -0.2147880175879901 0 -0.45841801148704381 -0.1987164608830331 0 -0.48080572634830421 -0.2018550296548299 0 -0.45166168806375939 -0.21718840305046569 0 -0.45384751962760428 -0.20861202814748961 0 -0.46161145269660853 -0.2147880175879901 0 -0.45166168806375939 -0.21718840305046569 0 -0.46161145269660853 -0.2147880175879901 0 -0.45166168806375939 -0.21718840305046569 0 -0.46161145269660853 -0.2147880175879901 0 -0.45383791246002331 -0.22002578297062761 0 -0.46161145269660853 -0.2147880175879901 0 -0.45383791246002331 -0.22002578297062761 0 -0.46310918772850979 -0.21442668829730899 0 -0.47482918262419571 -0.2164667293797215 0 -0.46683273848732643 -0.21956812486011351 0 -0.46310918772850979 -0.21442668829730899 0 -0.46161145269660853 -0.2147880175879901 0 -0.46683273848732643 -0.21956812486011351 0 -0.46310918772850979 -0.21442668829730899 0 -0.46161145269660853 -0.2147880175879901 0 -0.4597449858186739 -0.18164902193425139 0 -0.45841801148704381 -0.1987164608830331 0 -0.47064737199533468 -0.19136427326565791 0 -0.4597449858186739 -0.18164902193425139 0 -0.44645671881382859 -0.19100764785336671 0 -0.45841801148704381 -0.1987164608830331 0 -0.48076263907274508 -0.18065938934866449 0 -0.48080572634830421 -0.2018550296548299 0 -0.47064737199533468 -0.19136427326565791 0 -0.45841801148704381 -0.1987164608830331 0 -0.48080572634830421 -0.2018550296548299 0 -0.47064737199533468 -0.19136427326565791 0 -0.48080572634830421 -0.2018550296548299 0 -0.49999999999999961 -0.18892204172166899 0 -0.48076263907274508 -0.18065938934866449 0 -0.48080572634830421 -0.2018550296548299 0 -0.49999999999999961 -0.18892204172166899 0 -0.48080572634830421 -0.2018550296548299 0 -0.49999999999999961 -0.18892204172166899 0 -0.5 -0.2103222643355295 0 -0.48080572634830421 -0.2018550296548299 0 -0.5 -0.2103222643355295 0 -0.48744682901395181 -0.2193069001216699 0 -0.46161145269660853 -0.2147880175879901 0 -0.48080572634830421 -0.2018550296548299 0 -0.46310918772850979 -0.21442668829730899 0 -0.48080572634830421 -0.2018550296548299 0 -0.47482918262419571 -0.2164667293797215 0 -0.48080572634830421 -0.2018550296548299 0 -0.47482918262419571 -0.2164667293797215 0 -0.48744682901395181 -0.2193069001216699 0 -0.47482918262419571 -0.2164667293797215 0 -0.4752055484410127 -0.2248706599927692 0 -0.46683273848732643 -0.21956812486011351 0 -0.4752055484410127 -0.2248706599927692 0 -0.48744682901395181 -0.2193069001216699 0 -0.47970416047315168 -0.2402056193030136 0 -0.47970416047315168 -0.2402056193030136 0 -0.45940832094630418 -0.22728852904277649 0 -0.4752055484410127 -0.2248706599927692 0 -0.47970416047315168 -0.2402056193030136 0 -0.45940832094630418 -0.22728852904277649 0 -0.47482918262419571 -0.2164667293797215 0 -0.4752055484410127 -0.2248706599927692 0 -0.48744682901395181 -0.2193069001216699 0 -0.5 -0.2103222643355295 0 -0.5 -0.23172248694938999 0 -0.48744682901395181 -0.2193069001216699 0 -0.5 -0.23172248694938999 0 -0.48744682901395181 -0.2193069001216699 0 -0.47970416047315168 -0.2402056193030136 0 -0.49999999999999922 -0.25312270956325039 0 -0.5 -0.23172248694938999 0 -0.47970416047315168 -0.2402056193030136 0 -0.49999999999999922 -0.25312270956325039 0 -0.47970416047315168 -0.2402056193030136 0 -0.48535690813609511 -0.26112051823255888 0 -0.47970416047315168 -0.2402056193030136 0 -0.47071381627218861 -0.2420287302280229 0 -0.47970416047315168 -0.2402056193030136 0 -0.47445349868370063 -0.23915113893857601 0 -0.45940832094630418 -0.22728852904277649 0 -0.47970416047315168 -0.2402056193030136 0 -0.47445349868370063 -0.23915113893857601 0 -0.47071381627218861 -0.2420287302280229 0 -0.47445349868370063 -0.23915113893857601 0 -0.47071381627218861 -0.2420287302280229 0 -0.45707957377796588 -0.25251993593009492 0 -0.47071381627218861 -0.2420287302280229 0 -0.45941806376043959 -0.24102612885422739 0 -0.45707957377796588 -0.25251993593009492 0 -0.47071381627218861 -0.2420287302280229 0 -0.45707957377796588 -0.25251993593009492 0 -0.45941806376043959 -0.24102612885422739 0 -0.450263860093297 -0.24078475508455921 0 -0.45707957377796588 -0.25251993593009492 0 -0.45941806376043959 -0.24102612885422739 0 -0.45941806376043959 -0.24102612885422739 0 -0.45367789809375658 -0.23105467764518209 0 -0.450263860093297 -0.24078475508455921 0 -0.47445349868370063 -0.23915113893857601 0 -0.47071381627218861 -0.2420287302280229 0 -0.45940832094630418 -0.22728852904277649 0 -0.47071381627218861 -0.2420287302280229 0 -0.45941806376043959 -0.24102612885422739 0 -0.45940832094630418 -0.22728852904277649 0 -0.47071381627218861 -0.2420287302280229 0 -0.45940832094630418 -0.22728852904277649 0 -0.4752055484410127 -0.2248706599927692 0 -0.46683273848732643 -0.21956812486011351 0 -0.45940832094630418 -0.22728852904277649 0 -0.46161145269660853 -0.2147880175879901 0 -0.46683273848732643 -0.21956812486011351 0 -0.45940832094630418 -0.22728852904277649 0 -0.46161145269660853 -0.2147880175879901 0 -0.45383791246002331 -0.22002578297062761 0 -0.45940832094630418 -0.22728852904277649 0 -0.45383791246002331 -0.22002578297062761 0 -0.45367789809375658 -0.23105467764518209 0 -0.45940832094630418 -0.22728852904277649 0 -0.45383791246002331 -0.22002578297062761 0 -0.45940832094630418 -0.22728852904277649 0 -0.45941806376043959 -0.24102612885422739 0 -0.45367789809375658 -0.23105467764518209 0 -0.45940832094630418 -0.22728852904277649 0 -0.42896533677492987 -0.2226639086222417 0 -0.45166168806375939 -0.21718840305046569 0 -0.44029951056761663 -0.22914787800199221 0 -0.42896533677492987 -0.2226639086222417 0 -0.45166168806375939 -0.21718840305046569 0 -0.45367789809375658 -0.23105467764518209 0 -0.44029951056761663 -0.22914787800199221 0 -0.450263860093297 -0.24078475508455921 0 -0.45383791246002331 -0.22002578297062761 0 -0.45367789809375658 -0.23105467764518209 0 -0.44029951056761663 -0.22914787800199221 0 -0.45166168806375939 -0.21718840305046569 0 -0.45383791246002331 -0.22002578297062761 0 -0.44029951056761663 -0.22914787800199221 0 -0.45383791246002331 -0.22002578297062761 0 -0.44029951056761663 -0.22914787800199221 0 -0.44029951056761663 -0.22914787800199221 0 -0.4400130151743441 -0.24738943500130309 0 -0.450263860093297 -0.24078475508455921 0 -0.45707957377796588 -0.25251993593009492 0 -0.4400130151743441 -0.24738943500130309 0 -0.450263860093297 -0.24078475508455921 0 -0.40645377700048502 -0.046099934008430397 0 -0.41935073062637562 -0.034360663014878209 0 -0.42223049105544641 -0.053421777165396568 0 -0.40645377700048502 -0.046099934008430397 0 -0.41935073062637562 -0.034360663014878209 0 -0.40129806197700002 -0.0290946846532768 0 -0.40645377700048502 -0.046099934008430397 0 -0.40985813427674411 -0.062404149449965918 0 -0.42223049105544641 -0.053421777165396568 0 -0.40985813427674411 -0.062404149449965918 0 -0.42223049105544641 -0.053421777165396568 0 -0.42411163334247581 -0.068794899106338431 0 -0.42223049105544641 -0.053421777165396568 0 -0.43652076069394019 -0.059917073900074141 0 -0.43673539363399272 -0.04376896655128798 0 -0.42223049105544641 -0.053421777165396568 0 -0.43652076069394019 -0.059917073900074141 0 -0.42411163334247581 -0.068794899106338431 0 -0.41935073062637562 -0.034360663014878209 0 -0.42223049105544641 -0.053421777165396568 0 -0.43673539363399272 -0.04376896655128798 0 -0.41935073062637562 -0.034360663014878209 0 -0.43673539363399272 -0.04376896655128798 0 -0.43591733803119692 -0.020549967349385651 0 -0.41935073062637562 -0.034360663014878209 0 -0.43591733803119692 -0.020549967349385651 0 -0.41540848272085762 -0.015970835062762759 0 -0.43591733803119692 -0.020549967349385651 0 -0.41540848272085762 -0.015970835062762759 0 -0.43923930586208748 0.0014332665366015491 0 -0.41540848272085762 -0.015970835062762759 0 -0.43923930586208748 0.0014332665366015491 0 -0.41540848272085762 -0.015970835062762759 0 -0.43923930586208748 0.0014332665366015491 0 -0.4239567801011877 0.001931537256989172 0 -0.41540848272085762 -0.015970835062762759 0 -0.4239567801011877 0.001931537256989172 0 -0.41224790211783308 0.0051401219645459736 0 -0.41540848272085762 -0.015970835062762759 0 -0.40076948451177719 -0.0011867406769139081 0 -0.41224790211783308 0.0051401219645459736 0 -0.41935073062637562 -0.034360663014878209 0 -0.41540848272085762 -0.015970835062762759 0 -0.40129806197700002 -0.0290946846532768 0 -0.40129806197700002 -0.0290946846532768 0 -0.39312852959222389 -0.01183564059851459 0 -0.38355662940726548 -0.024979526678285562 0 -0.41540848272085762 -0.015970835062762759 0 -0.40129806197700002 -0.0290946846532768 0 -0.39312852959222389 -0.01183564059851459 0 -0.41540848272085762 -0.015970835062762759 0 -0.40076948451177719 -0.0011867406769139081 0 -0.39312852959222389 -0.01183564059851459 0 -0.40076948451177719 -0.0011867406769139081 0 -0.39312852959222389 -0.01183564059851459 0 -0.3860161448010509 0.00020277506578310361 0 -0.39312852959222389 -0.01183564059851459 0 -0.37586866045171891 -0.009158814210925393 0 -0.38355662940726548 -0.024979526678285562 0 -0.39312852959222389 -0.01183564059851459 0 -0.37586866045171891 -0.009158814210925393 0 -0.39312852959222389 -0.01183564059851459 0 -0.37586866045171891 -0.009158814210925393 0 -0.3860161448010509 0.00020277506578310361 0 -0.37586866045171891 -0.009158814210925393 0 -0.3860161448010509 0.00020277506578310361 0 -0.37263177327601882 0.002071410791005375 0 -0.37412605306959601 -0.039207828396772851 0 -0.37020677946765818 -0.02074076752593464 0 -0.38355662940726548 -0.024979526678285562 0 -0.37020677946765818 -0.02074076752593464 0 -0.37586866045171891 -0.009158814210925393 0 -0.38355662940726548 -0.024979526678285562 0 -0.37412605306959601 -0.039207828396772851 0 -0.38989022251479277 -0.041321508556789323 0 -0.38053965791724742 -0.053640745891621502 0 -0.37412605306959601 -0.039207828396772851 0 -0.38355662940726548 -0.024979526678285562 0 -0.38989022251479277 -0.041321508556789323 0 -0.40645377700048502 -0.046099934008430397 0 -0.40129806197700002 -0.0290946846532768 0 -0.38989022251479277 -0.041321508556789323 0 -0.40129806197700002 -0.0290946846532768 0 -0.38355662940726548 -0.024979526678285562 0 -0.38989022251479277 -0.041321508556789323 0 -0.40645377700048502 -0.046099934008430397 0 -0.40985813427674411 -0.062404149449965918 0 -0.39554669252653829 -0.05666492306346356 0 -0.40645377700048502 -0.046099934008430397 0 -0.38989022251479277 -0.041321508556789323 0 -0.39554669252653829 -0.05666492306346356 0 -0.39554669252653829 -0.05666492306346356 0 -0.38053965791724742 -0.053640745891621502 0 -0.38540798544159077 -0.065569343706299008 0 -0.38989022251479277 -0.041321508556789323 0 -0.39554669252653829 -0.05666492306346356 0 -0.38053965791724742 -0.053640745891621502 0 -0.37458905474278831 -0.065745233018988755 0 -0.38053965791724742 -0.053640745891621502 0 -0.38540798544159077 -0.065569343706299008 0 -0.37458905474278831 -0.065745233018988755 0 -0.38540798544159077 -0.065569343706299008 0 -0.38155676203276417 -0.077550547564278649 0 -0.38540798544159077 -0.065569343706299008 0 -0.38155676203276417 -0.077550547564278649 0 -0.39630516082583978 -0.070998862510366911 0 -0.36621251315665898 -0.076762463999455632 0 -0.38155676203276417 -0.077550547564278649 0 -0.38058469026443592 -0.091032756250012045 0 -0.38155676203276417 -0.077550547564278649 0 -0.38058469026443592 -0.091032756250012045 0 -0.39394680123955139 -0.08615783648039968 0 -0.38155676203276417 -0.077550547564278649 0 -0.39394680123955139 -0.08615783648039968 0 -0.39630516082583978 -0.070998862510366911 0 -0.39394680123955139 -0.08615783648039968 0 -0.40932703249427049 -0.094559316931132606 0 -0.40990438089183839 -0.077978394080531671 0 -0.39394680123955139 -0.08615783648039968 0 -0.39630516082583978 -0.070998862510366911 0 -0.40990438089183839 -0.077978394080531671 0 -0.40985813427674411 -0.062404149449965918 0 -0.39630516082583978 -0.070998862510366911 0 -0.40990438089183839 -0.077978394080531671 0 -0.40985813427674411 -0.062404149449965918 0 -0.39554669252653829 -0.05666492306346356 0 -0.39630516082583978 -0.070998862510366911 0 -0.39554669252653829 -0.05666492306346356 0 -0.38540798544159077 -0.065569343706299008 0 -0.39630516082583978 -0.070998862510366911 0 -0.37288382958077038 -0.11810123941290331 0 -0.38548482967476339 -0.12942260471501629 0 -0.39121616102202322 -0.1082133729850899 0 -0.36874708710513993 -0.1001892893914957 0 -0.38058469026443592 -0.091032756250012045 0 -0.39121616102202322 -0.1082133729850899 0 -0.36874708710513993 -0.1001892893914957 0 -0.37288382958077038 -0.11810123941290331 0 -0.39121616102202322 -0.1082133729850899 0 -0.38058469026443592 -0.091032756250012045 0 -0.39394680123955139 -0.08615783648039968 0 -0.39121616102202322 -0.1082133729850899 0 -0.39121616102202322 -0.1082133729850899 0 -0.41392502384570262 -0.1125217674628267 0 -0.40932703249427049 -0.094559316931132606 0 -0.39394680123955139 -0.08615783648039968 0 -0.39121616102202322 -0.1082133729850899 0 -0.40932703249427049 -0.094559316931132606 0 -0.40755586106180008 -0.13398956668594031 0 -0.39121616102202322 -0.1082133729850899 0 -0.41392502384570262 -0.1125217674628267 0 -0.38548482967476339 -0.12942260471501629 0 -0.40755586106180008 -0.13398956668594031 0 -0.39121616102202322 -0.1082133729850899 0 -0.40755586106180008 -0.13398956668594031 0 -0.41392502384570262 -0.1125217674628267 0 -0.42838096355141869 -0.1239088316752147 0 -0.41392502384570262 -0.1125217674628267 0 -0.40932703249427049 -0.094559316931132606 0 -0.42776360154518478 -0.099743631680904818 0 -0.42776360154518478 -0.099743631680904818 0 -0.42838096355141869 -0.1239088316752147 0 -0.44110775268808511 -0.108373757793641 0 -0.41392502384570262 -0.1125217674628267 0 -0.42776360154518478 -0.099743631680904818 0 -0.42838096355141869 -0.1239088316752147 0 -0.40990438089183839 -0.077978394080531671 0 -0.42672270312383159 -0.083330229620231358 0 -0.42411163334247581 -0.068794899106338431 0 -0.40985813427674411 -0.062404149449965918 0 -0.40990438089183839 -0.077978394080531671 0 -0.42411163334247581 -0.068794899106338431 0 -0.40932703249427049 -0.094559316931132606 0 -0.42776360154518478 -0.099743631680904818 0 -0.42672270312383159 -0.083330229620231358 0 -0.40932703249427049 -0.094559316931132606 0 -0.40990438089183839 -0.077978394080531671 0 -0.42672270312383159 -0.083330229620231358 0 -0.42776360154518478 -0.099743631680904818 0 -0.42672270312383159 -0.083330229620231358 0 -0.45224318034029748 -0.0835308457189292 0 -0.42672270312383159 -0.083330229620231358 0 -0.42411163334247581 -0.068794899106338431 0 -0.43893367425506652 -0.072180555416527598 0 -0.43652076069394019 -0.059917073900074141 0 -0.42411163334247581 -0.068794899106338431 0 -0.43893367425506652 -0.072180555416527598 0 -0.43893367425506652 -0.072180555416527598 0 -0.45224318034029748 -0.0835308457189292 0 -0.45024059446496112 -0.058532920011690748 0 -0.43652076069394019 -0.059917073900074141 0 -0.43893367425506652 -0.072180555416527598 0 -0.45024059446496112 -0.058532920011690748 0 -0.42672270312383159 -0.083330229620231358 0 -0.43893367425506652 -0.072180555416527598 0 -0.45224318034029748 -0.0835308457189292 0 -0.45224318034029748 -0.0835308457189292 0 -0.46816212022686382 -0.067529710283271663 0 -0.4730829984807019 -0.089594151781555914 0 -0.45224318034029748 -0.0835308457189292 0 -0.45562214798200029 -0.099962504904473684 0 -0.4730829984807019 -0.089594151781555914 0 -0.45224318034029748 -0.0835308457189292 0 -0.46816212022686382 -0.067529710283271663 0 -0.45024059446496112 -0.058532920011690748 0 -0.45224318034029748 -0.0835308457189292 0 -0.46816212022686382 -0.067529710283271663 0 -0.45186085993027109 -0.13837189794305901 0 -0.44110775268808511 -0.108373757793641 0 -0.46515070087259258 -0.1118654906176961 0 -0.45186085993027109 -0.13837189794305901 0 -0.42838096355141869 -0.1239088316752147 0 -0.44110775268808511 -0.108373757793641 0 -0.42776360154518478 -0.099743631680904818 0 -0.45224318034029748 -0.0835308457189292 0 -0.44110775268808511 -0.108373757793641 0 -0.45224318034029748 -0.0835308457189292 0 -0.44110775268808511 -0.108373757793641 0 -0.45562214798200029 -0.099962504904473684 0 -0.44110775268808511 -0.108373757793641 0 -0.45562214798200029 -0.099962504904473684 0 -0.46515070087259258 -0.1118654906176961 0 -0.45562214798200029 -0.099962504904473684 0 -0.46515070087259258 -0.1118654906176961 0 -0.4730829984807019 -0.089594151781555914 0 -0.47912957624999608 -0.12679962983891141 0 -0.46515070087259258 -0.1118654906176961 0 -0.48392105902382421 -0.1045992993919882 0 -0.46515070087259258 -0.1118654906176961 0 -0.48392105902382421 -0.1045992993919882 0 -0.4730829984807019 -0.089594151781555914 0 -0.48392105902382421 -0.1045992993919882 0 -0.5 -0.11222474056681341 0 -0.5 -0.086658973515194915 0 -0.47912957624999608 -0.12679962983891141 0 -0.48392105902382421 -0.1045992993919882 0 -0.5 -0.11222474056681341 0 -0.46816212022686382 -0.067529710283271663 0 -0.48566868121845258 -0.072930329562584259 0 -0.48408106011343011 -0.051528574847614167 0 -0.46816212022686382 -0.067529710283271663 0 -0.4730829984807019 -0.089594151781555914 0 -0.48566868121845258 -0.072930329562584259 0 -0.4730829984807019 -0.089594151781555914 0 -0.5 -0.086658973515194915 0 -0.48566868121845258 -0.072930329562584259 0 -0.48392105902382421 -0.1045992993919882 0 -0.4730829984807019 -0.089594151781555914 0 -0.5 -0.086658973515194915 0 -0.5 -0.086658973515194915 0 -0.48566868121845258 -0.072930329562584259 0 -0.5 -0.06109320646357641 0 -0.5 -0.06109320646357641 0 -0.49999999999999761 -0.035527439411957892 0 -0.48408106011343011 -0.051528574847614167 0 -0.48566868121845258 -0.072930329562584259 0 -0.5 -0.06109320646357641 0 -0.48408106011343011 -0.051528574847614167 0 -0.49999999999999761 -0.035527439411957892 0 -0.47617685631312612 -0.0344514560738476 0 -0.48408106011343011 -0.051528574847614167 0 -0.49999999999999761 -0.035527439411957892 0 -0.48408106011343011 -0.051528574847614167 0 -0.47617685631312612 -0.0344514560738476 0 -0.48408106011343011 -0.051528574847614167 0 -0.46695037544485207 -0.049394777894274357 0 -0.46816212022686382 -0.067529710283271663 0 -0.48408106011343011 -0.051528574847614167 0 -0.46816212022686382 -0.067529710283271663 0 -0.48408106011343011 -0.051528574847614167 0 -0.46695037544485207 -0.049394777894274357 0 -0.46695037544485207 -0.049394777894274357 0 -0.45213865665971542 -0.033408510317470289 0 -0.45024059446496112 -0.058532920011690748 0 -0.46816212022686382 -0.067529710283271663 0 -0.46695037544485207 -0.049394777894274357 0 -0.45024059446496112 -0.058532920011690748 0 -0.47617685631312612 -0.0344514560738476 0 -0.46695037544485207 -0.049394777894274357 0 -0.45213865665971542 -0.033408510317470289 0 -0.43673539363399272 -0.04376896655128798 0 -0.43591733803119692 -0.020549967349385651 0 -0.45213865665971542 -0.033408510317470289 0 -0.43673539363399272 -0.04376896655128798 0 -0.45213865665971542 -0.033408510317470289 0 -0.45024059446496112 -0.058532920011690748 0 -0.43652076069394019 -0.059917073900074141 0 -0.43673539363399272 -0.04376896655128798 0 -0.45024059446496112 -0.058532920011690748 0 -0.43591733803119692 -0.020549967349385651 0 -0.4499731671260816 -0.011830963018967749 0 -0.43923930586208748 0.0014332665366015491 0 -0.4499731671260816 -0.011830963018967749 0 -0.45997819796244033 -0.001199423327771409 0 -0.43923930586208748 0.0014332665366015491 0 -0.43591733803119692 -0.020549967349385651 0 -0.45213865665971542 -0.033408510317470289 0 -0.4499731671260816 -0.011830963018967749 0 -0.47617685631312612 -0.0344514560738476 0 -0.45213865665971542 -0.033408510317470289 0 -0.46718353640221139 -0.015689286155589208 0 -0.45213865665971542 -0.033408510317470289 0 -0.4499731671260816 -0.011830963018967749 0 -0.46718353640221139 -0.015689286155589208 0 -0.4499731671260816 -0.011830963018967749 0 -0.46718353640221139 -0.015689286155589208 0 -0.45997819796244033 -0.001199423327771409 0 -0.46718353640221139 -0.015689286155589208 0 -0.48475704882676829 -0.018566265174777209 0 -0.48042485141850388 0.0012524978631325049 0 -0.46718353640221139 -0.015689286155589208 0 -0.45997819796244033 -0.001199423327771409 0 -0.48042485141850388 0.0012524978631325049 0 -0.47617685631312612 -0.0344514560738476 0 -0.46718353640221139 -0.015689286155589208 0 -0.48475704882676829 -0.018566265174777209 0 -0.49999999999999761 -0.035527439411957892 0 -0.48475704882676829 -0.018566265174777209 0 -0.5 -0.0084156420956238431 0 -0.49999999999999761 -0.035527439411957892 0 -0.47617685631312612 -0.0344514560738476 0 -0.48475704882676829 -0.018566265174777209 0 -0.48475704882676829 -0.018566265174777209 0 -0.5 -0.0084156420956238431 0 -0.48042485141850388 0.0012524978631325049 0 -0.5 -0.0084156420956238431 0 -0.5 0.018696155220710161 0 -0.48042485141850388 0.0012524978631325049 0 -0.5 0.018696155220710161 0 -0.48153432131500729 0.01857240419258821 0 -0.48042485141850388 0.0012524978631325049 0 -0.49082296565134559 0.025507155722552331 0 -0.48153432131500729 0.01857240419258821 0 -0.48690095214454621 0.03624146973533153 0 -0.5 0.018696155220710161 0 -0.49082296565134559 0.025507155722552331 0 -0.48153432131500729 0.01857240419258821 0 -0.5 0.018696155220710161 0 -0.49082296565134559 0.025507155722552331 0 -0.49787480444062387 0.034500445274352101 0 -0.48153432131500729 0.01857240419258821 0 -0.48690095214454621 0.03624146973533153 0 -0.46307012900331729 0.01883736813596586 0 -0.48690095214454621 0.03624146973533153 0 -0.46307012900331729 0.01883736813596586 0 -0.48153432131500729 0.01857240419258821 0 -0.48042485141850388 0.0012524978631325049 0 -0.46307012900331729 0.01883736813596586 0 -0.49999999999999839 0.053603259824170191 0 -0.47494187664643028 0.047858792523580017 0 -0.49999999999999839 0.053603259824170191 0 -0.50000000000000089 0.045807952537044297 0 -0.47494187664643028 0.047858792523580017 0 -0.49999999999999839 0.053603259824170191 0 -0.47494187664643028 0.047858792523580017 0 -0.48560992992263302 0.067160017987693776 0 -0.50000000000000089 0.045807952537044297 0 -0.48690095214454621 0.03624146973533153 0 -0.47494187664643028 0.047858792523580017 0 -0.5 0.018696155220710161 0 -0.50000000000000089 0.045807952537044297 0 -0.49787480444062387 0.034500445274352101 0 -0.50000000000000089 0.045807952537044297 0 -0.48690095214454621 0.03624146973533153 0 -0.50000000000000089 0.045807952537044297 0 -0.49787480444062387 0.034500445274352101 0 -0.48690095214454621 0.03624146973533153 0 -0.49787480444062387 0.034500445274352101 0 -0.48690095214454621 0.03624146973533153 0 -0.49082296565134559 0.025507155722552331 0 -0.49787480444062387 0.034500445274352101 0 -0.48690095214454621 0.03624146973533153 0 -0.48690095214454621 0.03624146973533153 0 -0.46839235271870427 0.039177897479161707 0 -0.48690095214454621 0.03624146973533153 0 -0.46839235271870427 0.039177897479161707 0 -0.46307012900331729 0.01883736813596586 0 -0.48690095214454621 0.03624146973533153 0 -0.47494187664643028 0.047858792523580017 0 -0.46839235271870427 0.039177897479161707 0 -0.47494187664643028 0.047858792523580017 0 -0.46789434568741461 0.069800718235507986 0 -0.48560992992263302 0.067160017987693776 0 -0.47494187664643028 0.047858792523580017 0 -0.45747595246537492 0.057667711656659758 0 -0.46789434568741461 0.069800718235507986 0 -0.47494187664643028 0.047858792523580017 0 -0.45747595246537492 0.057667711656659758 0 -0.44988375329286212 0.042114325222990127 0 -0.47494187664643028 0.047858792523580017 0 -0.44988375329286212 0.042114325222990127 0 -0.46839235271870427 0.039177897479161707 0 -0.44988375329286212 0.042114325222990127 0 -0.47494187664643028 0.047858792523580017 0 -0.46839235271870427 0.039177897479161707 0 -0.44988375329286212 0.042114325222990127 0 -0.46839235271870427 0.039177897479161707 0 -0.44988375329286212 0.042114325222990127 0 -0.46307012900331729 0.01883736813596586 0 -0.44988375329286212 0.042114325222990127 0 -0.43010200772320661 0.037579444898150433 0 -0.44988375329286212 0.042114325222990127 0 -0.4305371584169887 0.045183702685599708 0 -0.44988375329286212 0.042114325222990127 0 -0.44274704296702377 0.025426223796042161 0 -0.43010200772320661 0.037579444898150433 0 -0.44988375329286212 0.042114325222990127 0 -0.44338494329703793 0.056236284988157199 0 -0.4305371584169887 0.045183702685599708 0 -0.45747595246537492 0.057667711656659758 0 -0.44988375329286212 0.042114325222990127 0 -0.44338494329703793 0.056236284988157199 0 -0.45997819796244033 -0.001199423327771409 0 -0.46307012900331729 0.01883736813596586 0 -0.43923930586208748 0.0014332665366015491 0 -0.45997819796244033 -0.001199423327771409 0 -0.48042485141850388 0.0012524978631325049 0 -0.46307012900331729 0.01883736813596586 0 -0.44988375329286212 0.042114325222990127 0 -0.46307012900331729 0.01883736813596586 0 -0.44274704296702377 0.025426223796042161 0 -0.46307012900331729 0.01883736813596586 0 -0.44274704296702377 0.025426223796042161 0 -0.43923930586208748 0.0014332665366015491 0 -0.46307012900331729 0.01883736813596586 0 -0.43923930586208748 0.0014332665366015491 0 -0.44274704296702377 0.025426223796042161 0 -0.43923930586208748 0.0014332665366015491 0 -0.42893142970397269 0.017123595589571921 0 -0.43923930586208748 0.0014332665366015491 0 -0.4239567801011877 0.001931537256989172 0 -0.42893142970397269 0.017123595589571921 0 -0.41224790211783308 0.0051401219645459736 0 -0.41633692431226782 0.022315136277664311 0 -0.42893142970397269 0.017123595589571921 0 -0.4239567801011877 0.001931537256989172 0 -0.41224790211783308 0.0051401219645459736 0 -0.42893142970397269 0.017123595589571921 0 -0.41224790211783308 0.0051401219645459736 0 -0.41633692431226782 0.022315136277664311 0 -0.40419705113486892 0.021887668920138621 0 -0.41633692431226782 0.022315136277664311 0 -0.41241033933349402 0.032962472543453449 0 -0.40419705113486892 0.021887668920138621 0 -0.41633692431226782 0.022315136277664311 0 -0.42103042441332078 0.031395208041491103 0 -0.41241033933349402 0.032962472543453449 0 -0.42893142970397269 0.017123595589571921 0 -0.43010200772320661 0.037579444898150433 0 -0.42893142970397269 0.017123595589571921 0 -0.43010200772320661 0.037579444898150433 0 -0.42667411085030188 0.0367936142428235 0 -0.42893142970397269 0.017123595589571921 0 -0.42667411085030188 0.0367936142428235 0 -0.42103042441332078 0.031395208041491103 0 -0.44274704296702377 0.025426223796042161 0 -0.42893142970397269 0.017123595589571921 0 -0.43010200772320661 0.037579444898150433 0 -0.41633692431226782 0.022315136277664311 0 -0.42893142970397269 0.017123595589571921 0 -0.42103042441332078 0.031395208041491103 0 -0.44988375329286212 0.042114325222990127 0 -0.43010200772320661 0.037579444898150433 0 -0.4305371584169887 0.045183702685599708 0 -0.4305371584169887 0.045183702685599708 0 -0.42439138815003491 0.042319181342993589 0 -0.41348569563082782 0.047888952674868847 0 -0.4305371584169887 0.045183702685599708 0 -0.41348569563082782 0.047888952674868847 0 -0.43010200772320661 0.037579444898150433 0 -0.4305371584169887 0.045183702685599708 0 -0.43010200772320661 0.037579444898150433 0 -0.4305371584169887 0.045183702685599708 0 -0.42439138815003491 0.042319181342993589 0 -0.42439138815003491 0.042319181342993589 0 -0.42268237287845262 0.037921963816246601 0 -0.42667411085030188 0.0367936142428235 0 -0.42268237287845262 0.037921963816246601 0 -0.42667411085030188 0.0367936142428235 0 -0.42103042441332078 0.031395208041491103 0 -0.43010200772320661 0.037579444898150433 0 -0.42439138815003491 0.042319181342993589 0 -0.42667411085030188 0.0367936142428235 0 -0.43010200772320661 0.037579444898150433 0 -0.42667411085030188 0.0367936142428235 0 -0.4305371584169887 0.045183702685599708 0 -0.43170310375113968 0.065558595828562466 0 -0.44338494329703793 0.056236284988157199 0 -0.4305371584169887 0.045183702685599708 0 -0.43170310375113968 0.065558595828562466 0 -0.4305371584169887 0.045183702685599708 0 -0.42513470939984849 0.05571366268459578 0 -0.43170310375113968 0.065558595828562466 0 -0.4305371584169887 0.045183702685599708 0 -0.42225619273702658 0.051550584051887047 0 -0.41527113579141622 0.049173293533371902 0 -0.4305371584169887 0.045183702685599708 0 -0.42225619273702658 0.051550584051887047 0 -0.42513470939984849 0.05571366268459578 0 -0.42513470939984849 0.05571366268459578 0 -0.42200433939089271 0.063726954990463172 0 -0.43170310375113968 0.065558595828562466 0 -0.41527113579141622 0.049173293533371902 0 -0.41348569563082782 0.047888952674868847 0 -0.39458940402921278 0.050622443890411678 0 -0.4305371584169887 0.045183702685599708 0 -0.41527113579141622 0.049173293533371902 0 -0.41348569563082782 0.047888952674868847 0 -0.41808176733985292 0.056131677303980977 0 -0.41347723534161229 0.062586531163550188 0 -0.42200433939089271 0.063726954990463172 0 -0.42513470939984849 0.05571366268459578 0 -0.41808176733985292 0.056131677303980977 0 -0.42200433939089271 0.063726954990463172 0 -0.41808176733985292 0.056131677303980977 0 -0.41302354817906622 0.05563825396104391 0 -0.41347723534161229 0.062586531163550188 0 -0.41808176733985292 0.056131677303980977 0 -0.41527113579141622 0.049173293533371902 0 -0.41302354817906622 0.05563825396104391 0 -0.42225619273702658 0.051550584051887047 0 -0.41808176733985292 0.056131677303980977 0 -0.41527113579141622 0.049173293533371902 0 -0.42225619273702658 0.051550584051887047 0 -0.42513470939984849 0.05571366268459578 0 -0.41808176733985292 0.056131677303980977 0 -0.41527113579141622 0.049173293533371902 0 -0.41302354817906622 0.05563825396104391 0 -0.40526405424338352 0.054661513843272592 0 -0.41302354817906622 0.05563825396104391 0 -0.40526405424338352 0.054661513843272592 0 -0.41347723534161229 0.062586531163550188 0 -0.42268237287845262 0.037921963816246601 0 -0.42103042441332078 0.031395208041491103 0 -0.41841066331588112 0.039675148054412059 0 -0.42103042441332078 0.031395208041491103 0 -0.41841066331588112 0.039675148054412059 0 -0.41241033933349402 0.032962472543453449 0 -0.41841066331588112 0.039675148054412059 0 -0.41641231106898591 0.042935730147593817 0 -0.40936149717919978 0.041859638518100768 0 -0.42439138815003491 0.042319181342993589 0 -0.42268237287845262 0.037921963816246601 0 -0.41841066331588112 0.039675148054412059 0 -0.42439138815003491 0.042319181342993589 0 -0.41841066331588112 0.039675148054412059 0 -0.41641231106898591 0.042935730147593817 0 -0.42439138815003491 0.042319181342993589 0 -0.41348569563082782 0.047888952674868847 0 -0.41641231106898591 0.042935730147593817 0 -0.41348569563082782 0.047888952674868847 0 -0.41641231106898591 0.042935730147593817 0 -0.40936149717919978 0.041859638518100768 0 -0.41841066331588112 0.039675148054412059 0 -0.40936149717919978 0.041859638518100768 0 -0.41241033933349402 0.032962472543453449 0 -0.40936149717919978 0.041859638518100768 0 -0.41241033933349402 0.032962472543453449 0 -0.3988514426795462 0.03511888763473299 0 -0.41348569563082782 0.047888952674868847 0 -0.40936149717919978 0.041859638518100768 0 -0.39458940402921278 0.050622443890411678 0 -0.40936149717919978 0.041859638518100768 0 -0.3988514426795462 0.03511888763473299 0 -0.39458940402921278 0.050622443890411678 0 -0.3988514426795462 0.03511888763473299 0 -0.39458940402921278 0.050622443890411678 0 -0.38593009604561329 0.037912945761706819 0 -0.3988514426795462 0.03511888763473299 0 -0.38593009604561329 0.037912945761706819 0 -0.38903223848078428 0.024680300516709511 0 -0.41527113579141622 0.049173293533371902 0 -0.39458940402921278 0.050622443890411678 0 -0.41527113579141622 0.049173293533371902 0 -0.40526405424338352 0.054661513843272592 0 -0.39458940402921278 0.050622443890411678 0 -0.40526405424338352 0.054661513843272592 0 -0.39458940402921278 0.050622443890411678 0 -0.39107649560465108 0.065841262823590208 0 -0.39458940402921278 0.050622443890411678 0 -0.37390767226700949 0.052071594247451433 0 -0.39458940402921278 0.050622443890411678 0 -0.39107649560465108 0.065841262823590208 0 -0.37390767226700949 0.052071594247451433 0 -0.39458940402921278 0.050622443890411678 0 -0.38593009604561329 0.037912945761706819 0 -0.37390767226700949 0.052071594247451433 0 -0.38593009604561329 0.037912945761706819 0 -0.37326972277151371 0.027071502519228491 0 -0.37390767226700949 0.052071594247451433 0 -0.38593009604561329 0.037912945761706819 0 -0.38903223848078428 0.024680300516709511 0 -0.37326972277151371 0.027071502519228491 0 -0.38903223848078428 0.024680300516709511 0 -0.38284116549057812 0.01275684276630641 0 -0.37326972277151371 0.027071502519228491 0 -0.38903223848078428 0.024680300516709511 0 -0.38284116549057812 0.01275684276630641 0 -0.39496930000890468 0.010607248235280481 0 -0.38284116549057812 0.01275684276630641 0 -0.37326972277151371 0.027071502519228491 0 -0.37263177327601882 0.002071410791005375 0 -0.3860161448010509 0.00020277506578310361 0 -0.38284116549057812 0.01275684276630641 0 -0.37263177327601882 0.002071410791005375 0 -0.3860161448010509 0.00020277506578310361 0 -0.38284116549057812 0.01275684276630641 0 -0.39496930000890468 0.010607248235280481 0 -0.40076948451177719 -0.0011867406769139081 0 -0.41224790211783308 0.0051401219645459736 0 -0.39496930000890468 0.010607248235280481 0 -0.41224790211783308 0.0051401219645459736 0 -0.39496930000890468 0.010607248235280481 0 -0.40419705113486892 0.021887668920138621 0 -0.40076948451177719 -0.0011867406769139081 0 -0.3860161448010509 0.00020277506578310361 0 -0.39496930000890468 0.010607248235280481 0 -0.41241033933349402 0.032962472543453449 0 -0.3988514426795462 0.03511888763473299 0 -0.40419705113486892 0.021887668920138621 0 -0.3988514426795462 0.03511888763473299 0 -0.38903223848078428 0.024680300516709511 0 -0.40419705113486892 0.021887668920138621 0 -0.38903223848078428 0.024680300516709511 0 -0.39496930000890468 0.010607248235280481 0 -0.40419705113486892 0.021887668920138621 0 -0.40295385196546152 0.1044021345467499 0 -0.39245173141735562 0.088331111097984 0 -0.4103079169315445 0.091091278895061578 0 -0.40295385196546152 0.1044021345467499 0 -0.38757985658338179 0.10770634767205189 0 -0.39245173141735562 0.088331111097984 0 -0.40569382605704463 0.12247102304972091 0 -0.38976653468499939 0.12187379656807421 0 -0.38757985658338179 0.10770634767205189 0 -0.40569382605704463 0.12247102304972091 0 -0.38757985658338179 0.10770634767205189 0 -0.40295385196546152 0.1044021345467499 0 -0.40569382605704463 0.12247102304972091 0 -0.38757985658338179 0.10770634767205189 0 -0.37567358259866401 0.121274439593311 0 -0.37508494582144558 0.098206824478024424 0 -0.38976653468499939 0.12187379656807421 0 -0.37567358259866401 0.121274439593311 0 -0.38757985658338179 0.10770634767205189 0 -0.37567358259866401 0.121274439593311 0 -0.37508494582144558 0.098206824478024424 0 -0.38757985658338179 0.10770634767205189 0 -0.37508494582144558 0.098206824478024424 0 -0.38757985658338179 0.10770634767205189 0 -0.39245173141735562 0.088331111097984 0 -0.37508494582144558 0.098206824478024424 0 -0.39245173141735562 0.088331111097984 0 -0.37449630904422698 0.075139209362737963 0 -0.39107649560465108 0.065841262823590208 0 -0.39245173141735562 0.088331111097984 0 -0.37449630904422698 0.075139209362737963 0 -0.39107649560465108 0.065841262823590208 0 -0.37390767226700949 0.052071594247451433 0 -0.37449630904422698 0.075139209362737963 0 -0.40526405424338352 0.054661513843272592 0 -0.39107649560465108 0.065841262823590208 0 -0.40574980262671789 0.074221704499683572 0 -0.39107649560465108 0.065841262823590208 0 -0.40574980262671789 0.074221704499683572 0 -0.39245173141735562 0.088331111097984 0 -0.40574980262671789 0.074221704499683572 0 -0.39245173141735562 0.088331111097984 0 -0.4103079169315445 0.091091278895061578 0 -0.40574980262671789 0.074221704499683572 0 -0.4103079169315445 0.091091278895061578 0 -0.42067700986907308 0.075359550859695909 0 -0.4103079169315445 0.091091278895061578 0 -0.42067700986907308 0.075359550859695909 0 -0.42424077109743591 0.095382877918467279 0 -0.40526405424338352 0.054661513843272592 0 -0.40574980262671789 0.074221704499683572 0 -0.41347723534161229 0.062586531163550188 0 -0.40574980262671789 0.074221704499683572 0 -0.41347723534161229 0.062586531163550188 0 -0.42067700986907308 0.075359550859695909 0 -0.41347723534161229 0.062586531163550188 0 -0.42067700986907308 0.075359550859695909 0 -0.42200433939089271 0.063726954990463172 0 -0.42067700986907308 0.075359550859695909 0 -0.43170310375113968 0.065558595828562466 0 -0.43286904908528873 0.085933488971525376 0 -0.43170310375113968 0.065558595828562466 0 -0.43286904908528873 0.085933488971525376 0 -0.42067700986907308 0.075359550859695909 0 -0.42200433939089271 0.063726954990463172 0 -0.43170310375113968 0.065558595828562466 0 -0.42067700986907308 0.075359550859695909 0 -0.43286904908528873 0.085933488971525376 0 -0.42424077109743591 0.095382877918467279 0 -0.43286904908528873 0.085933488971525376 0 -0.4340349944194376 0.1063083821144883 0 -0.43286904908528873 0.085933488971525376 0 -0.42424077109743591 0.095382877918467279 0 -0.4340349944194376 0.1063083821144883 0 -0.42424077109743591 0.095382877918467279 0 -0.4340349944194376 0.1063083821144883 0 -0.41873592883798122 0.11241091201893121 0 -0.4103079169315445 0.091091278895061578 0 -0.42424077109743591 0.095382877918467279 0 -0.41873592883798122 0.11241091201893121 0 -0.40295385196546152 0.1044021345467499 0 -0.4103079169315445 0.091091278895061578 0 -0.41873592883798122 0.11241091201893121 0 -0.40295385196546152 0.1044021345467499 0 -0.40569382605704463 0.12247102304972091 0 -0.41873592883798122 0.11241091201893121 0 -0.40569382605704463 0.12247102304972091 0 -0.41873592883798122 0.11241091201893121 0 -0.42380779553070752 0.13723569842738989 0 -0.4340349944194376 0.1063083821144883 0 -0.43085635428100472 0.12056819187782369 0 -0.44429041509177192 0.12631031149942401 0 -0.41873592883798122 0.11241091201893121 0 -0.43085635428100472 0.12056819187782369 0 -0.42380779553070752 0.13723569842738989 0 -0.4340349944194376 0.1063083821144883 0 -0.41873592883798122 0.11241091201893121 0 -0.43085635428100472 0.12056819187782369 0 -0.4340349944194376 0.1063083821144883 0 -0.4466590651791727 0.1006202491937898 0 -0.44429041509177192 0.12631031149942401 0 -0.4466590651791727 0.1006202491937898 0 -0.46149406112986802 0.10285664320061801 0 -0.44429041509177192 0.12631031149942401 0 -0.4466590651791727 0.1006202491937898 0 -0.44429041509177192 0.12631031149942401 0 -0.43286904908528873 0.085933488971525376 0 -0.4340349944194376 0.1063083821144883 0 -0.4466590651791727 0.1006202491937898 0 -0.4466590651791727 0.1006202491937898 0 -0.46149406112986802 0.10285664320061801 0 -0.45985876798403569 0.086801508141956973 0 -0.46708704082076102 0.1163840800372237 0 -0.44429041509177192 0.12631031149942401 0 -0.45939382023367847 0.1306614178189264 0 -0.46149406112986802 0.10285664320061801 0 -0.46708704082076102 0.1163840800372237 0 -0.44429041509177192 0.12631031149942401 0 -0.44338494329703793 0.056236284988157199 0 -0.43170310375113968 0.065558595828562466 0 -0.44902771526657348 0.074930186888155503 0 -0.43170310375113968 0.065558595828562466 0 -0.43286904908528873 0.085933488971525376 0 -0.44902771526657348 0.074930186888155503 0 -0.45747595246537492 0.057667711656659758 0 -0.44338494329703793 0.056236284988157199 0 -0.44902771526657348 0.074930186888155503 0 -0.4466590651791727 0.1006202491937898 0 -0.44902771526657348 0.074930186888155503 0 -0.45985876798403569 0.086801508141956973 0 -0.4466590651791727 0.1006202491937898 0 -0.44902771526657348 0.074930186888155503 0 -0.43286904908528873 0.085933488971525376 0 -0.4466590651791727 0.1006202491937898 0 -0.44902771526657348 0.074930186888155503 0 -0.45985876798403569 0.086801508141956973 0 -0.46789434568741461 0.069800718235507986 0 -0.47539952478827291 0.086610668018059681 0 -0.46149406112986802 0.10285664320061801 0 -0.45985876798403569 0.086801508141956973 0 -0.47539952478827291 0.086610668018059681 0 -0.45747595246537492 0.057667711656659758 0 -0.44902771526657348 0.074930186888155503 0 -0.46789434568741461 0.069800718235507986 0 -0.44902771526657348 0.074930186888155503 0 -0.45985876798403569 0.086801508141956973 0 -0.46789434568741461 0.069800718235507986 0 -0.46789434568741461 0.069800718235507986 0 -0.47539952478827291 0.086610668018059681 0 -0.48560992992263302 0.067160017987693776 0 -0.47539952478827291 0.086610668018059681 0 -0.5 0.079896151205903765 0 -0.48184649147694247 0.1038495649790189 0 -0.47539952478827291 0.086610668018059681 0 -0.5 0.079896151205903765 0 -0.48560992992263302 0.067160017987693776 0 -0.49999999999999839 0.053603259824170191 0 -0.5 0.079896151205903765 0 -0.48560992992263302 0.067160017987693776 0 -0.46708704082076102 0.1163840800372237 0 -0.48349898502088179 0.1240506358609005 0 -0.48184649147694247 0.1038495649790189 0 -0.46149406112986802 0.10285664320061801 0 -0.46708704082076102 0.1163840800372237 0 -0.48184649147694247 0.1038495649790189 0 -0.46149406112986802 0.10285664320061801 0 -0.47539952478827291 0.086610668018059681 0 -0.48184649147694247 0.1038495649790189 0 -0.5 0.079896151205903765 0 -0.48184649147694247 0.1038495649790189 0 -0.5 0.1061890425876373 0 -0.48349898502088179 0.1240506358609005 0 -0.5 0.1061890425876373 0 -0.5 0.13248193396937069 0 -0.48349898502088179 0.1240506358609005 0 -0.48184649147694247 0.1038495649790189 0 -0.5 0.1061890425876373 0 -0.48349898502088179 0.1240506358609005 0 -0.5 0.13248193396937069 0 -0.48290020328139183 0.1521716943424955 0 -0.46708704082076102 0.1163840800372237 0 -0.48349898502088179 0.1240506358609005 0 -0.47118379632761792 0.13807452459009029 0 -0.48349898502088179 0.1240506358609005 0 -0.47118379632761792 0.13807452459009029 0 -0.48290020328139183 0.1521716943424955 0 -0.47118379632761792 0.13807452459009029 0 -0.48290020328139183 0.1521716943424955 0 -0.46312544166059127 0.15481367686333561 0 -0.5 0.13248193396937069 0 -0.48290020328139183 0.1521716943424955 0 -0.5 0.15877482535110421 0 -0.48290020328139183 0.1521716943424955 0 -0.48490568017365882 0.1696780441596652 0 -0.5 0.15877482535110421 0 -0.48490568017365882 0.1696780441596652 0 -0.5 0.15877482535110421 0 -0.50000000000000355 0.18506771673283759 0 -0.48490568017365882 0.1696780441596652 0 -0.50000000000000355 0.18506771673283759 0 -0.47178110560718012 0.18562912271494861 0 -0.50000000000000355 0.18506771673283759 0 -0.47178110560718012 0.18562912271494861 0 -0.48490568017365882 0.1696780441596652 0 -0.47178110560718012 0.18562912271494861 0 -0.46984709197972152 0.16674686165694011 0 -0.48290020328139183 0.1521716943424955 0 -0.48490568017365882 0.1696780441596652 0 -0.46984709197972152 0.16674686165694011 0 -0.48290020328139183 0.1521716943424955 0 -0.46984709197972152 0.16674686165694011 0 -0.46312544166059127 0.15481367686333561 0 -0.46984709197972152 0.16674686165694011 0 -0.45020484607274719 0.1667286505635743 0 -0.46312544166059127 0.15481367686333561 0 -0.46984709197972152 0.16674686165694011 0 -0.45884881371850128 0.17632379090813061 0 -0.45020484607274719 0.1667286505635743 0 -0.45109405739266129 0.15947669862602559 0 -0.45020484607274719 0.1667286505635743 0 -0.46312544166059127 0.15481367686333561 0 -0.47178110560718012 0.18562912271494861 0 -0.46984709197972152 0.16674686165694011 0 -0.45884881371850128 0.17632379090813061 0 -0.47178110560718012 0.18562912271494861 0 -0.45884881371850128 0.17632379090813061 0 -0.44356221121435652 0.18619052869705841 0 -0.47178110560718012 0.18562912271494861 0 -0.44356221121435652 0.18619052869705841 0 -0.45884881371850128 0.17632379090813061 0 -0.44356221121435652 0.18619052869705841 0 -0.45020484607274719 0.1667286505635743 0 -0.43876059000143131 0.18628605543298471 0 -0.44034117750290031 0.16914321461902149 0 -0.44356221121435652 0.18619052869705841 0 -0.45020484607274719 0.1667286505635743 0 -0.44034117750290031 0.16914321461902149 0 -0.43876059000143131 0.18628605543298471 0 -0.44034117750290031 0.16914321461902149 0 -0.43484610710641108 0.17576675932208929 0 -0.44356221121435652 0.18619052869705841 0 -0.45020484607274719 0.1667286505635743 0 -0.43876059000143131 0.18628605543298471 0 -0.44356221121435652 0.18619052869705841 0 -0.44034117750290031 0.16914321461902149 0 -0.43876059000143131 0.18628605543298471 0 -0.44356221121435652 0.18619052869705841 0 -0.45109405739266129 0.15947669862602559 0 -0.44034117750290031 0.16914321461902149 0 -0.44192176500437069 0.15200037380505829 0 -0.44034117750290031 0.16914321461902149 0 -0.44192176500437069 0.15200037380505829 0 -0.45109405739266129 0.15947669862602559 0 -0.45020484607274719 0.1667286505635743 0 -0.44034117750290031 0.16914321461902149 0 -0.45109405739266129 0.15947669862602559 0 -0.44192176500437069 0.15200037380505829 0 -0.44192176500437069 0.15200037380505829 0 -0.45278882318804659 0.1520418761108468 0 -0.45501402869456342 0.14187675514896769 0 -0.45109405739266129 0.15947669862602559 0 -0.44192176500437069 0.15200037380505829 0 -0.45278882318804659 0.1520418761108468 0 -0.44192176500437069 0.15200037380505829 0 -0.44429041509177192 0.12631031149942401 0 -0.44192176500437069 0.15200037380505829 0 -0.44429041509177192 0.12631031149942401 0 -0.45501402869456342 0.14187675514896769 0 -0.44429041509177192 0.12631031149942401 0 -0.45939382023367847 0.1306614178189264 0 -0.45501402869456342 0.14187675514896769 0 -0.47118379632761792 0.13807452459009029 0 -0.45939382023367847 0.1306614178189264 0 -0.45501402869456342 0.14187675514896769 0 -0.46708704082076102 0.1163840800372237 0 -0.47118379632761792 0.13807452459009029 0 -0.45939382023367847 0.1306614178189264 0 -0.47118379632761792 0.13807452459009029 0 -0.46312544166059127 0.15481367686333561 0 -0.45501402869456342 0.14187675514896769 0 -0.45109405739266129 0.15947669862602559 0 -0.45278882318804659 0.1520418761108468 0 -0.46312544166059127 0.15481367686333561 0 -0.45278882318804659 0.1520418761108468 0 -0.46312544166059127 0.15481367686333561 0 -0.45501402869456342 0.14187675514896769 0 -0.47026877103223552 0.24615879961802731 0 -0.47711565953545021 0.23340965923046891 0 -0.46780022683569172 0.23260767789613021 0 -0.47026877103223552 0.24615879961802731 0 -0.48575737648544182 0.24366876600517251 0 -0.47711565953545021 0.23340965923046891 0 -0.48575737648544182 0.24366876600517251 0 -0.5 0.2349927065907719 0 -0.499999999999994 0.259955201519739 0 -0.48575737648544182 0.24366876600517251 0 -0.49713041384465678 0.21810326647355341 0 -0.48575737648544182 0.24366876600517251 0 -0.5 0.2349927065907719 0 -0.49713041384465678 0.21810326647355341 0 -0.5 0.2349927065907719 0 -0.49713041384465678 0.21810326647355341 0 -0.5 0.21003021166180469 0 -0.48575737648544182 0.24366876600517251 0 -0.48284766927952932 0.2227972730204342 0 -0.49713041384465678 0.21810326647355341 0 -0.48575737648544182 0.24366876600517251 0 -0.48284766927952932 0.2227972730204342 0 -0.47711565953545021 0.23340965923046891 0 -0.48284766927952932 0.2227972730204342 0 -0.47711565953545021 0.23340965923046891 0 -0.47177369648791162 0.22383433601103739 0 -0.47711565953545021 0.23340965923046891 0 -0.47177369648791162 0.22383433601103739 0 -0.46780022683569172 0.23260767789613021 0 -0.48284766927952932 0.2227972730204342 0 -0.47177369648791162 0.22383433601103739 0 -0.4733101837023469 0.2138739022724786 0 -0.4733101837023469 0.2138739022724786 0 -0.46899483553113158 0.2032753165977626 0 -0.48567701437719102 0.20720103182853619 0 -0.47177369648791162 0.22383433601103739 0 -0.4733101837023469 0.2138739022724786 0 -0.46526943998852011 0.2179242949437111 0 -0.48284766927952932 0.2227972730204342 0 -0.4733101837023469 0.2138739022724786 0 -0.48567701437719102 0.20720103182853619 0 -0.48284766927952932 0.2227972730204342 0 -0.49713041384465678 0.21810326647355341 0 -0.48567701437719102 0.20720103182853619 0 -0.49713041384465678 0.21810326647355341 0 -0.5 0.21003021166180469 0 -0.48567701437719102 0.20720103182853619 0 -0.50000000000000355 0.18506771673283759 0 -0.47178110560718012 0.18562912271494861 0 -0.48567701437719102 0.20720103182853619 0 -0.50000000000000355 0.18506771673283759 0 -0.5 0.21003021166180469 0 -0.48567701437719102 0.20720103182853619 0 -0.47178110560718012 0.18562912271494861 0 -0.46899483553113158 0.2032753165977626 0 -0.48567701437719102 0.20720103182853619 0 -0.47178110560718012 0.18562912271494861 0 -0.46899483553113158 0.2032753165977626 0 -0.45042723949665953 0.2045542175982922 0 -0.47178110560718012 0.18562912271494861 0 -0.44356221121435652 0.18619052869705841 0 -0.45042723949665953 0.2045542175982922 0 -0.44356221121435652 0.18619052869705841 0 -0.45042723949665953 0.2045542175982922 0 -0.43746402370164139 0.20405726151280859 0 -0.44356221121435652 0.18619052869705841 0 -0.43823854337431001 0.19194810338531151 0 -0.43746402370164139 0.20405726151280859 0 -0.44356221121435652 0.18619052869705841 0 -0.43746402370164139 0.20405726151280859 0 -0.43876059000143131 0.18628605543298471 0 -0.43823854337431001 0.19194810338531151 0 -0.43876059000143131 0.18628605543298471 0 -0.44356221121435652 0.18619052869705841 0 -0.43823854337431001 0.19194810338531151 0 -0.45042723949665953 0.2045542175982922 0 -0.44300870671030729 0.21944522996574661 0 -0.4321849991450552 0.2239800885118246 0 -0.45042723949665953 0.2045542175982922 0 -0.4321849991450552 0.2239800885118246 0 -0.45042723949665953 0.2045542175982922 0 -0.43136583618892999 0.22192399432856 0 -0.43746402370164139 0.20405726151280859 0 -0.45042723949665953 0.2045542175982922 0 -0.4321849991450552 0.2239800885118246 0 -0.43136583618892999 0.22192399432856 0 -0.45042723949665953 0.2045542175982922 0 -0.45185703628860269 0.21535026039930691 0 -0.44300870671030729 0.21944522996574661 0 -0.45185703628860269 0.21535026039930691 0 -0.4609360394137032 0.21113860216557559 0 -0.45688374026626538 0.21897867943358079 0 -0.46899483553113158 0.2032753165977626 0 -0.45042723949665953 0.2045542175982922 0 -0.4609360394137032 0.21113860216557559 0 -0.45042723949665953 0.2045542175982922 0 -0.45185703628860269 0.21535026039930691 0 -0.4609360394137032 0.21113860216557559 0 -0.4733101837023469 0.2138739022724786 0 -0.46899483553113158 0.2032753165977626 0 -0.4609360394137032 0.21113860216557559 0 -0.4609360394137032 0.21113860216557559 0 -0.46526943998852011 0.2179242949437111 0 -0.45688374026626538 0.21897867943358079 0 -0.4733101837023469 0.2138739022724786 0 -0.4609360394137032 0.21113860216557559 0 -0.46526943998852011 0.2179242949437111 0 -0.46526943998852011 0.2179242949437111 0 -0.46258646846425022 0.2237017125377484 0 -0.45688374026626538 0.21897867943358079 0 -0.47177369648791162 0.22383433601103739 0 -0.46526943998852011 0.2179242949437111 0 -0.46258646846425022 0.2237017125377484 0 -0.46258646846425022 0.2237017125377484 0 -0.46780022683569172 0.23260767789613021 0 -0.46058905100275532 0.2311621955772179 0 -0.47177369648791162 0.22383433601103739 0 -0.46258646846425022 0.2237017125377484 0 -0.46780022683569172 0.23260767789613021 0 -0.46780022683569172 0.23260767789613021 0 -0.46058905100275532 0.2311621955772179 0 -0.46138612572925802 0.23823286436343591 0 -0.46258646846425022 0.2237017125377484 0 -0.46058905100275532 0.2311621955772179 0 -0.45466178528059698 0.22634383521772319 0 -0.46058905100275532 0.2311621955772179 0 -0.45338782491118917 0.23313919239504041 0 -0.46138612572925802 0.23823286436343591 0 -0.46058905100275532 0.2311621955772179 0 -0.45338782491118917 0.23313919239504041 0 -0.45466178528059698 0.22634383521772319 0 -0.46258646846425022 0.2237017125377484 0 -0.45466178528059698 0.22634383521772319 0 -0.45688374026626538 0.21897867943358079 0 -0.45466178528059698 0.22634383521772319 0 -0.45688374026626538 0.21897867943358079 0 -0.44802945555607809 0.22263457283333909 0 -0.45185703628860269 0.21535026039930691 0 -0.44802945555607809 0.22263457283333909 0 -0.44300870671030729 0.21944522996574661 0 -0.45185703628860269 0.21535026039930691 0 -0.45688374026626538 0.21897867943358079 0 -0.44802945555607809 0.22263457283333909 0 -0.45466178528059698 0.22634383521772319 0 -0.44802945555607809 0.22263457283333909 0 -0.447003924409481 0.22934036848966219 0 -0.44802945555607809 0.22263457283333909 0 -0.44192692675223211 0.22694249191416871 0 -0.447003924409481 0.22934036848966219 0 -0.44300870671030729 0.21944522996574661 0 -0.43784066035930469 0.22532238259284629 0 -0.4321849991450552 0.2239800885118246 0 -0.44802945555607809 0.22263457283333909 0 -0.44300870671030729 0.21944522996574661 0 -0.44192692675223211 0.22694249191416871 0 -0.44300870671030729 0.21944522996574661 0 -0.43784066035930469 0.22532238259284629 0 -0.44192692675223211 0.22694249191416871 0 -0.43869109235026049 0.23110645191680659 0 -0.44310945261795248 0.23182768492287081 0 -0.44137055083437748 0.23694588032048311 0 -0.43784066035930469 0.22532238259284629 0 -0.43869109235026049 0.23110645191680659 0 -0.44192692675223211 0.22694249191416871 0 -0.43869109235026049 0.23110645191680659 0 -0.44192692675223211 0.22694249191416871 0 -0.44310945261795248 0.23182768492287081 0 -0.44192692675223211 0.22694249191416871 0 -0.44310945261795248 0.23182768492287081 0 -0.447003924409481 0.22934036848966219 0 -0.44310945261795248 0.23182768492287081 0 -0.447003924409481 0.22934036848966219 0 -0.44687846183633362 0.2353641987373235 0 -0.45338782491118917 0.23313919239504041 0 -0.447003924409481 0.22934036848966219 0 -0.44687846183633362 0.2353641987373235 0 -0.45338782491118917 0.23313919239504041 0 -0.45466178528059698 0.22634383521772319 0 -0.447003924409481 0.22934036848966219 0 -0.45338782491118917 0.23313919239504041 0 -0.44687846183633362 0.2353641987373235 0 -0.45344735345273279 0.24053725749249891 0 -0.43899511158466897 0.24107343052613761 0 -0.44620888291724248 0.24330324602737369 0 -0.44743166308731919 0.26224912498565223 0 -0.44687846183633362 0.2353641987373235 0 -0.44620888291724248 0.24330324602737369 0 -0.45344735345273279 0.24053725749249891 0 -0.43869109235026049 0.23110645191680659 0 -0.43899511158466897 0.24107343052613761 0 -0.44137055083437748 0.23694588032048311 0 -0.44687846183633362 0.2353641987373235 0 -0.44137055083437748 0.23694588032048311 0 -0.44620888291724248 0.24330324602737369 0 -0.44310945261795248 0.23182768492287081 0 -0.44687846183633362 0.2353641987373235 0 -0.44137055083437748 0.23694588032048311 0 -0.43899511158466897 0.24107343052613761 0 -0.44137055083437748 0.23694588032048311 0 -0.44620888291724248 0.24330324602737369 0 -0.43899511158466897 0.24107343052613761 0 -0.44137055083437748 0.23694588032048311 0 -0.44620888291724248 0.24330324602737369 0 -0.45193420450290589 0.24577266785640839 0 -0.45344735345273279 0.24053725749249891 0 -0.45193420450290589 0.24577266785640839 0 -0.46088862081946791 0.24741137557541151 0 -0.45344735345273279 0.24053725749249891 0 -0.45338782491118917 0.23313919239504041 0 -0.45344735345273279 0.24053725749249891 0 -0.46138612572925802 0.23823286436343591 0 -0.46088862081946791 0.24741137557541151 0 -0.45344735345273279 0.24053725749249891 0 -0.46138612572925802 0.23823286436343591 0 -0.47026877103223552 0.24615879961802731 0 -0.46780022683569172 0.23260767789613021 0 -0.46138612572925802 0.23823286436343591 0 -0.47026877103223552 0.24615879961802731 0 -0.46088862081946791 0.24741137557541151 0 -0.46138612572925802 0.23823286436343591 0 -0.41250559953305471 0.24493636740905761 0 -0.42979560990843441 0.22652451101575799 0 -0.42080115542961871 0.25287685171722729 0 -0.41250559953305471 0.24493636740905761 0 -0.41614375554798932 0.23539424802518191 0 -0.42979560990843441 0.22652451101575799 0 -0.41250559953305471 0.24493636740905761 0 -0.42979560990843441 0.22652451101575799 0 -0.41250559953305471 0.24493636740905761 0 -0.40971498697481412 0.23607919598879079 0 -0.39745898753380948 0.24392228279588579 0 -0.41250559953305471 0.24493636740905761 0 -0.40971498697481412 0.23607919598879079 0 -0.41614375554798932 0.23539424802518191 0 -0.40971498697481412 0.23607919598879079 0 -0.40950540577307892 0.23418015474711151 0 -0.40971498697481412 0.23607919598879079 0 -0.41348112390505748 0.23443547495787709 0 -0.40950540577307892 0.23418015474711151 0 -0.40971498697481412 0.23607919598879079 0 -0.41348112390505748 0.23443547495787709 0 -0.41614375554798932 0.23539424802518191 0 -0.43899511158466897 0.24107343052613761 0 -0.42979560990843441 0.22652451101575799 0 -0.42080115542961871 0.25287685171722729 0 -0.42979560990843441 0.22652451101575799 0 -0.42080115542961871 0.25287685171722729 0 -0.43899511158466897 0.24107343052613761 0 -0.4321849991450552 0.2239800885118246 0 -0.42979560990843441 0.22652451101575799 0 -0.41614375554798932 0.23539424802518191 0 -0.42979560990843441 0.22652451101575799 0 -0.42090096009245032 0.22895926640549999 0 -0.43869109235026049 0.23110645191680659 0 -0.43899511158466897 0.24107343052613761 0 -0.4321849991450552 0.2239800885118246 0 -0.43899511158466897 0.24107343052613761 0 -0.4321849991450552 0.2239800885118246 0 -0.43784066035930469 0.22532238259284629 0 -0.43869109235026049 0.23110645191680659 0 -0.4321849991450552 0.2239800885118246 0 -0.42979560990843441 0.22652451101575799 0 -0.43136583618892999 0.22192399432856 0 -0.4321849991450552 0.2239800885118246 0 -0.42979560990843441 0.22652451101575799 0 -0.43136583618892999 0.22192399432856 0 -0.4321849991450552 0.2239800885118246 0 -0.43136583618892999 0.22192399432856 0 -0.4321849991450552 0.2239800885118246 0 -0.42979560990843441 0.22652451101575799 0 -0.42979560990843441 0.22652451101575799 0 -0.42388298158525251 0.22238884141593779 0 -0.42090096009245032 0.22895926640549999 0 -0.42979560990843441 0.22652451101575799 0 -0.43136583618892999 0.22192399432856 0 -0.42388298158525251 0.22238884141593779 0 -0.41716598707411312 0.22014954323920921 0 -0.42090096009245032 0.22895926640549999 0 -0.41402834912050451 0.2259442889281679 0 -0.42388298158525251 0.22238884141593779 0 -0.41716598707411312 0.22014954323920921 0 -0.42090096009245032 0.22895926640549999 0 -0.40950540577307892 0.23418015474711151 0 -0.41402834912050451 0.2259442889281679 0 -0.40690040744080119 0.21057594202863369 0 -0.40950540577307892 0.23418015474711151 0 -0.40690040744080119 0.21057594202863369 0 -0.41614375554798932 0.23539424802518191 0 -0.42090096009245032 0.22895926640549999 0 -0.41584744424335168 0.23107712127949351 0 -0.41348112390505748 0.23443547495787709 0 -0.41614375554798932 0.23539424802518191 0 -0.41584744424335168 0.23107712127949351 0 -0.41348112390505748 0.23443547495787709 0 -0.41584744424335168 0.23107712127949351 0 -0.41321558076049808 0.2314092599781625 0 -0.41584744424335168 0.23107712127949351 0 -0.41321558076049808 0.2314092599781625 0 -0.41402834912050451 0.2259442889281679 0 -0.42090096009245032 0.22895926640549999 0 -0.41584744424335168 0.23107712127949351 0 -0.41402834912050451 0.2259442889281679 0 -0.41321558076049808 0.2314092599781625 0 -0.40950540577307892 0.23418015474711151 0 -0.41402834912050451 0.2259442889281679 0 -0.41348112390505748 0.23443547495787709 0 -0.40950540577307892 0.23418015474711151 0 -0.41348112390505748 0.23443547495787709 0 -0.41321558076049808 0.2314092599781625 0 -0.40950540577307892 0.23418015474711151 0 -0.41716598707411312 0.22014954323920921 0 -0.41402834912050451 0.2259442889281679 0 -0.40690040744080119 0.21057594202863369 0 -0.41716598707411312 0.22014954323920921 0 -0.40690040744080119 0.21057594202863369 0 -0.4243515312728629 0.20431813040396651 0 -0.42388298158525251 0.22238884141593779 0 -0.41716598707411312 0.22014954323920921 0 -0.4243515312728629 0.20431813040396651 0 -0.40690040744080119 0.21057594202863369 0 -0.4243515312728629 0.20431813040396651 0 -0.4128848347613211 0.197968056308406 0 -0.43136583618892999 0.22192399432856 0 -0.43746402370164139 0.20405726151280859 0 -0.4243515312728629 0.20431813040396651 0 -0.43136583618892999 0.22192399432856 0 -0.42388298158525251 0.22238884141593779 0 -0.4243515312728629 0.20431813040396651 0 -0.43136583618892999 0.22192399432856 0 -0.43746402370164139 0.20405726151280859 0 -0.43136583618892999 0.22192399432856 0 -0.4243515312728629 0.20431813040396651 0 -0.43876059000143131 0.18628605543298471 0 -0.42934747821206609 0.19331675008759461 0 -0.41733722635679771 0.1867122664793722 0 -0.4243515312728629 0.20431813040396651 0 -0.43235039414022008 0.19841006134742031 0 -0.42934747821206609 0.19331675008759461 0 -0.4243515312728629 0.20431813040396651 0 -0.42934747821206609 0.19331675008759461 0 -0.41733722635679771 0.1867122664793722 0 -0.43823854337431001 0.19194810338531151 0 -0.43746402370164139 0.20405726151280859 0 -0.43235039414022008 0.19841006134742031 0 -0.43746402370164139 0.20405726151280859 0 -0.4243515312728629 0.20431813040396651 0 -0.43235039414022008 0.19841006134742031 0 -0.43876059000143131 0.18628605543298471 0 -0.43823854337431001 0.19194810338531151 0 -0.42934747821206609 0.19331675008759461 0 -0.43823854337431001 0.19194810338531151 0 -0.43235039414022008 0.19841006134742031 0 -0.42934747821206609 0.19331675008759461 0 -0.40690040744080119 0.21057594202863369 0 -0.4128848347613211 0.197968056308406 0 -0.40429540910852152 0.18697172931015621 0 -0.4243515312728629 0.20431813040396651 0 -0.41733722635679771 0.1867122664793722 0 -0.4243515312728629 0.20431813040396651 0 -0.4128848347613211 0.197968056308406 0 -0.41733722635679771 0.1867122664793722 0 -0.4128848347613211 0.197968056308406 0 -0.41733722635679771 0.1867122664793722 0 -0.40429540910852152 0.18697172931015621 0 -0.40690040744080119 0.21057594202863369 0 -0.39525266245826818 0.1981914997787676 0 -0.40429540910852152 0.18697172931015621 0 -0.39525266245826818 0.1981914997787676 0 -0.40429540910852152 0.18697172931015621 0 -0.38249083432604403 0.18740552443160441 0 -0.40690040744080119 0.21057594202863369 0 -0.40429540910852152 0.18697172931015621 0 -0.38732399895770631 0.20781280334467619 0 -0.38249083432604403 0.18740552443160441 0 -0.37140147374303478 0.20745791486176601 0 -0.39525266245826818 0.1981914997787676 0 -0.38732399895770631 0.20781280334467619 0 -0.38249083432604403 0.18740552443160441 0 -0.38732399895770631 0.20781280334467619 0 -0.37652902478522088 0.2198513768494256 0 -0.37140147374303478 0.20745791486176601 0 -0.38732399895770631 0.20781280334467619 0 -0.39621903020235028 0.22306685960935041 0 -0.37652902478522088 0.2198513768494256 0 -0.40690040744080119 0.21057594202863369 0 -0.39525266245826818 0.1981914997787676 0 -0.38732399895770631 0.20781280334467619 0 -0.40690040744080119 0.21057594202863369 0 -0.38732399895770631 0.20781280334467619 0 -0.39621903020235028 0.22306685960935041 0 -0.40950540577307892 0.23418015474711151 0 -0.38420461613831891 0.23255534063111241 0 -0.40950540577307892 0.23418015474711151 0 -0.40690040744080119 0.21057594202863369 0 -0.39621903020235028 0.22306685960935041 0 -0.40950540577307892 0.23418015474711151 0 -0.39621903020235028 0.22306685960935041 0 -0.38420461613831891 0.23255534063111241 0 -0.39621903020235028 0.22306685960935041 0 -0.38420461613831891 0.23255534063111241 0 -0.37652902478522088 0.2198513768494256 0 -0.38420461613831891 0.23255534063111241 0 -0.39745898753380948 0.24392228279588579 0 -0.37360772762591582 0.25243441419688578 0 -0.40950540577307892 0.23418015474711151 0 -0.38420461613831891 0.23255534063111241 0 -0.39745898753380948 0.24392228279588579 0 -0.40971498697481412 0.23607919598879079 0 -0.40950540577307892 0.23418015474711151 0 -0.39745898753380948 0.24392228279588579 0 -0.4156821781075597 0.1532150358995194 0 -0.42380779553070752 0.13723569842738989 0 -0.40424766824640679 0.1396868188738116 0 -0.4156821781075597 0.1532150358995194 0 -0.40063718099822709 0.15382407104945439 0 -0.40424766824640679 0.1396868188738116 0 -0.40569382605704463 0.12247102304972091 0 -0.42380779553070752 0.13723569842738989 0 -0.40569382605704463 0.12247102304972091 0 -0.42380779553070752 0.13723569842738989 0 -0.40424766824640679 0.1396868188738116 0 -0.44192176500437069 0.15200037380505829 0 -0.44429041509177192 0.12631031149942401 0 -0.42380779553070752 0.13723569842738989 0 -0.43085635428100472 0.12056819187782369 0 -0.44429041509177192 0.12631031149942401 0 -0.42380779553070752 0.13723569842738989 0 -0.44192176500437069 0.15200037380505829 0 -0.42380779553070752 0.13723569842738989 0 -0.4156821781075597 0.1532150358995194 0 -0.42380779553070752 0.13723569842738989 0 -0.43019214803030131 0.15763917539102029 0 -0.44192176500437069 0.15200037380505829 0 -0.42380779553070752 0.13723569842738989 0 -0.43019214803030131 0.15763917539102029 0 -0.44034117750290031 0.16914321461902149 0 -0.44192176500437069 0.15200037380505829 0 -0.43019214803030131 0.15763917539102029 0 -0.44034117750290031 0.16914321461902149 0 -0.4308185764900504 0.16862389593674801 0 -0.43484610710641108 0.17576675932208929 0 -0.44034117750290031 0.16914321461902149 0 -0.43019214803030131 0.15763917539102029 0 -0.4308185764900504 0.16862389593674801 0 -0.4308185764900504 0.16862389593674801 0 -0.42233027848069182 0.16429209071741191 0 -0.42481061821392141 0.17162404305482881 0 -0.4156821781075597 0.1532150358995194 0 -0.43019214803030131 0.15763917539102029 0 -0.42233027848069182 0.16429209071741191 0 -0.43019214803030131 0.15763917539102029 0 -0.4308185764900504 0.16862389593674801 0 -0.42233027848069182 0.16429209071741191 0 -0.43876059000143131 0.18628605543298471 0 -0.42847995410874329 0.18064653659323959 0 -0.41733722635679771 0.1867122664793722 0 -0.43876059000143131 0.18628605543298471 0 -0.41733722635679771 0.1867122664793722 0 -0.43876059000143131 0.18628605543298471 0 -0.43484610710641108 0.17576675932208929 0 -0.42847995410874329 0.18064653659323959 0 -0.43484610710641108 0.17576675932208929 0 -0.4292969602297968 0.17547454252890879 0 -0.42847995410874329 0.18064653659323959 0 -0.4308185764900504 0.16862389593674801 0 -0.43484610710641108 0.17576675932208929 0 -0.4292969602297968 0.17547454252890879 0 -0.4308185764900504 0.16862389593674801 0 -0.42481061821392141 0.17162404305482881 0 -0.4292969602297968 0.17547454252890879 0 -0.42481061821392141 0.17162404305482881 0 -0.4292969602297968 0.17547454252890879 0 -0.42215888684927982 0.17899305920284389 0 -0.4292969602297968 0.17547454252890879 0 -0.42215888684927982 0.17899305920284389 0 -0.42847995410874329 0.18064653659323959 0 -0.42215888684927982 0.17899305920284389 0 -0.42847995410874329 0.18064653659323959 0 -0.41733722635679771 0.1867122664793722 0 -0.41733722635679771 0.1867122664793722 0 -0.41566156858894032 0.1825063753756849 0 -0.42215888684927982 0.17899305920284389 0 -0.41733722635679771 0.1867122664793722 0 -0.41566156858894032 0.1825063753756849 0 -0.41566156858894032 0.1825063753756849 0 -0.41680340108404462 0.17737579750913679 0 -0.41104345664671688 0.1756492115148045 0 -0.42215888684927982 0.17899305920284389 0 -0.41680340108404462 0.17737579750913679 0 -0.41834969225124158 0.17235454394321401 0 -0.42215888684927982 0.17899305920284389 0 -0.41566156858894032 0.1825063753756849 0 -0.41680340108404462 0.17737579750913679 0 -0.42481061821392141 0.17162404305482881 0 -0.42215888684927982 0.17899305920284389 0 -0.41834969225124158 0.17235454394321401 0 -0.41680340108404462 0.17737579750913679 0 -0.41834969225124158 0.17235454394321401 0 -0.41104345664671688 0.1756492115148045 0 -0.41733722635679771 0.1867122664793722 0 -0.40429540910852152 0.18697172931015621 0 -0.41733722635679771 0.1867122664793722 0 -0.41566156858894032 0.1825063753756849 0 -0.40429540910852152 0.18697172931015621 0 -0.41566156858894032 0.1825063753756849 0 -0.41104345664671688 0.1756492115148045 0 -0.40429540910852152 0.18697172931015621 0 -0.4156821781075597 0.1532150358995194 0 -0.42233027848069182 0.16429209071741191 0 -0.41175151358963519 0.1649554755507015 0 -0.42233027848069182 0.16429209071741191 0 -0.41834969225124158 0.17235454394321401 0 -0.41175151358963519 0.1649554755507015 0 -0.42233027848069182 0.16429209071741191 0 -0.42481061821392141 0.17162404305482881 0 -0.41834969225124158 0.17235454394321401 0 -0.41104345664671688 0.1756492115148045 0 -0.41175151358963519 0.1649554755507015 0 -0.40246629505337439 0.1703979001798053 0 -0.41834969225124158 0.17235454394321401 0 -0.41104345664671688 0.1756492115148045 0 -0.41175151358963519 0.1649554755507015 0 -0.4156821781075597 0.1532150358995194 0 -0.41175151358963519 0.1649554755507015 0 -0.40063718099822709 0.15382407104945439 0 -0.41175151358963519 0.1649554755507015 0 -0.40246629505337439 0.1703979001798053 0 -0.40063718099822709 0.15382407104945439 0 -0.40246629505337439 0.1703979001798053 0 -0.40063718099822709 0.15382407104945439 0 -0.40246629505337439 0.1703979001798053 0 -0.38915409776182658 0.16437440485436561 0 -0.40063718099822709 0.15382407104945439 0 -0.40246629505337439 0.1703979001798053 0 -0.39414732679574183 0.17785376286716401 0 -0.38915409776182658 0.16437440485436561 0 -0.40429540910852152 0.18697172931015621 0 -0.39414732679574183 0.17785376286716401 0 -0.38249083432604403 0.18740552443160441 0 -0.41104345664671688 0.1756492115148045 0 -0.40246629505337439 0.1703979001798053 0 -0.40429540910852152 0.18697172931015621 0 -0.40246629505337439 0.1703979001798053 0 -0.40429540910852152 0.18697172931015621 0 -0.40429540910852152 0.18697172931015621 0 -0.38249083432604403 0.18740552443160441 0 -0.40246629505337439 0.1703979001798053 0 -0.40429540910852152 0.18697172931015621 0 -0.39414732679574183 0.17785376286716401 0 -0.39414732679574183 0.17785376286716401 0 -0.38249083432604403 0.18740552443160441 0 -0.38915409776182658 0.16437440485436561 0 -0.38915409776182658 0.16437440485436561 0 -0.38920837474347808 0.14949968235852551 0 -0.37353052332383802 0.16205549383346829 0 -0.38249083432604403 0.18740552443160441 0 -0.38915409776182658 0.16437440485436561 0 -0.37353052332383802 0.16205549383346829 0 -0.37756190462966321 0.14101392958284001 0 -0.38920837474347808 0.14949968235852551 0 -0.37353052332383802 0.16205549383346829 0 -0.37756190462966321 0.14101392958284001 0 -0.38920837474347808 0.14949968235852551 0 -0.39011887350090729 0.13604337595721289 0 -0.38915409776182658 0.16437440485436561 0 -0.38920837474347808 0.14949968235852551 0 -0.40063718099822709 0.15382407104945439 0 -0.38920837474347808 0.14949968235852551 0 -0.40063718099822709 0.15382407104945439 0 -0.40424766824640679 0.1396868188738116 0 -0.38920837474347808 0.14949968235852551 0 -0.40424766824640679 0.1396868188738116 0 -0.39011887350090729 0.13604337595721289 0 -0.40569382605704463 0.12247102304972091 0 -0.40424766824640679 0.1396868188738116 0 -0.39011887350090729 0.13604337595721289 0 -0.40569382605704463 0.12247102304972091 0 -0.38976653468499939 0.12187379656807421 0 -0.39011887350090729 0.13604337595721289 0 -0.38976653468499939 0.12187379656807421 0 -0.37567358259866401 0.121274439593311 0 -0.39011887350090729 0.13604337595721289 0 -0.37567358259866401 0.121274439593311 0 -0.37756190462966321 0.14101392958284001 0 -0.39011887350090729 0.13604337595721289 0 -0.37567358259866401 0.121274439593311 0 -0.37756190462966321 0.14101392958284001 0 -0.36043174236708042 0.13643050419531971 0 -0.36043174236708042 0.13643050419531971 0 -0.343054354331363 0.129152980129667 0 -0.34733296141032283 0.110805514557171 0 -0.36043174236708042 0.13643050419531971 0 -0.34907400460277932 0.15505629853425151 0 -0.343054354331363 0.129152980129667 0 -0.37756190462966321 0.14101392958284001 0 -0.36043174236708042 0.13643050419531971 0 -0.37353052332383802 0.16205549383346829 0 -0.36043174236708042 0.13643050419531971 0 -0.37353052332383802 0.16205549383346829 0 -0.36043174236708042 0.13643050419531971 0 -0.34907400460277932 0.15505629853425151 0 -0.37353052332383802 0.16205549383346829 0 -0.37353052332383802 0.16205549383346829 0 -0.3496301830753516 0.17596638060226449 0 -0.36412439856201279 0.18973223554233221 0 -0.38249083432604403 0.18740552443160441 0 -0.37353052332383802 0.16205549383346829 0 -0.36412439856201279 0.18973223554233221 0 -0.34907400460277932 0.15505629853425151 0 -0.37353052332383802 0.16205549383346829 0 -0.3496301830753516 0.17596638060226449 0 -0.34907400460277932 0.15505629853425151 0 -0.3496301830753516 0.17596638060226449 0 -0.33439783423510178 0.15958651133924839 0 -0.3496301830753516 0.17596638060226449 0 -0.33439783423510178 0.15958651133924839 0 -0.32926357193654882 0.17387335647599059 0 -0.3496301830753516 0.17596638060226449 0 -0.32926357193654882 0.17387335647599059 0 -0.33619632846917741 0.18830612783195461 0 -0.32926357193654882 0.17387335647599059 0 -0.31757171829307501 0.1856905416010535 0 -0.33619632846917741 0.18830612783195461 0 -0.32926357193654882 0.17387335647599059 0 -0.31757171829307501 0.1856905416010535 0 -0.30689798243936639 0.17244719377841011 0 -0.32926357193654882 0.17387335647599059 0 -0.31770598012497991 0.15743977777321519 0 -0.30689798243936639 0.17244719377841011 0 -0.33439783423510178 0.15958651133924839 0 -0.32926357193654882 0.17387335647599059 0 -0.31770598012497991 0.15743977777321519 0 -0.31770598012497991 0.15743977777321519 0 -0.31455585447292073 0.13743618012934619 0 -0.30528280619595682 0.14869495828923551 0 -0.31770598012497991 0.15743977777321519 0 -0.31455585447292073 0.13743618012934619 0 -0.33111323707829071 0.14270091761247539 0 -0.33439783423510178 0.15958651133924839 0 -0.31770598012497991 0.15743977777321519 0 -0.33111323707829071 0.14270091761247539 0 -0.31455585447292073 0.13743618012934619 0 -0.33111323707829071 0.14270091761247539 0 -0.32572713193441799 0.1164066552443926 0 -0.31455585447292073 0.13743618012934619 0 -0.30800650549144543 0.1240400838571023 0 -0.32572713193441799 0.1164066552443926 0 -0.343054354331363 0.129152980129667 0 -0.33111323707829071 0.14270091761247539 0 -0.32572713193441799 0.1164066552443926 0 -0.34907400460277932 0.15505629853425151 0 -0.343054354331363 0.129152980129667 0 -0.33111323707829071 0.14270091761247539 0 -0.34907400460277932 0.15505629853425151 0 -0.33439783423510178 0.15958651133924839 0 -0.33111323707829071 0.14270091761247539 0 -0.35360538224735683 0.24087006329800081 0 -0.35200305033308649 0.24798110438320281 0 -0.36123601888695711 0.2578213626145337 0 -0.35360538224735683 0.24087006329800081 0 -0.35200305033308649 0.24798110438320281 0 -0.3400038048171003 0.24323895028343789 0 -0.35360538224735683 0.24087006329800081 0 -0.37360772762591582 0.25243441419688578 0 -0.35360538224735683 0.24087006329800081 0 -0.35890382650355879 0.230930526515113 0 -0.37360772762591582 0.25243441419688578 0 -0.38420461613831891 0.23255534063111241 0 -0.35890382650355879 0.230930526515113 0 -0.37360772762591582 0.25243441419688578 0 -0.37652902478522088 0.2198513768494256 0 -0.35890382650355879 0.230930526515113 0 -0.36112120316635637 0.21728481613453579 0 -0.38420461613831891 0.23255534063111241 0 -0.37652902478522088 0.2198513768494256 0 -0.35890382650355879 0.230930526515113 0 -0.38420461613831891 0.23255534063111241 0 -0.35890382650355879 0.230930526515113 0 -0.35890382650355879 0.230930526515113 0 -0.34796769615514023 0.21683732936264219 0 -0.33360303686879861 0.22930571239911471 0 -0.35890382650355879 0.230930526515113 0 -0.34796769615514023 0.21683732936264219 0 -0.36112120316635637 0.21728481613453579 0 -0.35360538224735683 0.24087006329800081 0 -0.35890382650355879 0.230930526515113 0 -0.33360303686879861 0.22930571239911471 0 -0.35890382650355879 0.230930526515113 0 -0.33360303686879861 0.22930571239911471 0 -0.34796769615514023 0.21683732936264219 0 -0.35927203284417758 0.20551237954789919 0 -0.34816967472780852 0.20027934491178559 0 -0.34796769615514023 0.21683732936264219 0 -0.35927203284417758 0.20551237954789919 0 -0.36112120316635637 0.21728481613453579 0 -0.37652902478522088 0.2198513768494256 0 -0.36112120316635637 0.21728481613453579 0 -0.37140147374303478 0.20745791486176601 0 -0.35927203284417758 0.20551237954789919 0 -0.36112120316635637 0.21728481613453579 0 -0.37140147374303478 0.20745791486176601 0 -0.38249083432604403 0.18740552443160441 0 -0.37140147374303478 0.20745791486176601 0 -0.36412439856201279 0.18973223554233221 0 -0.35927203284417758 0.20551237954789919 0 -0.37140147374303478 0.20745791486176601 0 -0.36412439856201279 0.18973223554233221 0 -0.35927203284417758 0.20551237954789919 0 -0.36412439856201279 0.18973223554233221 0 -0.34816967472780852 0.20027934491178559 0 -0.3496301830753516 0.17596638060226449 0 -0.34816967472780852 0.20027934491178559 0 -0.33619632846917741 0.18830612783195461 0 -0.3496301830753516 0.17596638060226449 0 -0.36412439856201279 0.18973223554233221 0 -0.34816967472780852 0.20027934491178559 0 -0.34816967472780852 0.20027934491178559 0 -0.33619632846917741 0.18830612783195461 0 -0.33532374912933682 0.1995815017490784 0 -0.33532374912933682 0.1995815017490784 0 -0.32445755522152409 0.19804624945519311 0 -0.33247143809883722 0.21169428479738031 0 -0.33619632846917741 0.18830612783195461 0 -0.33532374912933682 0.1995815017490784 0 -0.32445755522152409 0.19804624945519311 0 -0.31757171829307501 0.1856905416010535 0 -0.32445755522152409 0.19804624945519311 0 -0.30723407256614649 0.19635658518224361 0 -0.31757171829307501 0.1856905416010535 0 -0.33619632846917741 0.18830612783195461 0 -0.32445755522152409 0.19804624945519311 0 -0.32445755522152409 0.19804624945519311 0 -0.31814390693358668 0.20896668716573041 0 -0.30723407256614649 0.19635658518224361 0 -0.32445755522152409 0.19804624945519311 0 -0.31814390693358668 0.20896668716573041 0 -0.33247143809883722 0.21169428479738031 0 -0.31814390693358668 0.20896668716573041 0 -0.3200033932316696 0.2214430818853898 0 -0.30640374959454109 0.21358045137166379 0 -0.3200033932316696 0.2214430818853898 0 -0.30640374959454109 0.21358045137166379 0 -0.31814390693358668 0.20896668716573041 0 -0.33247143809883722 0.21169428479738031 0 -0.3200033932316696 0.2214430818853898 0 -0.34796769615514023 0.21683732936264219 0 -0.34816967472780852 0.20027934491178559 0 -0.33247143809883722 0.21169428479738031 0 -0.34816967472780852 0.20027934491178559 0 -0.33532374912933682 0.1995815017490784 0 -0.33247143809883722 0.21169428479738031 0 -0.33247143809883722 0.21169428479738031 0 -0.33360303686879861 0.22930571239911471 0 -0.3200033932316696 0.2214430818853898 0 -0.34796769615514023 0.21683732936264219 0 -0.33247143809883722 0.21169428479738031 0 -0.33360303686879861 0.22930571239911471 0 -0.33360303686879861 0.22930571239911471 0 -0.30409147020687022 0.2274104826142028 0 -0.33360303686879861 0.22930571239911471 0 -0.31645180103768561 0.23980439280763111 0 -0.30409147020687022 0.2274104826142028 0 -0.33360303686879861 0.22930571239911471 0 -0.3200033932316696 0.2214430818853898 0 -0.33360303686879861 0.22930571239911471 0 -0.3200033932316696 0.2214430818853898 0 -0.30409147020687022 0.2274104826142028 0 -0.33360303686879861 0.22930571239911471 0 -0.31645180103768561 0.23980439280763111 0 -0.3267633280155251 0.2494088704731543 0 -0.31645180103768561 0.23980439280763111 0 -0.3267633280155251 0.2494088704731543 0 -0.31209676779959611 0.25239357658938011 0 -0.33360303686879861 0.22930571239911471 0 -0.3267633280155251 0.2494088704731543 0 -0.3400038048171003 0.24323895028343789 0 -0.35360538224735683 0.24087006329800081 0 -0.33360303686879861 0.22930571239911471 0 -0.35360538224735683 0.24087006329800081 0 -0.33360303686879861 0.22930571239911471 0 -0.3400038048171003 0.24323895028343789 0 -0.29180530120122011 0.24392873090837741 0 -0.27457990354494172 0.225515252829292 0 -0.27781512448029078 0.24810651147730409 0 -0.29180530120122011 0.24392873090837741 0 -0.30520153788055582 0.2422985888626252 0 -0.30409147020687022 0.2274104826142028 0 -0.29180530120122011 0.24392873090837741 0 -0.30520153788055582 0.2422985888626252 0 -0.29980566951308901 0.25579292869099751 0 -0.31645180103768561 0.23980439280763111 0 -0.30520153788055582 0.2422985888626252 0 -0.31209676779959611 0.25239357658938011 0 -0.31645180103768561 0.23980439280763111 0 -0.30520153788055582 0.2422985888626252 0 -0.30409147020687022 0.2274104826142028 0 -0.3200033932316696 0.2214430818853898 0 -0.30409147020687022 0.2274104826142028 0 -0.30640374959454109 0.21358045137166379 0 -0.30409147020687022 0.2274104826142028 0 -0.2938636482622804 0.21544260185533309 0 -0.30640374959454109 0.21358045137166379 0 -0.30409147020687022 0.2274104826142028 0 -0.2938636482622804 0.21544260185533309 0 -0.27457990354494172 0.225515252829292 0 -0.30409147020687022 0.2274104826142028 0 -0.27457990354494172 0.225515252829292 0 -0.29180530120122011 0.24392873090837741 0 -0.30409147020687022 0.2274104826142028 0 -0.27457990354494172 0.225515252829292 0 -0.28535224895449851 0.20619311988613229 0 -0.2938636482622804 0.21544260185533309 0 -0.27457990354494172 0.225515252829292 0 -0.28535224895449851 0.20619311988613229 0 -0.2938636482622804 0.21544260185533309 0 -0.29792371926423472 0.20450756426309269 0 -0.31814390693358668 0.20896668716573041 0 -0.30640374959454109 0.21358045137166379 0 -0.30723407256614649 0.19635658518224361 0 -0.30640374959454109 0.21358045137166379 0 -0.29792371926423472 0.20450756426309269 0 -0.30723407256614649 0.19635658518224361 0 -0.2938636482622804 0.21544260185533309 0 -0.30640374959454109 0.21358045137166379 0 -0.29792371926423472 0.20450756426309269 0 -0.29792371926423472 0.20450756426309269 0 -0.30723407256614649 0.19635658518224361 0 -0.29212255816139049 0.19093559912113661 0 -0.31757171829307501 0.1856905416010535 0 -0.30723407256614649 0.19635658518224361 0 -0.30242559271962072 0.18465280415188309 0 -0.30723407256614649 0.19635658518224361 0 -0.29212255816139049 0.19093559912113661 0 -0.30242559271962072 0.18465280415188309 0 -0.28535224895449851 0.20619311988613229 0 -0.29212255816139049 0.19093559912113661 0 -0.27761505737138348 0.19056157728143211 0 -0.28535224895449851 0.20619311988613229 0 -0.29792371926423472 0.20450756426309269 0 -0.29212255816139049 0.19093559912113661 0 -0.26835571677148079 0.2021466793141469 0 -0.27761505737138348 0.19056157728143211 0 -0.26496844863760938 0.18208713988101011 0 -0.28535224895449851 0.20619311988613229 0 -0.26835571677148079 0.2021466793141469 0 -0.27761505737138348 0.19056157728143211 0 -0.26835571677148079 0.2021466793141469 0 -0.25536353563914621 0.19572747402506341 0 -0.26496844863760938 0.18208713988101011 0 -0.25536353563914621 0.19572747402506341 0 -0.25130617358851592 0.21321052932258441 0 -0.2446305427067143 0.19890980414057521 0 -0.26835571677148079 0.2021466793141469 0 -0.25130617358851592 0.21321052932258441 0 -0.27457990354494172 0.225515252829292 0 -0.26835571677148079 0.2021466793141469 0 -0.25536353563914621 0.19572747402506341 0 -0.25130617358851592 0.21321052932258441 0 -0.28535224895449851 0.20619311988613229 0 -0.26835571677148079 0.2021466793141469 0 -0.27457990354494172 0.225515252829292 0 -0.25130617358851592 0.21321052932258441 0 -0.27457990354494172 0.225515252829292 0 -0.25487571445195373 0.23126666493614109 0 -0.27457990354494172 0.225515252829292 0 -0.25487571445195373 0.23126666493614109 0 -0.26354072882447921 0.24538755190392639 0 -0.25487571445195373 0.23126666493614109 0 -0.25050177323748762 0.24551408611508191 0 -0.26354072882447921 0.24538755190392639 0 -0.25050177323748762 0.24551408611508191 0 -0.26354072882447921 0.24538755190392639 0 -0.25257923020738038 0.25763813499818028 0 -0.27457990354494172 0.225515252829292 0 -0.26354072882447921 0.24538755190392639 0 -0.27781512448029078 0.24810651147730409 0 -0.2923973653762067 0.1493538561041225 0 -0.28299493724636482 0.15998801651971639 0 -0.27896688978585499 0.1418649999557503 0 -0.2923973653762067 0.1493538561041225 0 -0.29569544007595489 0.13562435549947779 0 -0.27896688978585499 0.1418649999557503 0 -0.29569544007595489 0.13562435549947779 0 -0.27896688978585499 0.1418649999557503 0 -0.28006382413436742 0.1252041593366959 0 -0.29569544007595489 0.13562435549947779 0 -0.28006382413436742 0.1252041593366959 0 -0.29335015456884778 0.1199654711435717 0 -0.31455585447292073 0.13743618012934619 0 -0.29569544007595489 0.13562435549947779 0 -0.30800650549144543 0.1240400838571023 0 -0.31455585447292073 0.13743618012934619 0 -0.29569544007595489 0.13562435549947779 0 -0.30528280619595682 0.14869495828923551 0 -0.29569544007595489 0.13562435549947779 0 -0.29335015456884778 0.1199654711435717 0 -0.30800650549144543 0.1240400838571023 0 -0.31770598012497991 0.15743977777321519 0 -0.30528280619595682 0.14869495828923551 0 -0.29904675357690191 0.16059695025643239 0 -0.2923973653762067 0.1493538561041225 0 -0.29569544007595489 0.13562435549947779 0 -0.30528280619595682 0.14869495828923551 0 -0.2923973653762067 0.1493538561041225 0 -0.30528280619595682 0.14869495828923551 0 -0.29904675357690191 0.16059695025643239 0 -0.31770598012497991 0.15743977777321519 0 -0.29904675357690191 0.16059695025643239 0 -0.30689798243936639 0.17244719377841011 0 -0.29904675357690191 0.16059695025643239 0 -0.30689798243936639 0.17244719377841011 0 -0.29331664138900632 0.1756216239694712 0 -0.31757171829307501 0.1856905416010535 0 -0.30689798243936639 0.17244719377841011 0 -0.30242559271962072 0.18465280415188309 0 -0.30689798243936639 0.17244719377841011 0 -0.30242559271962072 0.18465280415188309 0 -0.29331664138900632 0.1756216239694712 0 -0.29212255816139049 0.19093559912113661 0 -0.30242559271962072 0.18465280415188309 0 -0.29331664138900632 0.1756216239694712 0 -0.29212255816139049 0.19093559912113661 0 -0.29331664138900632 0.1756216239694712 0 -0.27966474799689878 0.1766361200512481 0 -0.29212255816139049 0.19093559912113661 0 -0.27761505737138348 0.19056157728143211 0 -0.27966474799689878 0.1766361200512481 0 -0.29331664138900632 0.1756216239694712 0 -0.28299493724636482 0.15998801651971639 0 -0.27966474799689878 0.1766361200512481 0 -0.2923973653762067 0.1493538561041225 0 -0.29904675357690191 0.16059695025643239 0 -0.28299493724636482 0.15998801651971639 0 -0.29904675357690191 0.16059695025643239 0 -0.29331664138900632 0.1756216239694712 0 -0.28299493724636482 0.15998801651971639 0 -0.28299493724636482 0.15998801651971639 0 -0.26940763455521638 0.16409401809133969 0 -0.26946710602312107 0.1507262369734004 0 -0.28299493724636482 0.15998801651971639 0 -0.26940763455521638 0.16409401809133969 0 -0.27966474799689878 0.1766361200512481 0 -0.26940763455521638 0.16409401809133969 0 -0.27966474799689878 0.1766361200512481 0 -0.26496844863760938 0.18208713988101011 0 -0.27761505737138348 0.19056157728143211 0 -0.27966474799689878 0.1766361200512481 0 -0.26496844863760938 0.18208713988101011 0 -0.26496844863760938 0.18208713988101011 0 -0.25636881993956773 0.16811917034005569 0 -0.24834674495110531 0.1830948443989967 0 -0.25536353563914621 0.19572747402506341 0 -0.26496844863760938 0.18208713988101011 0 -0.24834674495110531 0.1830948443989967 0 -0.26940763455521638 0.16409401809133969 0 -0.26496844863760938 0.18208713988101011 0 -0.25636881993956773 0.16811917034005569 0 -0.26940763455521638 0.16409401809133969 0 -0.25636881993956773 0.16811917034005569 0 -0.25521710632945888 0.15352668075741649 0 -0.25636881993956773 0.16811917034005569 0 -0.25521710632945888 0.15352668075741649 0 -0.2437867940321462 0.16737590837235569 0 -0.25521710632945888 0.15352668075741649 0 -0.2630056751820386 0.13317953977603739 0 -0.24642363851099339 0.13889898540617099 0 -0.25521710632945888 0.15352668075741649 0 -0.26946710602312107 0.1507262369734004 0 -0.2630056751820386 0.13317953977603739 0 -0.26940763455521638 0.16409401809133969 0 -0.25521710632945888 0.15352668075741649 0 -0.26946710602312107 0.1507262369734004 0 -0.28299493724636482 0.15998801651971639 0 -0.27896688978585499 0.1418649999557503 0 -0.26946710602312107 0.1507262369734004 0 -0.27896688978585499 0.1418649999557503 0 -0.26946710602312107 0.1507262369734004 0 -0.2630056751820386 0.13317953977603739 0 -0.27896688978585499 0.1418649999557503 0 -0.28006382413436742 0.1252041593366959 0 -0.2630056751820386 0.13317953977603739 0 -0.2630056751820386 0.13317953977603739 0 -0.25168568898611637 0.12875154429823971 0 -0.24642363851099339 0.13889898540617099 0 -0.2630056751820386 0.13317953977603739 0 -0.25168568898611637 0.12875154429823971 0 -0.25718912400825539 0.1207738681872528 0 -0.25168568898611637 0.12875154429823971 0 -0.25718912400825539 0.1207738681872528 0 -0.24272891764110521 0.12352254410664849 0 -0.2630056751820386 0.13317953977603739 0 -0.25718912400825539 0.1207738681872528 0 -0.26996487510109951 0.114836172989968 0 -0.25873579796566237 0.105506308366362 0 -0.24272891764110521 0.12352254410664849 0 -0.25718912400825539 0.1207738681872528 0 -0.25873579796566237 0.105506308366362 0 -0.24272891764110521 0.12352254410664849 0 -0.25718912400825539 0.1207738681872528 0 -0.25873579796566237 0.105506308366362 0 -0.26996487510109951 0.114836172989968 0 -0.25873579796566237 0.105506308366362 0 -0.27460615816983042 0.087643730217212876 0 -0.25737800176791342 0.088318491033901395 0 -0.25873579796566237 0.105506308366362 0 -0.25737800176791342 0.088318491033901395 0 -0.24605046256145291 0.094372560587190721 0 -0.27764486679177802 0.095297365287350166 0 -0.26996487510109951 0.114836172989968 0 -0.28314996252449531 0.10905579698611 0 -0.25873579796566237 0.105506308366362 0 -0.27460615816983042 0.087643730217212876 0 -0.25873579796566237 0.105506308366362 0 -0.27764486679177802 0.095297365287350166 0 -0.27460615816983042 0.087643730217212876 0 -0.25873579796566237 0.105506308366362 0 -0.27764486679177802 0.095297365287350166 0 -0.25873579796566237 0.105506308366362 0 -0.27764486679177802 0.095297365287350166 0 -0.26996487510109951 0.114836172989968 0 -0.28006382413436742 0.1252041593366959 0 -0.26996487510109951 0.114836172989968 0 -0.28314996252449531 0.10905579698611 0 -0.28006382413436742 0.1252041593366959 0 -0.2630056751820386 0.13317953977603739 0 -0.26996487510109951 0.114836172989968 0 -0.28006382413436742 0.1252041593366959 0 -0.29335015456884778 0.1199654711435717 0 -0.28314996252449531 0.10905579698611 0 -0.29335015456884778 0.1199654711435717 0 -0.28314996252449531 0.10905579698611 0 -0.29527847182354833 0.1066798222584204 0 -0.27764486679177802 0.095297365287350166 0 -0.28314996252449531 0.10905579698611 0 -0.29077988816942357 0.098410477240242558 0 -0.29077988816942357 0.098410477240242558 0 -0.29527847182354833 0.1066798222584204 0 -0.30231254502832672 0.096331789644977656 0 -0.28314996252449531 0.10905579698611 0 -0.29077988816942357 0.098410477240242558 0 -0.29527847182354833 0.1066798222584204 0 -0.29527847182354833 0.1066798222584204 0 -0.30231254502832672 0.096331789644977656 0 -0.31036443613600972 0.1107795173746844 0 -0.30231254502832672 0.096331789644977656 0 -0.31036443613600972 0.1107795173746844 0 -0.31792108241457301 0.096176378886880215 0 -0.29335015456884778 0.1199654711435717 0 -0.29527847182354833 0.1066798222584204 0 -0.31036443613600972 0.1107795173746844 0 -0.29335015456884778 0.1199654711435717 0 -0.31036443613600972 0.1107795173746844 0 -0.30800650549144543 0.1240400838571023 0 -0.30319425797297722 0.072523291563447015 0 -0.29655393561789439 0.085088422208339662 0 -0.29413714092164789 0.070418441336629042 0 -0.30319425797297722 0.072523291563447015 0 -0.29788541721305473 0.060761480702035367 0 -0.30912228955939991 0.062489427820280961 0 -0.30319425797297722 0.072523291563447015 0 -0.29413714092164789 0.070418441336629042 0 -0.29788541721305473 0.060761480702035367 0 -0.30319425797297722 0.072523291563447015 0 -0.31249694470914979 0.073217190752345021 0 -0.30912228955939991 0.062489427820280961 0 -0.30319425797297722 0.072523291563447015 0 -0.31249694470914979 0.073217190752345021 0 -0.30896981981671662 0.083164786561052167 0 -0.30231254502832672 0.096331789644977656 0 -0.30896981981671662 0.083164786561052167 0 -0.31792108241457301 0.096176378886880215 0 -0.30231254502832672 0.096331789644977656 0 -0.30896981981671662 0.083164786561052167 0 -0.29655393561789439 0.085088422208339662 0 -0.30319425797297722 0.072523291563447015 0 -0.30896981981671662 0.083164786561052167 0 -0.29655393561789439 0.085088422208339662 0 -0.27764486679177802 0.095297365287350166 0 -0.29077988816942357 0.098410477240242558 0 -0.29655393561789439 0.085088422208339662 0 -0.27764486679177802 0.095297365287350166 0 -0.29655393561789439 0.085088422208339662 0 -0.28278603348822351 0.081635426921567569 0 -0.27764486679177802 0.095297365287350166 0 -0.29655393561789439 0.085088422208339662 0 -0.29655393561789439 0.085088422208339662 0 -0.28278603348822351 0.081635426921567569 0 -0.29413714092164789 0.070418441336629042 0 -0.29077988816942357 0.098410477240242558 0 -0.30231254502832672 0.096331789644977656 0 -0.29655393561789439 0.085088422208339662 0 -0.29413714092164789 0.070418441336629042 0 -0.27441667059058972 0.064770860333543775 0 -0.28355317487838633 0.058701596743280918 0 -0.28278603348822351 0.081635426921567569 0 -0.29413714092164789 0.070418441336629042 0 -0.26700021425596482 0.074011929532148329 0 -0.29413714092164789 0.070418441336629042 0 -0.28355317487838633 0.058701596743280918 0 -0.29788541721305473 0.060761480702035367 0 -0.29413714092164789 0.070418441336629042 0 -0.26700021425596482 0.074011929532148329 0 -0.29413714092164789 0.070418441336629042 0 -0.26700021425596482 0.074011929532148329 0 -0.27441667059058972 0.064770860333543775 0 -0.26700021425596482 0.074011929532148329 0 -0.27441667059058972 0.064770860333543775 0 -0.25859238441198168 0.064741527443465369 0 -0.26700021425596482 0.074011929532148329 0 -0.27460615816983042 0.087643730217212876 0 -0.25737800176791342 0.088318491033901395 0 -0.28278603348822351 0.081635426921567569 0 -0.26700021425596482 0.074011929532148329 0 -0.27460615816983042 0.087643730217212876 0 -0.27764486679177802 0.095297365287350166 0 -0.28278603348822351 0.081635426921567569 0 -0.27460615816983042 0.087643730217212876 0 -0.26700021425596482 0.074011929532148329 0 -0.25737800176791342 0.088318491033901395 0 -0.23986328759028161 0.077605417727666604 0 -0.26700021425596482 0.074011929532148329 0 -0.25859238441198168 0.064741527443465369 0 -0.23986328759028161 0.077605417727666604 0 -0.26700021425596482 0.074011929532148329 0 -0.23986328759028161 0.077605417727666604 0 -0.2576838900260689 0.053595724332290873 0 -0.24942499538184509 0.045781831168407942 0 -0.24464414148606439 0.061693624448037568 0 -0.25859238441198168 0.064741527443465369 0 -0.2576838900260689 0.053595724332290873 0 -0.24464414148606439 0.061693624448037568 0 -0.25859238441198168 0.064741527443465369 0 -0.2576838900260689 0.053595724332290873 0 -0.26880043848496787 0.055980806612195309 0 -0.2576838900260689 0.053595724332290873 0 -0.26564473028274832 0.045979872455159908 0 -0.26880043848496787 0.055980806612195309 0 -0.2576838900260689 0.053595724332290873 0 -0.25697774315005079 0.042248142047483943 0 -0.26564473028274832 0.045979872455159908 0 -0.2576838900260689 0.053595724332290873 0 -0.25697774315005079 0.042248142047483943 0 -0.24942499538184509 0.045781831168407942 0 -0.25697774315005079 0.042248142047483943 0 -0.24942499538184509 0.045781831168407942 0 -0.25748244358322059 0.018964770254950119 0 -0.24942499538184509 0.045781831168407942 0 -0.25697774315005079 0.042248142047483943 0 -0.25748244358322059 0.018964770254950119 0 -0.24942499538184509 0.045781831168407942 0 -0.25697774315005079 0.042248142047483943 0 -0.26401238953716022 0.034242357312475963 0 -0.25748244358322059 0.018964770254950119 0 -0.25697774315005079 0.042248142047483943 0 -0.26401238953716022 0.034242357312475963 0 -0.26564473028274832 0.045979872455159908 0 -0.26564473028274832 0.045979872455159908 0 -0.27142931954182681 0.03724758893396278 0 -0.2750921257849428 0.046397056747045133 0 -0.26401238953716022 0.034242357312475963 0 -0.26564473028274832 0.045979872455159908 0 -0.27142931954182681 0.03724758893396278 0 -0.26401238953716022 0.034242357312475963 0 -0.27142931954182681 0.03724758893396278 0 -0.26852771112795493 0.026771412870823061 0 -0.27142931954182681 0.03724758893396278 0 -0.28054919579910231 0.036491263180551389 0 -0.27882135148198389 0.027531623656861379 0 -0.28054919579910231 0.036491263180551389 0 -0.2750921257849428 0.046397056747045133 0 -0.28616113921870417 0.044788091639157743 0 -0.27142931954182681 0.03724758893396278 0 -0.28054919579910231 0.036491263180551389 0 -0.2750921257849428 0.046397056747045133 0 -0.2750921257849428 0.046397056747045133 0 -0.26880043848496787 0.055980806612195309 0 -0.28355317487838633 0.058701596743280918 0 -0.27441667059058972 0.064770860333543775 0 -0.25859238441198168 0.064741527443465369 0 -0.26880043848496787 0.055980806612195309 0 -0.27441667059058972 0.064770860333543775 0 -0.26880043848496787 0.055980806612195309 0 -0.28355317487838633 0.058701596743280918 0 -0.26564473028274832 0.045979872455159908 0 -0.2750921257849428 0.046397056747045133 0 -0.26880043848496787 0.055980806612195309 0 -0.26553989178459259 -0.007852290658508938 0 -0.25748244358322059 0.018964770254950119 0 -0.25679381805211909 0.0022949629822342789 0 -0.25748244358322059 0.018964770254950119 0 -0.24196154155457791 0.0090568506027661339 0 -0.26553989178459259 -0.007852290658508938 0 -0.25748244358322059 0.018964770254950119 0 -0.26992009788937837 0.0088908428470517321 0 -0.2621913952860857 -0.010989478270270549 0 -0.25679381805211909 0.0022949629822342789 0 -0.24196154155457791 0.0090568506027661339 0 -0.26553989178459259 -0.007852290658508938 0 -0.25679381805211909 0.0022949629822342789 0 -0.25748244358322059 0.018964770254950119 0 -0.26401238953716022 0.034242357312475963 0 -0.25748244358322059 0.018964770254950119 0 -0.26852771112795493 0.026771412870823061 0 -0.25748244358322059 0.018964770254950119 0 -0.26852771112795493 0.026771412870823061 0 -0.27356353318375293 0.017947766321671939 0 -0.27142931954182681 0.03724758893396278 0 -0.26852771112795493 0.026771412870823061 0 -0.27882135148198389 0.027531623656861379 0 -0.26852771112795493 0.026771412870823061 0 -0.27882135148198389 0.027531623656861379 0 -0.27356353318375293 0.017947766321671939 0 -0.27882135148198389 0.027531623656861379 0 -0.27356353318375293 0.017947766321671939 0 -0.28466676534365137 0.02173856161420986 0 -0.27356353318375293 0.017947766321671939 0 -0.28230244522562142 0.0078524517595137365 0 -0.28466676534365137 0.02173856161420986 0 -0.25748244358322059 0.018964770254950119 0 -0.27356353318375293 0.017947766321671939 0 -0.26992009788937837 0.0088908428470517321 0 -0.26553989178459259 -0.007852290658508938 0 -0.26992009788937837 0.0088908428470517321 0 -0.28230244522562142 0.0078524517595137365 0 -0.26553989178459259 -0.007852290658508938 0 -0.28230244522562142 0.0078524517595137365 0 -0.27356353318375293 0.017947766321671939 0 -0.26992009788937837 0.0088908428470517321 0 -0.28230244522562142 0.0078524517595137365 0 -0.28230244522562142 0.0078524517595137365 0 -0.29906499866665059 0.023557194177536069 0 -0.29857306936404171 0.0039812830147901244 0 -0.29052273526160982 -0.003781870298680645 0 -0.28230244522562142 0.0078524517595137365 0 -0.29857306936404171 0.0039812830147901244 0 -0.28168073443546571 -0.0026015348797602121 0 -0.29052273526160982 -0.003781870298680645 0 -0.28230244522562142 0.0078524517595137365 0 -0.28230244522562142 0.0078524517595137365 0 -0.28466676534365137 0.02173856161420986 0 -0.29906499866665059 0.023557194177536069 0 -0.28230244522562142 0.0078524517595137365 0 -0.29906499866665059 0.023557194177536069 0 -0.27882135148198389 0.027531623656861379 0 -0.28466676534365137 0.02173856161420986 0 -0.28958149816024781 0.031803772155466148 0 -0.29906499866665059 0.023557194177536069 0 -0.28958149816024781 0.031803772155466148 0 -0.29913636726416859 0.034109046474117277 0 -0.28466676534365137 0.02173856161420986 0 -0.29906499866665059 0.023557194177536069 0 -0.28958149816024781 0.031803772155466148 0 -0.29906499866665059 0.023557194177536069 0 -0.31582755210767982 0.039261936595558371 0 -0.31424827000016792 0.024273227240425979 0 -0.29906499866665059 0.023557194177536069 0 -0.29913636726416859 0.034109046474117277 0 -0.30803661854004982 0.033930545642724713 0 -0.29906499866665059 0.023557194177536069 0 -0.30927091303261012 0.01362602671570293 0 -0.31424827000016792 0.024273227240425979 0 -0.29906499866665059 0.023557194177536069 0 -0.30927091303261012 0.01362602671570293 0 -0.29857306936404171 0.0039812830147901244 0 -0.30927091303261012 0.01362602671570293 0 -0.29857306936404171 0.0039812830147901244 0 -0.31256906955991631 0.00065829470475784694 0 -0.29361383205921482 0.051715203016056213 0 -0.28355317487838633 0.058701596743280918 0 -0.29788541721305473 0.060761480702035367 0 -0.29361383205921482 0.051715203016056213 0 -0.28355317487838633 0.058701596743280918 0 -0.28616113921870417 0.044788091639157743 0 -0.2750921257849428 0.046397056747045133 0 -0.28355317487838633 0.058701596743280918 0 -0.28616113921870417 0.044788091639157743 0 -0.28054919579910231 0.036491263180551389 0 -0.27882135148198389 0.027531623656861379 0 -0.28958149816024781 0.031803772155466148 0 -0.28054919579910231 0.036491263180551389 0 -0.28616113921870417 0.044788091639157743 0 -0.28958149816024781 0.031803772155466148 0 -0.28958149816024781 0.031803772155466148 0 -0.29569912506260682 0.042008670343696521 0 -0.29913636726416859 0.034109046474117277 0 -0.28616113921870417 0.044788091639157743 0 -0.28958149816024781 0.031803772155466148 0 -0.29569912506260682 0.042008670343696521 0 -0.29361383205921482 0.051715203016056213 0 -0.28616113921870417 0.044788091639157743 0 -0.29569912506260682 0.042008670343696521 0 -0.29569912506260682 0.042008670343696521 0 -0.30306550330590371 0.041751915985224312 0 -0.29913636726416859 0.034109046474117277 0 -0.29569912506260682 0.042008670343696521 0 -0.30306550330590371 0.041751915985224312 0 -0.30308431069336139 0.050913189042660033 0 -0.29906499866665059 0.023557194177536069 0 -0.30803661854004982 0.033930545642724713 0 -0.31582755210767982 0.039261936595558371 0 -0.29906499866665059 0.023557194177536069 0 -0.31582755210767982 0.039261936595558371 0 -0.30306550330590371 0.041751915985224312 0 -0.29913636726416859 0.034109046474117277 0 -0.30803661854004982 0.033930545642724713 0 -0.30306550330590371 0.041751915985224312 0 -0.30937109496933179 0.047798128422923039 0 -0.30308431069336139 0.050913189042660033 0 -0.30306550330590371 0.041751915985224312 0 -0.30803661854004982 0.033930545642724713 0 -0.30937109496933179 0.047798128422923039 0 -0.30937109496933179 0.047798128422923039 0 -0.30308431069336139 0.050913189042660033 0 -0.31129955022515232 0.055346322097194083 0 -0.29361383205921482 0.051715203016056213 0 -0.30308431069336139 0.050913189042660033 0 -0.29788541721305473 0.060761480702035367 0 -0.29361383205921482 0.051715203016056213 0 -0.29569912506260682 0.042008670343696521 0 -0.30308431069336139 0.050913189042660033 0 -0.30308431069336139 0.050913189042660033 0 -0.29788541721305473 0.060761480702035367 0 -0.30912228955939991 0.062489427820280961 0 -0.30308431069336139 0.050913189042660033 0 -0.31129955022515232 0.055346322097194083 0 -0.30912228955939991 0.062489427820280961 0 -0.31129955022515232 0.055346322097194083 0 -0.30912228955939991 0.062489427820280961 0 -0.31445031749343533 0.061011804652588111 0 -0.31129955022515232 0.055346322097194083 0 -0.31445031749343533 0.061011804652588111 0 -0.32113539949680753 0.059555535280873408 0 -0.31582755210767982 0.039261936595558371 0 -0.33259010554871038 0.054966679013579288 0 -0.30803661854004982 0.033930545642724713 0 -0.30937109496933179 0.047798128422923039 0 -0.32113539949680753 0.059555535280873408 0 -0.32354911498853461 0.055600173096611423 0 -0.31582755210767982 0.039261936595558371 0 -0.33259010554871038 0.054966679013579288 0 -0.32354911498853461 0.055600173096611423 0 -0.32113539949680753 0.059555535280873408 0 -0.31582755210767982 0.039261936595558371 0 -0.31445031749343533 0.061011804652588111 0 -0.32113539949680753 0.059555535280873408 0 -0.31624403069238172 0.066655933412003973 0 -0.32354911498853461 0.055600173096611423 0 -0.32113539949680753 0.059555535280873408 0 -0.33013738985046781 0.065335581686712205 0 -0.32354911498853461 0.055600173096611423 0 -0.33259010554871038 0.054966679013579288 0 -0.30937109496933179 0.047798128422923039 0 -0.31129955022515232 0.055346322097194083 0 -0.32113539949680753 0.059555535280873408 0 -0.30803661854004982 0.033930545642724713 0 -0.32113539949680753 0.059555535280873408 0 -0.31582755210767982 0.039261936595558371 0 -0.31582755210767982 0.039261936595558371 0 -0.33074007941243072 0.040503583045910868 0 -0.33259010554871038 0.054966679013579288 0 -0.30803661854004982 0.033930545642724713 0 -0.32113539949680753 0.059555535280873408 0 -0.31582755210767982 0.039261936595558371 0 -0.33074007941243072 0.040503583045910868 0 -0.32585902000022532 0.02914347052668179 0 -0.33074007941243072 0.040503583045910868 0 -0.34181152146838101 0.043212261781195631 0 -0.33259010554871038 0.054966679013579288 0 -0.33074007941243072 0.040503583045910868 0 -0.33950329085090741 0.031942141740574519 0 -0.32585902000022532 0.02914347052668179 0 -0.33074007941243072 0.040503583045910868 0 -0.33950329085090741 0.031942141740574519 0 -0.34181152146838101 0.043212261781195631 0 -0.34181152146838101 0.043212261781195631 0 -0.33259010554871038 0.054966679013579288 0 -0.35324888890785988 0.053519136630513983 0 -0.33259010554871038 0.054966679013579288 0 -0.35324888890785988 0.053519136630513983 0 -0.32354911498853461 0.055600173096611423 0 -0.33259010554871038 0.054966679013579288 0 -0.33013738985046781 0.065335581686712205 0 -0.33558893043556498 -0.0029118465592891719 0 -0.31256906955991631 0.00065829470475784694 0 -0.32189915757227378 0.015660134441004621 0 -0.30927091303261012 0.01362602671570293 0 -0.31256906955991631 0.00065829470475784694 0 -0.32189915757227378 0.015660134441004621 0 -0.32189915757227378 0.015660134441004621 0 -0.31424827000016792 0.024273227240425979 0 -0.32585902000022532 0.02914347052668179 0 -0.30927091303261012 0.01362602671570293 0 -0.32189915757227378 0.015660134441004621 0 -0.31424827000016792 0.024273227240425979 0 -0.31582755210767982 0.039261936595558371 0 -0.31424827000016792 0.024273227240425979 0 -0.32585902000022532 0.02914347052668179 0 -0.32189915757227378 0.015660134441004621 0 -0.32585902000022532 0.02914347052668179 0 -0.33851433007388992 0.015812393940820561 0 -0.33950329085090741 0.031942141740574519 0 -0.32585902000022532 0.02914347052668179 0 -0.33851433007388992 0.015812393940820561 0 -0.33558893043556498 -0.0029118465592891719 0 -0.32189915757227378 0.015660134441004621 0 -0.33851433007388992 0.015812393940820561 0 -0.33558893043556498 -0.0029118465592891719 0 -0.33851433007388992 0.015812393940820561 0 -0.34751463929860937 0.0059074409526803321 0 -0.35860879131121398 -0.0064819878233355072 0 -0.34751463929860937 0.0059074409526803321 0 -0.35577210725110048 0.019737212531247991 0 -0.33851433007388992 0.015812393940820561 0 -0.34751463929860937 0.0059074409526803321 0 -0.35577210725110048 0.019737212531247991 0 -0.35860879131121398 -0.0064819878233355072 0 -0.35577210725110048 0.019737212531247991 0 -0.33950329085090741 0.031942141740574519 0 -0.35577210725110048 0.019737212531247991 0 -0.35382826166722048 0.035857557183134769 0 -0.33950329085090741 0.031942141740574519 0 -0.33851433007388992 0.015812393940820561 0 -0.35577210725110048 0.019737212531247991 0 -0.35577210725110048 0.019737212531247991 0 -0.37326972277151371 0.027071502519228491 0 -0.35382826166722048 0.035857557183134769 0 -0.35577210725110048 0.019737212531247991 0 -0.37326972277151371 0.027071502519228491 0 -0.37263177327601882 0.002071410791005375 0 -0.37326972277151371 0.027071502519228491 0 -0.37263177327601882 0.002071410791005375 0 -0.35860879131121398 -0.0064819878233355072 0 -0.35577210725110048 0.019737212531247991 0 -0.37263177327601882 0.002071410791005375 0 -0.33259010554871038 0.054966679013579288 0 -0.35324888890785988 0.053519136630513983 0 -0.35349406300011821 0.074551479649510657 0 -0.34181152146838101 0.043212261781195631 0 -0.35324888890785988 0.053519136630513983 0 -0.35382826166722048 0.035857557183134769 0 -0.33950329085090741 0.031942141740574519 0 -0.34181152146838101 0.043212261781195631 0 -0.35382826166722048 0.035857557183134769 0 -0.37326972277151371 0.027071502519228491 0 -0.37390767226700949 0.052071594247451433 0 -0.37326972277151371 0.027071502519228491 0 -0.35382826166722048 0.035857557183134769 0 -0.37390767226700949 0.052071594247451433 0 -0.35324888890785988 0.053519136630513983 0 -0.35382826166722048 0.035857557183134769 0 -0.37390767226700949 0.052071594247451433 0 -0.35324888890785988 0.053519136630513983 0 -0.37390767226700949 0.052071594247451433 0 -0.35324888890785988 0.053519136630513983 0 -0.37390767226700949 0.052071594247451433 0 -0.36378673330480371 0.063820354972553506 0 -0.37390767226700949 0.052071594247451433 0 -0.36378673330480371 0.063820354972553506 0 -0.37449630904422698 0.075139209362737963 0 -0.37390767226700949 0.052071594247451433 0 -0.37449630904422698 0.075139209362737963 0 -0.36378673330480371 0.063820354972553506 0 -0.37449630904422698 0.075139209362737963 0 -0.35349406300011821 0.074551479649510657 0 -0.35324888890785988 0.053519136630513983 0 -0.36378673330480371 0.063820354972553506 0 -0.35349406300011821 0.074551479649510657 0 -0.35349406300011821 0.074551479649510657 0 -0.3580604646349913 0.092320282734567743 0 -0.33423418045356512 0.085180524919022185 0 -0.37449630904422698 0.075139209362737963 0 -0.35349406300011821 0.074551479649510657 0 -0.3580604646349913 0.092320282734567743 0 -0.37508494582144558 0.098206824478024424 0 -0.37449630904422698 0.075139209362737963 0 -0.3580604646349913 0.092320282734567743 0 -0.37508494582144558 0.098206824478024424 0 -0.37449630904422698 0.075139209362737963 0 -0.37508494582144558 0.098206824478024424 0 -0.3580604646349913 0.092320282734567743 0 -0.36372032808026938 0.1100381434409403 0 -0.37567358259866401 0.121274439593311 0 -0.37508494582144558 0.098206824478024424 0 -0.36372032808026938 0.1100381434409403 0 -0.37567358259866401 0.121274439593311 0 -0.36043174236708042 0.13643050419531971 0 -0.36372032808026938 0.1100381434409403 0 -0.36043174236708042 0.13643050419531971 0 -0.34733296141032283 0.110805514557171 0 -0.36043174236708042 0.13643050419531971 0 -0.36372032808026938 0.1100381434409403 0 -0.34733296141032283 0.110805514557171 0 -0.3580604646349913 0.092320282734567743 0 -0.36372032808026938 0.1100381434409403 0 -0.34733296141032283 0.110805514557171 0 -0.3580604646349913 0.092320282734567743 0 -0.34733296141032283 0.110805514557171 0 -0.33423418045356512 0.085180524919022185 0 -0.34733296141032283 0.110805514557171 0 -0.33423418045356512 0.085180524919022185 0 -0.34733296141032283 0.110805514557171 0 -0.3313038390532197 0.10214226840186651 0 -0.33423418045356512 0.085180524919022185 0 -0.34733296141032283 0.110805514557171 0 -0.3313038390532197 0.10214226840186651 0 -0.32572713193441799 0.1164066552443926 0 -0.343054354331363 0.129152980129667 0 -0.34733296141032283 0.110805514557171 0 -0.32572713193441799 0.1164066552443926 0 -0.31036443613600972 0.1107795173746844 0 -0.30800650549144543 0.1240400838571023 0 -0.32572713193441799 0.1164066552443926 0 -0.3313038390532197 0.10214226840186651 0 -0.31792108241457301 0.096176378886880215 0 -0.33423418045356512 0.085180524919022185 0 -0.31036443613600972 0.1107795173746844 0 -0.32572713193441799 0.1164066552443926 0 -0.31792108241457301 0.096176378886880215 0 -0.3313038390532197 0.10214226840186651 0 -0.32572713193441799 0.1164066552443926 0 -0.31792108241457301 0.096176378886880215 0 -0.30896981981671662 0.083164786561052167 0 -0.31792108241457301 0.096176378886880215 0 -0.32177299690296213 0.078244721804450384 0 -0.31792108241457301 0.096176378886880215 0 -0.32177299690296213 0.078244721804450384 0 -0.33423418045356512 0.085180524919022185 0 -0.31249694470914979 0.073217190752345021 0 -0.30896981981671662 0.083164786561052167 0 -0.32177299690296213 0.078244721804450384 0 -0.32113539949680753 0.059555535280873408 0 -0.33423418045356512 0.085180524919022185 0 -0.32113539949680753 0.059555535280873408 0 -0.32177299690296213 0.078244721804450384 0 -0.33423418045356512 0.085180524919022185 0 -0.32113539949680753 0.059555535280873408 0 -0.32177299690296213 0.078244721804450384 0 -0.31624403069238172 0.066655933412003973 0 -0.31249694470914979 0.073217190752345021 0 -0.32177299690296213 0.078244721804450384 0 -0.31624403069238172 0.066655933412003973 0 -0.31249694470914979 0.073217190752345021 0 -0.30912228955939991 0.062489427820280961 0 -0.31624403069238172 0.066655933412003973 0 -0.30912228955939991 0.062489427820280961 0 -0.31445031749343533 0.061011804652588111 0 -0.31624403069238172 0.066655933412003973 0 -0.32113539949680753 0.059555535280873408 0 -0.33013738985046781 0.065335581686712205 0 -0.33423418045356512 0.085180524919022185 0 -0.3383800803710959 0.070677838059051951 0 -0.33013738985046781 0.065335581686712205 0 -0.33423418045356512 0.085180524919022185 0 -0.33259010554871038 0.054966679013579288 0 -0.3383800803710959 0.070677838059051951 0 -0.33013738985046781 0.065335581686712205 0 -0.33259010554871038 0.054966679013579288 0 -0.35349406300011821 0.074551479649510657 0 -0.35349406300011821 0.074551479649510657 0 -0.3383800803710959 0.070677838059051951 0 -0.33423418045356512 0.085180524919022185 0 -0.33259010554871038 0.054966679013579288 0 -0.35349406300011821 0.074551479649510657 0 -0.3383800803710959 0.070677838059051951 0 -0.39977701528142329 0.47273230849281928 0 -0.39645059457464782 0.49558430279702981 0 -0.40746758602254418 0.48404703392997139 0 -0.39977701528142329 0.47273230849281928 0 -0.40935966659183343 0.46245909442103811 0 -0.40746758602254418 0.48404703392997139 0 -0.39977701528142329 0.47273230849281928 0 -0.39645059457464782 0.49558430279702981 0 -0.3958078293780809 0.49999999999999872 0 -0.39645059457464782 0.49558430279702981 0 -0.41870484599999691 0.49341815875430939 0 -0.39977701528142329 0.47273230849281928 0 -0.39645059457464782 0.49558430279702981 0 -0.38363470546567391 0.48565770061864111 0 -0.3958078293780809 0.49999999999999872 0 -0.39645059457464782 0.49558430279702981 0 -0.39645059457464782 0.49558430279702981 0 -0.37376788422967472 0.49779215139851468 0 -0.3958078293780809 0.49999999999999872 0 -0.37344650163139131 0.5 0 -0.37376788422967472 0.49779215139851468 0 -0.3958078293780809 0.49999999999999872 0 -0.39645059457464782 0.49558430279702981 0 -0.37376788422967472 0.49779215139851468 0 -0.39645059457464782 0.49558430279702981 0 -0.38363470546567391 0.48565770061864111 0 -0.37376788422967472 0.49779215139851468 0 -0.38363470546567391 0.48565770061864111 0 -0.36860155832491659 0.48840959379154408 0 -0.37376788422967472 0.49779215139851468 0 -0.38363470546567391 0.48565770061864111 0 -0.37353060703143659 0.47610155563631412 0 -0.36860155832491659 0.48840959379154408 0 -0.38363470546567391 0.48565770061864111 0 -0.38637697886364281 0.4690166196328372 0 -0.37353060703143659 0.47610155563631412 0 -0.39977701528142329 0.47273230849281928 0 -0.38363470546567391 0.48565770061864111 0 -0.38637697886364281 0.4690166196328372 0 -0.38637697886364281 0.4690166196328372 0 -0.38242288203257258 0.45254494495704201 0 -0.39251968450710728 0.45804658845936952 0 -0.38242288203257258 0.45254494495704201 0 -0.37353060703143659 0.47610155563631412 0 -0.38637697886364281 0.4690166196328372 0 -0.38242288203257258 0.45254494495704201 0 -0.37353060703143659 0.47610155563631412 0 -0.38242288203257258 0.45254494495704201 0 -0.39131515703370812 0.42898833427776961 0 -0.37779160222069741 0.43320272545326038 0 -0.38242288203257258 0.45254494495704201 0 -0.39131515703370812 0.42898833427776961 0 -0.38242288203257258 0.45254494495704201 0 -0.39127042402370421 0.44555948447799038 0 -0.39131515703370812 0.42898833427776961 0 -0.38242288203257258 0.45254494495704201 0 -0.39127042402370421 0.44555948447799038 0 -0.39251968450710728 0.45804658845936952 0 -0.40310343598820197 0.44988031418860919 0 -0.40642985669498072 0.4270283198843991 0 -0.39127042402370421 0.44555948447799038 0 -0.40310343598820197 0.44988031418860919 0 -0.40642985669498072 0.4270283198843991 0 -0.39127042402370421 0.44555948447799038 0 -0.40310343598820197 0.44988031418860919 0 -0.39251968450710728 0.45804658845936952 0 -0.39977701528142329 0.47273230849281928 0 -0.40310343598820197 0.44988031418860919 0 -0.40935966659183343 0.46245909442103811 0 -0.39977701528142329 0.47273230849281928 0 -0.40310343598820197 0.44988031418860919 0 -0.39977701528142329 0.47273230849281928 0 -0.40310343598820197 0.44988031418860919 0 -0.39251968450710728 0.45804658845936952 0 -0.39977701528142329 0.47273230849281928 0 -0.38637697886364281 0.4690166196328372 0 -0.39251968450710728 0.45804658845936952 0 -0.40935966659183343 0.46245909442103811 0 -0.42310629106206132 0.45956143171187552 0 -0.42405783218981707 0.47671810786473828 0 -0.40310343598820197 0.44988031418860919 0 -0.40935966659183343 0.46245909442103811 0 -0.42310629106206132 0.45956143171187552 0 -0.40310343598820197 0.44988031418860919 0 -0.41754127299507282 0.44108767007471977 0 -0.42310629106206132 0.45956143171187552 0 -0.40310343598820197 0.44988031418860919 0 -0.41754127299507282 0.44108767007471977 0 -0.40642985669498072 0.4270283198843991 0 -0.41754127299507282 0.44108767007471977 0 -0.43151141379862767 0.44157624410733542 0 -0.42310629106206132 0.45956143171187552 0 -0.43151141379862767 0.44157624410733542 0 -0.42310629106206132 0.45956143171187552 0 -0.44734726426724852 0.44856762328239408 0 -0.42310629106206132 0.45956143171187552 0 -0.44552456406956709 0.46821089132575711 0 -0.42310629106206132 0.45956143171187552 0 -0.42405783218981707 0.47671810786473828 0 -0.44552456406956709 0.46821089132575711 0 -0.42405783218981707 0.47671810786473828 0 -0.440959097425346 0.49125201471158808 0 -0.44552456406956709 0.46821089132575711 0 -0.3958078293780809 0.49999999999999872 0 -0.41870484599999691 0.49341815875430939 0 -0.45592668335017822 0.5 0 -0.40935966659183343 0.46245909442103811 0 -0.42405783218981707 0.47671810786473828 0 -0.40746758602254418 0.48404703392997139 0 -0.39645059457464782 0.49558430279702981 0 -0.40746758602254418 0.48404703392997139 0 -0.41870484599999691 0.49341815875430939 0 -0.39645059457464782 0.49558430279702981 0 -0.41870484599999691 0.49341815875430939 0 -0.42405783218981707 0.47671810786473828 0 -0.40746758602254418 0.48404703392997139 0 -0.41870484599999691 0.49341815875430939 0 -0.42405783218981707 0.47671810786473828 0 -0.41870484599999691 0.49341815875430939 0 -0.440959097425346 0.49125201471158808 0 -0.41870484599999691 0.49341815875430939 0 -0.440959097425346 0.49125201471158808 0 -0.440959097425346 0.49125201471158808 0 -0.45739169040466682 0.49510851409222773 0 -0.45643884136364421 0.48766359487258132 0 -0.440959097425346 0.49125201471158808 0 -0.45592668335017822 0.5 0 -0.45739169040466682 0.49510851409222773 0 -0.41870484599999691 0.49341815875430939 0 -0.440959097425346 0.49125201471158808 0 -0.45592668335017822 0.5 0 -0.440959097425346 0.49125201471158808 0 -0.45357351907064009 0.48072640007646578 0 -0.45643884136364421 0.48766359487258132 0 -0.440959097425346 0.49125201471158808 0 -0.45357351907064009 0.48072640007646578 0 -0.44552456406956709 0.46821089132575711 0 -0.46794283707707313 0.47686035093963858 0 -0.44552456406956709 0.46821089132575711 0 -0.45357351907064009 0.48072640007646578 0 -0.46794283707707313 0.47686035093963858 0 -0.44552456406956709 0.46821089132575711 0 -0.45357351907064009 0.48072640007646578 0 -0.46794283707707313 0.47686035093963858 0 -0.46388054587341637 0.48668595615031041 0 -0.45592668335017822 0.5 0 -0.45739169040466682 0.49510851409222773 0 -0.47387640024462291 0.49030916232287419 0 -0.45739169040466682 0.49510851409222773 0 -0.47387640024462291 0.49030916232287419 0 -0.45739169040466682 0.49510851409222773 0 -0.46388054587341637 0.48668595615031041 0 -0.47387640024462291 0.49030916232287419 0 -0.45739169040466682 0.49510851409222773 0 -0.45643884136364421 0.48766359487258132 0 -0.46388054587341637 0.48668595615031041 0 -0.45357351907064009 0.48072640007646578 0 -0.45643884136364421 0.48766359487258132 0 -0.46388054587341637 0.48668595615031041 0 -0.46794283707707313 0.47686035093963858 0 -0.46388054587341637 0.48668595615031041 0 -0.47387640024462291 0.49030916232287419 0 -0.47387640024462291 0.49030916232287419 0 -0.49036111008457878 0.48550981055352038 0 -0.45592668335017822 0.5 0 -0.47387640024462291 0.49030916232287419 0 -0.5 0.5 0 -0.46794283707707313 0.47686035093963858 0 -0.47387640024462291 0.49030916232287419 0 -0.49036111008457878 0.48550981055352038 0 -0.46794283707707313 0.47686035093963858 0 -0.49036111008457878 0.48550981055352038 0 -0.48381031364221588 0.46857216000240398 0 -0.46794283707707313 0.47686035093963858 0 -0.49036111008457878 0.48550981055352038 0 -0.50000000000000044 0.4827035480339309 0 -0.49036111008457878 0.48550981055352038 0 -0.48381031364221588 0.46857216000240398 0 -0.50000000000000044 0.4827035480339309 0 -0.49036111008457878 0.48550981055352038 0 -0.47387640024462291 0.49030916232287419 0 -0.5 0.5 0 -0.49036111008457878 0.48550981055352038 0 -0.50000000000000122 0.48922870491341103 0 -0.5 0.5 0 -0.49036111008457878 0.48550981055352038 0 -0.50000000000000044 0.4827035480339309 0 -0.50000000000000122 0.48922870491341103 0 -0.49036111008457878 0.48550981055352038 0 -0.50000000000000122 0.48922870491341103 0 -0.49036111008457878 0.48550981055352038 0 -0.5 0.45486000471965687 0 -0.48243440500781831 0.44805356584711242 0 -0.5 0.42701646140538302 0 -0.50000000000000044 0.4827035480339309 0 -0.5 0.45486000471965687 0 -0.48381031364221588 0.46857216000240398 0 -0.5 0.45486000471965687 0 -0.48381031364221588 0.46857216000240398 0 -0.48243440500781831 0.44805356584711242 0 -0.46794283707707313 0.47686035093963858 0 -0.48381031364221588 0.46857216000240398 0 -0.46561909188673167 0.45930679757591231 0 -0.48381031364221588 0.46857216000240398 0 -0.48243440500781831 0.44805356584711242 0 -0.46561909188673167 0.45930679757591231 0 -0.48243440500781831 0.44805356584711242 0 -0.46544231846121198 0.44383994620943013 0 -0.47682386894813739 0.43055903033291842 0 -0.48243440500781831 0.44805356584711242 0 -0.46544231846121198 0.44383994620943013 0 -0.46561909188673167 0.45930679757591231 0 -0.46544231846121198 0.44383994620943013 0 -0.46561909188673167 0.45930679757591231 0 -0.44734726426724852 0.44856762328239408 0 -0.46544231846121198 0.44383994620943013 0 -0.44734726426724852 0.44856762328239408 0 -0.45848252439902998 0.42857383166416119 0 -0.46794283707707313 0.47686035093963858 0 -0.46561909188673167 0.45930679757591231 0 -0.44552456406956709 0.46821089132575711 0 -0.42310629106206132 0.45956143171187552 0 -0.44552456406956709 0.46821089132575711 0 -0.44734726426724852 0.44856762328239408 0 -0.46561909188673167 0.45930679757591231 0 -0.44552456406956709 0.46821089132575711 0 -0.44734726426724852 0.44856762328239408 0 -0.43151141379862767 0.44157624410733542 0 -0.44734726426724852 0.44856762328239408 0 -0.44075495811605658 0.42997402989534328 0 -0.44734726426724852 0.44856762328239408 0 -0.44075495811605658 0.42997402989534328 0 -0.45848252439902998 0.42857383166416119 0 -0.44075495811605658 0.42997402989534328 0 -0.44880315829206752 0.41274002389112829 0 -0.45848252439902998 0.42857383166416119 0 -0.44075495811605658 0.42997402989534328 0 -0.44880315829206752 0.41274002389112829 0 -0.43564541383735578 0.41718611545964579 0 -0.44880315829206752 0.41274002389112829 0 -0.43325671967594948 0.40427775438199182 0 -0.43564541383735578 0.41718611545964579 0 -0.44880315829206752 0.41274002389112829 0 -0.46821936341536741 0.4146578186104618 0 -0.45800468144846868 0.39933874007116421 0 -0.44880315829206752 0.41274002389112829 0 -0.46821936341536741 0.4146578186104618 0 -0.45848252439902998 0.42857383166416119 0 -0.46544231846121198 0.44383994620943013 0 -0.45848252439902998 0.42857383166416119 0 -0.47682386894813739 0.43055903033291842 0 -0.46821936341536741 0.4146578186104618 0 -0.45848252439902998 0.42857383166416119 0 -0.47682386894813739 0.43055903033291842 0 -0.46821936341536741 0.4146578186104618 0 -0.48475281500096368 0.41475136826898018 0 -0.47807763356001431 0.39941353963071979 0 -0.46821936341536741 0.4146578186104618 0 -0.47682386894813739 0.43055903033291842 0 -0.48475281500096368 0.41475136826898018 0 -0.48475281500096368 0.41475136826898018 0 -0.5 0.42701646140538302 0 -0.5 0.39917291809110911 0 -0.47682386894813739 0.43055903033291842 0 -0.48475281500096368 0.41475136826898018 0 -0.5 0.42701646140538302 0 -0.48243440500781831 0.44805356584711242 0 -0.47682386894813739 0.43055903033291842 0 -0.5 0.42701646140538302 0 -0.5 0.39917291809110911 0 -0.48138121616852181 0.37862952550403162 0 -0.5 0.37132937477683498 0 -0.5 0.39917291809110911 0 -0.47807763356001431 0.39941353963071979 0 -0.48138121616852181 0.37862952550403162 0 -0.48475281500096368 0.41475136826898018 0 -0.5 0.39917291809110911 0 -0.47807763356001431 0.39941353963071979 0 -0.47807763356001431 0.39941353963071979 0 -0.48138121616852181 0.37862952550403162 0 -0.46811081939865329 0.38677015809815668 0 -0.48138121616852181 0.37862952550403162 0 -0.46811081939865329 0.38677015809815668 0 -0.45957985064843931 0.37387826027976778 0 -0.46811081939865329 0.38677015809815668 0 -0.45435064924472651 0.38652690788553817 0 -0.45957985064843931 0.37387826027976778 0 -0.46821936341536741 0.4146578186104618 0 -0.47807763356001431 0.39941353963071979 0 -0.45800468144846868 0.39933874007116421 0 -0.47807763356001431 0.39941353963071979 0 -0.46811081939865329 0.38677015809815668 0 -0.45800468144846868 0.39933874007116421 0 -0.46811081939865329 0.38677015809815668 0 -0.45435064924472651 0.38652690788553817 0 -0.45800468144846868 0.39933874007116421 0 -0.44880315829206752 0.41274002389112829 0 -0.44232622751364892 0.39555861318253988 0 -0.43325671967594948 0.40427775438199182 0 -0.45435064924472651 0.38652690788553817 0 -0.45800468144846868 0.39933874007116421 0 -0.44232622751364892 0.39555861318253988 0 -0.44880315829206752 0.41274002389112829 0 -0.45800468144846868 0.39933874007116421 0 -0.44232622751364892 0.39555861318253988 0 -0.44232622751364892 0.39555861318253988 0 -0.44373166721442198 0.37708876779606199 0 -0.42812342809534598 0.38877169117306498 0 -0.45435064924472651 0.38652690788553817 0 -0.44232622751364892 0.39555861318253988 0 -0.44373166721442198 0.37708876779606199 0 -0.45435064924472651 0.38652690788553817 0 -0.44373166721442198 0.37708876779606199 0 -0.45957985064843931 0.37387826027976778 0 -0.42812342809534598 0.38877169117306498 0 -0.41392062867704482 0.38198476916358681 0 -0.43006027343107572 0.35910456173420252 0 -0.42812342809534598 0.38877169117306498 0 -0.41392062867704482 0.38198476916358681 0 -0.41849497615382258 0.39919866364401002 0 -0.40980136443684811 0.38001634559361402 0 -0.41392062867704482 0.38198476916358681 0 -0.40346092489987118 0.39681286455967002 0 -0.40980136443684811 0.38001634559361402 0 -0.40346092489987118 0.39681286455967002 0 -0.42812342809534598 0.38877169117306498 0 -0.41392062867704482 0.38198476916358681 0 -0.41392062867704482 0.38198476916358681 0 -0.40346092489987118 0.39681286455967002 0 -0.40980136443684811 0.38001634559361402 0 -0.41392062867704482 0.38198476916358681 0 -0.41849497615382258 0.39919866364401002 0 -0.41162036802950402 0.41341595039835488 0 -0.40346092489987118 0.39681286455967002 0 -0.41392062867704482 0.38198476916358681 0 -0.41849497615382258 0.39919866364401002 0 -0.40346092489987118 0.39681286455967002 0 -0.41849497615382258 0.39919866364401002 0 -0.43325671967594948 0.40427775438199182 0 -0.42463374837928353 0.4120952935313027 0 -0.42812342809534598 0.38877169117306498 0 -0.41849497615382258 0.39919866364401002 0 -0.43325671967594948 0.40427775438199182 0 -0.44232622751364892 0.39555861318253988 0 -0.42812342809534598 0.38877169117306498 0 -0.43325671967594948 0.40427775438199182 0 -0.44232622751364892 0.39555861318253988 0 -0.42812342809534598 0.38877169117306498 0 -0.43325671967594948 0.40427775438199182 0 -0.43564541383735578 0.41718611545964579 0 -0.42463374837928353 0.4120952935313027 0 -0.43564541383735578 0.41718611545964579 0 -0.42463374837928353 0.4120952935313027 0 -0.42351432895939178 0.42628607362921789 0 -0.43151141379862767 0.44157624410733542 0 -0.44075495811605658 0.42997402989534328 0 -0.42351432895939178 0.42628607362921789 0 -0.44075495811605658 0.42997402989534328 0 -0.43564541383735578 0.41718611545964579 0 -0.42351432895939178 0.42628607362921789 0 -0.41754127299507282 0.44108767007471977 0 -0.43151141379862767 0.44157624410733542 0 -0.42351432895939178 0.42628607362921789 0 -0.41754127299507282 0.44108767007471977 0 -0.42351432895939178 0.42628607362921789 0 -0.40642985669498072 0.4270283198843991 0 -0.42351432895939178 0.42628607362921789 0 -0.40642985669498072 0.4270283198843991 0 -0.41162036802950402 0.41341595039835488 0 -0.41849497615382258 0.39919866364401002 0 -0.42463374837928353 0.4120952935313027 0 -0.41162036802950402 0.41341595039835488 0 -0.42463374837928353 0.4120952935313027 0 -0.42351432895939178 0.42628607362921789 0 -0.41162036802950402 0.41341595039835488 0 -0.39738804096679098 0.41290059941872043 0 -0.39135568821495709 0.41397373337393278 0 -0.40346092489987118 0.39681286455967002 0 -0.39738804096679098 0.41290059941872043 0 -0.39131515703370812 0.42898833427776961 0 -0.39738804096679098 0.41290059941872043 0 -0.39135568821495709 0.41397373337393278 0 -0.39131515703370812 0.42898833427776961 0 -0.41162036802950402 0.41341595039835488 0 -0.39738804096679098 0.41290059941872043 0 -0.40346092489987118 0.39681286455967002 0 -0.40642985669498072 0.4270283198843991 0 -0.41162036802950402 0.41341595039835488 0 -0.39738804096679098 0.41290059941872043 0 -0.39135568821495709 0.41397373337393278 0 -0.39131515703370812 0.42898833427776961 0 -0.39127042402370421 0.44555948447799038 0 -0.39131515703370812 0.42898833427776961 0 -0.40642985669498072 0.4270283198843991 0 -0.39738804096679098 0.41290059941872043 0 -0.39131515703370812 0.42898833427776961 0 -0.39127042402370421 0.44555948447799038 0 -0.40642985669498072 0.4270283198843991 0 -0.39131515703370812 0.42898833427776961 0 -0.39135568821495709 0.41397373337393278 0 -0.37779160222069741 0.43320272545326038 0 -0.39135568821495709 0.41397373337393278 0 -0.39131515703370812 0.42898833427776961 0 -0.37779160222069741 0.43320272545326038 0 -0.39135568821495709 0.41397373337393278 0 -0.37779160222069741 0.43320272545326038 0 -0.37214138384484341 0.41517920980772771 0 -0.39135568821495709 0.41397373337393278 0 -0.37507799860857127 0.39639931032264542 0 -0.37214138384484341 0.41517920980772771 0 -0.39135568821495709 0.41397373337393278 0 -0.37507799860857127 0.39639931032264542 0 -0.39141334403686912 0.39261538336343471 0 -0.37507799860857127 0.39639931032264542 0 -0.38268209926942293 0.38123728574899451 0 -0.37177587781473781 0.37871387332463918 0 -0.38268209926942293 0.38123728574899451 0 -0.39141334403686912 0.39261538336343471 0 -0.39147099985877237 0.37125703335293653 0 -0.37507799860857127 0.39639931032264542 0 -0.38268209926942293 0.38123728574899451 0 -0.39141334403686912 0.39261538336343471 0 -0.40044547522197221 0.38607960559253418 0 -0.39141334403686912 0.39261538336343471 0 -0.39147099985877237 0.37125703335293653 0 -0.40980136443684811 0.38001634559361402 0 -0.39147099985877237 0.37125703335293653 0 -0.40980136443684811 0.38001634559361402 0 -0.40044547522197221 0.38607960559253418 0 -0.40346092489987118 0.39681286455967002 0 -0.40980136443684811 0.38001634559361402 0 -0.40044547522197221 0.38607960559253418 0 -0.39147099985877237 0.37125703335293653 0 -0.39141334403686912 0.39261538336343471 0 -0.39147099985877237 0.37125703335293653 0 -0.39738804096679098 0.41290059941872043 0 -0.40346092489987118 0.39681286455967002 0 -0.39135568821495709 0.41397373337393278 0 -0.40346092489987118 0.39681286455967002 0 -0.39141334403686912 0.39261538336343471 0 -0.40044547522197221 0.38607960559253418 0 -0.40346092489987118 0.39681286455967002 0 -0.39141334403686912 0.39261538336343471 0 -0.39135568821495709 0.41397373337393278 0 -0.40346092489987118 0.39681286455967002 0 -0.39135568821495709 0.41397373337393278 0 -0.39141334403686912 0.39261538336343471 0 -0.3961871305264566 0.35159674861066742 0 -0.39149321608257759 0.36302712927240038 0 -0.38445356152722221 0.35345730330826541 0 -0.3961871305264566 0.35159674861066742 0 -0.39864609112214783 0.3601440248573331 0 -0.39149321608257759 0.36302712927240038 0 -0.3961871305264566 0.35159674861066742 0 -0.39277082332951879 0.33972176313637259 0 -0.4027521748800465 0.34061686800681201 0 -0.3961871305264566 0.35159674861066742 0 -0.38643761340139188 0.34557690338544961 0 -0.39277082332951879 0.33972176313637259 0 -0.3961871305264566 0.35159674861066742 0 -0.4027521748800465 0.34061686800681201 0 -0.40706214241260302 0.34988177183981067 0 -0.3961871305264566 0.35159674861066742 0 -0.40623752761877618 0.35878534744251578 0 -0.39864609112214783 0.3601440248573331 0 -0.3961871305264566 0.35159674861066742 0 -0.40623752761877618 0.35878534744251578 0 -0.40706214241260302 0.34988177183981067 0 -0.40980136443684811 0.38001634559361402 0 -0.40066649026078049 0.36716687410374887 0 -0.39147099985877237 0.37125703335293653 0 -0.40623752761877618 0.35878534744251578 0 -0.39864609112214783 0.3601440248573331 0 -0.40066649026078049 0.36716687410374887 0 -0.39147099985877237 0.37125703335293653 0 -0.39149321608257759 0.36302712927240038 0 -0.40066649026078049 0.36716687410374887 0 -0.39147099985877237 0.37125703335293653 0 -0.39149321608257759 0.36302712927240038 0 -0.39864609112214783 0.3601440248573331 0 -0.40066649026078049 0.36716687410374887 0 -0.39149321608257759 0.36302712927240038 0 -0.39149321608257759 0.36302712927240038 0 -0.37615722083071829 0.36393922079551871 0 -0.38445356152722221 0.35345730330826541 0 -0.38268209926942293 0.38123728574899451 0 -0.39147099985877237 0.37125703335293653 0 -0.37615722083071829 0.36393922079551871 0 -0.39147099985877237 0.37125703335293653 0 -0.39149321608257759 0.36302712927240038 0 -0.37615722083071829 0.36393922079551871 0 -0.38268209926942293 0.38123728574899451 0 -0.37615722083071829 0.36393922079551871 0 -0.37177587781473781 0.37871387332463918 0 -0.39147099985877237 0.37125703335293653 0 -0.37615722083071829 0.36393922079551871 0 -0.37615722083071829 0.36393922079551871 0 -0.38445356152722221 0.35345730330826541 0 -0.37548247059367013 0.34566898945323182 0 -0.3961871305264566 0.35159674861066742 0 -0.38445356152722221 0.35345730330826541 0 -0.38643761340139188 0.34557690338544961 0 -0.38445356152722221 0.35345730330826541 0 -0.38643761340139188 0.34557690338544961 0 -0.37548247059367013 0.34566898945323182 0 -0.38643761340139188 0.34557690338544961 0 -0.37548247059367013 0.34566898945323182 0 -0.38329408103009188 0.33743971241871079 0 -0.37548247059367013 0.34566898945323182 0 -0.38329408103009188 0.33743971241871079 0 -0.37220658782909222 0.32748563399356539 0 -0.38329408103009188 0.33743971241871079 0 -0.38655023532454058 0.32721909615687522 0 -0.37220658782909222 0.32748563399356539 0 -0.38329408103009188 0.33743971241871079 0 -0.38655023532454058 0.32721909615687522 0 -0.39277082332951879 0.33972176313637259 0 -0.38643761340139188 0.34557690338544961 0 -0.38329408103009188 0.33743971241871079 0 -0.39277082332951879 0.33972176313637259 0 -0.3821603017965598 0.31414344737589728 0 -0.38655023532454058 0.32721909615687522 0 -0.37220658782909222 0.32748563399356539 0 -0.3821603017965598 0.31414344737589728 0 -0.38655023532454058 0.32721909615687522 0 -0.39555859274957128 0.31654848730682339 0 -0.38655023532454058 0.32721909615687522 0 -0.39555859274957128 0.31654848730682339 0 -0.39846117459159391 0.32921253056653382 0 -0.39555859274957128 0.31654848730682339 0 -0.40419959252639409 0.32179248554869577 0 -0.39846117459159391 0.32921253056653382 0 -0.40419959252639409 0.32179248554869577 0 -0.39846117459159391 0.32921253056653382 0 -0.40980944261311691 0.33109814651706843 0 -0.39555859274957128 0.31654848730682339 0 -0.40419959252639409 0.32179248554869577 0 -0.40587440747199011 0.31375600556967348 0 -0.39277082332951879 0.33972176313637259 0 -0.39846117459159391 0.32921253056653382 0 -0.4027521748800465 0.34061686800681201 0 -0.38655023532454058 0.32721909615687522 0 -0.39277082332951879 0.33972176313637259 0 -0.39846117459159391 0.32921253056653382 0 -0.39846117459159391 0.32921253056653382 0 -0.4027521748800465 0.34061686800681201 0 -0.40980944261311691 0.33109814651706843 0 -0.4127362717110204 0.34169104799303329 0 -0.40980944261311691 0.33109814651706843 0 -0.42836077467946693 0.33085043456787377 0 -0.4027521748800465 0.34061686800681201 0 -0.4127362717110204 0.34169104799303329 0 -0.40980944261311691 0.33109814651706843 0 -0.40980944261311691 0.33109814651706843 0 -0.41358011345985241 0.32122743391373543 0 -0.42836077467946693 0.33085043456787377 0 -0.41358011345985241 0.32122743391373543 0 -0.42836077467946693 0.33085043456787377 0 -0.42339976272847779 0.31196324827731858 0 -0.40587440747199011 0.31375600556967348 0 -0.41358011345985241 0.32122743391373543 0 -0.41397998632669403 0.31118759247784278 0 -0.40419959252639409 0.32179248554869577 0 -0.40587440747199011 0.31375600556967348 0 -0.41358011345985241 0.32122743391373543 0 -0.40419959252639409 0.32179248554869577 0 -0.40980944261311691 0.33109814651706843 0 -0.41358011345985241 0.32122743391373543 0 -0.41358011345985241 0.32122743391373543 0 -0.42339976272847779 0.31196324827731858 0 -0.41397998632669403 0.31118759247784278 0 -0.42836077467946693 0.33085043456787377 0 -0.43896406406262439 0.30276115933889219 0 -0.42836077467946693 0.33085043456787377 0 -0.43896406406262439 0.30276115933889219 0 -0.42339976272847779 0.31196324827731858 0 -0.42836077467946693 0.33085043456787377 0 -0.44397800919063718 0.32110818387735163 0 -0.43896406406262439 0.30276115933889219 0 -0.42836077467946693 0.33085043456787377 0 -0.43005668803792813 0.34704234894756048 0 -0.44404821874485928 0.33927468969130981 0 -0.42836077467946693 0.33085043456787377 0 -0.43005668803792813 0.34704234894756048 0 -0.41775748529630757 0.35893970979685458 0 -0.43005668803792813 0.34704234894756048 0 -0.43006027343107572 0.35910456173420252 0 -0.44404821874485928 0.33927468969130981 0 -0.43006027343107572 0.35910456173420252 0 -0.44404821874485928 0.33927468969130981 0 -0.42836077467946693 0.33085043456787377 0 -0.41775748529630757 0.35893970979685458 0 -0.43005668803792813 0.34704234894756048 0 -0.43006027343107572 0.35910456173420252 0 -0.41775748529630757 0.35893970979685458 0 -0.43006027343107572 0.35910456173420252 0 -0.41775748529630757 0.35893970979685458 0 -0.4127362717110204 0.34169104799303329 0 -0.42836077467946693 0.33085043456787377 0 -0.41775748529630757 0.35893970979685458 0 -0.4127362717110204 0.34169104799303329 0 -0.41775748529630757 0.35893970979685458 0 -0.40706214241260302 0.34988177183981067 0 -0.40623752761877618 0.35878534744251578 0 -0.41775748529630757 0.35893970979685458 0 -0.40706214241260302 0.34988177183981067 0 -0.40623752761877618 0.35878534744251578 0 -0.41775748529630757 0.35893970979685458 0 -0.4027521748800465 0.34061686800681201 0 -0.4127362717110204 0.34169104799303329 0 -0.40706214241260302 0.34988177183981067 0 -0.40980136443684811 0.38001634559361402 0 -0.41392062867704482 0.38198476916358681 0 -0.41775748529630757 0.35893970979685458 0 -0.40623752761877618 0.35878534744251578 0 -0.40066649026078049 0.36716687410374887 0 -0.41775748529630757 0.35893970979685458 0 -0.40980136443684811 0.38001634559361402 0 -0.41775748529630757 0.35893970979685458 0 -0.41392062867704482 0.38198476916358681 0 -0.43006027343107572 0.35910456173420252 0 -0.41775748529630757 0.35893970979685458 0 -0.40980136443684811 0.38001634559361402 0 -0.40066649026078049 0.36716687410374887 0 -0.41775748529630757 0.35893970979685458 0 -0.44373166721442198 0.37708876779606199 0 -0.42812342809534598 0.38877169117306498 0 -0.43006027343107572 0.35910456173420252 0 -0.41392062867704482 0.38198476916358681 0 -0.43006027343107572 0.35910456173420252 0 -0.44373166721442198 0.37708876779606199 0 -0.45036057246034927 0.35937657679185447 0 -0.45957985064843931 0.37387826027976778 0 -0.44373166721442198 0.37708876779606199 0 -0.43006027343107572 0.35910456173420252 0 -0.45036057246034927 0.35937657679185447 0 -0.45036057246034927 0.35937657679185447 0 -0.46015645295921948 0.34394138206593577 0 -0.44404821874485928 0.33927468969130981 0 -0.43006027343107572 0.35910456173420252 0 -0.45036057246034927 0.35937657679185447 0 -0.43006027343107572 0.35910456173420252 0 -0.45036057246034927 0.35937657679185447 0 -0.44404821874485928 0.33927468969130981 0 -0.46015645295921948 0.34394138206593577 0 -0.47066087148962282 0.35964859184950881 0 -0.47504809200347298 0.33646563442420868 0 -0.45036057246034927 0.35937657679185447 0 -0.46015645295921948 0.34394138206593577 0 -0.47066087148962282 0.35964859184950881 0 -0.45036057246034927 0.35937657679185447 0 -0.47066087148962282 0.35964859184950881 0 -0.45036057246034927 0.35937657679185447 0 -0.45957985064843931 0.37387826027976778 0 -0.47066087148962282 0.35964859184950881 0 -0.47066087148962282 0.35964859184950881 0 -0.49096117051889632 0.35992060690716288 0 -0.48138121616852181 0.37862952550403162 0 -0.47066087148962282 0.35964859184950881 0 -0.49096117051889632 0.35992060690716288 0 -0.48138121616852181 0.37862952550403162 0 -0.45957985064843931 0.37387826027976778 0 -0.47066087148962282 0.35964859184950881 0 -0.47066087148962282 0.35964859184950881 0 -0.48600238971743043 0.34649038292910461 0 -0.47504809200347298 0.33646563442420868 0 -0.47066087148962282 0.35964859184950881 0 -0.48600238971743043 0.34649038292910461 0 -0.49096117051889632 0.35992060690716288 0 -0.48600238971743043 0.34649038292910461 0 -0.49096117051889632 0.35992060690716288 0 -0.5 0.34348583146256112 0 -0.5 0.37132937477683498 0 -0.49096117051889632 0.35992060690716288 0 -0.5 0.34348583146256112 0 -0.48138121616852181 0.37862952550403162 0 -0.5 0.37132937477683498 0 -0.49096117051889632 0.35992060690716288 0 -0.5 0.31564228814828699 0 -0.48832054156492077 0.33189064049052303 0 -0.48055222610370041 0.31736906548845351 0 -0.5 0.31564228814828699 0 -0.5 0.34348583146256112 0 -0.48832054156492077 0.33189064049052303 0 -0.48600238971743043 0.34649038292910461 0 -0.5 0.34348583146256112 0 -0.48832054156492077 0.33189064049052303 0 -0.48832054156492077 0.33189064049052303 0 -0.47504809200347298 0.33646563442420868 0 -0.48055222610370041 0.31736906548845351 0 -0.48600238971743043 0.34649038292910461 0 -0.48832054156492077 0.33189064049052303 0 -0.47504809200347298 0.33646563442420868 0 -0.47504809200347298 0.33646563442420868 0 -0.48055222610370041 0.31736906548845351 0 -0.45803616405864211 0.31944481764841642 0 -0.46015645295921948 0.34394138206593577 0 -0.45803616405864211 0.31944481764841642 0 -0.44404821874485928 0.33927468969130981 0 -0.46015645295921948 0.34394138206593577 0 -0.47504809200347298 0.33646563442420868 0 -0.45803616405864211 0.31944481764841642 0 -0.42836077467946693 0.33085043456787377 0 -0.44404821874485928 0.33927468969130981 0 -0.44397800919063718 0.32110818387735163 0 -0.45803616405864211 0.31944481764841642 0 -0.44404821874485928 0.33927468969130981 0 -0.45803616405864211 0.31944481764841642 0 -0.44404821874485928 0.33927468969130981 0 -0.44397800919063718 0.32110818387735163 0 -0.45803616405864211 0.31944481764841642 0 -0.44397800919063718 0.32110818387735163 0 -0.45194996858680853 0.30898575110646198 0 -0.44397800919063718 0.32110818387735163 0 -0.43896406406262439 0.30276115933889219 0 -0.45194996858680853 0.30898575110646198 0 -0.43896406406262439 0.30276115933889219 0 -0.45150106187809808 0.29747528115170818 0 -0.45194996858680853 0.30898575110646198 0 -0.44493540723275482 0.2878347621577092 0 -0.44410045409835069 0.27668114248141068 0 -0.43557717203610802 0.28083524643037538 0 -0.44493540723275482 0.2878347621577092 0 -0.43557717203610802 0.28083524643037538 0 -0.4339368591360539 0.29074616485339549 0 -0.43896406406262439 0.30276115933889219 0 -0.45150106187809808 0.29747528115170818 0 -0.44493540723275482 0.2878347621577092 0 -0.43896406406262439 0.30276115933889219 0 -0.44493540723275482 0.2878347621577092 0 -0.4339368591360539 0.29074616485339549 0 -0.45150106187809808 0.29747528115170818 0 -0.44493540723275482 0.2878347621577092 0 -0.45586821458997101 0.28342481944516629 0 -0.44493540723275482 0.2878347621577092 0 -0.45586821458997101 0.28342481944516629 0 -0.44410045409835069 0.27668114248141068 0 -0.45586821458997101 0.28342481944516629 0 -0.46301130176701172 0.2947997650684106 0 -0.47438433912622668 0.26923426553679158 0 -0.46301130176701172 0.2947997650684106 0 -0.47438433912622668 0.26923426553679158 0 -0.45586821458997101 0.28342481944516629 0 -0.46301130176701172 0.2947997650684106 0 -0.46430476609262278 0.30460051390468029 0 -0.45150106187809808 0.29747528115170818 0 -0.45586821458997101 0.28342481944516629 0 -0.46430476609262278 0.30460051390468029 0 -0.45586821458997101 0.28342481944516629 0 -0.46430476609262278 0.30460051390468029 0 -0.45803616405864211 0.31944481764841642 0 -0.47202410937242478 0.29961494560552288 0 -0.45803616405864211 0.31944481764841642 0 -0.46430476609262278 0.30460051390468029 0 -0.47202410937242478 0.29961494560552288 0 -0.45803616405864211 0.31944481764841642 0 -0.45194996858680853 0.30898575110646198 0 -0.46430476609262278 0.30460051390468029 0 -0.45150106187809808 0.29747528115170818 0 -0.45194996858680853 0.30898575110646198 0 -0.46430476609262278 0.30460051390468029 0 -0.46301130176701172 0.2947997650684106 0 -0.46430476609262278 0.30460051390468029 0 -0.47202410937242478 0.29961494560552288 0 -0.48055222610370041 0.31736906548845351 0 -0.45803616405864211 0.31944481764841642 0 -0.47202410937242478 0.29961494560552288 0 -0.48055222610370041 0.31736906548845351 0 -0.47202410937242478 0.29961494560552288 0 -0.48775354358845679 0.2999373674566474 0 -0.47202410937242478 0.29961494560552288 0 -0.4738579512379677 0.28585851244333871 0 -0.4860120546862074 0.27978507356262949 0 -0.46301130176701172 0.2947997650684106 0 -0.4738579512379677 0.28585851244333871 0 -0.47438433912622668 0.26923426553679158 0 -0.47202410937242478 0.29961494560552288 0 -0.4860120546862074 0.27978507356262949 0 -0.47202410937242478 0.29961494560552288 0 -0.48775354358845679 0.2999373674566474 0 -0.4860120546862074 0.27978507356262949 0 -0.46301130176701172 0.2947997650684106 0 -0.47202410937242478 0.29961494560552288 0 -0.4738579512379677 0.28585851244333871 0 -0.5 0.28779874483401302 0 -0.48775354358845679 0.2999373674566474 0 -0.4860120546862074 0.27978507356262949 0 -0.5 0.31564228814828699 0 -0.48055222610370041 0.31736906548845351 0 -0.48775354358845679 0.2999373674566474 0 -0.5 0.31564228814828699 0 -0.5 0.28779874483401302 0 -0.48775354358845679 0.2999373674566474 0 -0.48575737648544182 0.24366876600517251 0 -0.499999999999994 0.259955201519739 0 -0.47438433912622668 0.26923426553679158 0 -0.499999999999994 0.259955201519739 0 -0.4860120546862074 0.27978507356262949 0 -0.47438433912622668 0.26923426553679158 0 -0.5 0.28779874483401302 0 -0.499999999999994 0.259955201519739 0 -0.4860120546862074 0.27978507356262949 0 -0.499999999999994 0.259955201519739 0 -0.4860120546862074 0.27978507356262949 0 -0.4738579512379677 0.28585851244333871 0 -0.4860120546862074 0.27978507356262949 0 -0.47438433912622668 0.26923426553679158 0 -0.48575737648544182 0.24366876600517251 0 -0.47438433912622668 0.26923426553679158 0 -0.47026877103223552 0.24615879961802731 0 -0.47438433912622668 0.26923426553679158 0 -0.46326505337649171 0.25890261370259482 0 -0.47026877103223552 0.24615879961802731 0 -0.48575737648544182 0.24366876600517251 0 -0.47438433912622668 0.26923426553679158 0 -0.47026877103223552 0.24615879961802731 0 -0.46088862081946791 0.24741137557541151 0 -0.46326505337649171 0.25890261370259482 0 -0.46326505337649171 0.25890261370259482 0 -0.46023731754500208 0.26845270591755122 0 -0.44743166308731919 0.26224912498565223 0 -0.45193420450290589 0.24577266785640839 0 -0.46088862081946791 0.24741137557541151 0 -0.44743166308731919 0.26224912498565223 0 -0.46088862081946791 0.24741137557541151 0 -0.46326505337649171 0.25890261370259482 0 -0.44743166308731919 0.26224912498565223 0 -0.47438433912622668 0.26923426553679158 0 -0.46326505337649171 0.25890261370259482 0 -0.46023731754500208 0.26845270591755122 0 -0.45586821458997101 0.28342481944516629 0 -0.46023731754500208 0.26845270591755122 0 -0.44743166308731919 0.26224912498565223 0 -0.45586821458997101 0.28342481944516629 0 -0.47438433912622668 0.26923426553679158 0 -0.46023731754500208 0.26845270591755122 0 -0.45586821458997101 0.28342481944516629 0 -0.44410045409835069 0.27668114248141068 0 -0.44743166308731919 0.26224912498565223 0 -0.45586821458997101 0.28342481944516629 0 -0.44743166308731919 0.26224912498565223 0 -0.44410045409835069 0.27668114248141068 0 -0.44743166308731919 0.26224912498565223 0 -0.43668981354560038 0.26906175938815041 0 -0.44410045409835069 0.27668114248141068 0 -0.43668981354560038 0.26906175938815041 0 -0.43557717203610802 0.28083524643037538 0 -0.43899511158466897 0.24107343052613761 0 -0.44743166308731919 0.26224912498565223 0 -0.43749916171213421 0.2586271987400251 0 -0.43899511158466897 0.24107343052613761 0 -0.44743166308731919 0.26224912498565223 0 -0.44620888291724248 0.24330324602737369 0 -0.45193420450290589 0.24577266785640839 0 -0.44743166308731919 0.26224912498565223 0 -0.44743166308731919 0.26224912498565223 0 -0.43749916171213421 0.2586271987400251 0 -0.43668981354560038 0.26906175938815041 0 -0.43899511158466897 0.24107343052613761 0 -0.43749916171213421 0.2586271987400251 0 -0.42688005863094819 0.26212448006016043 0 -0.43899511158466897 0.24107343052613761 0 -0.42688005863094819 0.26212448006016043 0 -0.43899511158466897 0.24107343052613761 0 -0.42688005863094819 0.26212448006016043 0 -0.42080115542961871 0.25287685171722729 0 -0.43749916171213421 0.2586271987400251 0 -0.42688005863094819 0.26212448006016043 0 -0.43668981354560038 0.26906175938815041 0 -0.42688005863094819 0.26212448006016043 0 -0.42080115542961871 0.25287685171722729 0 -0.41180670095080357 0.27922919241869698 0 -0.41250559953305471 0.24493636740905761 0 -0.42080115542961871 0.25287685171722729 0 -0.41020060023578869 0.26364096678309251 0 -0.42080115542961871 0.25287685171722729 0 -0.41020060023578869 0.26364096678309251 0 -0.41180670095080357 0.27922919241869698 0 -0.42080115542961871 0.25287685171722729 0 -0.41180670095080357 0.27922919241869698 0 -0.42688005863094819 0.26212448006016043 0 -0.41180670095080357 0.27922919241869698 0 -0.41476500567722652 0.2831755295941828 0 -0.42688005863094819 0.26212448006016043 0 -0.41476500567722652 0.2831755295941828 0 -0.41180670095080357 0.27922919241869698 0 -0.40226622587071198 0.28149068079684969 0 -0.40592826877002092 0.27230127082446692 0 -0.41020060023578869 0.26364096678309251 0 -0.41180670095080357 0.27922919241869698 0 -0.40592826877002092 0.27230127082446692 0 -0.42572381009563648 0.2739713321084053 0 -0.41476500567722652 0.2831755295941828 0 -0.42146532298538791 0.28179473628357349 0 -0.42572381009563648 0.2739713321084053 0 -0.42573931939633408 0.28541084471074091 0 -0.42146532298538791 0.28179473628357349 0 -0.42572381009563648 0.2739713321084053 0 -0.43557717203610802 0.28083524643037538 0 -0.42573931939633408 0.28541084471074091 0 -0.42688005863094819 0.26212448006016043 0 -0.42572381009563648 0.2739713321084053 0 -0.41476500567722652 0.2831755295941828 0 -0.42688005863094819 0.26212448006016043 0 -0.42572381009563648 0.2739713321084053 0 -0.43668981354560038 0.26906175938815041 0 -0.42572381009563648 0.2739713321084053 0 -0.43668981354560038 0.26906175938815041 0 -0.43557717203610802 0.28083524643037538 0 -0.43557717203610802 0.28083524643037538 0 -0.4339368591360539 0.29074616485339549 0 -0.42573931939633408 0.28541084471074091 0 -0.43896406406262439 0.30276115933889219 0 -0.4339368591360539 0.29074616485339549 0 -0.42446833295244812 0.29688881162925979 0 -0.4339368591360539 0.29074616485339549 0 -0.42573931939633408 0.28541084471074091 0 -0.42446833295244812 0.29688881162925979 0 -0.42573931939633408 0.28541084471074091 0 -0.42446833295244812 0.29688881162925979 0 -0.41983813645988832 0.28936554709302209 0 -0.42573931939633408 0.28541084471074091 0 -0.42045194612970921 0.28493666442037979 0 -0.41983813645988832 0.28936554709302209 0 -0.42573931939633408 0.28541084471074091 0 -0.42045194612970921 0.28493666442037979 0 -0.42146532298538791 0.28179473628357349 0 -0.43896406406262439 0.30276115933889219 0 -0.42446833295244812 0.29688881162925979 0 -0.42339976272847779 0.31196324827731858 0 -0.42339976272847779 0.31196324827731858 0 -0.4172282171344654 0.30381013258933831 0 -0.41397998632669403 0.31118759247784278 0 -0.42446833295244812 0.29688881162925979 0 -0.42339976272847779 0.31196324827731858 0 -0.4172282171344654 0.30381013258933831 0 -0.42446833295244812 0.29688881162925979 0 -0.4172282171344654 0.30381013258933831 0 -0.41458486750107842 0.29673131080996168 0 -0.40981743083868438 0.30518114203914809 0 -0.41458486750107842 0.29673131080996168 0 -0.40264995272350512 0.30422657912820522 0 -0.4172282171344654 0.30381013258933831 0 -0.40981743083868438 0.30518114203914809 0 -0.41458486750107842 0.29673131080996168 0 -0.40587440747199011 0.31375600556967348 0 -0.40981743083868438 0.30518114203914809 0 -0.41397998632669403 0.31118759247784278 0 -0.4172282171344654 0.30381013258933831 0 -0.40981743083868438 0.30518114203914809 0 -0.41397998632669403 0.31118759247784278 0 -0.41476500567722652 0.2831755295941828 0 -0.40264995272350512 0.30422657912820522 0 -0.41476500567722652 0.2831755295941828 0 -0.41458486750107842 0.29673131080996168 0 -0.40264995272350512 0.30422657912820522 0 -0.41476500567722652 0.2831755295941828 0 -0.40337971017781382 0.29299919361117099 0 -0.40264995272350512 0.30422657912820522 0 -0.41476500567722652 0.2831755295941828 0 -0.42045194612970921 0.28493666442037979 0 -0.42146532298538791 0.28179473628357349 0 -0.41476500567722652 0.2831755295941828 0 -0.42045194612970921 0.28493666442037979 0 -0.41983813645988832 0.28936554709302209 0 -0.42446833295244812 0.29688881162925979 0 -0.41458486750107842 0.29673131080996168 0 -0.41983813645988832 0.28936554709302209 0 -0.41476500567722652 0.2831755295941828 0 -0.41458486750107842 0.29673131080996168 0 -0.41983813645988832 0.28936554709302209 0 -0.41180670095080357 0.27922919241869698 0 -0.41476500567722652 0.2831755295941828 0 -0.40623440257844129 0.28622434698816329 0 -0.41180670095080357 0.27922919241869698 0 -0.40226622587071198 0.28149068079684969 0 -0.40623440257844129 0.28622434698816329 0 -0.41476500567722652 0.2831755295941828 0 -0.40623440257844129 0.28622434698816329 0 -0.40337971017781382 0.29299919361117099 0 -0.40226622587071198 0.28149068079684969 0 -0.40623440257844129 0.28622434698816329 0 -0.40020067671556492 0.28922129727857743 0 -0.40337971017781382 0.29299919361117099 0 -0.40020067671556492 0.28922129727857743 0 -0.39312431807980369 0.29427418344140138 0 -0.40623440257844129 0.28622434698816329 0 -0.40337971017781382 0.29299919361117099 0 -0.40020067671556492 0.28922129727857743 0 -0.40020067671556492 0.28922129727857743 0 -0.39312431807980369 0.29427418344140138 0 -0.39282818923783952 0.28392283305698729 0 -0.40226622587071198 0.28149068079684969 0 -0.40020067671556492 0.28922129727857743 0 -0.39282818923783952 0.28392283305698729 0 -0.3821603017965598 0.31414344737589728 0 -0.39555859274957128 0.31654848730682339 0 -0.40264995272350512 0.30422657912820522 0 -0.39555859274957128 0.31654848730682339 0 -0.40587440747199011 0.31375600556967348 0 -0.40264995272350512 0.30422657912820522 0 -0.40587440747199011 0.31375600556967348 0 -0.40981743083868438 0.30518114203914809 0 -0.40264995272350512 0.30422657912820522 0 -0.39555859274957128 0.31654848730682339 0 -0.40264995272350512 0.30422657912820522 0 -0.40981743083868438 0.30518114203914809 0 -0.40264995272350512 0.30422657912820522 0 -0.40337971017781382 0.29299919361117099 0 -0.39312431807980369 0.29427418344140138 0 -0.40264995272350512 0.30422657912820522 0 -0.40264995272350512 0.30422657912820522 0 -0.37442358585463081 0.30046739877345618 0 -0.39312431807980369 0.29427418344140138 0 -0.40264995272350512 0.30422657912820522 0 -0.37442358585463081 0.30046739877345618 0 -0.3821603017965598 0.31414344737589728 0 -0.40264995272350512 0.30422657912820522 0 -0.37442358585463081 0.30046739877345618 0 -0.38530169621220439 0.2908707829873487 0 -0.37792557878229471 0.2817600801956559 0 -0.37442358585463081 0.30046739877345618 0 -0.39312431807980369 0.29427418344140138 0 -0.38530169621220439 0.2908707829873487 0 -0.37442358585463081 0.30046739877345618 0 -0.39282818923783952 0.28392283305698729 0 -0.38530169621220439 0.2908707829873487 0 -0.37792557878229471 0.2817600801956559 0 -0.39312431807980369 0.29427418344140138 0 -0.39282818923783952 0.28392283305698729 0 -0.38530169621220439 0.2908707829873487 0 -0.39282818923783952 0.28392283305698729 0 -0.37792557878229471 0.2817600801956559 0 -0.39521558915767468 0.26334822380235678 0 -0.37792557878229471 0.2817600801956559 0 -0.39521558915767468 0.26334822380235678 0 -0.37792557878229471 0.2817600801956559 0 -0.39521558915767468 0.26334822380235678 0 -0.37197088040678111 0.26812440785182962 0 -0.39745898753380948 0.24392228279588579 0 -0.39521558915767468 0.26334822380235678 0 -0.37360772762591582 0.25243441419688578 0 -0.39521558915767468 0.26334822380235678 0 -0.37360772762591582 0.25243441419688578 0 -0.37197088040678111 0.26812440785182962 0 -0.41250559953305471 0.24493636740905761 0 -0.41020060023578869 0.26364096678309251 0 -0.39521558915767468 0.26334822380235678 0 -0.41250559953305471 0.24493636740905761 0 -0.39521558915767468 0.26334822380235678 0 -0.41250559953305471 0.24493636740905761 0 -0.39745898753380948 0.24392228279588579 0 -0.39521558915767468 0.26334822380235678 0 -0.39282818923783952 0.28392283305698729 0 -0.39521558915767468 0.26334822380235678 0 -0.39949928670883 0.27547996318538392 0 -0.41020060023578869 0.26364096678309251 0 -0.39521558915767468 0.26334822380235678 0 -0.40592826877002092 0.27230127082446692 0 -0.39521558915767468 0.26334822380235678 0 -0.40592826877002092 0.27230127082446692 0 -0.39949928670883 0.27547996318538392 0 -0.40226622587071198 0.28149068079684969 0 -0.40592826877002092 0.27230127082446692 0 -0.39949928670883 0.27547996318538392 0 -0.40226622587071198 0.28149068079684969 0 -0.39282818923783952 0.28392283305698729 0 -0.39949928670883 0.27547996318538392 0 -0.35107281268474688 0.27454783326818583 0 -0.3498409464849806 0.26100254362400588 0 -0.33505190403513202 0.26365987423010151 0 -0.35200305033308649 0.24798110438320281 0 -0.3498409464849806 0.26100254362400588 0 -0.33505190403513202 0.26365987423010151 0 -0.35107281268474688 0.27454783326818583 0 -0.3498409464849806 0.26100254362400588 0 -0.36123601888695711 0.2578213626145337 0 -0.35200305033308649 0.24798110438320281 0 -0.3498409464849806 0.26100254362400588 0 -0.36123601888695711 0.2578213626145337 0 -0.36123601888695711 0.2578213626145337 0 -0.37360772762591582 0.25243441419688578 0 -0.37197088040678111 0.26812440785182962 0 -0.35360538224735683 0.24087006329800081 0 -0.36123601888695711 0.2578213626145337 0 -0.37360772762591582 0.25243441419688578 0 -0.37792557878229471 0.2817600801956559 0 -0.37197088040678111 0.26812440785182962 0 -0.36431801534284203 0.28432158770156679 0 -0.35107281268474688 0.27454783326818583 0 -0.36123601888695711 0.2578213626145337 0 -0.37197088040678111 0.26812440785182962 0 -0.35107281268474688 0.27454783326818583 0 -0.37197088040678111 0.26812440785182962 0 -0.36431801534284203 0.28432158770156679 0 -0.37792557878229471 0.2817600801956559 0 -0.36431801534284203 0.28432158770156679 0 -0.37442358585463081 0.30046739877345618 0 -0.36431801534284203 0.28432158770156679 0 -0.37442358585463081 0.30046739877345618 0 -0.34619721898575673 0.29670821841870648 0 -0.3821603017965598 0.31414344737589728 0 -0.37442358585463081 0.30046739877345618 0 -0.36567807973193073 0.31226451215857398 0 -0.37442358585463081 0.30046739877345618 0 -0.36567807973193073 0.31226451215857398 0 -0.34619721898575673 0.29670821841870648 0 -0.37442358585463081 0.30046739877345618 0 -0.34619721898575673 0.29670821841870648 0 -0.36567807973193073 0.31226451215857398 0 -0.34619721898575673 0.29670821841870648 0 -0.35340270419361408 0.32251786223124479 0 -0.35107281268474688 0.27454783326818583 0 -0.36431801534284203 0.28432158770156679 0 -0.34619721898575673 0.29670821841870648 0 -0.34619721898575673 0.29670821841870648 0 -0.31797085211688259 0.292949038063957 0 -0.35107281268474688 0.27454783326818583 0 -0.34619721898575673 0.29670821841870648 0 -0.33367870911193909 0.28144072161159023 0 -0.34619721898575673 0.29670821841870648 0 -0.33367870911193909 0.28144072161159023 0 -0.31797085211688259 0.292949038063957 0 -0.34619721898575673 0.29670821841870648 0 -0.32168109827693853 0.30731265830395321 0 -0.3314125044919905 0.32216533789406238 0 -0.34619721898575673 0.29670821841870648 0 -0.32168109827693853 0.30731265830395321 0 -0.31797085211688259 0.292949038063957 0 -0.32168109827693853 0.30731265830395321 0 -0.31797085211688259 0.292949038063957 0 -0.3011496114392227 0.2950174139238988 0 -0.33367870911193909 0.28144072161159023 0 -0.31797085211688259 0.292949038063957 0 -0.31810075773717728 0.27933864407700021 0 -0.31810075773717728 0.27933864407700021 0 -0.33505190403513202 0.26365987423010151 0 -0.3196373255909466 0.26253062260580501 0 -0.31810075773717728 0.27933864407700021 0 -0.3196373255909466 0.26253062260580501 0 -0.30617387036730209 0.26785214765938908 0 -0.31810075773717728 0.27933864407700021 0 -0.33505190403513202 0.26365987423010151 0 -0.35107281268474688 0.27454783326818583 0 -0.33367870911193909 0.28144072161159023 0 -0.33505190403513202 0.26365987423010151 0 -0.33367870911193909 0.28144072161159023 0 -0.31810075773717728 0.27933864407700021 0 -0.33505190403513202 0.26365987423010151 0 -0.35200305033308649 0.24798110438320281 0 -0.3400038048171003 0.24323895028343789 0 -0.33505190403513202 0.26365987423010151 0 -0.35200305033308649 0.24798110438320281 0 -0.33505190403513202 0.26365987423010151 0 -0.3267633280155251 0.2494088704731543 0 -0.3400038048171003 0.24323895028343789 0 -0.33505190403513202 0.26365987423010151 0 -0.3267633280155251 0.2494088704731543 0 -0.33505190403513202 0.26365987423010151 0 -0.3196373255909466 0.26253062260580501 0 -0.3196373255909466 0.26253062260580501 0 -0.31209676779959611 0.25239357658938011 0 -0.30617387036730209 0.26785214765938908 0 -0.3267633280155251 0.2494088704731543 0 -0.3196373255909466 0.26253062260580501 0 -0.31209676779959611 0.25239357658938011 0 -0.29980566951308901 0.25579292869099751 0 -0.30617387036730209 0.26785214765938908 0 -0.2894805168596935 0.26568900688923008 0 -0.30520153788055582 0.2422985888626252 0 -0.31209676779959611 0.25239357658938011 0 -0.29980566951308901 0.25579292869099751 0 -0.31209676779959611 0.25239357658938011 0 -0.29980566951308901 0.25579292869099751 0 -0.30617387036730209 0.26785214765938908 0 -0.30617387036730209 0.26785214765938908 0 -0.29531506414945807 0.28035321040656452 0 -0.2894805168596935 0.26568900688923008 0 -0.31810075773717728 0.27933864407700021 0 -0.30518482592328999 0.28064035401671311 0 -0.30617387036730209 0.26785214765938908 0 -0.30518482592328999 0.28064035401671311 0 -0.30617387036730209 0.26785214765938908 0 -0.29531506414945807 0.28035321040656452 0 -0.2894805168596935 0.26568900688923008 0 -0.28469463215298341 0.27835302425199537 0 -0.273041564498686 0.27380014410951953 0 -0.29531506414945807 0.28035321040656452 0 -0.2894805168596935 0.26568900688923008 0 -0.28469463215298341 0.27835302425199537 0 -0.29531506414945807 0.28035321040656452 0 -0.2894805168596935 0.26568900688923008 0 -0.29180530120122011 0.24392873090837741 0 -0.29980566951308901 0.25579292869099751 0 -0.2894805168596935 0.26568900688923008 0 -0.29180530120122011 0.24392873090837741 0 -0.27781512448029078 0.24810651147730409 0 -0.2894805168596935 0.26568900688923008 0 -0.27781512448029078 0.24810651147730409 0 -0.2894805168596935 0.26568900688923008 0 -0.26966917197111961 0.26001201485569481 0 -0.26354072882447921 0.24538755190392639 0 -0.27781512448029078 0.24810651147730409 0 -0.26966917197111961 0.26001201485569481 0 -0.2894805168596935 0.26568900688923008 0 -0.26966917197111961 0.26001201485569481 0 -0.273041564498686 0.27380014410951953 0 -0.28469463215298341 0.27835302425199537 0 -0.273041564498686 0.27380014410951953 0 -0.27696648266239549 0.28648532482807121 0 -0.273041564498686 0.27380014410951953 0 -0.26225111443501642 0.27733301289964929 0 -0.26478577153130939 0.28774739432144308 0 -0.26966917197111961 0.26001201485569481 0 -0.273041564498686 0.27380014410951953 0 -0.25906094748401742 0.2688084633229294 0 -0.273041564498686 0.27380014410951953 0 -0.25906094748401742 0.2688084633229294 0 -0.26225111443501642 0.27733301289964929 0 -0.25084926056489398 0.27553912373004269 0 -0.25455891020825938 0.28380749578214021 0 -0.24548592474856501 0.28124012243538721 0 -0.26225111443501642 0.27733301289964929 0 -0.25084926056489398 0.27553912373004269 0 -0.25455891020825938 0.28380749578214021 0 -0.25906094748401742 0.2688084633229294 0 -0.26225111443501642 0.27733301289964929 0 -0.25084926056489398 0.27553912373004269 0 -0.25906094748401742 0.2688084633229294 0 -0.25084926056489398 0.27553912373004269 0 -0.24603615490119859 0.26862527214806348 0 -0.25906094748401742 0.2688084633229294 0 -0.25257923020738038 0.25763813499818028 0 -0.24603615490119859 0.26862527214806348 0 -0.26966917197111961 0.26001201485569481 0 -0.25906094748401742 0.2688084633229294 0 -0.25257923020738038 0.25763813499818028 0 -0.26354072882447921 0.24538755190392639 0 -0.26966917197111961 0.26001201485569481 0 -0.25257923020738038 0.25763813499818028 0 -0.25705731881997151 0.303882841901433 0 -0.25592445292516991 0.29292036644724417 0 -0.26674363541774421 0.29828544898046699 0 -0.25705731881997151 0.303882841901433 0 -0.26674363541774421 0.29828544898046699 0 -0.26834787380683578 0.30988995754139842 0 -0.25705731881997151 0.303882841901433 0 -0.26834787380683578 0.30988995754139842 0 -0.25857095114348588 0.31576494193834331 0 -0.25705731881997151 0.303882841901433 0 -0.25857095114348588 0.31576494193834331 0 -0.24774855637122609 0.31247096124908358 0 -0.25705731881997151 0.303882841901433 0 -0.25592445292516991 0.29292036644724417 0 -0.24477370070157331 0.29872502431161968 0 -0.25592445292516991 0.29292036644724417 0 -0.25455891020825938 0.28380749578214021 0 -0.24819035903223541 0.28862087111825951 0 -0.25592445292516991 0.29292036644724417 0 -0.25455891020825938 0.28380749578214021 0 -0.26478577153130939 0.28774739432144308 0 -0.26225111443501642 0.27733301289964929 0 -0.25455891020825938 0.28380749578214021 0 -0.26478577153130939 0.28774739432144308 0 -0.25592445292516991 0.29292036644724417 0 -0.26478577153130939 0.28774739432144308 0 -0.26674363541774421 0.29828544898046699 0 -0.26478577153130939 0.28774739432144308 0 -0.27696648266239549 0.28648532482807121 0 -0.26674363541774421 0.29828544898046699 0 -0.273041564498686 0.27380014410951953 0 -0.26478577153130939 0.28774739432144308 0 -0.27696648266239549 0.28648532482807121 0 -0.27696648266239549 0.28648532482807121 0 -0.27804813828941932 0.30119313124284802 0 -0.28836177480804681 0.29042700733306798 0 -0.27696648266239549 0.28648532482807121 0 -0.27804813828941932 0.30119313124284802 0 -0.26674363541774421 0.29828544898046699 0 -0.27804813828941932 0.30119313124284802 0 -0.26674363541774421 0.29828544898046699 0 -0.26834787380683578 0.30988995754139842 0 -0.27804813828941932 0.30119313124284802 0 -0.26834787380683578 0.30988995754139842 0 -0.27771674494945048 0.31669137709360923 0 -0.28943317819433662 0.30585439550875398 0 -0.27771674494945048 0.31669137709360923 0 -0.27804813828941932 0.30119313124284802 0 -0.28943317819433662 0.30585439550875398 0 -0.27771674494945048 0.31669137709360923 0 -0.27804813828941932 0.30119313124284802 0 -0.28943317819433662 0.30585439550875398 0 -0.28836177480804681 0.29042700733306798 0 -0.28943317819433662 0.30585439550875398 0 -0.28836177480804681 0.29042700733306798 0 -0.3011496114392227 0.2950174139238988 0 -0.28943317819433662 0.30585439550875398 0 -0.3011496114392227 0.2950174139238988 0 -0.28469463215298341 0.27835302425199537 0 -0.27696648266239549 0.28648532482807121 0 -0.28836177480804681 0.29042700733306798 0 -0.29531506414945807 0.28035321040656452 0 -0.28469463215298341 0.27835302425199537 0 -0.28836177480804681 0.29042700733306798 0 -0.29531506414945807 0.28035321040656452 0 -0.28836177480804681 0.29042700733306798 0 -0.3011496114392227 0.2950174139238988 0 -0.31810075773717728 0.27933864407700021 0 -0.3011496114392227 0.2950174139238988 0 -0.31810075773717728 0.27933864407700021 0 -0.30518482592328999 0.28064035401671311 0 -0.3011496114392227 0.2950174139238988 0 -0.31797085211688259 0.292949038063957 0 -0.31810075773717728 0.27933864407700021 0 -0.3011496114392227 0.2950174139238988 0 -0.30518482592328999 0.28064035401671311 0 -0.29531506414945807 0.28035321040656452 0 -0.3011496114392227 0.2950174139238988 0 -0.29531506414945807 0.28035321040656452 0 -0.3011496114392227 0.2950174139238988 0 -0.28943317819433662 0.30585439550875398 0 -0.3011496114392227 0.2950174139238988 0 -0.30928284309405202 0.31545899376151021 0 -0.32168109827693853 0.30731265830395321 0 -0.3011496114392227 0.2950174139238988 0 -0.30928284309405202 0.31545899376151021 0 -0.3011496114392227 0.2950174139238988 0 -0.30928284309405202 0.31545899376151021 0 -0.28943317819433662 0.30585439550875398 0 -0.30928284309405202 0.31545899376151021 0 -0.29260023348610431 0.32492628759988029 0 -0.30928284309405202 0.31545899376151021 0 -0.30332410598515552 0.33273744890277629 0 -0.29260023348610431 0.32492628759988029 0 -0.30928284309405202 0.31545899376151021 0 -0.30332410598515552 0.33273744890277629 0 -0.31741607474888128 0.33590057359912151 0 -0.30332410598515552 0.33273744890277629 0 -0.30316181148430682 0.34550754576324721 0 -0.31741607474888128 0.33590057359912151 0 -0.30332410598515552 0.33273744890277629 0 -0.29029832352374069 0.34089957063859733 0 -0.30316181148430682 0.34550754576324721 0 -0.29029832352374069 0.34089957063859733 0 -0.29260023348610431 0.32492628759988029 0 -0.28065060327007257 0.33134669219790958 0 -0.30332410598515552 0.33273744890277629 0 -0.29029832352374069 0.34089957063859733 0 -0.29260023348610431 0.32492628759988029 0 -0.29029832352374069 0.34089957063859733 0 -0.28065060327007257 0.33134669219790958 0 -0.27615977430535121 0.34579062230926338 0 -0.28943317819433662 0.30585439550875398 0 -0.29260023348610431 0.32492628759988029 0 -0.27771674494945048 0.31669137709360923 0 -0.29260023348610431 0.32492628759988029 0 -0.27771674494945048 0.31669137709360923 0 -0.28065060327007257 0.33134669219790958 0 -0.26834787380683578 0.30988995754139842 0 -0.27771674494945048 0.31669137709360923 0 -0.26687432552673618 0.32803180598935289 0 -0.27771674494945048 0.31669137709360923 0 -0.26687432552673618 0.32803180598935289 0 -0.28065060327007257 0.33134669219790958 0 -0.26687432552673618 0.32803180598935289 0 -0.25777417062633362 0.34842798939835817 0 -0.27615977430535121 0.34579062230926338 0 -0.26687432552673618 0.32803180598935289 0 -0.28065060327007257 0.33134669219790958 0 -0.27615977430535121 0.34579062230926338 0 -0.26687432552673618 0.32803180598935289 0 -0.25777417062633362 0.34842798939835817 0 -0.2485373689950319 0.32901900577308818 0 -0.25857095114348588 0.31576494193834331 0 -0.2485373689950319 0.32901900577308818 0 -0.24774855637122609 0.31247096124908358 0 -0.26834787380683578 0.30988995754139842 0 -0.26687432552673618 0.32803180598935289 0 -0.25857095114348588 0.31576494193834331 0 -0.26687432552673618 0.32803180598935289 0 -0.25857095114348588 0.31576494193834331 0 -0.2485373689950319 0.32901900577308818 0 -0.27238936479276649 0.37043818988510302 0 -0.25844982028472518 0.38181124341727452 0 -0.2440065014856532 0.36331774964568819 0 -0.27238936479276649 0.37043818988510302 0 -0.2440065014856532 0.36331774964568819 0 -0.25777417062633362 0.34842798939835817 0 -0.27238936479276649 0.37043818988510302 0 -0.2440065014856532 0.36331774964568819 0 -0.25777417062633362 0.34842798939835817 0 -0.27615977430535121 0.34579062230926338 0 -0.27238936479276649 0.37043818988510302 0 -0.27615977430535121 0.34579062230926338 0 -0.27238936479276649 0.37043818988510302 0 -0.29072100403231982 0.35787760303337762 0 -0.27238936479276649 0.37043818988510302 0 -0.30077222809987969 0.37755863012451779 0 -0.27238936479276649 0.37043818988510302 0 -0.29072100403231982 0.35787760303337762 0 -0.30077222809987969 0.37755863012451779 0 -0.29029832352374069 0.34089957063859733 0 -0.27615977430535121 0.34579062230926338 0 -0.29072100403231982 0.35787760303337762 0 -0.29029832352374069 0.34089957063859733 0 -0.29072100403231982 0.35787760303337762 0 -0.30316181148430682 0.34550754576324721 0 -0.30316181148430682 0.34550754576324721 0 -0.3068070725573504 0.3637296209988925 0 -0.31667532153163802 0.35987565163216828 0 -0.29072100403231982 0.35787760303337762 0 -0.30316181148430682 0.34550754576324721 0 -0.3068070725573504 0.3637296209988925 0 -0.3068070725573504 0.3637296209988925 0 -0.31973560547202229 0.37098868954857461 0 -0.30077222809987969 0.37755863012451779 0 -0.29072100403231982 0.35787760303337762 0 -0.3068070725573504 0.3637296209988925 0 -0.30077222809987969 0.37755863012451779 0 -0.3068070725573504 0.3637296209988925 0 -0.31973560547202229 0.37098868954857461 0 -0.31667532153163802 0.35987565163216828 0 -0.31973560547202229 0.37098868954857461 0 -0.31667532153163802 0.35987565163216828 0 -0.32812281174079971 0.36281024841339438 0 -0.31667532153163802 0.35987565163216828 0 -0.32812281174079971 0.36281024841339438 0 -0.32554930640371071 0.35634215343673281 0 -0.32812281174079971 0.36281024841339438 0 -0.32554930640371071 0.35634215343673281 0 -0.31973560547202229 0.37098868954857461 0 -0.32812281174079971 0.36281024841339438 0 -0.33382460562483968 0.3747517554652503 0 -0.32812281174079971 0.36281024841339438 0 -0.32554930640371071 0.35634215343673281 0 -0.34866259210922429 0.36752801338068591 0 -0.32554930640371071 0.35634215343673281 0 -0.34866259210922429 0.36752801338068591 0 -0.32812281174079971 0.36281024841339438 0 -0.33382460562483968 0.3747517554652503 0 -0.34866259210922429 0.36752801338068591 0 -0.34128055726682249 0.35330911203634058 0 -0.32554930640371071 0.35634215343673281 0 -0.34866259210922429 0.36752801338068591 0 -0.34128055726682249 0.35330911203634058 0 -0.33430547252882548 0.34860932035271458 0 -0.32554930640371071 0.35634215343673281 0 -0.34128055726682249 0.35330911203634058 0 -0.33430547252882548 0.34860932035271458 0 -0.34293112040157431 0.33849823143111257 0 -0.33430547252882548 0.34860932035271458 0 -0.32554930640371071 0.35634215343673281 0 -0.33002003335824809 0.3422246783420208 0 -0.30316181148430682 0.34550754576324721 0 -0.32554930640371071 0.35634215343673281 0 -0.32554930640371071 0.35634215343673281 0 -0.31741607474888128 0.33590057359912151 0 -0.33002003335824809 0.3422246783420208 0 -0.32554930640371071 0.35634215343673281 0 -0.31741607474888128 0.33590057359912151 0 -0.30316181148430682 0.34550754576324721 0 -0.31667532153163802 0.35987565163216828 0 -0.32554930640371071 0.35634215343673281 0 -0.30316181148430682 0.34550754576324721 0 -0.32554930640371071 0.35634215343673281 0 -0.31741607474888128 0.33590057359912151 0 -0.31741607474888128 0.33590057359912151 0 -0.3314125044919905 0.32216533789406238 0 -0.33002003335824809 0.3422246783420208 0 -0.30928284309405202 0.31545899376151021 0 -0.31741607474888128 0.33590057359912151 0 -0.32168109827693853 0.30731265830395321 0 -0.30928284309405202 0.31545899376151021 0 -0.3314125044919905 0.32216533789406238 0 -0.30928284309405202 0.31545899376151021 0 -0.31741607474888128 0.33590057359912151 0 -0.3314125044919905 0.32216533789406238 0 -0.3314125044919905 0.32216533789406238 0 -0.34293112040157431 0.33849823143111257 0 -0.35340270419361408 0.32251786223124479 0 -0.34619721898575673 0.29670821841870648 0 -0.3314125044919905 0.32216533789406238 0 -0.35340270419361408 0.32251786223124479 0 -0.3314125044919905 0.32216533789406238 0 -0.33002003335824809 0.3422246783420208 0 -0.34293112040157431 0.33849823143111257 0 -0.33430547252882548 0.34860932035271458 0 -0.33002003335824809 0.3422246783420208 0 -0.34293112040157431 0.33849823143111257 0 -0.34293112040157431 0.33849823143111257 0 -0.35340270419361408 0.32251786223124479 0 -0.36036713219963051 0.33783472537246051 0 -0.34293112040157431 0.33849823143111257 0 -0.36036713219963051 0.33783472537246051 0 -0.35233652925498948 0.34743770938815871 0 -0.36567807973193073 0.31226451215857398 0 -0.35340270419361408 0.32251786223124479 0 -0.37220658782909222 0.32748563399356539 0 -0.3821603017965598 0.31414344737589728 0 -0.36567807973193073 0.31226451215857398 0 -0.37220658782909222 0.32748563399356539 0 -0.37548247059367013 0.34566898945323182 0 -0.37220658782909222 0.32748563399356539 0 -0.36036713219963051 0.33783472537246051 0 -0.35340270419361408 0.32251786223124479 0 -0.37220658782909222 0.32748563399356539 0 -0.36036713219963051 0.33783472537246051 0 -0.37548247059367013 0.34566898945323182 0 -0.36036713219963051 0.33783472537246051 0 -0.36084344180266398 0.35662140823810118 0 -0.37615722083071829 0.36393922079551871 0 -0.37548247059367013 0.34566898945323182 0 -0.36084344180266398 0.35662140823810118 0 -0.37615722083071829 0.36393922079551871 0 -0.36084344180266398 0.35662140823810118 0 -0.34866259210922429 0.36752801338068591 0 -0.37177587781473781 0.37871387332463918 0 -0.36084344180266398 0.35662140823810118 0 -0.34866259210922429 0.36752801338068591 0 -0.37177587781473781 0.37871387332463918 0 -0.37615722083071829 0.36393922079551871 0 -0.36084344180266398 0.35662140823810118 0 -0.37177587781473781 0.37871387332463918 0 -0.36084344180266398 0.35662140823810118 0 -0.34866259210922429 0.36752801338068591 0 -0.35233652925498948 0.34743770938815871 0 -0.36036713219963051 0.33783472537246051 0 -0.36084344180266398 0.35662140823810118 0 -0.35233652925498948 0.34743770938815871 0 -0.34128055726682249 0.35330911203634058 0 -0.34866259210922429 0.36752801338068591 0 -0.35233652925498948 0.34743770938815871 0 -0.34128055726682249 0.35330911203634058 0 -0.34293112040157431 0.33849823143111257 0 -0.35233652925498948 0.34743770938815871 0 -0.34536424899766482 0.39915050757270731 0 -0.35659231524459822 0.38867569175817002 0 -0.34048776599451602 0.38611491714539642 0 -0.35889223768044459 0.40557551514499829 0 -0.34536424899766482 0.39915050757270731 0 -0.35659231524459822 0.38867569175817002 0 -0.35889223768044459 0.40557551514499829 0 -0.34536424899766482 0.39915050757270731 0 -0.34552265204560378 0.41170635957697482 0 -0.34866259210922429 0.36752801338068591 0 -0.35659231524459822 0.38867569175817002 0 -0.37177587781473781 0.37871387332463918 0 -0.34866259210922429 0.36752801338068591 0 -0.35659231524459822 0.38867569175817002 0 -0.34048776599451602 0.38611491714539642 0 -0.37507799860857127 0.39639931032264542 0 -0.35659231524459822 0.38867569175817002 0 -0.37177587781473781 0.37871387332463918 0 -0.37507799860857127 0.39639931032264542 0 -0.35889223768044459 0.40557551514499829 0 -0.37214138384484341 0.41517920980772771 0 -0.37507799860857127 0.39639931032264542 0 -0.35889223768044459 0.40557551514499829 0 -0.35659231524459822 0.38867569175817002 0 -0.35889223768044459 0.40557551514499829 0 -0.37214138384484341 0.41517920980772771 0 -0.35758939249955252 0.42674476474380568 0 -0.37779160222069741 0.43320272545326038 0 -0.37214138384484341 0.41517920980772771 0 -0.35758939249955252 0.42674476474380568 0 -0.37779160222069741 0.43320272545326038 0 -0.35758939249955252 0.42674476474380568 0 -0.36422751622644373 0.45243171753259231 0 -0.35758939249955252 0.42674476474380568 0 -0.3364396384665812 0.42515654609172993 0 -0.34355153434938618 0.44840862785182711 0 -0.35889223768044459 0.40557551514499829 0 -0.35758939249955252 0.42674476474380568 0 -0.34552265204560378 0.41170635957697482 0 -0.35758939249955252 0.42674476474380568 0 -0.34552265204560378 0.41170635957697482 0 -0.3364396384665812 0.42515654609172993 0 -0.34552265204560378 0.41170635957697482 0 -0.3364396384665812 0.42515654609172993 0 -0.32932774258377628 0.40190446433163268 0 -0.3364396384665812 0.42515654609172993 0 -0.32932774258377628 0.40190446433163268 0 -0.3364396384665812 0.42515654609172993 0 -0.34355153434938618 0.44840862785182711 0 -0.3364396384665812 0.42515654609172993 0 -0.31352654436946981 0.42540502851012418 0 -0.32529196011464462 0.44531950803203951 0 -0.31352654436946981 0.42540502851012418 0 -0.32932774258377628 0.40190446433163268 0 -0.30650872110596489 0.40362396813261681 0 -0.3364396384665812 0.42515654609172993 0 -0.31352654436946981 0.42540502851012418 0 -0.32932774258377628 0.40190446433163268 0 -0.31721352963201782 0.39341232359812961 0 -0.32932774258377628 0.40190446433163268 0 -0.32915509140699312 0.38467907036393262 0 -0.31721352963201782 0.39341232359812961 0 -0.32932774258377628 0.40190446433163268 0 -0.30650872110596489 0.40362396813261681 0 -0.34536424899766482 0.39915050757270731 0 -0.32932774258377628 0.40190446433163268 0 -0.34048776599451602 0.38611491714539642 0 -0.34536424899766482 0.39915050757270731 0 -0.34552265204560378 0.41170635957697482 0 -0.32932774258377628 0.40190446433163268 0 -0.32932774258377628 0.40190446433163268 0 -0.34048776599451602 0.38611491714539642 0 -0.32915509140699312 0.38467907036393262 0 -0.33382460562483968 0.3747517554652503 0 -0.34866259210922429 0.36752801338068591 0 -0.34048776599451602 0.38611491714539642 0 -0.33382460562483968 0.3747517554652503 0 -0.34048776599451602 0.38611491714539642 0 -0.32915509140699312 0.38467907036393262 0 -0.31721352963201782 0.39341232359812961 0 -0.32915509140699312 0.38467907036393262 0 -0.30077222809987969 0.37755863012451779 0 -0.31973560547202229 0.37098868954857461 0 -0.32915509140699312 0.38467907036393262 0 -0.30077222809987969 0.37755863012451779 0 -0.32915509140699312 0.38467907036393262 0 -0.30077222809987969 0.37755863012451779 0 -0.31973560547202229 0.37098868954857461 0 -0.33382460562483968 0.3747517554652503 0 -0.32915509140699312 0.38467907036393262 0 -0.30077222809987969 0.37755863012451779 0 -0.30650872110596489 0.40362396813261681 0 -0.28809927320174039 0.39319384743381153 0 -0.31721352963201782 0.39341232359812961 0 -0.30077222809987969 0.37755863012451779 0 -0.30650872110596489 0.40362396813261681 0 -0.28809927320174039 0.39319384743381153 0 -0.27242251211459928 0.39672923713561342 0 -0.2884035398954915 0.41761921189120621 0 -0.30650872110596489 0.40362396813261681 0 -0.28809927320174039 0.39319384743381153 0 -0.2884035398954915 0.41761921189120621 0 -0.27238936479276649 0.37043818988510302 0 -0.30077222809987969 0.37755863012451779 0 -0.28809927320174039 0.39319384743381153 0 -0.27238936479276649 0.37043818988510302 0 -0.28809927320174039 0.39319384743381153 0 -0.27242251211459928 0.39672923713561342 0 -0.27238936479276649 0.37043818988510302 0 -0.27242251211459928 0.39672923713561342 0 -0.25844982028472518 0.38181124341727452 0 -0.27242251211459928 0.39672923713561342 0 -0.26210816937478182 0.41820040325516011 0 -0.2449809027458818 0.3967597970026932 0 -0.27242251211459928 0.39672923713561342 0 -0.25844982028472518 0.38181124341727452 0 -0.2449809027458818 0.3967597970026932 0 -0.26210816937478182 0.41820040325516011 0 -0.25179382663496419 0.43967156937470658 0 -0.26210816937478182 0.41820040325516011 0 -0.27832076141073042 0.441617152115935 0 -0.25179382663496419 0.43967156937470658 0 -0.26210816937478182 0.41820040325516011 0 -0.25179382663496419 0.43967156937470658 0 -0.2404198952242706 0.4189646767397886 0 -0.27242251211459928 0.39672923713561342 0 -0.26210816937478182 0.41820040325516011 0 -0.27242251211459928 0.39672923713561342 0 -0.26210816937478182 0.41820040325516011 0 -0.2884035398954915 0.41761921189120621 0 -0.26210816937478182 0.41820040325516011 0 -0.2884035398954915 0.41761921189120621 0 -0.27832076141073042 0.441617152115935 0 -0.2959631477633643 0.43421763669394081 0 -0.2884035398954915 0.41761921189120621 0 -0.27832076141073042 0.441617152115935 0 -0.31352654436946981 0.42540502851012418 0 -0.30650872110596489 0.40362396813261681 0 -0.2884035398954915 0.41761921189120621 0 -0.31352654436946981 0.42540502851012418 0 -0.2959631477633643 0.43421763669394081 0 -0.30360174537776552 0.45222915425849802 0 -0.31352654436946981 0.42540502851012418 0 -0.2959631477633643 0.43421763669394081 0 -0.2884035398954915 0.41761921189120621 0 -0.31352654436946981 0.42540502851012418 0 -0.30360174537776552 0.45222915425849802 0 -0.30360174537776552 0.45222915425849802 0 -0.29367694638606112 0.47905328000687147 0 -0.30527741300985711 0.47253984076528999 0 -0.30360174537776552 0.45222915425849802 0 -0.30527741300985711 0.47253984076528999 0 -0.31889707145207652 0.46689988405125488 0 -0.30360174537776552 0.45222915425849802 0 -0.29367694638606112 0.47905328000687147 0 -0.30360174537776552 0.45222915425849802 0 -0.28339541487562819 0.46067182378750959 0 -0.29367694638606112 0.47905328000687147 0 -0.2959631477633643 0.43421763669394081 0 -0.30360174537776552 0.45222915425849802 0 -0.27832076141073042 0.441617152115935 0 -0.30360174537776552 0.45222915425849802 0 -0.28339541487562819 0.46067182378750959 0 -0.27832076141073042 0.441617152115935 0 -0.28339541487562819 0.46067182378750959 0 -0.27832076141073042 0.441617152115935 0 -0.2578934703623712 0.45581471383221678 0 -0.28339541487562819 0.46067182378750959 0 -0.2578934703623712 0.45581471383221678 0 -0.26757821514060409 0.47009800775056149 0 -0.26757821514060409 0.47009800775056149 0 -0.2414794838951464 0.46114273549425311 0 -0.2578934703623712 0.45581471383221678 0 -0.26757821514060409 0.47009800775056149 0 -0.2414794838951464 0.46114273549425311 0 -0.2578934703623712 0.45581471383221678 0 -0.25179382663496419 0.43967156937470658 0 -0.2414794838951464 0.46114273549425311 0 -0.27832076141073042 0.441617152115935 0 -0.2578934703623712 0.45581471383221678 0 -0.25179382663496419 0.43967156937470658 0 -0.26488890232370421 0.5 0 -0.25182033177461682 0.48195888606611309 0 -0.27540783095170163 0.48587411571598849 0 -0.26488890232370421 0.5 0 -0.25182033177461682 0.48195888606611309 0 -0.2438510450677096 0.5 0 -0.25182033177461682 0.48195888606611309 0 -0.26757821514060409 0.47009800775056149 0 -0.27540783095170163 0.48587411571598849 0 -0.25182033177461682 0.48195888606611309 0 -0.26757821514060409 0.47009800775056149 0 -0.2414794838951464 0.46114273549425311 0 -0.26757821514060409 0.47009800775056149 0 -0.27540783095170163 0.48587411571598849 0 -0.29367694638606112 0.47905328000687147 0 -0.26757821514060409 0.47009800775056149 0 -0.29367694638606112 0.47905328000687147 0 -0.26488890232370421 0.5 0 -0.27540783095170163 0.48587411571598849 0 -0.28592675957969882 0.49999999999999678 0 -0.28592675957969882 0.49999999999999678 0 -0.29367694638606112 0.47905328000687147 0 -0.27540783095170163 0.48587411571598849 0 -0.28592675957969882 0.49999999999999678 0 -0.29367694638606112 0.47905328000687147 0 -0.28592675957969882 0.49999999999999678 0 -0.29783799970600372 0.48048106456094292 0 -0.30359488456344852 0.48995862843247268 0 -0.28592675957969882 0.49999999999999678 0 -0.29367694638606112 0.47905328000687147 0 -0.29783799970600372 0.48048106456094292 0 -0.28339541487562819 0.46067182378750959 0 -0.26757821514060409 0.47009800775056149 0 -0.29367694638606112 0.47905328000687147 0 -0.29367694638606112 0.47905328000687147 0 -0.29783799970600372 0.48048106456094292 0 -0.31237330212737879 0.48403582094888198 0 -0.30527741300985711 0.47253984076528999 0 -0.31889707145207652 0.46689988405125488 0 -0.29367694638606112 0.47905328000687147 0 -0.29783799970600372 0.48048106456094292 0 -0.30527741300985711 0.47253984076528999 0 -0.29783799970600372 0.48048106456094292 0 -0.31237330212737879 0.48403582094888198 0 -0.30527741300985711 0.47253984076528999 0 -0.28592675957969882 0.49999999999999678 0 -0.30829986035973828 0.5 0 -0.30359488456344852 0.48995862843247268 0 -0.31237330212737879 0.48403582094888198 0 -0.30829986035973828 0.5 0 -0.30359488456344852 0.48995862843247268 0 -0.29783799970600372 0.48048106456094292 0 -0.31237330212737879 0.48403582094888198 0 -0.30359488456344852 0.48995862843247268 0 -0.30829986035973828 0.5 0 -0.32624193169920029 0.48605898849795731 0 -0.33067296113977779 0.50000000000000477 0 -0.31237330212737879 0.48403582094888198 0 -0.30829986035973828 0.5 0 -0.32624193169920029 0.48605898849795731 0 -0.33067296113977779 0.50000000000000477 0 -0.34066819568598511 0.4858303548059652 0 -0.34778200413530791 0.4904337478956603 0 -0.33067296113977779 0.50000000000000477 0 -0.35108517388470162 0.49999999999999939 0 -0.34778200413530791 0.4904337478956603 0 -0.33067296113977779 0.50000000000000477 0 -0.34066819568598511 0.4858303548059652 0 -0.32624193169920029 0.48605898849795731 0 -0.33067296113977779 0.50000000000000477 0 -0.34066819568598511 0.4858303548059652 0 -0.34066819568598511 0.4858303548059652 0 -0.33433829905076889 0.46748135815412462 0 -0.35066343023219038 0.47166070961192441 0 -0.32624193169920029 0.48605898849795731 0 -0.34066819568598511 0.4858303548059652 0 -0.33433829905076889 0.46748135815412462 0 -0.32624193169920029 0.48605898849795731 0 -0.31889707145207652 0.46689988405125488 0 -0.33433829905076889 0.46748135815412462 0 -0.31237330212737879 0.48403582094888198 0 -0.32624193169920029 0.48605898849795731 0 -0.31889707145207652 0.46689988405125488 0 -0.31889707145207652 0.46689988405125488 0 -0.32529196011464462 0.44531950803203951 0 -0.33433829905076889 0.46748135815412462 0 -0.30360174537776552 0.45222915425849802 0 -0.31889707145207652 0.46689988405125488 0 -0.32529196011464462 0.44531950803203951 0 -0.31352654436946981 0.42540502851012418 0 -0.30360174537776552 0.45222915425849802 0 -0.32529196011464462 0.44531950803203951 0 -0.3364396384665812 0.42515654609172993 0 -0.32529196011464462 0.44531950803203951 0 -0.34355153434938618 0.44840862785182711 0 -0.34355153434938618 0.44840862785182711 0 -0.33433829905076889 0.46748135815412462 0 -0.35066343023219038 0.47166070961192441 0 -0.32529196011464462 0.44531950803203951 0 -0.34355153434938618 0.44840862785182711 0 -0.33433829905076889 0.46748135815412462 0 -0.34355153434938618 0.44840862785182711 0 -0.35066343023219038 0.47166070961192441 0 -0.34355153434938618 0.44840862785182711 0 -0.36422751622644373 0.45243171753259231 0 -0.35066343023219038 0.47166070961192441 0 -0.36422751622644373 0.45243171753259231 0 -0.35066343023219038 0.47166070961192441 0 -0.35758939249955252 0.42674476474380568 0 -0.34355153434938618 0.44840862785182711 0 -0.36422751622644373 0.45243171753259231 0 -0.37779160222069741 0.43320272545326038 0 -0.36422751622644373 0.45243171753259231 0 -0.38242288203257258 0.45254494495704201 0 -0.37779160222069741 0.43320272545326038 0 -0.36422751622644373 0.45243171753259231 0 -0.38242288203257258 0.45254494495704201 0 -0.36355802548146321 0.46635799362034469 0 -0.37353060703143659 0.47610155563631412 0 -0.38242288203257258 0.45254494495704201 0 -0.36422751622644373 0.45243171753259231 0 -0.36355802548146321 0.46635799362034469 0 -0.36422751622644373 0.45243171753259231 0 -0.36355802548146321 0.46635799362034469 0 -0.35066343023219038 0.47166070961192441 0 -0.36355802548146321 0.46635799362034469 0 -0.37353060703143659 0.47610155563631412 0 -0.36250339512108171 0.47987336791950241 0 -0.37353060703143659 0.47610155563631412 0 -0.36250339512108171 0.47987336791950241 0 -0.36860155832491659 0.48840959379154408 0 -0.37376788422967472 0.49779215139851468 0 -0.35108517388470162 0.49999999999999939 0 -0.37376788422967472 0.49779215139851468 0 -0.35789813210347721 0.49531430103018398 0 -0.35108517388470162 0.49999999999999939 0 -0.36860155832491659 0.48840959379154408 0 -0.37376788422967472 0.49779215139851468 0 -0.35789813210347721 0.49531430103018398 0 -0.37344650163139131 0.5 0 -0.37376788422967472 0.49779215139851468 0 -0.35108517388470162 0.49999999999999939 0 -0.36250339512108171 0.47987336791950241 0 -0.36860155832491659 0.48840959379154408 0 -0.35789813210347721 0.49531430103018398 0 -0.35789813210347721 0.49531430103018398 0 -0.34778200413530791 0.4904337478956603 0 -0.35066343023219038 0.47166070961192441 0 -0.35789813210347721 0.49531430103018398 0 -0.35108517388470162 0.49999999999999939 0 -0.34778200413530791 0.4904337478956603 0 -0.34066819568598511 0.4858303548059652 0 -0.34778200413530791 0.4904337478956603 0 -0.35066343023219038 0.47166070961192441 0 -0.36250339512108171 0.47987336791950241 0 -0.35789813210347721 0.49531430103018398 0 -0.35066343023219038 0.47166070961192441 0 -0.35789813210347721 0.49531430103018398 0 -0.35066343023219038 0.47166070961192441 0 -0.34066819568598511 0.4858303548059652 0 -0.35066343023219038 0.47166070961192441 0 -0.36355802548146321 0.46635799362034469 0 -0.36250339512108171 0.47987336791950241 0 -0.35066343023219038 0.47166070961192441 0 -0.15517784583979119 0.47529118707050511 0 -0.139612291483281 0.5 0 -0.13015655865920669 0.4780688103618666 0 -0.15517784583979119 0.47529118707050511 0 -0.139612291483281 0.5 0 -0.16904275576984629 0.50000000000000078 0 -0.139612291483281 0.5 0 -0.13015655865920669 0.4780688103618666 0 -0.110181827196716 0.5 0 -0.13015655865920669 0.4780688103618666 0 -0.14131293590973651 0.45058237414100938 0 -0.11673128464360349 0.4619290511919879 0 -0.14131293590973651 0.45058237414100938 0 -0.136154547479757 0.43213679339407779 0 -0.11630365497777639 0.44073313696193112 0 -0.14131293590973651 0.45058237414100938 0 -0.16928836901759009 0.44474877101152333 0 -0.1532719631472563 0.42354362743779661 0 -0.15517784583979119 0.47529118707050511 0 -0.13015655865920669 0.4780688103618666 0 -0.14131293590973651 0.45058237414100938 0 -0.15517784583979119 0.47529118707050511 0 -0.14131293590973651 0.45058237414100938 0 -0.16774438992723559 0.46256617837524272 0 -0.15517784583979119 0.47529118707050511 0 -0.14131293590973651 0.45058237414100938 0 -0.14131293590973651 0.45058237414100938 0 -0.16774438992723559 0.46256617837524272 0 -0.16928836901759009 0.44474877101152333 0 -0.16928836901759009 0.44474877101152333 0 -0.1853047748879241 0.46595391458524998 0 -0.1877115279586552 0.44557085914333672 0 -0.16928836901759009 0.44474877101152333 0 -0.1877115279586552 0.44557085914333672 0 -0.17426826451826241 0.42918064759879271 0 -0.16774438992723559 0.46256617837524272 0 -0.1853047748879241 0.46595391458524998 0 -0.17265522968566799 0.47476830373319878 0 -0.16774438992723559 0.46256617837524272 0 -0.16928836901759009 0.44474877101152333 0 -0.1853047748879241 0.46595391458524998 0 -0.16928836901759009 0.44474877101152333 0 -0.1853047748879241 0.46595391458524998 0 -0.1853047748879241 0.46595391458524998 0 -0.1877115279586552 0.44557085914333672 0 -0.1853047748879241 0.46595391458524998 0 -0.1832947592440034 0.48297695729262607 0 -0.1853047748879241 0.46595391458524998 0 -0.1832947592440034 0.48297695729262607 0 -0.17265522968566799 0.47476830373319878 0 -0.1832947592440034 0.48297695729262607 0 -0.17265522968566799 0.47476830373319878 0 -0.17175437852938541 0.48705328134237008 0 -0.15517784583979119 0.47529118707050511 0 -0.16774438992723559 0.46256617837524272 0 -0.17265522968566799 0.47476830373319878 0 -0.15517784583979119 0.47529118707050511 0 -0.17265522968566799 0.47476830373319878 0 -0.17175437852938541 0.48705328134237008 0 -0.15517784583979119 0.47529118707050511 0 -0.16904275576984629 0.50000000000000078 0 -0.15517784583979119 0.47529118707050511 0 -0.17175437852938541 0.48705328134237008 0 -0.16904275576984629 0.50000000000000078 0 -0.1832947592440034 0.48297695729262607 0 -0.18128474360008209 0.50000000000000222 0 -0.19407925512699781 0.49050556598577288 0 -0.1832947592440034 0.48297695729262607 0 -0.17175437852938541 0.48705328134237008 0 -0.18128474360008209 0.50000000000000222 0 -0.17175437852938541 0.48705328134237008 0 -0.16904275576984629 0.50000000000000078 0 -0.18128474360008209 0.50000000000000222 0 -0.1832947592440034 0.48297695729262607 0 -0.18128474360008209 0.50000000000000222 0 -0.18128474360008209 0.50000000000000222 0 -0.19407925512699781 0.49050556598577288 0 -0.2020489657058985 0.5 0 -0.1832947592440034 0.48297695729262607 0 -0.19407925512699781 0.49050556598577288 0 -0.1967602001711761 0.48112048440097882 0 -0.19407925512699781 0.49050556598577288 0 -0.1967602001711761 0.48112048440097882 0 -0.2066487575508939 0.48899349990282759 0 -0.19407925512699781 0.49050556598577288 0 -0.2020489657058985 0.5 0 -0.2066487575508939 0.48899349990282759 0 -0.1853047748879241 0.46595391458524998 0 -0.1967602001711761 0.48112048440097882 0 -0.20730633546513871 0.46629644304986512 0 -0.1853047748879241 0.46595391458524998 0 -0.1832947592440034 0.48297695729262607 0 -0.1967602001711761 0.48112048440097882 0 -0.1853047748879241 0.46595391458524998 0 -0.1967602001711761 0.48112048440097882 0 -0.1967602001711761 0.48112048440097882 0 -0.21441301249388819 0.47825178286857822 0 -0.2066487575508939 0.48899349990282759 0 -0.1967602001711761 0.48112048440097882 0 -0.21441301249388819 0.47825178286857822 0 -0.20730633546513871 0.46629644304986512 0 -0.21441301249388819 0.47825178286857822 0 -0.22438254427904061 0.46825649892778182 0 -0.20730633546513871 0.46629644304986512 0 -0.21441301249388819 0.47825178286857822 0 -0.2066487575508939 0.48899349990282759 0 -0.222813187811715 0.49999999999999928 0 -0.2020489657058985 0.5 0 -0.2066487575508939 0.48899349990282759 0 -0.222813187811715 0.49999999999999928 0 -0.21441301249388819 0.47825178286857822 0 -0.222813187811715 0.49999999999999928 0 -0.2321463358534307 0.48057136774712622 0 -0.222813187811715 0.49999999999999928 0 -0.2321463358534307 0.48057136774712622 0 -0.222813187811715 0.49999999999999928 0 -0.2321463358534307 0.48057136774712622 0 -0.2438510450677096 0.5 0 -0.2321463358534307 0.48057136774712622 0 -0.2414794838951464 0.46114273549425311 0 -0.22438254427904061 0.46825649892778182 0 -0.21441301249388819 0.47825178286857822 0 -0.2321463358534307 0.48057136774712622 0 -0.22438254427904061 0.46825649892778182 0 -0.25182033177461682 0.48195888606611309 0 -0.2321463358534307 0.48057136774712622 0 -0.2414794838951464 0.46114273549425311 0 -0.2321463358534307 0.48057136774712622 0 -0.2414794838951464 0.46114273549425311 0 -0.25182033177461682 0.48195888606611309 0 -0.2321463358534307 0.48057136774712622 0 -0.2438510450677096 0.5 0 -0.25179382663496419 0.43967156937470658 0 -0.2414794838951464 0.46114273549425311 0 -0.23176935224183259 0.43803779814678712 0 -0.25179382663496419 0.43967156937470658 0 -0.2414794838951464 0.46114273549425311 0 -0.2414794838951464 0.46114273549425311 0 -0.2215973837730616 0.45432057935394088 0 -0.2414794838951464 0.46114273549425311 0 -0.22438254427904061 0.46825649892778182 0 -0.2215973837730616 0.45432057935394088 0 -0.2215973837730616 0.45432057935394088 0 -0.23176935224183259 0.43803779814678712 0 -0.20810016164715089 0.43704049752838769 0 -0.2414794838951464 0.46114273549425311 0 -0.2215973837730616 0.45432057935394088 0 -0.23176935224183259 0.43803779814678712 0 -0.2215973837730616 0.45432057935394088 0 -0.20152709579243641 0.4518722304262911 0 -0.20810016164715089 0.43704049752838769 0 -0.22438254427904061 0.46825649892778182 0 -0.2215973837730616 0.45432057935394088 0 -0.20730633546513871 0.46629644304986512 0 -0.2215973837730616 0.45432057935394088 0 -0.20730633546513871 0.46629644304986512 0 -0.20152709579243641 0.4518722304262911 0 -0.1853047748879241 0.46595391458524998 0 -0.20152709579243641 0.4518722304262911 0 -0.1877115279586552 0.44557085914333672 0 -0.1853047748879241 0.46595391458524998 0 -0.20730633546513871 0.46629644304986512 0 -0.20152709579243641 0.4518722304262911 0 -0.20152709579243641 0.4518722304262911 0 -0.1877115279586552 0.44557085914333672 0 -0.20810016164715089 0.43704049752838769 0 -0.1877115279586552 0.44557085914333672 0 -0.19011828102938591 0.42518780370142339 0 -0.19011828102938591 0.42518780370142339 0 -0.20450990724222901 0.41727224069881103 0 -0.20810016164715089 0.43704049752838769 0 -0.1877115279586552 0.44557085914333672 0 -0.19011828102938591 0.42518780370142339 0 -0.20810016164715089 0.43704049752838769 0 -0.19011828102938591 0.42518780370142339 0 -0.19252503410011659 0.40480474825951013 0 -0.20450990724222901 0.41727224069881103 0 -0.20746650187988011 0.39872687175342147 0 -0.19252503410011659 0.40480474825951013 0 -0.19011828102938591 0.42518780370142339 0 -0.20450990724222901 0.41727224069881103 0 -0.19252503410011659 0.40480474825951013 0 -0.20450990724222901 0.41727224069881103 0 -0.22332908430962531 0.41897926863956853 0 -0.20746650187988011 0.39872687175342147 0 -0.20450990724222901 0.41727224069881103 0 -0.20810016164715089 0.43704049752838769 0 -0.22332908430962531 0.41897926863956853 0 -0.23176935224183259 0.43803779814678712 0 -0.20810016164715089 0.43704049752838769 0 -0.22332908430962531 0.41897926863956853 0 -0.23176935224183259 0.43803779814678712 0 -0.22332908430962531 0.41897926863956853 0 -0.2404198952242706 0.4189646767397886 0 -0.22332908430962531 0.41897926863956853 0 -0.22823995632626171 0.40251878547146652 0 -0.20746650187988011 0.39872687175342147 0 -0.22332908430962531 0.41897926863956853 0 -0.2404198952242706 0.4189646767397886 0 -0.22823995632626171 0.40251878547146652 0 -0.26210816937478182 0.41820040325516011 0 -0.2404198952242706 0.4189646767397886 0 -0.2449809027458818 0.3967597970026932 0 -0.25179382663496419 0.43967156937470658 0 -0.23176935224183259 0.43803779814678712 0 -0.2404198952242706 0.4189646767397886 0 -0.25844982028472518 0.38181124341727452 0 -0.2449809027458818 0.3967597970026932 0 -0.2440065014856532 0.36331774964568819 0 -0.2449809027458818 0.3967597970026932 0 -0.2224041423806023 0.38247308908024658 0 -0.2440065014856532 0.36331774964568819 0 -0.2404198952242706 0.4189646767397886 0 -0.2449809027458818 0.3967597970026932 0 -0.22823995632626171 0.40251878547146652 0 -0.2449809027458818 0.3967597970026932 0 -0.22823995632626171 0.40251878547146652 0 -0.2224041423806023 0.38247308908024658 0 -0.22823995632626171 0.40251878547146652 0 -0.2224041423806023 0.38247308908024658 0 -0.20746650187988011 0.39872687175342147 0 -0.2224041423806023 0.38247308908024658 0 -0.20746650187988011 0.39872687175342147 0 -0.19779225729228431 0.37443324191038541 0 -0.20746650187988011 0.39872687175342147 0 -0.19252503410011659 0.40480474825951013 0 -0.18316705179576581 0.39098628966561239 0 -0.20746650187988011 0.39872687175342147 0 -0.18316705179576581 0.39098628966561239 0 -0.19779225729228431 0.37443324191038541 0 -0.18316705179576581 0.39098628966561239 0 -0.16819373170437951 0.36400578027634339 0 -0.19779225729228431 0.37443324191038541 0 -0.1599165183465347 0.39472604049030963 0 -0.18316705179576581 0.39098628966561239 0 -0.16819373170437951 0.36400578027634339 0 -0.1599165183465347 0.39472604049030963 0 -0.14436998741437879 0.37646259621519051 0 -0.16819373170437951 0.36400578027634339 0 -0.19252503410011659 0.40480474825951013 0 -0.18316705179576581 0.39098628966561239 0 -0.17544759180892541 0.41129783427715971 0 -0.1599165183465347 0.39472604049030963 0 -0.18316705179576581 0.39098628966561239 0 -0.17544759180892541 0.41129783427715971 0 -0.19011828102938591 0.42518780370142339 0 -0.19252503410011659 0.40480474825951013 0 -0.17544759180892541 0.41129783427715971 0 -0.19011828102938591 0.42518780370142339 0 -0.17544759180892541 0.41129783427715971 0 -0.17426826451826241 0.42918064759879271 0 -0.1877115279586552 0.44557085914333672 0 -0.19011828102938591 0.42518780370142339 0 -0.17426826451826241 0.42918064759879271 0 -0.16928836901759009 0.44474877101152333 0 -0.1532719631472563 0.42354362743779661 0 -0.16928836901759009 0.44474877101152333 0 -0.17426826451826241 0.42918064759879271 0 -0.1532719631472563 0.42354362743779661 0 -0.17544759180892541 0.41129783427715971 0 -0.17426826451826241 0.42918064759879271 0 -0.1532719631472563 0.42354362743779661 0 -0.1599165183465347 0.39472604049030963 0 -0.17544759180892541 0.41129783427715971 0 -0.1532719631472563 0.42354362743779661 0 -0.1532719631472563 0.42354362743779661 0 -0.13725555727692271 0.40233848386407001 0 -0.1599165183465347 0.39472604049030963 0 -0.1532719631472563 0.42354362743779661 0 -0.13725555727692271 0.40233848386407001 0 -0.1532719631472563 0.42354362743779661 0 -0.136154547479757 0.43213679339407779 0 -0.13725555727692271 0.40233848386407001 0 -0.14131293590973651 0.45058237414100938 0 -0.1532719631472563 0.42354362743779661 0 -0.136154547479757 0.43213679339407779 0 -0.136154547479757 0.43213679339407779 0 -0.13725555727692271 0.40233848386407001 0 -0.1207052058837723 0.42203240288538668 0 -0.13725555727692271 0.40233848386407001 0 -0.11944612630545511 0.4043507344003337 0 -0.1207052058837723 0.42203240288538668 0 -0.13725555727692271 0.40233848386407001 0 -0.121239151406589 0.38113334029034329 0 -0.11944612630545511 0.4043507344003337 0 -0.13725555727692271 0.40233848386407001 0 -0.121239151406589 0.38113334029034329 0 -0.13725555727692271 0.40233848386407001 0 -0.14436998741437879 0.37646259621519051 0 -0.121239151406589 0.38113334029034329 0 -0.1599165183465347 0.39472604049030963 0 -0.13725555727692271 0.40233848386407001 0 -0.14436998741437879 0.37646259621519051 0 -0.14597349529807979 0.35608634497464481 0 -0.1323013287181643 0.34403137597403299 0 -0.15356825444230601 0.33682480838969359 0 -0.14597349529807979 0.35608634497464481 0 -0.15356825444230601 0.33682480838969359 0 -0.16819373170437951 0.36400578027634339 0 -0.14436998741437879 0.37646259621519051 0 -0.14597349529807979 0.35608634497464481 0 -0.1323311231041589 0.3633750541390382 0 -0.14436998741437879 0.37646259621519051 0 -0.14597349529807979 0.35608634497464481 0 -0.16819373170437951 0.36400578027634339 0 -0.14436998741437879 0.37646259621519051 0 -0.1323311231041589 0.3633750541390382 0 -0.121239151406589 0.38113334029034329 0 -0.14597349529807979 0.35608634497464481 0 -0.1323311231041589 0.3633750541390382 0 -0.1323013287181643 0.34403137597403299 0 -0.1323311231041589 0.3633750541390382 0 -0.1323013287181643 0.34403137597403299 0 -0.1183890274270839 0.35311756333554378 0 -0.1323013287181643 0.34403137597403299 0 -0.1376218612571147 0.32573523813916361 0 -0.1156653315218583 0.33741190757365158 0 -0.1376218612571147 0.32573523813916361 0 -0.1156653315218583 0.33741190757365158 0 -0.12783069573512201 0.31263743683065709 0 -0.1376218612571147 0.32573523813916361 0 -0.1156653315218583 0.33741190757365158 0 -0.12783069573512201 0.31263743683065709 0 -0.1376218612571147 0.32573523813916361 0 -0.14379006456009799 0.30893449176334831 0 -0.1376218612571147 0.32573523813916361 0 -0.15957839099237131 0.3140585687046758 0 -0.1376218612571147 0.32573523813916361 0 -0.15356825444230601 0.33682480838969359 0 -0.15957839099237131 0.3140585687046758 0 -0.1376218612571147 0.32573523813916361 0 -0.15957839099237131 0.3140585687046758 0 -0.14379006456009799 0.30893449176334831 0 -0.1323013287181643 0.34403137597403299 0 -0.1376218612571147 0.32573523813916361 0 -0.15356825444230601 0.33682480838969359 0 -0.15356825444230601 0.33682480838969359 0 -0.15957839099237131 0.3140585687046758 0 -0.1745974265585887 0.33744440175905149 0 -0.15957839099237131 0.3140585687046758 0 -0.18579029560446031 0.32221805547439181 0 -0.17804630032327681 0.30971044128643771 0 -0.15957839099237131 0.3140585687046758 0 -0.18579029560446031 0.32221805547439181 0 -0.1745974265585887 0.33744440175905149 0 -0.18579029560446031 0.32221805547439181 0 -0.1745974265585887 0.33744440175905149 0 -0.19625958073832639 0.33536561468647702 0 -0.1745974265585887 0.33744440175905149 0 -0.1904933268944238 0.3534892696077061 0 -0.19625958073832639 0.33536561468647702 0 -0.1745974265585887 0.33744440175905149 0 -0.16819373170437951 0.36400578027634339 0 -0.1904933268944238 0.3534892696077061 0 -0.15356825444230601 0.33682480838969359 0 -0.1745974265585887 0.33744440175905149 0 -0.16819373170437951 0.36400578027634339 0 -0.16819373170437951 0.36400578027634339 0 -0.19779225729228431 0.37443324191038541 0 -0.1904933268944238 0.3534892696077061 0 -0.19779225729228431 0.37443324191038541 0 -0.1904933268944238 0.3534892696077061 0 -0.21562363817853999 0.35619730940627342 0 -0.1904933268944238 0.3534892696077061 0 -0.21562363817853999 0.35619730940627342 0 -0.19625958073832639 0.33536561468647702 0 -0.2224041423806023 0.38247308908024658 0 -0.19779225729228431 0.37443324191038541 0 -0.21562363817853999 0.35619730940627342 0 -0.21562363817853999 0.35619730940627342 0 -0.2440065014856532 0.36331774964568819 0 -0.2224041423806023 0.38247308908024658 0 -0.21562363817853999 0.35619730940627342 0 -0.2440065014856532 0.36331774964568819 0 -0.21562363817853999 0.35619730940627342 0 -0.23893317046288859 0.34653711660726721 0 -0.2440065014856532 0.36331774964568819 0 -0.21562363817853999 0.35619730940627342 0 -0.23893317046288859 0.34653711660726721 0 -0.22988275044989209 0.33230273361581342 0 -0.25777417062633362 0.34842798939835817 0 -0.23893317046288859 0.34653711660726721 0 -0.2440065014856532 0.36331774964568819 0 -0.23806201549967401 0.31953482533287753 0 -0.2485373689950319 0.32901900577308818 0 -0.24774855637122609 0.31247096124908358 0 -0.23806201549967401 0.31953482533287753 0 -0.2485373689950319 0.32901900577308818 0 -0.22988275044989209 0.33230273361581342 0 -0.23806201549967401 0.31953482533287753 0 -0.24774855637122609 0.31247096124908358 0 -0.2376670889215631 0.30836436770431558 0 -0.23893317046288859 0.34653711660726721 0 -0.2485373689950319 0.32901900577308818 0 -0.22988275044989209 0.33230273361581342 0 -0.25777417062633362 0.34842798939835817 0 -0.23893317046288859 0.34653711660726721 0 -0.2485373689950319 0.32901900577308818 0 -0.21562363817853999 0.35619730940627342 0 -0.22988275044989209 0.33230273361581342 0 -0.21367505459390779 0.32870573581718598 0 -0.22988275044989209 0.33230273361581342 0 -0.22472202958213361 0.31588026974708749 0 -0.21367505459390779 0.32870573581718598 0 -0.23806201549967401 0.31953482533287753 0 -0.22988275044989209 0.33230273361581342 0 -0.22472202958213361 0.31588026974708749 0 -0.23806201549967401 0.31953482533287753 0 -0.22472202958213361 0.31588026974708749 0 -0.2376670889215631 0.30836436770431558 0 -0.22472202958213361 0.31588026974708749 0 -0.21334584067066101 0.31653993764160071 0 -0.21250059512839181 0.30592023713096828 0 -0.21367505459390779 0.32870573581718598 0 -0.19625958073832639 0.33536561468647702 0 -0.20176782888669839 0.31644028636370342 0 -0.22472202958213361 0.31588026974708749 0 -0.21334584067066101 0.31653993764160071 0 -0.21367505459390779 0.32870573581718598 0 -0.21334584067066101 0.31653993764160071 0 -0.21367505459390779 0.32870573581718598 0 -0.20176782888669839 0.31644028636370342 0 -0.21334584067066101 0.31653993764160071 0 -0.20176782888669839 0.31644028636370342 0 -0.21250059512839181 0.30592023713096828 0 -0.21562363817853999 0.35619730940627342 0 -0.21367505459390779 0.32870573581718598 0 -0.19625958073832639 0.33536561468647702 0 -0.18579029560446031 0.32221805547439181 0 -0.19625958073832639 0.33536561468647702 0 -0.20176782888669839 0.31644028636370342 0 -0.18579029560446031 0.32221805547439181 0 -0.20176782888669839 0.31644028636370342 0 -0.19092760420736521 0.3038424578919231 0 -0.19092760420736521 0.3038424578919231 0 -0.191533784065303 0.29446990957140168 0 -0.18530137964275201 0.29418339443031971 0 -0.19092760420736521 0.3038424578919231 0 -0.191533784065303 0.29446990957140168 0 -0.19701687649144919 0.29670311069543798 0 -0.19092760420736521 0.3038424578919231 0 -0.20228012367334811 0.30305903841104298 0 -0.19701687649144919 0.29670311069543798 0 -0.20228012367334811 0.30305903841104298 0 -0.19701687649144919 0.29670311069543798 0 -0.20336262455792989 0.29655989706690911 0 -0.20176782888669839 0.31644028636370342 0 -0.19092760420736521 0.3038424578919231 0 -0.20228012367334811 0.30305903841104298 0 -0.20095227075689459 0.29020318344184548 0 -0.20944350295996991 0.28906511333917329 0 -0.18487417816120741 0.28266292292887463 0 -0.1887960790273901 0.28243369947682812 0 -0.20944350295996991 0.28906511333917329 0 -0.19712723263697821 0.27850574146839802 0 -0.1887960790273901 0.28243369947682812 0 -0.20944350295996991 0.28906511333917329 0 -0.18487417816120741 0.28266292292887463 0 -0.20944350295996991 0.28906511333917329 0 -0.18487417816120741 0.28266292292887463 0 -0.19022647322483049 0.28939184776905102 0 -0.20095227075689459 0.29020318344184548 0 -0.18487417816120741 0.28266292292887463 0 -0.19490301098224261 0.29195240893757829 0 -0.19022647322483049 0.28939184776905102 0 -0.191533784065303 0.29446990957140168 0 -0.19022647322483049 0.28939184776905102 0 -0.191533784065303 0.29446990957140168 0 -0.18530137964275201 0.29418339443031971 0 -0.19490301098224261 0.29195240893757829 0 -0.191533784065303 0.29446990957140168 0 -0.19701687649144919 0.29670311069543798 0 -0.19490301098224261 0.29195240893757829 0 -0.19022647322483049 0.28939184776905102 0 -0.20095227075689459 0.29020318344184548 0 -0.19701687649144919 0.29670311069543798 0 -0.20095227075689459 0.29020318344184548 0 -0.20336262455792989 0.29655989706690911 0 -0.19490301098224261 0.29195240893757829 0 -0.19701687649144919 0.29670311069543798 0 -0.20095227075689459 0.29020318344184548 0 -0.20944350295996991 0.28906511333917329 0 -0.21158510114987611 0.29213524914570699 0 -0.20137226155428889 0.26923558365080291 0 -0.20095227075689459 0.29020318344184548 0 -0.20944350295996991 0.28906511333917329 0 -0.20703424461841721 0.29323655077298699 0 -0.20944350295996991 0.28906511333917329 0 -0.20703424461841721 0.29323655077298699 0 -0.21158510114987611 0.29213524914570699 0 -0.20336262455792989 0.29655989706690911 0 -0.20703424461841721 0.29323655077298699 0 -0.20878512335482979 0.29853234235417497 0 -0.20095227075689459 0.29020318344184548 0 -0.20336262455792989 0.29655989706690911 0 -0.20703424461841721 0.29323655077298699 0 -0.20703424461841721 0.29323655077298699 0 -0.21158510114987611 0.29213524914570699 0 -0.20878512335482979 0.29853234235417497 0 -0.21424115276987951 0.29683933726814199 0 -0.21798346661235091 0.29187475294369808 0 -0.21158510114987611 0.29213524914570699 0 -0.21424115276987951 0.29683933726814199 0 -0.21158510114987611 0.29213524914570699 0 -0.20878512335482979 0.29853234235417497 0 -0.21424115276987951 0.29683933726814199 0 -0.21798346661235091 0.29187475294369808 0 -0.2218798279543229 0.29769274093180292 0 -0.21798346661235091 0.29187475294369808 0 -0.21158510114987611 0.29213524914570699 0 -0.21570793922472939 0.2868596332772283 0 -0.21158510114987611 0.29213524914570699 0 -0.21570793922472939 0.2868596332772283 0 -0.21145470335869751 0.28114327316793303 0 -0.21798346661235091 0.29187475294369808 0 -0.21570793922472939 0.2868596332772283 0 -0.22055824352415651 0.28640311601351121 0 -0.21570793922472939 0.2868596332772283 0 -0.21697808485502351 0.28137588399550129 0 -0.22055824352415651 0.28640311601351121 0 -0.21570793922472939 0.2868596332772283 0 -0.21697808485502351 0.28137588399550129 0 -0.21145470335869751 0.28114327316793303 0 -0.20176782888669839 0.31644028636370342 0 -0.20228012367334811 0.30305903841104298 0 -0.21250059512839181 0.30592023713096828 0 -0.20228012367334811 0.30305903841104298 0 -0.20878512335482979 0.29853234235417497 0 -0.21250059512839181 0.30592023713096828 0 -0.20228012367334811 0.30305903841104298 0 -0.20336262455792989 0.29655989706690911 0 -0.20878512335482979 0.29853234235417497 0 -0.21424115276987951 0.29683933726814199 0 -0.20878512335482979 0.29853234235417497 0 -0.21250059512839181 0.30592023713096828 0 -0.21424115276987951 0.29683933726814199 0 -0.21250059512839181 0.30592023713096828 0 -0.2218798279543229 0.29769274093180292 0 -0.22472202958213361 0.31588026974708749 0 -0.21250059512839181 0.30592023713096828 0 -0.22607333057189841 0.30501231333478068 0 -0.22472202958213361 0.31588026974708749 0 -0.22607333057189841 0.30501231333478068 0 -0.2376670889215631 0.30836436770431558 0 -0.22607333057189841 0.30501231333478068 0 -0.23412303052158301 0.30124259158137728 0 -0.2376670889215631 0.30836436770431558 0 -0.22607333057189841 0.30501231333478068 0 -0.23412303052158301 0.30124259158137728 0 -0.2287497832350246 0.2966572098348158 0 -0.23412303052158301 0.30124259158137728 0 -0.2287497832350246 0.2966572098348158 0 -0.2354640194270867 0.2947810042450002 0 -0.22607333057189841 0.30501231333478068 0 -0.2218798279543229 0.29769274093180292 0 -0.2287497832350246 0.2966572098348158 0 -0.21250059512839181 0.30592023713096828 0 -0.22607333057189841 0.30501231333478068 0 -0.2218798279543229 0.29769274093180292 0 -0.21798346661235091 0.29187475294369808 0 -0.2218798279543229 0.29769274093180292 0 -0.22434523308374549 0.29130610315283112 0 -0.21798346661235091 0.29187475294369808 0 -0.22434523308374549 0.29130610315283112 0 -0.22055824352415651 0.28640311601351121 0 -0.2218798279543229 0.29769274093180292 0 -0.22434523308374549 0.29130610315283112 0 -0.2287497832350246 0.2966572098348158 0 -0.21697808485502351 0.28137588399550129 0 -0.22055824352415651 0.28640311601351121 0 -0.22266663122113439 0.28009127486528679 0 -0.22434523308374549 0.29130610315283112 0 -0.22055824352415651 0.28640311601351121 0 -0.22678283886804329 0.28479032720317998 0 -0.22055824352415651 0.28640311601351121 0 -0.22678283886804329 0.28479032720317998 0 -0.22266663122113439 0.28009127486528679 0 -0.22678283886804329 0.28479032720317998 0 -0.23061325785151091 0.28990850576310279 0 -0.23551679290007249 0.28325834895513291 0 -0.22678283886804329 0.28479032720317998 0 -0.23551679290007249 0.28325834895513291 0 -0.2298117013547874 0.2782093918694441 0 -0.22434523308374549 0.29130610315283112 0 -0.22678283886804329 0.28479032720317998 0 -0.23061325785151091 0.28990850576310279 0 -0.22434523308374549 0.29130610315283112 0 -0.2287497832350246 0.2966572098348158 0 -0.23061325785151091 0.28990850576310279 0 -0.2287497832350246 0.2966572098348158 0 -0.23061325785151091 0.28990850576310279 0 -0.2354640194270867 0.2947810042450002 0 -0.23061325785151091 0.28990850576310279 0 -0.24084196851083459 0.29041376954783898 0 -0.2354640194270867 0.2947810042450002 0 -0.24084196851083459 0.29041376954783898 0 -0.2354640194270867 0.2947810042450002 0 -0.24477370070157331 0.29872502431161968 0 -0.24084196851083459 0.29041376954783898 0 -0.23551679290007249 0.28325834895513291 0 -0.24548592474856501 0.28124012243538721 0 -0.23061325785151091 0.28990850576310279 0 -0.24084196851083459 0.29041376954783898 0 -0.23551679290007249 0.28325834895513291 0 -0.25455891020825938 0.28380749578214021 0 -0.24819035903223541 0.28862087111825951 0 -0.24548592474856501 0.28124012243538721 0 -0.24084196851083459 0.29041376954783898 0 -0.24819035903223541 0.28862087111825951 0 -0.24548592474856501 0.28124012243538721 0 -0.24084196851083459 0.29041376954783898 0 -0.24819035903223541 0.28862087111825951 0 -0.24477370070157331 0.29872502431161968 0 -0.25592445292516991 0.29292036644724417 0 -0.24819035903223541 0.28862087111825951 0 -0.24477370070157331 0.29872502431161968 0 -0.24477370070157331 0.29872502431161968 0 -0.24774855637122609 0.31247096124908358 0 -0.2376670889215631 0.30836436770431558 0 -0.25705731881997151 0.303882841901433 0 -0.24477370070157331 0.29872502431161968 0 -0.24774855637122609 0.31247096124908358 0 -0.23412303052158301 0.30124259158137728 0 -0.24477370070157331 0.29872502431161968 0 -0.2376670889215631 0.30836436770431558 0 -0.23412303052158301 0.30124259158137728 0 -0.2354640194270867 0.2947810042450002 0 -0.24477370070157331 0.29872502431161968 0 -0.24052537950939459 0.2610143691914123 0 -0.24603615490119859 0.26862527214806348 0 -0.23394947112981401 0.26627837420837208 0 -0.24052537950939459 0.2610143691914123 0 -0.23394947112981401 0.26627837420837208 0 -0.2316064077173309 0.25705022304627728 0 -0.24052537950939459 0.2610143691914123 0 -0.2396106915491982 0.25066135732940797 0 -0.2316064077173309 0.25705022304627728 0 -0.25257923020738038 0.25763813499818028 0 -0.24052537950939459 0.2610143691914123 0 -0.2396106915491982 0.25066135732940797 0 -0.25050177323748762 0.24551408611508191 0 -0.25257923020738038 0.25763813499818028 0 -0.2396106915491982 0.25066135732940797 0 -0.25257923020738038 0.25763813499818028 0 -0.24052537950939459 0.2610143691914123 0 -0.24603615490119859 0.26862527214806348 0 -0.25084926056489398 0.27553912373004269 0 -0.24603615490119859 0.26862527214806348 0 -0.23873932633258579 0.27507287082389342 0 -0.25084926056489398 0.27553912373004269 0 -0.24548592474856501 0.28124012243538721 0 -0.23873932633258579 0.27507287082389342 0 -0.23551679290007249 0.28325834895513291 0 -0.24548592474856501 0.28124012243538721 0 -0.23873932633258579 0.27507287082389342 0 -0.23551679290007249 0.28325834895513291 0 -0.23873932633258579 0.27507287082389342 0 -0.2298117013547874 0.2782093918694441 0 -0.24603615490119859 0.26862527214806348 0 -0.23873932633258579 0.27507287082389342 0 -0.23394947112981401 0.26627837420837208 0 -0.23873932633258579 0.27507287082389342 0 -0.23394947112981401 0.26627837420837208 0 -0.23011854977134591 0.27227150088487162 0 -0.23394947112981401 0.26627837420837208 0 -0.23011854977134591 0.27227150088487162 0 -0.22431305888200659 0.26782752726264569 0 -0.23873932633258579 0.27507287082389342 0 -0.23011854977134591 0.27227150088487162 0 -0.2298117013547874 0.2782093918694441 0 -0.23011854977134591 0.27227150088487162 0 -0.2298117013547874 0.2782093918694441 0 -0.22377919115753581 0.2739693402600028 0 -0.22678283886804329 0.28479032720317998 0 -0.2298117013547874 0.2782093918694441 0 -0.22266663122113439 0.28009127486528679 0 -0.2298117013547874 0.2782093918694441 0 -0.22266663122113439 0.28009127486528679 0 -0.22377919115753581 0.2739693402600028 0 -0.22266663122113439 0.28009127486528679 0 -0.22377919115753581 0.2739693402600028 0 -0.21786600322986691 0.27560687532580952 0 -0.21697808485502351 0.28137588399550129 0 -0.22266663122113439 0.28009127486528679 0 -0.21786600322986691 0.27560687532580952 0 -0.23011854977134591 0.27227150088487162 0 -0.22377919115753581 0.2739693402600028 0 -0.22431305888200659 0.26782752726264569 0 -0.22377919115753581 0.2739693402600028 0 -0.21786600322986691 0.27560687532580952 0 -0.21772288231625089 0.26952828830303333 0 -0.22377919115753581 0.2739693402600028 0 -0.22431305888200659 0.26782752726264569 0 -0.21772288231625089 0.26952828830303333 0 -0.22431305888200659 0.26782752726264569 0 -0.21806812305158149 0.26323456135000561 0 -0.21772288231625089 0.26952828830303333 0 -0.22624865788388401 0.26142912361763387 0 -0.21930779341585999 0.25700741905592422 0 -0.21806812305158149 0.26323456135000561 0 -0.22431305888200659 0.26782752726264569 0 -0.22624865788388401 0.26142912361763387 0 -0.21806812305158149 0.26323456135000561 0 -0.23394947112981401 0.26627837420837208 0 -0.22624865788388401 0.26142912361763387 0 -0.2316064077173309 0.25705022304627728 0 -0.23394947112981401 0.26627837420837208 0 -0.22431305888200659 0.26782752726264569 0 -0.22624865788388401 0.26142912361763387 0 -0.2396106915491982 0.25066135732940797 0 -0.2316064077173309 0.25705022304627728 0 -0.22739359172225859 0.24818293685744561 0 -0.2316064077173309 0.25705022304627728 0 -0.22479225491673571 0.254666712182747 0 -0.22739359172225859 0.24818293685744561 0 -0.22624865788388401 0.26142912361763387 0 -0.2316064077173309 0.25705022304627728 0 -0.22479225491673571 0.254666712182747 0 -0.22479225491673571 0.254666712182747 0 -0.21940482384434509 0.24966385833645399 0 -0.22739359172225859 0.24818293685744561 0 -0.22624865788388401 0.26142912361763387 0 -0.22479225491673571 0.254666712182747 0 -0.21930779341585999 0.25700741905592422 0 -0.22479225491673571 0.254666712182747 0 -0.21930779341585999 0.25700741905592422 0 -0.21940482384434509 0.24966385833645399 0 -0.21244052189671189 0.25875930436483718 0 -0.20137226155428889 0.26923558365080291 0 -0.21331778692939921 0.24314932897541189 0 -0.21244052189671189 0.25875930436483718 0 -0.21940482384434509 0.24966385833645399 0 -0.21331778692939921 0.24314932897541189 0 -0.20137226155428889 0.26923558365080291 0 -0.19775669793760531 0.26112861236013762 0 -0.21331778692939921 0.24314932897541189 0 -0.20137226155428889 0.26923558365080291 0 -0.21331778692939921 0.24314932897541189 0 -0.21930779341585999 0.25700741905592422 0 -0.21244052189671189 0.25875930436483718 0 -0.21940482384434509 0.24966385833645399 0 -0.21930779341585999 0.25700741905592422 0 -0.21806812305158149 0.26323456135000561 0 -0.21244052189671189 0.25875930436483718 0 -0.21244052189671189 0.25875930436483718 0 -0.21243881791948921 0.26654637803128378 0 -0.20859128724101281 0.26765590272892342 0 -0.21806812305158149 0.26323456135000561 0 -0.21244052189671189 0.25875930436483718 0 -0.21243881791948921 0.26654637803128378 0 -0.21244052189671189 0.25875930436483718 0 -0.20859128724101281 0.26765590272892342 0 -0.20137226155428889 0.26923558365080291 0 -0.21158510114987611 0.29213524914570699 0 -0.20137226155428889 0.26923558365080291 0 -0.21158510114987611 0.29213524914570699 0 -0.21145470335869751 0.28114327316793303 0 -0.20137226155428889 0.26923558365080291 0 -0.21420532809271489 0.27792619163008442 0 -0.21145470335869751 0.28114327316793303 0 -0.21052252092727161 0.27357873403109401 0 -0.21697808485502351 0.28137588399550129 0 -0.21420532809271489 0.27792619163008442 0 -0.21145470335869751 0.28114327316793303 0 -0.21697808485502351 0.28137588399550129 0 -0.21420532809271489 0.27792619163008442 0 -0.21786600322986691 0.27560687532580952 0 -0.21420532809271489 0.27792619163008442 0 -0.21786600322986691 0.27560687532580952 0 -0.21052252092727161 0.27357873403109401 0 -0.21772288231625089 0.26952828830303333 0 -0.21243881791948921 0.26654637803128378 0 -0.21052252092727161 0.27357873403109401 0 -0.21786600322986691 0.27560687532580952 0 -0.21772288231625089 0.26952828830303333 0 -0.21052252092727161 0.27357873403109401 0 -0.21806812305158149 0.26323456135000561 0 -0.21772288231625089 0.26952828830303333 0 -0.21243881791948921 0.26654637803128378 0 -0.20859128724101281 0.26765590272892342 0 -0.21052252092727161 0.27357873403109401 0 -0.20137226155428889 0.26923558365080291 0 -0.21243881791948921 0.26654637803128378 0 -0.20859128724101281 0.26765590272892342 0 -0.21052252092727161 0.27357873403109401 0 -0.21145470335869751 0.28114327316793303 0 -0.21052252092727161 0.27357873403109401 0 -0.20137226155428889 0.26923558365080291 0 -0.1887960790273901 0.28243369947682812 0 -0.19775669793760531 0.26112861236013762 0 -0.1887960790273901 0.28243369947682812 0 -0.19775669793760531 0.26112861236013762 0 -0.18615845139477269 0.27288694400446672 0 -0.1887960790273901 0.28243369947682812 0 -0.19712723263697821 0.27850574146839802 0 -0.19775669793760531 0.26112861236013762 0 -0.19712723263697821 0.27850574146839802 0 -0.20137226155428889 0.26923558365080291 0 -0.19775669793760531 0.26112861236013762 0 -0.20944350295996991 0.28906511333917329 0 -0.19712723263697821 0.27850574146839802 0 -0.20137226155428889 0.26923558365080291 0 -0.19712723263697821 0.27850574146839802 0 -0.20137226155428889 0.26923558365080291 0 -0.19775669793760531 0.26112861236013762 0 -0.18351202178540249 0.26534680528591981 0 -0.18615845139477269 0.27288694400446672 0 -0.19775669793760531 0.26112861236013762 0 -0.20678779971718619 0.2396559426593495 0 -0.19775669793760531 0.26112861236013762 0 -0.18864945953019849 0.2407079731089268 0 -0.19775669793760531 0.26112861236013762 0 -0.18441986170046809 0.2550348252524271 0 -0.18864945953019849 0.2407079731089268 0 -0.20137226155428889 0.26923558365080291 0 -0.19775669793760531 0.26112861236013762 0 -0.19775669793760531 0.26112861236013762 0 -0.18441986170046809 0.2550348252524271 0 -0.18351202178540249 0.26534680528591981 0 -0.18441986170046809 0.2550348252524271 0 -0.18351202178540249 0.26534680528591981 0 -0.17059496572804769 0.26236441336065508 0 -0.18441986170046809 0.2550348252524271 0 -0.17353428421445691 0.25007945563794148 0 -0.17059496572804769 0.26236441336065508 0 -0.17059496572804769 0.26236441336065508 0 -0.1613056348774605 0.25227308847041552 0 -0.1502617746655798 0.26445723805298832 0 -0.17353428421445691 0.25007945563794148 0 -0.17059496572804769 0.26236441336065508 0 -0.1613056348774605 0.25227308847041552 0 -0.17059496572804769 0.26236441336065508 0 -0.16030485336244479 0.27626073251857591 0 -0.17708889408637499 0.27190436361969839 0 -0.17059496572804769 0.26236441336065508 0 -0.16030485336244479 0.27626073251857591 0 -0.1502617746655798 0.26445723805298832 0 -0.16030485336244479 0.27626073251857591 0 -0.17708889408637499 0.27190436361969839 0 -0.18487417816120741 0.28266292292887463 0 -0.16030485336244479 0.27626073251857591 0 -0.18487417816120741 0.28266292292887463 0 -0.18351202178540249 0.26534680528591981 0 -0.17059496572804769 0.26236441336065508 0 -0.17708889408637499 0.27190436361969839 0 -0.18351202178540249 0.26534680528591981 0 -0.17708889408637499 0.27190436361969839 0 -0.18615845139477269 0.27288694400446672 0 -0.17708889408637499 0.27190436361969839 0 -0.18615845139477269 0.27288694400446672 0 -0.18487417816120741 0.28266292292887463 0 -0.1887960790273901 0.28243369947682812 0 -0.18615845139477269 0.27288694400446672 0 -0.18487417816120741 0.28266292292887463 0 -0.18487417816120741 0.28266292292887463 0 -0.18502871809069649 0.28906724768326492 0 -0.1797128413339962 0.29003082560481419 0 -0.19022647322483049 0.28939184776905102 0 -0.18487417816120741 0.28266292292887463 0 -0.18502871809069649 0.28906724768326492 0 -0.19022647322483049 0.28939184776905102 0 -0.18502871809069649 0.28906724768326492 0 -0.18530137964275201 0.29418339443031971 0 -0.18530137964275201 0.29418339443031971 0 -0.1797128413339962 0.29003082560481419 0 -0.17424877857011861 0.29949878283216169 0 -0.18502871809069649 0.28906724768326492 0 -0.18530137964275201 0.29418339443031971 0 -0.1797128413339962 0.29003082560481419 0 -0.1797128413339962 0.29003082560481419 0 -0.17424877857011861 0.29949878283216169 0 -0.17010967414763731 0.28897857592454118 0 -0.18487417816120741 0.28266292292887463 0 -0.1797128413339962 0.29003082560481419 0 -0.17010967414763731 0.28897857592454118 0 -0.19092760420736521 0.3038424578919231 0 -0.17804630032327681 0.30971044128643771 0 -0.17424877857011861 0.29949878283216169 0 -0.18579029560446031 0.32221805547439181 0 -0.19092760420736521 0.3038424578919231 0 -0.17804630032327681 0.30971044128643771 0 -0.19092760420736521 0.3038424578919231 0 -0.18530137964275201 0.29418339443031971 0 -0.17424877857011861 0.29949878283216169 0 -0.15957839099237131 0.3140585687046758 0 -0.17424877857011861 0.29949878283216169 0 -0.15606525934343191 0.29568721598242143 0 -0.15957839099237131 0.3140585687046758 0 -0.17804630032327681 0.30971044128643771 0 -0.17424877857011861 0.29949878283216169 0 -0.17424877857011861 0.29949878283216169 0 -0.17010967414763731 0.28897857592454118 0 -0.15606525934343191 0.29568721598242143 0 -0.16030485336244479 0.27626073251857591 0 -0.18487417816120741 0.28266292292887463 0 -0.17010967414763731 0.28897857592454118 0 -0.16030485336244479 0.27626073251857591 0 -0.17010967414763731 0.28897857592454118 0 -0.15606525934343191 0.29568721598242143 0 -0.16030485336244479 0.27626073251857591 0 -0.15606525934343191 0.29568721598242143 0 -0.14512346249927419 0.2841762486479113 0 -0.15606525934343191 0.29568721598242143 0 -0.14512346249927419 0.2841762486479113 0 -0.13785411547245019 0.29655399915982328 0 -0.15606525934343191 0.29568721598242143 0 -0.14379006456009799 0.30893449176334831 0 -0.13785411547245019 0.29655399915982328 0 -0.15957839099237131 0.3140585687046758 0 -0.15606525934343191 0.29568721598242143 0 -0.14379006456009799 0.30893449176334831 0 -0.12783069573512201 0.31263743683065709 0 -0.13785411547245019 0.29655399915982328 0 -0.1225655152064772 0.29536174971065138 0 -0.12783069573512201 0.31263743683065709 0 -0.14379006456009799 0.30893449176334831 0 -0.13785411547245019 0.29655399915982328 0 -0.14512346249927419 0.2841762486479113 0 -0.13785411547245019 0.29655399915982328 0 -0.13215177560754851 0.2833702513014022 0 -0.13785411547245019 0.29655399915982328 0 -0.13215177560754851 0.2833702513014022 0 -0.1225655152064772 0.29536174971065138 0 -0.13215177560754851 0.2833702513014022 0 -0.13573552856368229 0.2698585421082772 0 -0.11874124006771899 0.27695257632985432 0 -0.14512346249927419 0.2841762486479113 0 -0.13215177560754851 0.2833702513014022 0 -0.13573552856368229 0.2698585421082772 0 -0.13573552856368229 0.2698585421082772 0 -0.1362359193211902 0.25786472008419647 0 -0.1111662037649198 0.26345635169797799 0 -0.1362359193211902 0.25786472008419647 0 -0.1111662037649198 0.26345635169797799 0 -0.13080009209158369 0.248653511388887 0 -0.1362359193211902 0.25786472008419647 0 -0.13080009209158369 0.248653511388887 0 -0.14338006668299039 0.24504042612717239 0 -0.13573552856368229 0.2698585421082772 0 -0.1362359193211902 0.25786472008419647 0 -0.1502617746655798 0.26445723805298832 0 -0.1613056348774605 0.25227308847041552 0 -0.1362359193211902 0.25786472008419647 0 -0.14338006668299039 0.24504042612717239 0 -0.1613056348774605 0.25227308847041552 0 -0.1362359193211902 0.25786472008419647 0 -0.1502617746655798 0.26445723805298832 0 -0.1613056348774605 0.25227308847041552 0 -0.1362359193211902 0.25786472008419647 0 -0.16030485336244479 0.27626073251857591 0 -0.13573552856368229 0.2698585421082772 0 -0.16030485336244479 0.27626073251857591 0 -0.13573552856368229 0.2698585421082772 0 -0.1502617746655798 0.26445723805298832 0 -0.16030485336244479 0.27626073251857591 0 -0.14512346249927419 0.2841762486479113 0 -0.13573552856368229 0.2698585421082772 0 -0.1031499328341639 0.26524432706851969 0 -0.10732173239672919 0.28930018723689699 0 -0.1031499328341639 0.26524432706851969 0 -0.089380198692857474 0.28221592065552542 0 -0.090546797065082674 0.26805537182253469 0 -0.1031499328341639 0.26524432706851969 0 -0.10732173239672919 0.28930018723689699 0 -0.089380198692857474 0.28221592065552542 0 -0.1031499328341639 0.26524432706851969 0 -0.090546797065082674 0.26805537182253469 0 -0.1031499328341639 0.26524432706851969 0 -0.1039757561717843 0.26158268951948671 0 -0.090546797065082674 0.26805537182253469 0 -0.099675265414027159 0.26046208238378382 0 -0.1024457881875777 0.2611840157082696 0 -0.090546797065082674 0.26805537182253469 0 -0.1039757561717843 0.26158268951948671 0 -0.090546797065082674 0.26805537182253469 0 -0.099675265414027159 0.26046208238378382 0 -0.090546797065082674 0.26805537182253469 0 -0.092912968428200418 0.2616162693166767 0 -0.096997581049110673 0.25056214292982337 0 -0.1024457881875777 0.2611840157082696 0 -0.098854575557917962 0.24047599568994721 0 -0.10512199094870139 0.25442771655864621 0 -0.1024457881875777 0.2611840157082696 0 -0.098854575557917962 0.24047599568994721 0 -0.1024457881875777 0.2611840157082696 0 -0.1039757561717843 0.26158268951948671 0 -0.090546797065082674 0.26805537182253469 0 -0.1024457881875777 0.2611840157082696 0 -0.098854575557917962 0.24047599568994721 0 -0.099675265414027159 0.26046208238378382 0 -0.094527939497334512 0.2572456971312187 0 -0.092912968428200418 0.2616162693166767 0 -0.099675265414027159 0.26046208238378382 0 -0.1024457881875777 0.2611840157082696 0 -0.099675265414027159 0.26046208238378382 0 -0.096997581049110673 0.25056214292982337 0 -0.1024457881875777 0.2611840157082696 0 -0.099675265414027159 0.26046208238378382 0 -0.096997581049110673 0.25056214292982337 0 -0.094527939497334512 0.2572456971312187 0 -0.10512199094870139 0.25442771655864621 0 -0.1039757561717843 0.26158268951948671 0 -0.11834506109001321 0.24599273863695831 0 -0.1031499328341639 0.26524432706851969 0 -0.1111662037649198 0.26345635169797799 0 -0.1031499328341639 0.26524432706851969 0 -0.1039757561717843 0.26158268951948671 0 -0.1111662037649198 0.26345635169797799 0 -0.1031499328341639 0.26524432706851969 0 -0.1039757561717843 0.26158268951948671 0 -0.10512199094870139 0.25442771655864621 0 -0.1024457881875777 0.2611840157082696 0 -0.1039757561717843 0.26158268951948671 0 -0.1024457881875777 0.2611840157082696 0 -0.1039757561717843 0.26158268951948671 0 -0.1039757561717843 0.26158268951948671 0 -0.1111662037649198 0.26345635169797799 0 -0.1362359193211902 0.25786472008419647 0 -0.1111662037649198 0.26345635169797799 0 -0.1039757561717843 0.26158268951948671 0 -0.1111662037649198 0.26345635169797799 0 -0.13080009209158369 0.248653511388887 0 -0.1039757561717843 0.26158268951948671 0 -0.13080009209158369 0.248653511388887 0 -0.11834506109001321 0.24599273863695831 0 -0.1039757561717843 0.26158268951948671 0 -0.13080009209158369 0.248653511388887 0 -0.13573552856368229 0.2698585421082772 0 -0.1111662037649198 0.26345635169797799 0 -0.13573552856368229 0.2698585421082772 0 -0.1111662037649198 0.26345635169797799 0 -0.11874124006771899 0.27695257632985432 0 -0.1031499328341639 0.26524432706851969 0 -0.11874124006771899 0.27695257632985432 0 -0.10732173239672919 0.28930018723689699 0 -0.1031499328341639 0.26524432706851969 0 -0.1111662037649198 0.26345635169797799 0 -0.11874124006771899 0.27695257632985432 0 -0.11874124006771899 0.27695257632985432 0 -0.1225655152064772 0.29536174971065138 0 -0.10732173239672919 0.28930018723689699 0 -0.13215177560754851 0.2833702513014022 0 -0.11874124006771899 0.27695257632985432 0 -0.1225655152064772 0.29536174971065138 0 -0.1225655152064772 0.29536174971065138 0 -0.10732173239672919 0.28930018723689699 0 -0.1114935319592943 0.31335604740527412 0 -0.12783069573512201 0.31263743683065709 0 -0.1225655152064772 0.29536174971065138 0 -0.1114935319592943 0.31335604740527412 0 -0.10732173239672919 0.28930018723689699 0 -0.1114935319592943 0.31335604740527412 0 -0.10732173239672919 0.28930018723689699 0 -0.087207646422621896 0.30502110079513622 0 -0.1114935319592943 0.31335604740527412 0 -0.10732173239672919 0.28930018723689699 0 -0.089380198692857474 0.28221592065552542 0 -0.087207646422621896 0.30502110079513622 0 -0.089380198692857474 0.28221592065552542 0 -0.087207646422621896 0.30502110079513622 0 -0.074720541158286163 0.28990420941986689 0 -0.089380198692857474 0.28221592065552542 0 -0.074720541158286163 0.28990420941986689 0 -0.075197489213216034 0.27545365135465583 0 -0.087207646422621896 0.30502110079513622 0 -0.065695083967295759 0.30334509093615619 0 -0.071541986573241942 0.32383825098553509 0 -0.087207646422621896 0.30502110079513622 0 -0.065695083967295759 0.30334509093615619 0 -0.074720541158286163 0.28990420941986689 0 -0.065695083967295759 0.30334509093615619 0 -0.059848181361349527 0.28285193088677729 0 -0.065695083967295759 0.30334509093615619 0 -0.074720541158286163 0.28990420941986689 0 -0.059848181361349527 0.28285193088677729 0 -0.074720541158286163 0.28990420941986689 0 -0.075197489213216034 0.27545365135465583 0 -0.059848181361349527 0.28285193088677729 0 -0.074131310030036743 0.27171673591159889 0 -0.057715822994990812 0.27537810000066298 0 -0.074131310030036743 0.27171673591159889 0 -0.075197489213216034 0.27545365135465583 0 -0.057715822994990812 0.27537810000066298 0 -0.075197489213216034 0.27545365135465583 0 -0.059848181361349527 0.28285193088677729 0 -0.074131310030036743 0.27171673591159889 0 -0.057715822994990812 0.27537810000066298 0 -0.060616251181317193 0.2719627555424578 0 -0.075197489213216034 0.27545365135465583 0 -0.057715822994990812 0.27537810000066298 0 -0.059848181361349527 0.28285193088677729 0 -0.062619631503327666 0.26608896902909251 0 -0.074131310030036743 0.27171673591159889 0 -0.070480227862774442 0.25928594411453398 0 -0.062619631503327666 0.26608896902909251 0 -0.074131310030036743 0.27171673591159889 0 -0.060616251181317193 0.2719627555424578 0 -0.074131310030036743 0.27171673591159889 0 -0.075197489213216034 0.27545365135465583 0 -0.090546797065082674 0.26805537182253469 0 -0.074131310030036743 0.27171673591159889 0 -0.090546797065082674 0.26805537182253469 0 -0.089380198692857474 0.28221592065552542 0 -0.075197489213216034 0.27545365135465583 0 -0.090546797065082674 0.26805537182253469 0 -0.074131310030036743 0.27171673591159889 0 -0.090546797065082674 0.26805537182253469 0 -0.080113149140100676 0.26147470447088472 0 -0.075197489213216034 0.27545365135465583 0 -0.090546797065082674 0.26805537182253469 0 -0.096997581049110673 0.25056214292982337 0 -0.094527939497334512 0.2572456971312187 0 -0.088525943097999799 0.2563422938945909 0 -0.096997581049110673 0.25056214292982337 0 -0.088525943097999799 0.2563422938945909 0 -0.085548685644658812 0.24483507948975389 0 -0.090546797065082674 0.26805537182253469 0 -0.088525943097999799 0.2563422938945909 0 -0.092912968428200418 0.2616162693166767 0 -0.094527939497334512 0.2572456971312187 0 -0.088525943097999799 0.2563422938945909 0 -0.092912968428200418 0.2616162693166767 0 -0.090546797065082674 0.26805537182253469 0 -0.088525943097999799 0.2563422938945909 0 -0.080113149140100676 0.26147470447088472 0 -0.088525943097999799 0.2563422938945909 0 -0.078764058213084659 0.25389215980425162 0 -0.085548685644658812 0.24483507948975389 0 -0.088525943097999799 0.2563422938945909 0 -0.080113149140100676 0.26147470447088472 0 -0.078764058213084659 0.25389215980425162 0 -0.078764058213084659 0.25389215980425162 0 -0.070480227862774442 0.25928594411453398 0 -0.069152285319889512 0.24752277705149431 0 -0.080113149140100676 0.26147470447088472 0 -0.078764058213084659 0.25389215980425162 0 -0.070480227862774442 0.25928594411453398 0 -0.074131310030036743 0.27171673591159889 0 -0.080113149140100676 0.26147470447088472 0 -0.070480227862774442 0.25928594411453398 0 -0.062619631503327666 0.26608896902909251 0 -0.070480227862774442 0.25928594411453398 0 -0.060434763959223647 0.25690627040163111 0 -0.070480227862774442 0.25928594411453398 0 -0.060434763959223647 0.25690627040163111 0 -0.069152285319889512 0.24752277705149431 0 -0.060434763959223647 0.25690627040163111 0 -0.05318270742792567 0.2558022541191326 0 -0.054470562174323903 0.24673916689566999 0 -0.060434763959223647 0.25690627040163111 0 -0.069152285319889512 0.24752277705149431 0 -0.054470562174323903 0.24673916689566999 0 -0.060434763959223647 0.25690627040163111 0 -0.054671790990108847 0.26470888943299659 0 -0.05318270742792567 0.2558022541191326 0 -0.062619631503327666 0.26608896902909251 0 -0.060434763959223647 0.25690627040163111 0 -0.054671790990108847 0.26470888943299659 0 -0.054671790990108847 0.26470888943299659 0 -0.05318270742792567 0.2558022541191326 0 -0.043153712588046289 0.25485468974623288 0 -0.05318270742792567 0.2558022541191326 0 -0.043153712588046289 0.25485468974623288 0 -0.054470562174323903 0.24673916689566999 0 -0.057715822994990812 0.27537810000066298 0 -0.051115041436680358 0.28142757980095512 0 -0.059848181361349527 0.28285193088677729 0 -0.057715822994990812 0.27537810000066298 0 -0.059848181361349527 0.28285193088677729 0 -0.062619631503327666 0.26608896902909251 0 -0.054671790990108847 0.26470888943299659 0 -0.056331619604013283 0.27052652241438091 0 -0.057715822994990812 0.27537810000066298 0 -0.056331619604013283 0.27052652241438091 0 -0.060616251181317193 0.2719627555424578 0 -0.056331619604013283 0.27052652241438091 0 -0.060616251181317193 0.2719627555424578 0 -0.057715822994990812 0.27537810000066298 0 -0.056331619604013283 0.27052652241438091 0 -0.062619631503327666 0.26608896902909251 0 -0.056331619604013283 0.27052652241438091 0 -0.060616251181317193 0.2719627555424578 0 -0.054671790990108847 0.26470888943299659 0 -0.056331619604013283 0.27052652241438091 0 -0.057715822994990812 0.27537810000066298 0 -0.042474778533213887 0.27877751256472749 0 -0.051115041436680358 0.28142757980095512 0 -0.057715822994990812 0.27537810000066298 0 -0.042474778533213887 0.27877751256472749 0 -0.057715822994990812 0.27537810000066298 0 -0.056331619604013283 0.27052652241438091 0 -0.042474778533213887 0.27877751256472749 0 -0.056331619604013283 0.27052652241438091 0 -0.042474778533213887 0.27877751256472749 0 -0.03618482061381513 0.27294398049441382 0 -0.056331619604013283 0.27052652241438091 0 -0.03618482061381513 0.27294398049441382 0 -0.029554652390754211 0.26155072911985489 0 -0.056331619604013283 0.27052652241438091 0 -0.029554652390754211 0.26155072911985489 0 -0.042474778533213887 0.27877751256472749 0 -0.027233734071436588 0.28217692512879028 0 -0.042474778533213887 0.27877751256472749 0 -0.03618482061381513 0.27294398049441382 0 -0.027233734071436588 0.28217692512879028 0 -0.054671790990108847 0.26470888943299659 0 -0.043153712588046289 0.25485468974623288 0 -0.029554652390754211 0.26155072911985489 0 -0.054671790990108847 0.26470888943299659 0 -0.056331619604013283 0.27052652241438091 0 -0.029554652390754211 0.26155072911985489 0 -0.043153712588046289 0.25485468974623288 0 -0.029554652390754211 0.26155072911985489 0 -0.025069253836144952 0.2467768617014772 0 -0.029554652390754211 0.26155072911985489 0 -0.0027776851774954509 0.25257493582532792 0 -0.029554652390754211 0.26155072911985489 0 -0.01498990822543088 0.27076473912097448 0 -0.0088148412448648007 0.26413653855390951 0 -0.029554652390754211 0.26155072911985489 0 -0.0027776851774954509 0.25257493582532792 0 -0.025069253836144952 0.2467768617014772 0 -0.03618482061381513 0.27294398049441382 0 -0.029554652390754211 0.26155072911985489 0 -0.02486135818488612 0.27302203014857451 0 -0.03618482061381513 0.27294398049441382 0 -0.02486135818488612 0.27302203014857451 0 -0.027233734071436588 0.28217692512879028 0 -0.02486135818488612 0.27302203014857451 0 -0.017808412091903279 0.27812111842739928 0 -0.01498990822543088 0.27076473912097448 0 -0.02486135818488612 0.27302203014857451 0 -0.017808412091903279 0.27812111842739928 0 -0.027233734071436588 0.28217692512879028 0 -0.029554652390754211 0.26155072911985489 0 -0.02486135818488612 0.27302203014857451 0 -0.01498990822543088 0.27076473912097448 0 -0.01498990822543088 0.27076473912097448 0 -0.003382447522311832 0.27165366474939667 0 -0.0088148412448648007 0.26413653855390951 0 -0.01498990822543088 0.27076473912097448 0 -0.0069493623912781624 0.2779832879997351 0 -0.003382447522311832 0.27165366474939667 0 -0.017808412091903279 0.27812111842739928 0 -0.01498990822543088 0.27076473912097448 0 -0.0069493623912781624 0.2779832879997351 0 -0.0069493623912781624 0.2779832879997351 0 -0.003382447522311832 0.27165366474939667 0 0.0053449175321244697 0.27715163150546163 0 -0.0069493623912781624 0.2779832879997351 0 -0.0022586230721503009 0.28774745583177708 0 0.0053449175321244697 0.27715163150546163 0 -0.003382447522311832 0.27165366474939667 0 -0.0088148412448648007 0.26413653855390951 0 0.0061393108742415709 0.26306138642428062 0 -0.0027776851774954509 0.25257493582532792 0 -0.0088148412448648007 0.26413653855390951 0 0.0061393108742415709 0.26306138642428062 0 -0.029554652390754211 0.26155072911985489 0 -0.0027776851774954509 0.25257493582532792 0 -0.0088148412448648007 0.26413653855390951 0 -0.016002210713581551 0.31418988905492201 0 0.0087662555695123632 0.30129232262918049 0 -0.0022586230721503009 0.28774745583177708 0 -0.021617972392508629 0.29818340709185598 0 -0.016002210713581551 0.31418988905492201 0 -0.016002210713581551 0.31418988905492201 0 0.0010950197022403111 0.31679193839657172 0 0.0087662555695123632 0.30129232262918049 0 -0.0022586230721503009 0.28774745583177708 0 -0.016002210713581551 0.31418988905492201 0 0.0087662555695123632 0.30129232262918049 0 -0.0022586230721503009 0.28774745583177708 0 -0.027233734071436588 0.28217692512879028 0 -0.017808412091903279 0.27812111842739928 0 -0.0069493623912781624 0.2779832879997351 0 -0.0022586230721503009 0.28774745583177708 0 -0.017808412091903279 0.27812111842739928 0 -0.0022586230721503009 0.28774745583177708 0 -0.027233734071436588 0.28217692512879028 0 -0.0022586230721503009 0.28774745583177708 0 -0.027233734071436588 0.28217692512879028 0 -0.021617972392508629 0.29818340709185598 0 -0.027233734071436588 0.28217692512879028 0 -0.021617972392508629 0.29818340709185598 0 -0.034020473619444581 0.29318263584457571 0 -0.027233734071436588 0.28217692512879028 0 -0.021617972392508629 0.29818340709185598 0 -0.021617972392508629 0.29818340709185598 0 -0.033988048693201323 0.30580409622698368 0 -0.034020473619444581 0.29318263584457571 0 -0.021617972392508629 0.29818340709185598 0 -0.025608613109969619 0.31038058566829713 0 -0.016002210713581551 0.31418988905492201 0 -0.021617972392508629 0.29818340709185598 0 -0.016002210713581551 0.31418988905492201 0 -0.021617972392508629 0.29818340709185598 0 -0.025608613109969619 0.31038058566829713 0 -0.033988048693201323 0.30580409622698368 0 -0.025608613109969619 0.31038058566829713 0 -0.033988048693201323 0.30580409622698368 0 -0.032403021581601382 0.31535443048384493 0 -0.033988048693201323 0.30580409622698368 0 -0.034020473619444581 0.29318263584457571 0 -0.048313385991890397 0.30324013477094902 0 -0.033988048693201323 0.30580409622698368 0 -0.048313385991890397 0.30324013477094902 0 -0.044201888502192137 0.31660877721138148 0 -0.042474778533213887 0.27877751256472749 0 -0.027233734071436588 0.28217692512879028 0 -0.034020473619444581 0.29318263584457571 0 -0.034020473619444581 0.29318263584457571 0 -0.045249111257415167 0.2898886000695382 0 -0.048313385991890397 0.30324013477094902 0 -0.042474778533213887 0.27877751256472749 0 -0.034020473619444581 0.29318263584457571 0 -0.045249111257415167 0.2898886000695382 0 -0.042474778533213887 0.27877751256472749 0 -0.045249111257415167 0.2898886000695382 0 -0.051115041436680358 0.28142757980095512 0 -0.065695083967295759 0.30334509093615619 0 -0.054776440644487723 0.29483143916585519 0 -0.059848181361349527 0.28285193088677729 0 -0.045249111257415167 0.2898886000695382 0 -0.059848181361349527 0.28285193088677729 0 -0.045249111257415167 0.2898886000695382 0 -0.051115041436680358 0.28142757980095512 0 -0.059848181361349527 0.28285193088677729 0 -0.045249111257415167 0.2898886000695382 0 -0.054776440644487723 0.29483143916585519 0 -0.048313385991890397 0.30324013477094902 0 -0.045249111257415167 0.2898886000695382 0 -0.054776440644487723 0.29483143916585519 0 -0.059848181361349527 0.28285193088677729 0 -0.065695083967295759 0.30334509093615619 0 -0.048313385991890397 0.30324013477094902 0 -0.056433574518396423 0.31871872183515548 0 -0.065695083967295759 0.30334509093615619 0 -0.054776440644487723 0.29483143916585519 0 -0.048313385991890397 0.30324013477094902 0 -0.056433574518396423 0.31871872183515548 0 -0.06199451831585677 0.33461917618664672 0 -0.046854583759901522 0.33066090092026501 0 -0.056433574518396423 0.31871872183515548 0 -0.046854583759901522 0.33066090092026501 0 -0.044201888502192137 0.31660877721138148 0 -0.048313385991890397 0.30324013477094902 0 -0.056433574518396423 0.31871872183515548 0 -0.044201888502192137 0.31660877721138148 0 -0.06199451831585677 0.33461917618664672 0 -0.05219309100166801 0.34206150041351691 0 -0.064056489405385733 0.34857679377979889 0 -0.06199451831585677 0.33461917618664672 0 -0.05219309100166801 0.34206150041351691 0 -0.046854583759901522 0.33066090092026501 0 -0.05219309100166801 0.34206150041351691 0 -0.042889197681850573 0.33927996528238008 0 -0.046854583759901522 0.33066090092026501 0 -0.05219309100166801 0.34206150041351691 0 -0.042889197681850573 0.33927996528238008 0 -0.043341735757896731 0.34913693943836932 0 -0.042889197681850573 0.33927996528238008 0 -0.046854583759901522 0.33066090092026501 0 -0.034158170907132163 0.33570573938311749 0 -0.034158170907132163 0.33570573938311749 0 -0.035025255796232342 0.32414218472403122 0 -0.026815121169801299 0.32822805935244231 0 -0.046854583759901522 0.33066090092026501 0 -0.034158170907132163 0.33570573938311749 0 -0.035025255796232342 0.32414218472403122 0 -0.034158170907132163 0.33570573938311749 0 -0.028778659597937802 0.34166943017040091 0 -0.035205985522887062 0.34447866726198839 0 -0.042889197681850573 0.33927996528238008 0 -0.034158170907132163 0.33570573938311749 0 -0.035205985522887062 0.34447866726198839 0 -0.046854583759901522 0.33066090092026501 0 -0.044201888502192137 0.31660877721138148 0 -0.035025255796232342 0.32414218472403122 0 -0.033988048693201323 0.30580409622698368 0 -0.044201888502192137 0.31660877721138148 0 -0.032403021581601382 0.31535443048384493 0 -0.044201888502192137 0.31660877721138148 0 -0.035025255796232342 0.32414218472403122 0 -0.032403021581601382 0.31535443048384493 0 -0.035025255796232342 0.32414218472403122 0 -0.032403021581601382 0.31535443048384493 0 -0.0240318121689551 0.3183711054838787 0 -0.025608613109969619 0.31038058566829713 0 -0.032403021581601382 0.31535443048384493 0 -0.0240318121689551 0.3183711054838787 0 -0.025608613109969619 0.31038058566829713 0 -0.0240318121689551 0.3183711054838787 0 -0.016002210713581551 0.31418988905492201 0 -0.0240318121689551 0.3183711054838787 0 -0.016002210713581551 0.31418988905492201 0 -0.019220140326345819 0.32722669782664121 0 -0.0240318121689551 0.3183711054838787 0 -0.016002210713581551 0.31418988905492201 0 -0.0240318121689551 0.3183711054838787 0 -0.019220140326345819 0.32722669782664121 0 -0.026815121169801299 0.32822805935244231 0 -0.035025255796232342 0.32414218472403122 0 -0.0240318121689551 0.3183711054838787 0 -0.026815121169801299 0.32822805935244231 0 -0.034158170907132163 0.33570573938311749 0 -0.026815121169801299 0.32822805935244231 0 -0.023429537633126371 0.33557760734262082 0 -0.034158170907132163 0.33570573938311749 0 -0.028778659597937802 0.34166943017040091 0 -0.023429537633126371 0.33557760734262082 0 -0.028778659597937802 0.34166943017040091 0 -0.019633485077604099 0.34184440442231739 0 -0.023429537633126371 0.33557760734262082 0 -0.028778659597937802 0.34166943017040091 0 -0.019633485077604099 0.34184440442231739 0 -0.025738167360463731 0.34765770435465482 0 -0.019633485077604099 0.34184440442231739 0 -0.023429537633126371 0.33557760734262082 0 -0.015633461621400831 0.33579515134919569 0 -0.019220140326345819 0.32722669782664121 0 -0.026815121169801299 0.32822805935244231 0 -0.023429537633126371 0.33557760734262082 0 -0.019220140326345819 0.32722669782664121 0 -0.023429537633126371 0.33557760734262082 0 -0.015633461621400831 0.33579515134919569 0 -0.019220140326345819 0.32722669782664121 0 -0.015633461621400831 0.33579515134919569 0 -0.01062878526116923 0.32950564540310689 0 -0.015633461621400831 0.33579515134919569 0 -0.01062878526116923 0.32950564540310689 0 -0.0052553598087585933 0.34482140175129239 0 -0.019633485077604099 0.34184440442231739 0 -0.015633461621400831 0.33579515134919569 0 -0.0052553598087585933 0.34482140175129239 0 -0.01062878526116923 0.32950564540310689 0 -0.0052553598087585933 0.34482140175129239 0 -0.01062878526116923 0.32950564540310689 0 -0.0052553598087585933 0.34482140175129239 0 0.0028937517168451852 0.3302129616722384 0 -0.016002210713581551 0.31418988905492201 0 -0.01062878526116923 0.32950564540310689 0 0.0010950197022403111 0.31679193839657172 0 -0.01062878526116923 0.32950564540310689 0 0.0010950197022403111 0.31679193839657172 0 0.0028937517168451852 0.3302129616722384 0 -0.016002210713581551 0.31418988905492201 0 -0.019220140326345819 0.32722669782664121 0 -0.01062878526116923 0.32950564540310689 0 -0.016002210713581551 0.31418988905492201 0 -0.01062878526116923 0.32950564540310689 0 -0.0035011453806063492 0.36255855074553422 0 -0.017392243809624092 0.37818698723840471 0 -0.00095304987135879531 0.37767319038413988 0 -0.0035011453806063492 0.36255855074553422 0 -0.0075475532716322083 0.35586193389969573 0 -0.0020463162591698482 0.35396806797965119 0 -0.0020463162591698482 0.35396806797965119 0 -0.0052553598087585933 0.34482140175129239 0 -0.0075475532716322083 0.35586193389969573 0 -0.0020463162591698482 0.35396806797965119 0 -0.0052553598087585933 0.34482140175129239 0 -0.0075475532716322083 0.35586193389969573 0 -0.0052553598087585933 0.34482140175129239 0 -0.015829329861877271 0.35658550558988622 0 -0.0035011453806063492 0.36255855074553422 0 -0.0075475532716322083 0.35586193389969573 0 -0.015829329861877271 0.35658550558988622 0 -0.0052553598087585933 0.34482140175129239 0 -0.025738167360463731 0.34765770435465482 0 -0.0293328622575772 0.35658291411815041 0 -0.0052553598087585933 0.34482140175129239 0 -0.015829329861877271 0.35658550558988622 0 -0.0293328622575772 0.35658291411815041 0 -0.019633485077604099 0.34184440442231739 0 -0.0052553598087585933 0.34482140175129239 0 -0.025738167360463731 0.34765770435465482 0 -0.0052553598087585933 0.34482140175129239 0 -0.0293328622575772 0.35658291411815041 0 -0.015829329861877271 0.35658550558988622 0 -0.0293328622575772 0.35658291411815041 0 -0.033018579032033063 0.36265941156444698 0 -0.028778659597937802 0.34166943017040091 0 -0.025738167360463731 0.34765770435465482 0 -0.035205985522887062 0.34447866726198839 0 -0.025738167360463731 0.34765770435465482 0 -0.0293328622575772 0.35658291411815041 0 -0.034271815069535048 0.35287297152581609 0 -0.0035011453806063492 0.36255855074553422 0 -0.033018579032033063 0.36265941156444698 0 -0.017392243809624092 0.37818698723840471 0 -0.0035011453806063492 0.36255855074553422 0 -0.015829329861877271 0.35658550558988622 0 -0.033018579032033063 0.36265941156444698 0 -0.033018579032033063 0.36265941156444698 0 -0.034457990318869543 0.38158353029971559 0 -0.017392243809624092 0.37818698723840471 0 -0.033018579032033063 0.36265941156444698 0 -0.017392243809624092 0.37818698723840471 0 -0.0035011453806063492 0.36255855074553422 0 -0.033018579032033063 0.36265941156444698 0 -0.033018579032033063 0.36265941156444698 0 -0.050492281621498478 0.36271911905709059 0 -0.033018579032033063 0.36265941156444698 0 -0.042483093786610901 0.37129641797467738 0 -0.034457990318869543 0.38158353029971559 0 -0.033018579032033063 0.36265941156444698 0 -0.038993560486352538 0.35672219241728692 0 -0.050492281621498478 0.36271911905709059 0 -0.033018579032033063 0.36265941156444698 0 -0.042483093786610901 0.37129641797467738 0 -0.050492281621498478 0.36271911905709059 0 -0.033018579032033063 0.36265941156444698 0 -0.038993560486352538 0.35672219241728692 0 -0.025738167360463731 0.34765770435465482 0 -0.035205985522887062 0.34447866726198839 0 -0.034271815069535048 0.35287297152581609 0 -0.035205985522887062 0.34447866726198839 0 -0.034271815069535048 0.35287297152581609 0 -0.043341735757896731 0.34913693943836932 0 -0.034271815069535048 0.35287297152581609 0 -0.038993560486352538 0.35672219241728692 0 -0.043341735757896731 0.34913693943836932 0 -0.033018579032033063 0.36265941156444698 0 -0.034271815069535048 0.35287297152581609 0 -0.038993560486352538 0.35672219241728692 0 -0.0293328622575772 0.35658291411815041 0 -0.033018579032033063 0.36265941156444698 0 -0.034271815069535048 0.35287297152581609 0 -0.038993560486352538 0.35672219241728692 0 -0.046586470603236702 0.35539179425310219 0 -0.050492281621498478 0.36271911905709059 0 -0.038993560486352538 0.35672219241728692 0 -0.046586470603236702 0.35539179425310219 0 -0.043341735757896731 0.34913693943836932 0 -0.042889197681850573 0.33927996528238008 0 -0.035205985522887062 0.34447866726198839 0 -0.043341735757896731 0.34913693943836932 0 -0.05219309100166801 0.34206150041351691 0 -0.043341735757896731 0.34913693943836932 0 -0.053518304547199087 0.35298892609966209 0 -0.046586470603236702 0.35539179425310219 0 -0.053518304547199087 0.35298892609966209 0 -0.050492281621498478 0.36271911905709059 0 -0.046586470603236702 0.35539179425310219 0 -0.043341735757896731 0.34913693943836932 0 -0.053518304547199087 0.35298892609966209 0 -0.053518304547199087 0.35298892609966209 0 -0.067965984210963906 0.36277882654973292 0 -0.064056489405385733 0.34857679377979889 0 -0.05219309100166801 0.34206150041351691 0 -0.053518304547199087 0.35298892609966209 0 -0.064056489405385733 0.34857679377979889 0 -0.050492281621498478 0.36271911905709059 0 -0.067965984210963906 0.36277882654973292 0 -0.053518304547199087 0.35298892609966209 0 -0.050492281621498478 0.36271911905709059 0 -0.067965984210963906 0.36277882654973292 0 -0.050492281621498478 0.36271911905709059 0 -0.061565136688817933 0.36618285175398002 0 -0.067965984210963906 0.36277882654973292 0 -0.042483093786610901 0.37129641797467738 0 -0.05329357838800805 0.37052169614627151 0 -0.051050077431593538 0.37884829051982111 0 -0.042483093786610901 0.37129641797467738 0 -0.05329357838800805 0.37052169614627151 0 -0.050492281621498478 0.36271911905709059 0 -0.05329357838800805 0.37052169614627151 0 -0.050492281621498478 0.36271911905709059 0 -0.061565136688817933 0.36618285175398002 0 -0.05329357838800805 0.37052169614627151 0 -0.061565136688817933 0.36618285175398002 0 -0.059877675137912409 0.37571219620715229 0 -0.061565136688817933 0.36618285175398002 0 -0.067196799427572174 0.37129202351456952 0 -0.059877675137912409 0.37571219620715229 0 -0.061565136688817933 0.36618285175398002 0 -0.067196799427572174 0.37129202351456952 0 -0.067965984210963906 0.36277882654973292 0 -0.061565136688817933 0.36618285175398002 0 -0.067965984210963906 0.36277882654973292 0 -0.067196799427572174 0.37129202351456952 0 -0.067965984210963906 0.36277882654973292 0 -0.07744680991950316 0.37301155816889248 0 -0.067965984210963906 0.36277882654973292 0 -0.07744680991950316 0.37301155816889248 0 -0.090681616775978954 0.36285644567237513 0 -0.067965984210963906 0.36277882654973292 0 -0.090681616775978954 0.36285644567237513 0 -0.07744680991950316 0.37301155816889248 0 -0.090681616775978954 0.36285644567237513 0 -0.090457985938671132 0.37461999797048318 0 -0.067965984210963906 0.36277882654973292 0 -0.09181565786641066 0.35009536706169131 0 -0.067965984210963906 0.36277882654973292 0 -0.09181565786641066 0.35009536706169131 0 -0.077388889179188111 0.34433141103491399 0 -0.067965984210963906 0.36277882654973292 0 -0.090681616775978954 0.36285644567237513 0 -0.09181565786641066 0.35009536706169131 0 -0.067965984210963906 0.36277882654973292 0 -0.077388889179188111 0.34433141103491399 0 -0.064056489405385733 0.34857679377979889 0 -0.06199451831585677 0.33461917618664672 0 -0.077388889179188111 0.34433141103491399 0 -0.064056489405385733 0.34857679377979889 0 -0.06199451831585677 0.33461917618664672 0 -0.077388889179188111 0.34433141103491399 0 -0.071541986573241942 0.32383825098553509 0 -0.077388889179188111 0.34433141103491399 0 -0.071541986573241942 0.32383825098553509 0 -0.065695083967295759 0.30334509093615619 0 -0.071541986573241942 0.32383825098553509 0 -0.056433574518396423 0.31871872183515548 0 -0.06199451831585677 0.33461917618664672 0 -0.071541986573241942 0.32383825098553509 0 -0.065695083967295759 0.30334509093615619 0 -0.056433574518396423 0.31871872183515548 0 -0.071541986573241942 0.32383825098553509 0 -0.087207646422621896 0.30502110079513622 0 -0.071541986573241942 0.32383825098553509 0 -0.09182655455864662 0.32913153156162539 0 -0.077388889179188111 0.34433141103491399 0 -0.071541986573241942 0.32383825098553509 0 -0.09182655455864662 0.32913153156162539 0 -0.09181565786641066 0.35009536706169131 0 -0.077388889179188111 0.34433141103491399 0 -0.09182655455864662 0.32913153156162539 0 -0.09181565786641066 0.35009536706169131 0 -0.09182655455864662 0.32913153156162539 0 -0.1156653315218583 0.33741190757365158 0 -0.087207646422621896 0.30502110079513622 0 -0.09182655455864662 0.32913153156162539 0 -0.1114935319592943 0.31335604740527412 0 -0.09182655455864662 0.32913153156162539 0 -0.1114935319592943 0.31335604740527412 0 -0.1156653315218583 0.33741190757365158 0 -0.12783069573512201 0.31263743683065709 0 -0.1114935319592943 0.31335604740527412 0 -0.1156653315218583 0.33741190757365158 0 -0.1114935319592943 0.31335604740527412 0 -0.1156653315218583 0.33741190757365158 0 -0.1156653315218583 0.33741190757365158 0 -0.1183890274270839 0.35311756333554378 0 -0.1156653315218583 0.33741190757365158 0 -0.1183890274270839 0.35311756333554378 0 -0.1047406685840786 0.35478656922129842 0 -0.1323013287181643 0.34403137597403299 0 -0.1156653315218583 0.33741190757365158 0 -0.1183890274270839 0.35311756333554378 0 -0.1183890274270839 0.35311756333554378 0 -0.1078741752450392 0.36770249163558488 0 -0.1047406685840786 0.35478656922129842 0 -0.1323311231041589 0.3633750541390382 0 -0.1078741752450392 0.36770249163558488 0 -0.121239151406589 0.38113334029034329 0 -0.1323311231041589 0.3633750541390382 0 -0.1183890274270839 0.35311756333554378 0 -0.1078741752450392 0.36770249163558488 0 -0.090681616775978954 0.36285644567237513 0 -0.1078741752450392 0.36770249163558488 0 -0.1047406685840786 0.35478656922129842 0 -0.090681616775978954 0.36285644567237513 0 -0.090457985938671132 0.37461999797048318 0 -0.1078741752450392 0.36770249163558488 0 -0.09181565786641066 0.35009536706169131 0 -0.1156653315218583 0.33741190757365158 0 -0.09181565786641066 0.35009536706169131 0 -0.1156653315218583 0.33741190757365158 0 -0.1047406685840786 0.35478656922129842 0 -0.090681616775978954 0.36285644567237513 0 -0.09181565786641066 0.35009536706169131 0 -0.1047406685840786 0.35478656922129842 0 -0.10158067796371251 0.40291869414367448 0 -0.097472096579270348 0.38472909291652008 0 -0.085513240684520139 0.40114442751677742 0 -0.10158067796371251 0.40291869414367448 0 -0.097472096579270348 0.38472909291652008 0 -0.121239151406589 0.38113334029034329 0 -0.1078741752450392 0.36770249163558488 0 -0.097472096579270348 0.38472909291652008 0 -0.121239151406589 0.38113334029034329 0 -0.090457985938671132 0.37461999797048318 0 -0.1078741752450392 0.36770249163558488 0 -0.097472096579270348 0.38472909291652008 0 -0.10158067796371251 0.40291869414367448 0 -0.121239151406589 0.38113334029034329 0 -0.11944612630545511 0.4043507344003337 0 -0.11944612630545511 0.4043507344003337 0 -0.1207052058837723 0.42203240288538668 0 -0.10514479503967911 0.4254694370843774 0 -0.1207052058837723 0.42203240288538668 0 -0.10514479503967911 0.4254694370843774 0 -0.11630365497777639 0.44073313696193112 0 -0.136154547479757 0.43213679339407779 0 -0.1207052058837723 0.42203240288538668 0 -0.11630365497777639 0.44073313696193112 0 -0.10514479503967911 0.4254694370843774 0 -0.089996856083766008 0.42177262609517518 0 -0.098873820188514372 0.43829784200630179 0 -0.10514479503967911 0.4254694370843774 0 -0.098873820188514372 0.43829784200630179 0 -0.11630365497777639 0.44073313696193112 0 -0.10158067796371251 0.40291869414367448 0 -0.11944612630545511 0.4043507344003337 0 -0.10514479503967911 0.4254694370843774 0 -0.10158067796371251 0.40291869414367448 0 -0.10514479503967911 0.4254694370843774 0 -0.089996856083766008 0.42177262609517518 0 -0.089996856083766008 0.42177262609517518 0 -0.077232603257777699 0.42606509749001209 0 -0.074004422627005642 0.41294901628326081 0 -0.089996856083766008 0.42177262609517518 0 -0.074004422627005642 0.41294901628326081 0 -0.085513240684520139 0.40114442751677742 0 -0.10158067796371251 0.40291869414367448 0 -0.089996856083766008 0.42177262609517518 0 -0.085513240684520139 0.40114442751677742 0 -0.089996856083766008 0.42177262609517518 0 -0.077232603257777699 0.42606509749001209 0 -0.080635888702672742 0.43887209541513972 0 -0.089996856083766008 0.42177262609517518 0 -0.080635888702672742 0.43887209541513972 0 -0.098873820188514372 0.43829784200630179 0 -0.077232603257777699 0.42606509749001209 0 -0.067369367540129593 0.43694861737958568 0 -0.080635888702672742 0.43887209541513972 0 -0.077232603257777699 0.42606509749001209 0 -0.06492315455230116 0.42705291474262591 0 -0.074004422627005642 0.41294901628326081 0 -0.06492315455230116 0.42705291474262591 0 -0.067369367540129593 0.43694861737958568 0 -0.055841886477594367 0.44115681320198952 0 -0.077232603257777699 0.42606509749001209 0 -0.06492315455230116 0.42705291474262591 0 -0.067369367540129593 0.43694861737958568 0 -0.06492315455230116 0.42705291474262591 0 -0.074004422627005642 0.41294901628326081 0 -0.056579344433795059 0.41029997532972923 0 -0.06492315455230116 0.42705291474262591 0 -0.074004422627005642 0.41294901628326081 0 -0.074004422627005642 0.41294901628326081 0 -0.062933796157305183 0.39543157210187407 0 -0.075412894210876838 0.39893166538849267 0 -0.074004422627005642 0.41294901628326081 0 -0.062933796157305183 0.39543157210187407 0 -0.056579344433795059 0.41029997532972923 0 -0.062933796157305183 0.39543157210187407 0 -0.075412894210876838 0.39893166538849267 0 -0.079200117374676374 0.38620164565205861 0 -0.097472096579270348 0.38472909291652008 0 -0.085513240684520139 0.40114442751677742 0 -0.079200117374676374 0.38620164565205861 0 -0.074004422627005642 0.41294901628326081 0 -0.075412894210876838 0.39893166538849267 0 -0.085513240684520139 0.40114442751677742 0 -0.075412894210876838 0.39893166538849267 0 -0.085513240684520139 0.40114442751677742 0 -0.079200117374676374 0.38620164565205861 0 -0.090457985938671132 0.37461999797048318 0 -0.097472096579270348 0.38472909291652008 0 -0.079200117374676374 0.38620164565205861 0 -0.07744680991950316 0.37301155816889248 0 -0.090457985938671132 0.37461999797048318 0 -0.079200117374676374 0.38620164565205861 0 -0.062933796157305183 0.39543157210187407 0 -0.079200117374676374 0.38620164565205861 0 -0.068128763907056522 0.38092507967445233 0 -0.067196799427572174 0.37129202351456952 0 -0.07744680991950316 0.37301155816889248 0 -0.068128763907056522 0.38092507967445233 0 -0.07744680991950316 0.37301155816889248 0 -0.079200117374676374 0.38620164565205861 0 -0.068128763907056522 0.38092507967445233 0 -0.062933796157305183 0.39543157210187407 0 -0.068128763907056522 0.38092507967445233 0 -0.058031694984426292 0.38650323563381977 0 -0.067196799427572174 0.37129202351456952 0 -0.068128763907056522 0.38092507967445233 0 -0.059877675137912409 0.37571219620715229 0 -0.059877675137912409 0.37571219620715229 0 -0.058031694984426292 0.38650323563381977 0 -0.051050077431593538 0.37884829051982111 0 -0.068128763907056522 0.38092507967445233 0 -0.059877675137912409 0.37571219620715229 0 -0.058031694984426292 0.38650323563381977 0 -0.05329357838800805 0.37052169614627151 0 -0.059877675137912409 0.37571219620715229 0 -0.051050077431593538 0.37884829051982111 0 -0.058031694984426292 0.38650323563381977 0 -0.051050077431593538 0.37884829051982111 0 -0.047652801620559432 0.39384917891688898 0 -0.062933796157305183 0.39543157210187407 0 -0.047652801620559432 0.39384917891688898 0 -0.056579344433795059 0.41029997532972923 0 -0.047652801620559432 0.39384917891688898 0 -0.039129556847149208 0.40880315424843361 0 -0.056579344433795059 0.41029997532972923 0 -0.062933796157305183 0.39543157210187407 0 -0.058031694984426292 0.38650323563381977 0 -0.047652801620559432 0.39384917891688898 0 -0.047652801620559432 0.39384917891688898 0 -0.032902206937459329 0.39555192283288282 0 -0.039129556847149208 0.40880315424843361 0 -0.051050077431593538 0.37884829051982111 0 -0.047652801620559432 0.39384917891688898 0 -0.034457990318869543 0.38158353029971559 0 -0.042483093786610901 0.37129641797467738 0 -0.051050077431593538 0.37884829051982111 0 -0.034457990318869543 0.38158353029971559 0 -0.047652801620559432 0.39384917891688898 0 -0.032902206937459329 0.39555192283288282 0 -0.034457990318869543 0.38158353029971559 0 -0.034457990318869543 0.38158353029971559 0 -0.017392243809624092 0.37818698723840471 0 -0.018882290639430189 0.39312846956977221 0 -0.032902206937459329 0.39555192283288282 0 -0.034457990318869543 0.38158353029971559 0 -0.018882290639430189 0.39312846956977221 0 -0.032902206937459329 0.39555192283288282 0 -0.018882290639430189 0.39312846956977221 0 -0.01979123455067491 0.40952864634223829 0 -0.032902206937459329 0.39555192283288282 0 -0.01979123455067491 0.40952864634223829 0 -0.039129556847149208 0.40880315424843361 0 -0.0017659085872152841 0.39371456291236251 0 -0.0066021347554357269 0.41002061495333569 0 -0.01979123455067491 0.40952864634223829 0 -0.0017659085872152841 0.39371456291236251 0 -0.0066021347554357269 0.41002061495333569 0 0.0050759655238069544 0.40051319589306322 0 -0.0017659085872152841 0.39371456291236251 0 -0.01979123455067491 0.40952864634223829 0 -0.018882290639430189 0.39312846956977221 0 -0.0017659085872152841 0.39371456291236251 0 -0.01979123455067491 0.40952864634223829 0 -0.017392243809624092 0.37818698723840471 0 -0.0017659085872152841 0.39371456291236251 0 -0.017392243809624092 0.37818698723840471 0 -0.0017659085872152841 0.39371456291236251 0 -0.00095304987135879531 0.37767319038413988 0 -0.017392243809624092 0.37818698723840471 0 -0.018882290639430189 0.39312846956977221 0 -0.0017659085872152841 0.39371456291236251 0 -0.01609233799204534 0.42539399445126069 0 -0.02482754872607849 0.43955685088721019 0 -0.0057895499775989651 0.4405992072919957 0 -0.00035679222689577629 0.42055620159252949 0 -0.0057895499775989651 0.4405992072919957 0 -0.00035679222689577629 0.42055620159252949 0 -0.01609233799204534 0.42539399445126069 0 -0.0057895499775989651 0.4405992072919957 0 -0.0066021347554357269 0.41002061495333569 0 -0.01979123455067491 0.40952864634223829 0 -0.01609233799204534 0.42539399445126069 0 -0.00035679222689577629 0.42055620159252949 0 -0.0066021347554357269 0.41002061495333569 0 0.0050759655238069544 0.40051319589306322 0 -0.00035679222689577629 0.42055620159252949 0 -0.0066021347554357269 0.41002061495333569 0 -0.01609233799204534 0.42539399445126069 0 -0.01979123455067491 0.40952864634223829 0 -0.037816560514134512 0.42534272977211413 0 -0.01979123455067491 0.40952864634223829 0 -0.01609233799204534 0.42539399445126069 0 -0.037816560514134512 0.42534272977211413 0 -0.01609233799204534 0.42539399445126069 0 -0.037816560514134512 0.42534272977211413 0 -0.02482754872607849 0.43955685088721019 0 -0.037816560514134512 0.42534272977211413 0 -0.039649578608492629 0.44550429639009242 0 -0.02482754872607849 0.43955685088721019 0 -0.037816560514134512 0.42534272977211413 0 -0.055841886477594367 0.44115681320198952 0 -0.037816560514134512 0.42534272977211413 0 -0.055841886477594367 0.44115681320198952 0 -0.039649578608492629 0.44550429639009242 0 -0.01979123455067491 0.40952864634223829 0 -0.037816560514134512 0.42534272977211413 0 -0.039129556847149208 0.40880315424843361 0 -0.037816560514134512 0.42534272977211413 0 -0.039129556847149208 0.40880315424843361 0 -0.051505070677984273 0.42405468108433919 0 -0.039129556847149208 0.40880315424843361 0 -0.056579344433795059 0.41029997532972923 0 -0.051505070677984273 0.42405468108433919 0 -0.06492315455230116 0.42705291474262591 0 -0.056579344433795059 0.41029997532972923 0 -0.051505070677984273 0.42405468108433919 0 -0.037816560514134512 0.42534272977211413 0 -0.051505070677984273 0.42405468108433919 0 -0.055841886477594367 0.44115681320198952 0 -0.06492315455230116 0.42705291474262591 0 -0.051505070677984273 0.42405468108433919 0 -0.055841886477594367 0.44115681320198952 0 -0.06492315455230116 0.42705291474262591 0 -0.055841886477594367 0.44115681320198952 0 -0.055841886477594367 0.44115681320198952 0 -0.042225919171099142 0.46230344368763782 0 -0.055841886477594367 0.44115681320198952 0 -0.056423900594799237 0.46045677287937858 0 -0.063975477625109439 0.44829262252116953 0 -0.067369367540129593 0.43694861737958568 0 -0.055841886477594367 0.44115681320198952 0 -0.063975477625109439 0.44829262252116953 0 -0.055841886477594367 0.44115681320198952 0 -0.063975477625109439 0.44829262252116953 0 -0.056423900594799237 0.46045677287937858 0 -0.042225919171099142 0.46230344368763782 0 -0.047151695978977552 0.48043193415941421 0 -0.055841886477594367 0.44115681320198952 0 -0.056423900594799237 0.46045677287937858 0 -0.042225919171099142 0.46230344368763782 0 -0.042225919171099142 0.46230344368763782 0 -0.028906487726315599 0.46106729382220918 0 -0.025583466103294181 0.47032765225324707 0 -0.042225919171099142 0.46230344368763782 0 -0.029273619548283249 0.45123561414864072 0 -0.028906487726315599 0.46106729382220918 0 -0.042225919171099142 0.46230344368763782 0 -0.039649578608492629 0.44550429639009242 0 -0.029273619548283249 0.45123561414864072 0 -0.055841886477594367 0.44115681320198952 0 -0.042225919171099142 0.46230344368763782 0 -0.039649578608492629 0.44550429639009242 0 -0.039649578608492629 0.44550429639009242 0 -0.02482754872607849 0.43955685088721019 0 -0.029273619548283249 0.45123561414864072 0 -0.02482754872607849 0.43955685088721019 0 -0.018561592091811279 0.4495702796256969 0 -0.0057895499775989651 0.4405992072919957 0 -0.018561592091811279 0.4495702796256969 0 -0.029273619548283249 0.45123561414864072 0 -0.019454616354994909 0.45833620639073092 0 -0.02482754872607849 0.43955685088721019 0 -0.018561592091811279 0.4495702796256969 0 -0.029273619548283249 0.45123561414864072 0 -0.029273619548283249 0.45123561414864072 0 -0.028906487726315599 0.46106729382220918 0 -0.019454616354994909 0.45833620639073092 0 -0.028906487726315599 0.46106729382220918 0 -0.020344649789113638 0.46613889439067618 0 -0.025583466103294181 0.47032765225324707 0 -0.028906487726315599 0.46106729382220918 0 -0.020344649789113638 0.46613889439067618 0 -0.019454616354994909 0.45833620639073092 0 -0.020344649789113638 0.46613889439067618 0 -0.019454616354994909 0.45833620639073092 0 -0.011222307728302169 0.46064221299146202 0 -0.018561592091811279 0.4495702796256969 0 -0.019454616354994909 0.45833620639073092 0 -0.011222307728302169 0.46064221299146202 0 -0.019454616354994909 0.45833620639073092 0 -0.011222307728302169 0.46064221299146202 0 -0.011222307728302169 0.46064221299146202 0 -0.0057895499775989651 0.4405992072919957 0 -0.018561592091811279 0.4495702796256969 0 -0.011222307728302169 0.46064221299146202 0 -0.0057895499775989651 0.4405992072919957 0 -0.011222307728302169 0.46064221299146202 0 -0.0057895499775989651 0.4405992072919957 0 0.0053080445473378327 0.45227336431711868 0 -0.002504903111400929 0.48865815071454061 0 -0.016556371032661318 0.48032110649573168 0 -0.021890434337020849 0.50000000000000133 0 -0.002504903111400929 0.48865815071454061 0 -0.021890434337020849 0.50000000000000133 0 0.0078282434504303722 0.5 0 -0.002504903111400929 0.48865815071454061 0 -0.00065462977569910325 0.47406899451073758 0 -0.016556371032661318 0.48032110649573168 0 -0.011222307728302169 0.46064221299146202 0 -0.016556371032661318 0.48032110649573168 0 -0.011222307728302169 0.46064221299146202 0 -0.00065462977569910325 0.47406899451073758 0 -0.016556371032661318 0.48032110649573168 0 -0.020344649789113638 0.46613889439067618 0 -0.011222307728302169 0.46064221299146202 0 -0.016556371032661318 0.48032110649573168 0 -0.020344649789113638 0.46613889439067618 0 -0.016556371032661318 0.48032110649573168 0 -0.025583466103294181 0.47032765225324707 0 -0.016556371032661318 0.48032110649573168 0 -0.025583466103294181 0.47032765225324707 0 -0.028609951864601621 0.48345007417328462 0 -0.016556371032661318 0.48032110649573168 0 -0.028609951864601621 0.48345007417328462 0 -0.021890434337020849 0.50000000000000133 0 -0.016556371032661318 0.48032110649573168 0 -0.021890434337020849 0.50000000000000133 0 -0.028609951864601621 0.48345007417328462 0 -0.047151695978977552 0.48043193415941421 0 -0.051320898623585909 0.5 0 -0.028609951864601621 0.48345007417328462 0 -0.021890434337020849 0.50000000000000133 0 -0.051320898623585909 0.5 0 -0.042225919171099142 0.46230344368763782 0 -0.025583466103294181 0.47032765225324707 0 -0.028609951864601621 0.48345007417328462 0 -0.042225919171099142 0.46230344368763782 0 -0.028609951864601621 0.48345007417328462 0 -0.042225919171099142 0.46230344368763782 0 -0.028609951864601621 0.48345007417328462 0 -0.047151695978977552 0.48043193415941421 0 -0.056423900594799237 0.46045677287937858 0 -0.047151695978977552 0.48043193415941421 0 -0.064402965658304778 0.47548540387977511 0 -0.047151695978977552 0.48043193415941421 0 -0.051320898623585909 0.5 0 -0.064402965658304778 0.47548540387977511 0 -0.051320898623585909 0.5 0 -0.080751362910151059 0.5 0 -0.064402965658304778 0.47548540387977511 0 -0.080751362910151059 0.5 0 -0.083860842707402752 0.46991342610614728 0 -0.10424277262772411 0.47875929272709239 0 -0.080751362910151059 0.5 0 -0.083860842707402752 0.46991342610614728 0 -0.064402965658304778 0.47548540387977511 0 -0.083860842707402752 0.46991342610614728 0 -0.064402965658304778 0.47548540387977511 0 -0.069574658378939377 0.46182651644529021 0 -0.056423900594799237 0.46045677287937858 0 -0.064402965658304778 0.47548540387977511 0 -0.069574658378939377 0.46182651644529021 0 -0.056423900594799237 0.46045677287937858 0 -0.069574658378939377 0.46182651644529021 0 -0.063975477625109439 0.44829262252116953 0 -0.069574658378939377 0.46182651644529021 0 -0.063975477625109439 0.44829262252116953 0 -0.079210105309080708 0.45498435683998051 0 -0.083860842707402752 0.46991342610614728 0 -0.069574658378939377 0.46182651644529021 0 -0.079210105309080708 0.45498435683998051 0 -0.063975477625109439 0.44829262252116953 0 -0.080635888702672742 0.43887209541513972 0 -0.079210105309080708 0.45498435683998051 0 -0.067369367540129593 0.43694861737958568 0 -0.063975477625109439 0.44829262252116953 0 -0.080635888702672742 0.43887209541513972 0 -0.080635888702672742 0.43887209541513972 0 -0.079210105309080708 0.45498435683998051 0 -0.097283614859445436 0.454974401449525 0 -0.080635888702672742 0.43887209541513972 0 -0.097283614859445436 0.454974401449525 0 -0.098873820188514372 0.43829784200630179 0 -0.083860842707402752 0.46991342610614728 0 -0.079210105309080708 0.45498435683998051 0 -0.097283614859445436 0.454974401449525 0 -0.083860842707402752 0.46991342610614728 0 -0.097283614859445436 0.454974401449525 0 -0.10424277262772411 0.47875929272709239 0 -0.097283614859445436 0.454974401449525 0 -0.11673128464360349 0.4619290511919879 0 -0.10424277262772411 0.47875929272709239 0 -0.097283614859445436 0.454974401449525 0 -0.098873820188514372 0.43829784200630179 0 -0.11630365497777639 0.44073313696193112 0 -0.14131293590973651 0.45058237414100938 0 -0.11630365497777639 0.44073313696193112 0 -0.11673128464360349 0.4619290511919879 0 -0.097283614859445436 0.454974401449525 0 -0.11630365497777639 0.44073313696193112 0 -0.11673128464360349 0.4619290511919879 0 -0.13015655865920669 0.4780688103618666 0 -0.11673128464360349 0.4619290511919879 0 -0.10424277262772411 0.47875929272709239 0 -0.13015655865920669 0.4780688103618666 0 -0.110181827196716 0.5 0 -0.10424277262772411 0.47875929272709239 0 -0.080751362910151059 0.5 0 -0.110181827196716 0.5 0 -0.10424277262772411 0.47875929272709239 0 -0.1746876956987877 0.080749023364159914 0 -0.1497752624711024 0.092404754096078526 0 -0.1746876956987877 0.080749023364159914 0 -0.1540034835557661 0.084817173108517691 0 -0.1497752624711024 0.092404754096078526 0 -0.1746876956987877 0.080749023364159914 0 -0.16663670162824429 0.09599241273175961 0 -0.1497752624711024 0.092404754096078526 0 -0.16876621462851871 0.067540885207125978 0 -0.1540034835557661 0.084817173108517691 0 -0.16876621462851871 0.067540885207125978 0 -0.1746876956987877 0.080749023364159914 0 -0.1540034835557661 0.084817173108517691 0 -0.16876621462851871 0.067540885207125978 0 -0.15667601658795341 0.06424035707085228 0 -0.1540034835557661 0.084817173108517691 0 -0.1746876956987877 0.080749023364159914 0 -0.19960012892647311 0.069093292632241315 0 -0.18391782523448649 0.065052946066559161 0 -0.1746876956987877 0.080749023364159914 0 -0.19960012892647311 0.069093292632241315 0 -0.16876621462851871 0.067540885207125978 0 -0.18391782523448649 0.065052946066559161 0 -0.1746876956987877 0.080749023364159914 0 -0.1746876956987877 0.080749023364159914 0 -0.18383333395580501 0.095327224214884737 0 -0.16663670162824429 0.09599241273175961 0 -0.1746876956987877 0.080749023364159914 0 -0.18383333395580501 0.095327224214884737 0 -0.18858630052142319 0.082138423239968977 0 -0.18383333395580501 0.095327224214884737 0 -0.17611782679844659 0.11075867155642111 0 -0.16663670162824429 0.09599241273175961 0 -0.18383333395580501 0.095327224214884737 0 -0.17611782679844659 0.11075867155642111 0 -0.18998875580727709 0.1062367745413714 0 -0.17611782679844659 0.11075867155642111 0 -0.19466210975850351 0.119648260718896 0 -0.17665148426277891 0.1263933483469476 0 -0.17611782679844659 0.11075867155642111 0 -0.19466210975850351 0.119648260718896 0 -0.18998875580727709 0.1062367745413714 0 -0.17611782679844659 0.11075867155642111 0 -0.16317531925559681 0.1231607542003217 0 -0.17665148426277891 0.1263933483469476 0 -0.17611782679844659 0.11075867155642111 0 -0.16317531925559681 0.1231607542003217 0 -0.15857605995149471 0.10876224593040019 0 -0.16663670162824429 0.09599241273175961 0 -0.1570822844257985 0.099479787965420133 0 -0.1497752624711024 0.092404754096078526 0 -0.17611782679844659 0.11075867155642111 0 -0.16663670162824429 0.09599241273175961 0 -0.15857605995149471 0.10876224593040019 0 -0.16663670162824429 0.09599241273175961 0 -0.15857605995149471 0.10876224593040019 0 -0.1570822844257985 0.099479787965420133 0 -0.1570822844257985 0.099479787965420133 0 -0.14877358015098041 0.1036716923109626 0 -0.1497752624711024 0.092404754096078526 0 -0.14877358015098041 0.1036716923109626 0 -0.14026609039652521 0.1203536664271762 0 -0.1392407524830136 0.10209346100990931 0 -0.15857605995149471 0.10876224593040019 0 -0.1570822844257985 0.099479787965420133 0 -0.14877358015098041 0.1036716923109626 0 -0.14877358015098041 0.1036716923109626 0 -0.1392407524830136 0.10209346100990931 0 -0.1497752624711024 0.092404754096078526 0 -0.16317531925559681 0.1231607542003217 0 -0.15857605995149471 0.10876224593040019 0 -0.14026609039652521 0.1203536664271762 0 -0.15857605995149471 0.10876224593040019 0 -0.14877358015098041 0.1036716923109626 0 -0.14026609039652521 0.1203536664271762 0 -0.14026609039652521 0.1203536664271762 0 -0.12807758088514329 0.1094925884079999 0 -0.12379328285889681 0.11583854925377519 0 -0.14026609039652521 0.1203536664271762 0 -0.12807758088514329 0.1094925884079999 0 -0.1392407524830136 0.10209346100990931 0 -0.14026609039652521 0.1203536664271762 0 -0.12379328285889681 0.11583854925377519 0 -0.117932977033919 0.1249899609003047 0 -0.12690990155583071 0.100532206000305 0 -0.1352622788255794 0.082307407319906087 0 -0.1138485410632052 0.10037445756896 0 -0.1392407524830136 0.10209346100990931 0 -0.12690990155583071 0.100532206000305 0 -0.1352622788255794 0.082307407319906087 0 -0.12807758088514329 0.1094925884079999 0 -0.1392407524830136 0.10209346100990931 0 -0.12690990155583071 0.100532206000305 0 -0.1392407524830136 0.10209346100990931 0 -0.1540034835557661 0.084817173108517691 0 -0.1392407524830136 0.10209346100990931 0 -0.1352622788255794 0.082307407319906087 0 -0.1540034835557661 0.084817173108517691 0 -0.1392407524830136 0.10209346100990931 0 -0.1540034835557661 0.084817173108517691 0 -0.1497752624711024 0.092404754096078526 0 -0.15667601658795341 0.06424035707085228 0 -0.1352622788255794 0.082307407319906087 0 -0.1540034835557661 0.084817173108517691 0 -0.15667601658795341 0.06424035707085228 0 -0.1352622788255794 0.082307407319906087 0 -0.15667601658795341 0.06424035707085228 0 -0.1352622788255794 0.082307407319906087 0 -0.13511712277255511 0.06630842894584757 0 -0.1352622788255794 0.082307407319906087 0 -0.13511712277255511 0.06630842894584757 0 -0.1218326549953173 0.066328162818498321 0 -0.13511712277255511 0.06630842894584757 0 -0.1218326549953173 0.066328162818498321 0 -0.12274958755979951 0.0520894025108736 0 -0.13511712277255511 0.06630842894584757 0 -0.13688253342977841 0.052378563044340729 0 -0.12274958755979951 0.0520894025108736 0 -0.13511712277255511 0.06630842894584757 0 -0.13688253342977841 0.052378563044340729 0 -0.14538961953292701 0.055689421543645402 0 -0.13688253342977841 0.052378563044340729 0 -0.13169216302489131 0.038025965440706973 0 -0.12274958755979951 0.0520894025108736 0 -0.13169216302489131 0.038025965440706973 0 -0.14470174363648011 0.044767956960221053 0 -0.1452412240921255 0.031698314304702373 0 -0.13688253342977841 0.052378563044340729 0 -0.13169216302489131 0.038025965440706973 0 -0.14470174363648011 0.044767956960221053 0 -0.14470174363648011 0.044767956960221053 0 -0.1452412240921255 0.031698314304702373 0 -0.15504240734940439 0.040580439775185759 0 -0.1452412240921255 0.031698314304702373 0 -0.15504240734940439 0.040580439775185759 0 -0.15508902491767171 0.028217775893328769 0 -0.14470174363648011 0.044767956960221053 0 -0.15504240734940439 0.040580439775185759 0 -0.15357068123786799 0.050751801696965387 0 -0.15667601658795341 0.06424035707085228 0 -0.13511712277255511 0.06630842894584757 0 -0.14538961953292701 0.055689421543645402 0 -0.15667601658795341 0.06424035707085228 0 -0.15357068123786799 0.050751801696965387 0 -0.14538961953292701 0.055689421543645402 0 -0.13688253342977841 0.052378563044340729 0 -0.14470174363648011 0.044767956960221053 0 -0.14538961953292701 0.055689421543645402 0 -0.14470174363648011 0.044767956960221053 0 -0.15357068123786799 0.050751801696965387 0 -0.14538961953292701 0.055689421543645402 0 -0.138196097687317 -0.0012428439792985841 0 -0.1314233852820951 0.0045994308721778159 0 -0.13863167855000941 0.010937281059007009 0 -0.12971617288639531 -0.0048886410824493919 0 -0.1314233852820951 0.0045994308721778159 0 -0.1220156274706712 0.0019540870090877772 0 -0.1314233852820951 0.0045994308721778159 0 -0.12774746673749759 0.013064643027644389 0 -0.1220156274706712 0.0019540870090877772 0 -0.1314233852820951 0.0045994308721778159 0 -0.12774746673749759 0.013064643027644389 0 -0.13863167855000941 0.010937281059007009 0 -0.13863167855000941 0.010937281059007009 0 -0.13511543787874519 0.02319885350183791 0 -0.1474984419664811 0.019422148255355889 0 -0.12774746673749759 0.013064643027644389 0 -0.13863167855000941 0.010937281059007009 0 -0.13511543787874519 0.02319885350183791 0 -0.12774746673749759 0.013064643027644389 0 -0.13511543787874519 0.02319885350183791 0 -0.1212803943925771 0.025361154101400881 0 -0.13169216302489131 0.038025965440706973 0 -0.13511543787874519 0.02319885350183791 0 -0.1212803943925771 0.025361154101400881 0 -0.13169216302489131 0.038025965440706973 0 -0.1452412240921255 0.031698314304702373 0 -0.13511543787874519 0.02319885350183791 0 -0.1452412240921255 0.031698314304702373 0 -0.13511543787874519 0.02319885350183791 0 -0.1474984419664811 0.019422148255355889 0 -0.1452412240921255 0.031698314304702373 0 -0.15508902491767171 0.028217775893328769 0 -0.1474984419664811 0.019422148255355889 0 -0.15508902491767171 0.028217775893328769 0 -0.1474984419664811 0.019422148255355889 0 -0.1604864349811442 0.017043794520442121 0 -0.13863167855000941 0.010937281059007009 0 -0.1474984419664811 0.019422148255355889 0 -0.14850172110235091 0.008278866845730426 0 -0.14850172110235091 0.008278866845730426 0 -0.15749918475220409 0.0018061885736658111 0 -0.1604864349811442 0.017043794520442121 0 -0.1474984419664811 0.019422148255355889 0 -0.14850172110235091 0.008278866845730426 0 -0.1604864349811442 0.017043794520442121 0 -0.14863338206775739 -0.002425641076573675 0 -0.14850172110235091 0.008278866845730426 0 -0.15749918475220409 0.0018061885736658111 0 -0.14863338206775739 -0.002425641076573675 0 -0.138196097687317 -0.0012428439792985841 0 -0.14850172110235091 0.008278866845730426 0 -0.138196097687317 -0.0012428439792985841 0 -0.13863167855000941 0.010937281059007009 0 -0.14850172110235091 0.008278866845730426 0 -0.16572219389092219 -0.0044745056804275131 0 -0.15749918475220409 0.0018061885736658111 0 -0.17501020970268871 0.0078973388405579065 0 -0.15749918475220409 0.0018061885736658111 0 -0.1604864349811442 0.017043794520442121 0 -0.17501020970268871 0.0078973388405579065 0 -0.1604864349811442 0.017043794520442121 0 -0.16328531872290969 0.025996151065159241 0 -0.17139513554863381 0.02347707979341539 0 -0.1604864349811442 0.017043794520442121 0 -0.17139513554863381 0.02347707979341539 0 -0.17501020970268871 0.0078973388405579065 0 -0.15508902491767171 0.028217775893328769 0 -0.16328531872290969 0.025996151065159241 0 -0.16356807267498241 0.036347275816442447 0 -0.15508902491767171 0.028217775893328769 0 -0.1604864349811442 0.017043794520442121 0 -0.16328531872290969 0.025996151065159241 0 -0.16328531872290969 0.025996151065159241 0 -0.17139513554863381 0.02347707979341539 0 -0.17166756579139059 0.033795857393964963 0 -0.17139513554863381 0.02347707979341539 0 -0.18378157505448009 0.020682531383144669 0 -0.18341695881280221 0.032266505313680777 0 -0.17139513554863381 0.02347707979341539 0 -0.17166756579139059 0.033795857393964963 0 -0.18341695881280221 0.032266505313680777 0 -0.17139513554863381 0.02347707979341539 0 -0.18378157505448009 0.020682531383144669 0 -0.17501020970268871 0.0078973388405579065 0 -0.18378157505448009 0.020682531383144669 0 -0.17501020970268871 0.0078973388405579065 0 -0.19334670028366549 0.010640261418027579 0 -0.19311437565142209 -0.013302172517242951 0 -0.17501020970268871 0.0078973388405579065 0 -0.19334670028366549 0.010640261418027579 0 -0.15667601658795341 0.06424035707085228 0 -0.15357068123786799 0.050751801696965387 0 -0.1644888490155231 0.046666768547198423 0 -0.16876621462851871 0.067540885207125978 0 -0.15667601658795341 0.06424035707085228 0 -0.17808975435032759 0.046173306821798397 0 -0.15667601658795341 0.06424035707085228 0 -0.1644888490155231 0.046666768547198423 0 -0.17808975435032759 0.046173306821798397 0 -0.15667601658795341 0.06424035707085228 0 -0.17808975435032759 0.046173306821798397 0 -0.15504240734940439 0.040580439775185759 0 -0.15357068123786799 0.050751801696965387 0 -0.1644888490155231 0.046666768547198423 0 -0.15504240734940439 0.040580439775185759 0 -0.16356807267498241 0.036347275816442447 0 -0.1644888490155231 0.046666768547198423 0 -0.15504240734940439 0.040580439775185759 0 -0.15508902491767171 0.028217775893328769 0 -0.16356807267498241 0.036347275816442447 0 -0.16328531872290969 0.025996151065159241 0 -0.16356807267498241 0.036347275816442447 0 -0.17166756579139059 0.033795857393964963 0 -0.16356807267498241 0.036347275816442447 0 -0.17166756579139059 0.033795857393964963 0 -0.1711302671337914 0.040422187840192907 0 -0.16356807267498241 0.036347275816442447 0 -0.1644888490155231 0.046666768547198423 0 -0.1711302671337914 0.040422187840192907 0 -0.1644888490155231 0.046666768547198423 0 -0.1711302671337914 0.040422187840192907 0 -0.17808975435032759 0.046173306821798397 0 -0.17783709383673321 0.039127730621560317 0 -0.18341695881280221 0.032266505313680777 0 -0.1835289457012714 0.050264597305734203 0 -0.1711302671337914 0.040422187840192907 0 -0.17783709383673321 0.039127730621560317 0 -0.17808975435032759 0.046173306821798397 0 -0.17166756579139059 0.033795857393964963 0 -0.17783709383673321 0.039127730621560317 0 -0.18341695881280221 0.032266505313680777 0 -0.17166756579139059 0.033795857393964963 0 -0.1711302671337914 0.040422187840192907 0 -0.17783709383673321 0.039127730621560317 0 -0.17783709383673321 0.039127730621560317 0 -0.17808975435032759 0.046173306821798397 0 -0.1835289457012714 0.050264597305734203 0 -0.16876621462851871 0.067540885207125978 0 -0.1835289457012714 0.050264597305734203 0 -0.16876621462851871 0.067540885207125978 0 -0.17808975435032759 0.046173306821798397 0 -0.1835289457012714 0.050264597305734203 0 -0.16876621462851871 0.067540885207125978 0 -0.18391782523448649 0.065052946066559161 0 -0.1835289457012714 0.050264597305734203 0 -0.18391782523448649 0.065052946066559161 0 -0.1835289457012714 0.050264597305734203 0 -0.19219855705777561 0.056423513926598917 0 -0.19219855705777561 0.056423513926598917 0 -0.2015018340915618 0.049149508348839313 0 -0.19960012892647311 0.069093292632241315 0 -0.19219855705777561 0.056423513926598917 0 -0.2015018340915618 0.049149508348839313 0 -0.19388025340615819 0.047206482246378703 0 -0.1835289457012714 0.050264597305734203 0 -0.19219855705777561 0.056423513926598917 0 -0.19388025340615819 0.047206482246378703 0 -0.18341695881280221 0.032266505313680777 0 -0.1835289457012714 0.050264597305734203 0 -0.19829167677402409 0.032988309404342421 0 -0.2015018340915618 0.049149508348839313 0 -0.19388025340615819 0.047206482246378703 0 -0.19829167677402409 0.032988309404342421 0 -0.1835289457012714 0.050264597305734203 0 -0.19829167677402409 0.032988309404342421 0 -0.1835289457012714 0.050264597305734203 0 -0.19388025340615819 0.047206482246378703 0 -0.19829167677402409 0.032988309404342421 0 -0.2015018340915618 0.049149508348839313 0 -0.22173168782306979 0.02910317947580272 0 -0.2015018340915618 0.049149508348839313 0 -0.19829167677402409 0.032988309404342421 0 -0.22173168782306979 0.02910317947580272 0 -0.2015018340915618 0.049149508348839313 0 -0.22173168782306979 0.02910317947580272 0 -0.22451256215415821 0.057437561900322801 0 -0.2015018340915618 0.049149508348839313 0 -0.22451256215415821 0.057437561900322801 0 -0.19960012892647311 0.069093292632241315 0 -0.19311437565142209 -0.013302172517242951 0 -0.19334670028366549 0.010640261418027579 0 -0.20649512966498809 0.002680520641606109 0 -0.19334670028366549 0.010640261418027579 0 -0.20824056762882751 0.016852778573717489 0 -0.20649512966498809 0.002680520641606109 0 -0.18378157505448009 0.020682531383144669 0 -0.19829167677402409 0.032988309404342421 0 -0.19334670028366549 0.010640261418027579 0 -0.19829167677402409 0.032988309404342421 0 -0.19334670028366549 0.010640261418027579 0 -0.20824056762882751 0.016852778573717489 0 -0.18378157505448009 0.020682531383144669 0 -0.18341695881280221 0.032266505313680777 0 -0.19829167677402409 0.032988309404342421 0 -0.20824056762882751 0.016852778573717489 0 -0.2228550696423941 0.01000615207606626 0 -0.22173168782306979 0.02910317947580272 0 -0.19829167677402409 0.032988309404342421 0 -0.20824056762882751 0.016852778573717489 0 -0.22173168782306979 0.02910317947580272 0 -0.20824056762882751 0.016852778573717489 0 -0.20649512966498809 0.002680520641606109 0 -0.2228550696423941 0.01000615207606626 0 -0.21795378720663991 -0.0084853560480224882 0 -0.20649512966498809 0.002680520641606109 0 -0.2228550696423941 0.01000615207606626 0 -0.21795378720663991 -0.0084853560480224882 0 -0.2228550696423941 0.01000615207606626 0 -0.23139089929136741 0.001727276763001965 0 -0.2228550696423941 0.01000615207606626 0 -0.23139089929136741 0.001727276763001965 0 -0.24196154155457791 0.0090568506027661339 0 -0.2228550696423941 0.01000615207606626 0 -0.22173168782306979 0.02910317947580272 0 -0.24196154155457791 0.0090568506027661339 0 -0.22173168782306979 0.02910317947580272 0 -0.24196154155457791 0.0090568506027661339 0 -0.22173168782306979 0.02910317947580272 0 -0.24090254331124639 0.028602177090308319 0 -0.24196154155457791 0.0090568506027661339 0 -0.25748244358322059 0.018964770254950119 0 -0.24090254331124639 0.028602177090308319 0 -0.24942499538184509 0.045781831168407942 0 -0.25748244358322059 0.018964770254950119 0 -0.24090254331124639 0.028602177090308319 0 -0.24196154155457791 0.0090568506027661339 0 -0.2427931987618577 -0.0036685395788020412 0 -0.23139089929136741 0.001727276763001965 0 -0.24196154155457791 0.0090568506027661339 0 -0.22451256215415821 0.057437561900322801 0 -0.24464414148606439 0.061693624448037568 0 -0.23238615635689491 0.06811812919264143 0 -0.22173168782306979 0.02910317947580272 0 -0.22451256215415821 0.057437561900322801 0 -0.2338271510733278 0.041081563106745413 0 -0.22173168782306979 0.02910317947580272 0 -0.24090254331124639 0.028602177090308319 0 -0.2338271510733278 0.041081563106745413 0 -0.24090254331124639 0.028602177090308319 0 -0.2338271510733278 0.041081563106745413 0 -0.24942499538184509 0.045781831168407942 0 -0.24942499538184509 0.045781831168407942 0 -0.24464414148606439 0.061693624448037568 0 -0.22451256215415821 0.057437561900322801 0 -0.24942499538184509 0.045781831168407942 0 -0.22451256215415821 0.057437561900322801 0 -0.24942499538184509 0.045781831168407942 0 -0.24464414148606439 0.061693624448037568 0 -0.22451256215415821 0.057437561900322801 0 -0.2338271510733278 0.041081563106745413 0 -0.24942499538184509 0.045781831168407942 0 -0.24464414148606439 0.061693624448037568 0 -0.23986328759028161 0.077605417727666604 0 -0.25859238441198168 0.064741527443465369 0 -0.24464414148606439 0.061693624448037568 0 -0.23986328759028161 0.077605417727666604 0 -0.24464414148606439 0.061693624448037568 0 -0.23986328759028161 0.077605417727666604 0 -0.23238615635689491 0.06811812919264143 0 -0.23986328759028161 0.077605417727666604 0 -0.23451018389604361 0.095421791380551887 0 -0.24605046256145291 0.094372560587190721 0 -0.25737800176791342 0.088318491033901395 0 -0.23986328759028161 0.077605417727666604 0 -0.24605046256145291 0.094372560587190721 0 -0.23986328759028161 0.077605417727666604 0 -0.23451018389604361 0.095421791380551887 0 -0.21804366554745441 0.080494785238128794 0 -0.21856810978563179 0.095383719139406284 0 -0.23451018389604361 0.095421791380551887 0 -0.23986328759028161 0.077605417727666604 0 -0.21804366554745441 0.080494785238128794 0 -0.23986328759028161 0.077605417727666604 0 -0.21804366554745441 0.080494785238128794 0 -0.23451018389604361 0.095421791380551887 0 -0.22451256215415821 0.057437561900322801 0 -0.23238615635689491 0.06811812919264143 0 -0.21804366554745441 0.080494785238128794 0 -0.23986328759028161 0.077605417727666604 0 -0.23238615635689491 0.06811812919264143 0 -0.21804366554745441 0.080494785238128794 0 -0.22451256215415821 0.057437561900322801 0 -0.21804366554745441 0.080494785238128794 0 -0.19960012892647311 0.069093292632241315 0 -0.21804366554745441 0.080494785238128794 0 -0.1962240435046271 0.083384152748589971 0 -0.19960012892647311 0.069093292632241315 0 -0.22451256215415821 0.057437561900322801 0 -0.19960012892647311 0.069093292632241315 0 -0.21804366554745441 0.080494785238128794 0 -0.1962240435046271 0.083384152748589971 0 -0.21804366554745441 0.080494785238128794 0 -0.20763399305635119 0.092116495234314116 0 -0.1962240435046271 0.083384152748589971 0 -0.21804366554745441 0.080494785238128794 0 -0.20763399305635119 0.092116495234314116 0 -0.21856810978563179 0.095383719139406284 0 -0.20763399305635119 0.092116495234314116 0 -0.1962240435046271 0.083384152748589971 0 -0.19702972310174899 0.095959810072547141 0 -0.18383333395580501 0.095327224214884737 0 -0.1962240435046271 0.083384152748589971 0 -0.18858630052142319 0.082138423239968977 0 -0.18383333395580501 0.095327224214884737 0 -0.1962240435046271 0.083384152748589971 0 -0.19702972310174899 0.095959810072547141 0 -0.1962240435046271 0.083384152748589971 0 -0.18858630052142319 0.082138423239968977 0 -0.19960012892647311 0.069093292632241315 0 -0.1746876956987877 0.080749023364159914 0 -0.18858630052142319 0.082138423239968977 0 -0.19960012892647311 0.069093292632241315 0 -0.18391782523448649 0.065052946066559161 0 -0.19219855705777561 0.056423513926598917 0 -0.19960012892647311 0.069093292632241315 0 -0.19466210975850351 0.119648260718896 0 -0.18998875580727709 0.1062367745413714 0 -0.20830442334229379 0.10536000897289841 0 -0.18998875580727709 0.1062367745413714 0 -0.19702972310174899 0.095959810072547141 0 -0.20830442334229379 0.10536000897289841 0 -0.18383333395580501 0.095327224214884737 0 -0.18998875580727709 0.1062367745413714 0 -0.19702972310174899 0.095959810072547141 0 -0.20830442334229379 0.10536000897289841 0 -0.21856810978563179 0.095383719139406284 0 -0.22448013236746969 0.10644179428938071 0 -0.20763399305635119 0.092116495234314116 0 -0.19702972310174899 0.095959810072547141 0 -0.20830442334229379 0.10536000897289841 0 -0.20763399305635119 0.092116495234314116 0 -0.20830442334229379 0.10536000897289841 0 -0.21856810978563179 0.095383719139406284 0 -0.20830442334229379 0.10536000897289841 0 -0.21410328032679321 0.1168201319318857 0 -0.22448013236746969 0.10644179428938071 0 -0.19466210975850351 0.119648260718896 0 -0.21410328032679321 0.1168201319318857 0 -0.20873011349354301 0.13250421033061449 0 -0.19466210975850351 0.119648260718896 0 -0.20830442334229379 0.10536000897289841 0 -0.21410328032679321 0.1168201319318857 0 -0.21410328032679321 0.1168201319318857 0 -0.23373295572960229 0.1190052593484876 0 -0.20873011349354301 0.13250421033061449 0 -0.21410328032679321 0.1168201319318857 0 -0.23373295572960229 0.1190052593484876 0 -0.22448013236746969 0.10644179428938071 0 -0.23373295572960229 0.1190052593484876 0 -0.22448013236746969 0.10644179428938071 0 -0.2397650415873635 0.1050107944274716 0 -0.21856810978563179 0.095383719139406284 0 -0.22448013236746969 0.10644179428938071 0 -0.23451018389604361 0.095421791380551887 0 -0.22448013236746969 0.10644179428938071 0 -0.23451018389604361 0.095421791380551887 0 -0.2397650415873635 0.1050107944274716 0 -0.25873579796566237 0.105506308366362 0 -0.2397650415873635 0.1050107944274716 0 -0.24605046256145291 0.094372560587190721 0 -0.23451018389604361 0.095421791380551887 0 -0.2397650415873635 0.1050107944274716 0 -0.24605046256145291 0.094372560587190721 0 -0.25873579796566237 0.105506308366362 0 -0.23373295572960229 0.1190052593484876 0 -0.25873579796566237 0.105506308366362 0 -0.23373295572960229 0.1190052593484876 0 -0.2397650415873635 0.1050107944274716 0 -0.25873579796566237 0.105506308366362 0 -0.23373295572960229 0.1190052593484876 0 -0.24272891764110521 0.12352254410664849 0 -0.25168568898611637 0.12875154429823971 0 -0.24272891764110521 0.12352254410664849 0 -0.24642363851099339 0.13889898540617099 0 -0.24272891764110521 0.12352254410664849 0 -0.24642363851099339 0.13889898540617099 0 -0.22672203731654689 0.14153877984693389 0 -0.24272891764110521 0.12352254410664849 0 -0.22672203731654689 0.14153877984693389 0 -0.23373295572960229 0.1190052593484876 0 -0.24272891764110521 0.12352254410664849 0 -0.22672203731654689 0.14153877984693389 0 -0.23373295572960229 0.1190052593484876 0 -0.20873011349354301 0.13250421033061449 0 -0.23373295572960229 0.1190052593484876 0 -0.22672203731654689 0.14153877984693389 0 -0.20873011349354301 0.13250421033061449 0 -0.22672203731654689 0.14153877984693389 0 -0.24042581294662699 0.15303124321597519 0 -0.23011126116828501 0.16298198794404609 0 -0.22672203731654689 0.14153877984693389 0 -0.23011126116828501 0.16298198794404609 0 -0.2107151569919887 0.15955501558721941 0 -0.24642363851099339 0.13889898540617099 0 -0.22672203731654689 0.14153877984693389 0 -0.24042581294662699 0.15303124321597519 0 -0.25521710632945888 0.15352668075741649 0 -0.24642363851099339 0.13889898540617099 0 -0.24042581294662699 0.15303124321597519 0 -0.25521710632945888 0.15352668075741649 0 -0.24042581294662699 0.15303124321597519 0 -0.2437867940321462 0.16737590837235569 0 -0.2437867940321462 0.16737590837235569 0 -0.23609197510005139 0.17914205526238661 0 -0.23011126116828501 0.16298198794404609 0 -0.24042581294662699 0.15303124321597519 0 -0.2437867940321462 0.16737590837235569 0 -0.23011126116828501 0.16298198794404609 0 -0.2437867940321462 0.16737590837235569 0 -0.24834674495110531 0.1830948443989967 0 -0.23609197510005139 0.17914205526238661 0 -0.25636881993956773 0.16811917034005569 0 -0.2437867940321462 0.16737590837235569 0 -0.24834674495110531 0.1830948443989967 0 -0.24834674495110531 0.1830948443989967 0 -0.23609197510005139 0.17914205526238661 0 -0.2372088376796202 0.19097681962462981 0 -0.23609197510005139 0.17914205526238661 0 -0.22324204492065861 0.17524762837232019 0 -0.23011126116828501 0.16298198794404609 0 -0.23609197510005139 0.17914205526238661 0 -0.22689381973839309 0.18598711868996209 0 -0.2372088376796202 0.19097681962462981 0 -0.23609197510005139 0.17914205526238661 0 -0.22689381973839309 0.18598711868996209 0 -0.22324204492065861 0.17524762837232019 0 -0.22689381973839309 0.18598711868996209 0 -0.22324204492065861 0.17524762837232019 0 -0.21198333074245429 0.18761769431736841 0 -0.22324204492065861 0.17524762837232019 0 -0.23011126116828501 0.16298198794404609 0 -0.2107151569919887 0.15955501558721941 0 -0.22324204492065861 0.17524762837232019 0 -0.2107151569919887 0.15955501558721941 0 -0.21198333074245429 0.18761769431736841 0 -0.2107151569919887 0.15955501558721941 0 -0.19470827666743051 0.1775712513275047 0 -0.21198333074245429 0.18761769431736841 0 -0.19470827666743051 0.1775712513275047 0 -0.19152601795077709 0.15885866476066449 0 -0.17776161767401449 0.18006114629094089 0 -0.2107151569919887 0.15955501558721941 0 -0.19470827666743051 0.1775712513275047 0 -0.19152601795077709 0.15885866476066449 0 -0.2107151569919887 0.15955501558721941 0 -0.19470827666743051 0.1775712513275047 0 -0.19152601795077709 0.15885866476066449 0 -0.20873011349354301 0.13250421033061449 0 -0.18463335175885059 0.14056294412537779 0 -0.19466210975850351 0.119648260718896 0 -0.20873011349354301 0.13250421033061449 0 -0.18463335175885059 0.14056294412537779 0 -0.22672203731654689 0.14153877984693389 0 -0.2107151569919887 0.15955501558721941 0 -0.2107151569919887 0.15955501558721941 0 -0.19152601795077709 0.15885866476066449 0 -0.20873011349354301 0.13250421033061449 0 -0.22672203731654689 0.14153877984693389 0 -0.2107151569919887 0.15955501558721941 0 -0.20873011349354301 0.13250421033061449 0 -0.21940482384434509 0.24966385833645399 0 -0.22237350357551111 0.23939137881337269 0 -0.22739359172225859 0.24818293685744561 0 -0.23263275481171219 0.24005182055690319 0 -0.23527603452027079 0.2321255237276805 0 -0.22809407437735749 0.23228098287066351 0 -0.22237350357551111 0.23939137881337269 0 -0.23263275481171219 0.24005182055690319 0 -0.22809407437735749 0.23228098287066351 0 -0.2396106915491982 0.25066135732940797 0 -0.23263275481171219 0.24005182055690319 0 -0.22739359172225859 0.24818293685744561 0 -0.22237350357551111 0.23939137881337269 0 -0.23263275481171219 0.24005182055690319 0 -0.22739359172225859 0.24818293685744561 0 -0.2396106915491982 0.25066135732940797 0 -0.23263275481171219 0.24005182055690319 0 -0.24236692453893069 0.23758258267971191 0 -0.25050177323748762 0.24551408611508191 0 -0.2396106915491982 0.25066135732940797 0 -0.24236692453893069 0.23758258267971191 0 -0.25487571445195373 0.23126666493614109 0 -0.25050177323748762 0.24551408611508191 0 -0.24236692453893069 0.23758258267971191 0 -0.23263275481171219 0.24005182055690319 0 -0.24236692453893069 0.23758258267971191 0 -0.23527603452027079 0.2321255237276805 0 -0.23527603452027079 0.2321255237276805 0 -0.2417191152987867 0.225615455203411 0 -0.23339661176515361 0.22483688637011459 0 -0.25130617358851592 0.21321052932258441 0 -0.25487571445195373 0.23126666493614109 0 -0.2417191152987867 0.225615455203411 0 -0.24236692453893069 0.23758258267971191 0 -0.23527603452027079 0.2321255237276805 0 -0.2417191152987867 0.225615455203411 0 -0.25487571445195373 0.23126666493614109 0 -0.24236692453893069 0.23758258267971191 0 -0.2417191152987867 0.225615455203411 0 -0.2417191152987867 0.225615455203411 0 -0.23339661176515361 0.22483688637011459 0 -0.23663052232484311 0.21709939574879689 0 -0.22526331230450969 0.21706307430002089 0 -0.21331778692939921 0.24314932897541189 0 -0.22237350357551111 0.23939137881337269 0 -0.22526331230450969 0.21706307430002089 0 -0.21331778692939921 0.24314932897541189 0 -0.23339661176515361 0.22483688637011459 0 -0.22526331230450969 0.21706307430002089 0 -0.23663052232484311 0.21709939574879689 0 -0.22237350357551111 0.23939137881337269 0 -0.22809407437735749 0.23228098287066351 0 -0.22526331230450969 0.21706307430002089 0 -0.23339661176515361 0.22483688637011459 0 -0.22809407437735749 0.23228098287066351 0 -0.22526331230450969 0.21706307430002089 0 -0.23527603452027079 0.2321255237276805 0 -0.23339661176515361 0.22483688637011459 0 -0.22809407437735749 0.23228098287066351 0 -0.22526331230450969 0.21706307430002089 0 -0.23861262738543049 0.20720024645361301 0 -0.2372088376796202 0.19097681962462981 0 -0.22526331230450969 0.21706307430002089 0 -0.2372088376796202 0.19097681962462981 0 -0.2248500032763488 0.19671060325777379 0 -0.2158189014967675 0.21818327295856171 0 -0.22526331230450969 0.21706307430002089 0 -0.2248500032763488 0.19671060325777379 0 -0.2158189014967675 0.21818327295856171 0 -0.22526331230450969 0.21706307430002089 0 -0.23663052232484311 0.21709939574879689 0 -0.23861262738543049 0.20720024645361301 0 -0.25130617358851592 0.21321052932258441 0 -0.23663052232484311 0.21709939574879689 0 -0.23861262738543049 0.20720024645361301 0 -0.25130617358851592 0.21321052932258441 0 -0.2417191152987867 0.225615455203411 0 -0.23663052232484311 0.21709939574879689 0 -0.25130617358851592 0.21321052932258441 0 -0.23861262738543049 0.20720024645361301 0 -0.2446305427067143 0.19890980414057521 0 -0.25536353563914621 0.19572747402506341 0 -0.24834674495110531 0.1830948443989967 0 -0.2446305427067143 0.19890980414057521 0 -0.23861262738543049 0.20720024645361301 0 -0.2446305427067143 0.19890980414057521 0 -0.2372088376796202 0.19097681962462981 0 -0.24834674495110531 0.1830948443989967 0 -0.2446305427067143 0.19890980414057521 0 -0.2372088376796202 0.19097681962462981 0 -0.22526331230450969 0.21706307430002089 0 -0.2372088376796202 0.19097681962462981 0 -0.2248500032763488 0.19671060325777379 0 -0.22689381973839309 0.18598711868996209 0 -0.2372088376796202 0.19097681962462981 0 -0.2248500032763488 0.19671060325777379 0 -0.22689381973839309 0.18598711868996209 0 -0.2248500032763488 0.19671060325777379 0 -0.21198333074245429 0.18761769431736841 0 -0.2248500032763488 0.19671060325777379 0 -0.21198333074245429 0.18761769431736841 0 -0.21125565471359431 0.20269610788386941 0 -0.21198333074245429 0.18761769431736841 0 -0.21125565471359431 0.20269610788386941 0 -0.19902410942051019 0.19817643543259719 0 -0.19470827666743051 0.1775712513275047 0 -0.19902410942051019 0.19817643543259719 0 -0.1788221898267236 0.19715687718134081 0 -0.19470827666743051 0.1775712513275047 0 -0.21198333074245429 0.18761769431736841 0 -0.19902410942051019 0.19817643543259719 0 -0.19902410942051019 0.19817643543259719 0 -0.19089746448235989 0.2094811626676614 0 -0.1788221898267236 0.19715687718134081 0 -0.19902410942051019 0.19817643543259719 0 -0.19089746448235989 0.2094811626676614 0 -0.20460192863189061 0.2127925334530458 0 -0.19089746448235989 0.2094811626676614 0 -0.19760341498395559 0.2210365493482383 0 -0.17954222112279131 0.22028733385771601 0 -0.19089746448235989 0.2094811626676614 0 -0.20460192863189061 0.2127925334530458 0 -0.19760341498395559 0.2210365493482383 0 -0.20460192863189061 0.2127925334530458 0 -0.20592649485764339 0.21994565472899269 0 -0.19760341498395559 0.2210365493482383 0 -0.2248500032763488 0.19671060325777379 0 -0.21125565471359431 0.20269610788386941 0 -0.2158189014967675 0.21818327295856171 0 -0.21125565471359431 0.20269610788386941 0 -0.20460192863189061 0.2127925334530458 0 -0.2158189014967675 0.21818327295856171 0 -0.20460192863189061 0.2127925334530458 0 -0.2158189014967675 0.21818327295856171 0 -0.20592649485764339 0.21994565472899269 0 -0.21125565471359431 0.20269610788386941 0 -0.19902410942051019 0.19817643543259719 0 -0.20460192863189061 0.2127925334530458 0 -0.22526331230450969 0.21706307430002089 0 -0.2158189014967675 0.21818327295856171 0 -0.21331778692939921 0.24314932897541189 0 -0.2158189014967675 0.21818327295856171 0 -0.20678779971718619 0.2396559426593495 0 -0.21331778692939921 0.24314932897541189 0 -0.2158189014967675 0.21818327295856171 0 -0.20678779971718619 0.2396559426593495 0 -0.2158189014967675 0.21818327295856171 0 -0.20568173431796 0.22777026315612511 0 -0.20678779971718619 0.2396559426593495 0 -0.2158189014967675 0.21818327295856171 0 -0.20568173431796 0.22777026315612511 0 -0.20592649485764339 0.21994565472899269 0 -0.19618446244501889 0.2324813324233472 0 -0.18864945953019849 0.2407079731089268 0 -0.17954222112279131 0.22028733385771601 0 -0.20568173431796 0.22777026315612511 0 -0.20592649485764339 0.21994565472899269 0 -0.19760341498395559 0.2210365493482383 0 -0.19760341498395559 0.2210365493482383 0 -0.19618446244501889 0.2324813324233472 0 -0.17954222112279131 0.22028733385771601 0 -0.20568173431796 0.22777026315612511 0 -0.19760341498395559 0.2210365493482383 0 -0.19618446244501889 0.2324813324233472 0 -0.20568173431796 0.22777026315612511 0 -0.19618446244501889 0.2324813324233472 0 -0.20678779971718619 0.2396559426593495 0 -0.19775669793760531 0.26112861236013762 0 -0.18864945953019849 0.2407079731089268 0 -0.19751509092433711 0.24364424099952481 0 -0.19618446244501889 0.2324813324233472 0 -0.19751509092433711 0.24364424099952481 0 -0.20678779971718619 0.2396559426593495 0 -0.19775669793760531 0.26112861236013762 0 -0.19751509092433711 0.24364424099952481 0 -0.20678779971718619 0.2396559426593495 0 -0.19618446244501889 0.2324813324233472 0 -0.18864945953019849 0.2407079731089268 0 -0.19751509092433711 0.24364424099952481 0 -0.19775669793760531 0.26112861236013762 0 -0.20678779971718619 0.2396559426593495 0 -0.21331778692939921 0.24314932897541189 0 -0.21940482384434509 0.24966385833645399 0 -0.22237350357551111 0.23939137881337269 0 -0.21331778692939921 0.24314932897541189 0 -0.1613056348774605 0.25227308847041552 0 -0.17091129445078801 0.23687654089008689 0 -0.1531868459719341 0.23298214756731789 0 -0.17353428421445691 0.25007945563794148 0 -0.1613056348774605 0.25227308847041552 0 -0.17091129445078801 0.23687654089008689 0 -0.17353428421445691 0.25007945563794148 0 -0.18864945953019849 0.2407079731089268 0 -0.17091129445078801 0.23687654089008689 0 -0.18441986170046809 0.2550348252524271 0 -0.17353428421445691 0.25007945563794148 0 -0.18864945953019849 0.2407079731089268 0 -0.18864945953019849 0.2407079731089268 0 -0.17091129445078801 0.23687654089008689 0 -0.17954222112279131 0.22028733385771601 0 -0.18864945953019849 0.2407079731089268 0 -0.17954222112279131 0.22028733385771601 0 -0.17091129445078801 0.23687654089008689 0 -0.17954222112279131 0.22028733385771601 0 -0.15990797247371319 0.20983642515242371 0 -0.17091129445078801 0.23687654089008689 0 -0.15990797247371319 0.20983642515242371 0 -0.1531868459719341 0.23298214756731789 0 -0.19089746448235989 0.2094811626676614 0 -0.17954222112279131 0.22028733385771601 0 -0.1788221898267236 0.19715687718134081 0 -0.17954222112279131 0.22028733385771601 0 -0.15990797247371319 0.20983642515242371 0 -0.1788221898267236 0.19715687718134081 0 -0.15990797247371319 0.20983642515242371 0 -0.1788221898267236 0.19715687718134081 0 -0.1619667199923161 0.183670933159823 0 -0.15990797247371319 0.20983642515242371 0 -0.1619667199923161 0.183670933159823 0 -0.1384230605616229 0.18453947031984619 0 -0.15990797247371319 0.20983642515242371 0 -0.136503475389816 0.2133416730908349 0 -0.1384230605616229 0.18453947031984619 0 -0.136503475389816 0.2133416730908349 0 -0.1384230605616229 0.18453947031984619 0 -0.119820104807698 0.19370119861435209 0 -0.136503475389816 0.2133416730908349 0 -0.119820104807698 0.19370119861435209 0 -0.15990797247371319 0.20983642515242371 0 -0.136503475389816 0.2133416730908349 0 -0.1531868459719341 0.23298214756731789 0 -0.136503475389816 0.2133416730908349 0 -0.1531868459719341 0.23298214756731789 0 -0.136503475389816 0.2133416730908349 0 -0.1531868459719341 0.23298214756731789 0 -0.1353718411527837 0.23342866312504501 0 -0.136503475389816 0.2133416730908349 0 -0.1353718411527837 0.23342866312504501 0 -0.1193735051047654 0.23165929220163881 0 -0.1353718411527837 0.23342866312504501 0 -0.12618237010676919 0.23948305500434899 0 -0.1193735051047654 0.23165929220163881 0 -0.1353718411527837 0.23342866312504501 0 -0.12618237010676919 0.23948305500434899 0 -0.13080009209158369 0.248653511388887 0 -0.12618237010676919 0.23948305500434899 0 -0.13080009209158369 0.248653511388887 0 -0.11834506109001321 0.24599273863695831 0 -0.1353718411527837 0.23342866312504501 0 -0.13080009209158369 0.248653511388887 0 -0.14338006668299039 0.24504042612717239 0 -0.1531868459719341 0.23298214756731789 0 -0.1353718411527837 0.23342866312504501 0 -0.14338006668299039 0.24504042612717239 0 -0.1613056348774605 0.25227308847041552 0 -0.1531868459719341 0.23298214756731789 0 -0.14338006668299039 0.24504042612717239 0 -0.15762510100064539 0.1391069964885909 0 -0.18463335175885059 0.14056294412537779 0 -0.17260759111883581 0.1628974209023297 0 -0.15762510100064539 0.1391069964885909 0 -0.17260759111883581 0.1628974209023297 0 -0.15106464882262649 0.16429201860202799 0 -0.16317531925559681 0.1231607542003217 0 -0.15762510100064539 0.1391069964885909 0 -0.17665148426277891 0.1263933483469476 0 -0.15762510100064539 0.1391069964885909 0 -0.18463335175885059 0.14056294412537779 0 -0.15762510100064539 0.1391069964885909 0 -0.18463335175885059 0.14056294412537779 0 -0.17665148426277891 0.1263933483469476 0 -0.19466210975850351 0.119648260718896 0 -0.18463335175885059 0.14056294412537779 0 -0.17665148426277891 0.1263933483469476 0 -0.19152601795077709 0.15885866476066449 0 -0.18463335175885059 0.14056294412537779 0 -0.17260759111883581 0.1628974209023297 0 -0.19152601795077709 0.15885866476066449 0 -0.17260759111883581 0.1628974209023297 0 -0.17776161767401449 0.18006114629094089 0 -0.19470827666743051 0.1775712513275047 0 -0.1788221898267236 0.19715687718134081 0 -0.17776161767401449 0.18006114629094089 0 -0.1788221898267236 0.19715687718134081 0 -0.17776161767401449 0.18006114629094089 0 -0.1619667199923161 0.183670933159823 0 -0.17260759111883581 0.1628974209023297 0 -0.17776161767401449 0.18006114629094089 0 -0.1619667199923161 0.183670933159823 0 -0.17260759111883581 0.1628974209023297 0 -0.1619667199923161 0.183670933159823 0 -0.15106464882262649 0.16429201860202799 0 -0.1619667199923161 0.183670933159823 0 -0.15106464882262649 0.16429201860202799 0 -0.1384230605616229 0.18453947031984619 0 -0.1384230605616229 0.18453947031984619 0 -0.1201196473384311 0.17637670440354 0 -0.119820104807698 0.19370119861435209 0 -0.1384230605616229 0.18453947031984619 0 -0.1281869871853642 0.1624363956469061 0 -0.1201196473384311 0.17637670440354 0 -0.15106464882262649 0.16429201860202799 0 -0.1384230605616229 0.18453947031984619 0 -0.1281869871853642 0.1624363956469061 0 -0.15106464882262649 0.16429201860202799 0 -0.1281869871853642 0.1624363956469061 0 -0.13061685024244041 0.13765104885180399 0 -0.15762510100064539 0.1391069964885909 0 -0.15106464882262649 0.16429201860202799 0 -0.13061685024244041 0.13765104885180399 0 -0.15762510100064539 0.1391069964885909 0 -0.13061685024244041 0.13765104885180399 0 -0.16317531925559681 0.1231607542003217 0 -0.14026609039652521 0.1203536664271762 0 -0.15762510100064539 0.1391069964885909 0 -0.14026609039652521 0.1203536664271762 0 -0.15762510100064539 0.1391069964885909 0 -0.13061685024244041 0.13765104885180399 0 -0.14026609039652521 0.1203536664271762 0 -0.13061685024244041 0.13765104885180399 0 -0.117932977033919 0.1249899609003047 0 -0.13061685024244041 0.13765104885180399 0 -0.1036085994842352 0.13619510121502121 0 -0.117932977033919 0.1249899609003047 0 -0.13061685024244041 0.13765104885180399 0 -0.1036085994842352 0.13619510121502121 0 -0.1036085994842352 0.13619510121502121 0 -0.094751464661697801 0.14555260315147109 0 -0.086951614690011433 0.13529716458579041 0 -0.1036085994842352 0.13619510121502121 0 -0.086951614690011433 0.13529716458579041 0 -0.093008698924671507 0.13310759294382651 0 -0.105538569733004 0.12819524742989369 0 -0.1037257929953531 0.1267907104072378 0 -0.1091649361089863 0.1216427434129702 0 -0.105538569733004 0.12819524742989369 0 -0.1037257929953531 0.1267907104072378 0 -0.1036085994842352 0.13619510121502121 0 -0.1036085994842352 0.13619510121502121 0 -0.086951614690011433 0.13529716458579041 0 -0.105538569733004 0.12819524742989369 0 -0.1036085994842352 0.13619510121502121 0 -0.117932977033919 0.1249899609003047 0 -0.1037257929953531 0.1267907104072378 0 -0.1036085994842352 0.13619510121502121 0 -0.105538569733004 0.12819524742989369 0 -0.1037257929953531 0.1267907104072378 0 -0.1037257929953531 0.1267907104072378 0 -0.088682851689845785 0.12873749640737309 0 -0.093008698924671507 0.13310759294382651 0 -0.1037257929953531 0.1267907104072378 0 -0.1036085994842352 0.13619510121502121 0 -0.093008698924671507 0.13310759294382651 0 -0.1036085994842352 0.13619510121502121 0 -0.1033726668549078 0.15512791267644499 0 -0.1160784551641694 0.14968328407141229 0 -0.1036085994842352 0.13619510121502121 0 -0.094751464661697801 0.14555260315147109 0 -0.1033726668549078 0.15512791267644499 0 -0.1036085994842352 0.13619510121502121 0 -0.1033726668549078 0.15512791267644499 0 -0.094751464661697801 0.14555260315147109 0 -0.1033726668549078 0.15512791267644499 0 -0.087783927975527892 0.15520717764337441 0 -0.1281869871853642 0.1624363956469061 0 -0.13061685024244041 0.13765104885180399 0 -0.1160784551641694 0.14968328407141229 0 -0.13061685024244041 0.13765104885180399 0 -0.1036085994842352 0.13619510121502121 0 -0.1160784551641694 0.14968328407141229 0 -0.1281869871853642 0.1624363956469061 0 -0.1160784551641694 0.14968328407141229 0 -0.1134984240552141 0.16472197132484001 0 -0.1134984240552141 0.16472197132484001 0 -0.1201196473384311 0.17637670440354 0 -0.1031367342255802 0.17406072413786891 0 -0.1281869871853642 0.1624363956469061 0 -0.1134984240552141 0.16472197132484001 0 -0.1201196473384311 0.17637670440354 0 -0.1033726668549078 0.15512791267644499 0 -0.1160784551641694 0.14968328407141229 0 -0.1134984240552141 0.16472197132484001 0 -0.1031367342255802 0.17406072413786891 0 -0.119820104807698 0.19370119861435209 0 -0.1201196473384311 0.17637670440354 0 -0.1031367342255802 0.17406072413786891 0 -0.119820104807698 0.19370119861435209 0 -0.1030615486394274 0.18009411821021501 0 -0.1031367342255802 0.17406072413786891 0 -0.119820104807698 0.19370119861435209 0 -0.1030615486394274 0.18009411821021501 0 -0.1031367342255802 0.17406072413786891 0 -0.1031367342255802 0.17406072413786891 0 -0.1018984921351946 0.17260300538420281 0 -0.1018984921351946 0.17260300538420281 0 -0.098180323065286026 0.17701612495541519 0 -0.092423853210291576 0.16670351718698551 0 -0.1031367342255802 0.17406072413786891 0 -0.1018984921351946 0.17260300538420281 0 -0.098180323065286026 0.17701612495541519 0 -0.1030615486394274 0.18009411821021501 0 -0.1031367342255802 0.17406072413786891 0 -0.098180323065286026 0.17701612495541519 0 -0.1030615486394274 0.18009411821021501 0 -0.098180323065286026 0.17701612495541519 0 -0.0936165913377352 0.18667570100994299 0 -0.1030615486394274 0.18009411821021501 0 -0.0936165913377352 0.18667570100994299 0 -0.1046679756608693 0.1936673705932602 0 -0.1033726668549078 0.15512791267644499 0 -0.1031367342255802 0.17406072413786891 0 -0.1018984921351946 0.17260300538420281 0 -0.1033726668549078 0.15512791267644499 0 -0.1018984921351946 0.17260300538420281 0 -0.092423853210291576 0.16670351718698551 0 -0.1033726668549078 0.15512791267644499 0 -0.1134984240552141 0.16472197132484001 0 -0.1031367342255802 0.17406072413786891 0 -0.1033726668549078 0.15512791267644499 0 -0.1031367342255802 0.17406072413786891 0 -0.1033726668549078 0.15512791267644499 0 -0.092423853210291576 0.16670351718698551 0 -0.087783927975527892 0.15520717764337441 0 -0.092423853210291576 0.16670351718698551 0 -0.078354956500069406 0.164376064958279 0 -0.087783927975527892 0.15520717764337441 0 -0.092423853210291576 0.16670351718698551 0 -0.078354956500069406 0.164376064958279 0 -0.084289785144985918 0.17680600069132379 0 -0.078354956500069406 0.164376064958279 0 -0.076477412207331785 0.15265725524117771 0 -0.087783927975527892 0.15520717764337441 0 -0.0936165913377352 0.18667570100994299 0 -0.084289785144985918 0.17680600069132379 0 -0.075132630577516513 0.18897135603618331 0 -0.098180323065286026 0.17701612495541519 0 -0.0936165913377352 0.18667570100994299 0 -0.084289785144985918 0.17680600069132379 0 -0.098180323065286026 0.17701612495541519 0 -0.092423853210291576 0.16670351718698551 0 -0.084289785144985918 0.17680600069132379 0 -0.084289785144985918 0.17680600069132379 0 -0.069699586956280202 0.1726646441713762 0 -0.075132630577516513 0.18897135603618331 0 -0.069699586956280202 0.1726646441713762 0 -0.075132630577516513 0.18897135603618331 0 -0.05696619393996176 0.17865114180386829 0 -0.069699586956280202 0.1726646441713762 0 -0.067282728806680708 0.15602516978365641 0 -0.055938343494260259 0.1619684778838954 0 -0.078354956500069406 0.164376064958279 0 -0.069699586956280202 0.1726646441713762 0 -0.067282728806680708 0.15602516978365641 0 -0.078354956500069406 0.164376064958279 0 -0.067282728806680708 0.15602516978365641 0 -0.076477412207331785 0.15265725524117771 0 -0.078354956500069406 0.164376064958279 0 -0.084289785144985918 0.17680600069132379 0 -0.069699586956280202 0.1726646441713762 0 -0.062980869721965427 0.1439623343911676 0 -0.086951614690011433 0.13529716458579041 0 -0.082071260605860799 0.1462339097949916 0 -0.067282728806680708 0.15602516978365641 0 -0.076477412207331785 0.15265725524117771 0 -0.062980869721965427 0.1439623343911676 0 -0.076477412207331785 0.15265725524117771 0 -0.062980869721965427 0.1439623343911676 0 -0.082071260605860799 0.1462339097949916 0 -0.062980869721965427 0.1439623343911676 0 -0.062902184349766535 0.1303447806329612 0 -0.074470163248917282 0.13462432057630461 0 -0.062980869721965427 0.1439623343911676 0 -0.074470163248917282 0.13462432057630461 0 -0.086951614690011433 0.13529716458579041 0 -0.062980869721965427 0.1439623343911676 0 -0.086951614690011433 0.13529716458579041 0 -0.062902184349766535 0.1303447806329612 0 -0.074470163248917282 0.13462432057630461 0 -0.072981723234121665 0.1221779342362309 0 -0.074470163248917282 0.13462432057630461 0 -0.081025372315448402 0.1291269853407459 0 -0.072981723234121665 0.1221779342362309 0 -0.1037257929953531 0.1267907104072378 0 -0.088682851689845785 0.12873749640737309 0 -0.085512313659306907 0.1218428369365176 0 -0.074470163248917282 0.13462432057630461 0 -0.086951614690011433 0.13529716458579041 0 -0.074470163248917282 0.13462432057630461 0 -0.081025372315448402 0.1291269853407459 0 -0.086951614690011433 0.13529716458579041 0 -0.081025372315448402 0.1291269853407459 0 -0.088682851689845785 0.12873749640737309 0 -0.086951614690011433 0.13529716458579041 0 -0.081025372315448402 0.1291269853407459 0 -0.088682851689845785 0.12873749640737309 0 -0.085512313659306907 0.1218428369365176 0 -0.088682851689845785 0.12873749640737309 0 -0.086951614690011433 0.13529716458579041 0 -0.093008698924671507 0.13310759294382651 0 -0.086951614690011433 0.13529716458579041 0 -0.093008698924671507 0.13310759294382651 0 -0.094751464661697801 0.14555260315147109 0 -0.086951614690011433 0.13529716458579041 0 -0.082071260605860799 0.1462339097949916 0 -0.094751464661697801 0.14555260315147109 0 -0.087783927975527892 0.15520717764337441 0 -0.082071260605860799 0.1462339097949916 0 -0.076477412207331785 0.15265725524117771 0 -0.087783927975527892 0.15520717764337441 0 -0.082071260605860799 0.1462339097949916 0 -0.096997581049110673 0.25056214292982337 0 -0.098854575557917962 0.24047599568994721 0 -0.085548685644658812 0.24483507948975389 0 -0.098854575557917962 0.24047599568994721 0 -0.1100823356563858 0.2382265755302477 0 -0.1059223062534619 0.2274651888695273 0 -0.098854575557917962 0.24047599568994721 0 -0.1079162302757703 0.2455396622531667 0 -0.1100823356563858 0.2382265755302477 0 -0.10512199094870139 0.25442771655864621 0 -0.098854575557917962 0.24047599568994721 0 -0.1079162302757703 0.2455396622531667 0 -0.1079162302757703 0.2455396622531667 0 -0.11834506109001321 0.24599273863695831 0 -0.1100823356563858 0.2382265755302477 0 -0.10512199094870139 0.25442771655864621 0 -0.1079162302757703 0.2455396622531667 0 -0.11834506109001321 0.24599273863695831 0 -0.12618237010676919 0.23948305500434899 0 -0.11834506109001321 0.24599273863695831 0 -0.1193735051047654 0.23165929220163881 0 -0.11834506109001321 0.24599273863695831 0 -0.1100823356563858 0.2382265755302477 0 -0.1193735051047654 0.23165929220163881 0 -0.1100823356563858 0.2382265755302477 0 -0.1193735051047654 0.23165929220163881 0 -0.1059223062534619 0.2274651888695273 0 -0.1193735051047654 0.23165929220163881 0 -0.1059223062534619 0.2274651888695273 0 -0.11077434960718791 0.21107541259117141 0 -0.098854575557917962 0.24047599568994721 0 -0.095263362928257378 0.21976797567162529 0 -0.1059223062534619 0.2274651888695273 0 -0.098854575557917962 0.24047599568994721 0 -0.095263362928257378 0.21976797567162529 0 -0.095263362928257378 0.21976797567162529 0 -0.1059223062534619 0.2274651888695273 0 -0.11077434960718791 0.21107541259117141 0 -0.095263362928257378 0.21976797567162529 0 -0.11077434960718791 0.21107541259117141 0 -0.091672150298596794 0.19905995565330339 0 -0.136503475389816 0.2133416730908349 0 -0.11077434960718791 0.21107541259117141 0 -0.119820104807698 0.19370119861435209 0 -0.136503475389816 0.2133416730908349 0 -0.1193735051047654 0.23165929220163881 0 -0.11077434960718791 0.21107541259117141 0 -0.11077434960718791 0.21107541259117141 0 -0.119820104807698 0.19370119861435209 0 -0.1046679756608693 0.1936673705932602 0 -0.1030615486394274 0.18009411821021501 0 -0.119820104807698 0.19370119861435209 0 -0.1046679756608693 0.1936673705932602 0 -0.11077434960718791 0.21107541259117141 0 -0.1046679756608693 0.1936673705932602 0 -0.091672150298596794 0.19905995565330339 0 -0.0936165913377352 0.18667570100994299 0 -0.1046679756608693 0.1936673705932602 0 -0.091672150298596794 0.19905995565330339 0 -0.0936165913377352 0.18667570100994299 0 -0.091672150298596794 0.19905995565330339 0 -0.075132630577516513 0.18897135603618331 0 -0.091672150298596794 0.19905995565330339 0 -0.075132630577516513 0.18897135603618331 0 -0.076579395405852208 0.21059188150891439 0 -0.075132630577516513 0.18897135603618331 0 -0.076579395405852208 0.21059188150891439 0 -0.055302196625204157 0.1993891525043788 0 -0.076579395405852208 0.21059188150891439 0 -0.061566935261274269 0.22788521835854289 0 -0.055302196625204157 0.1993891525043788 0 -0.095263362928257378 0.21976797567162529 0 -0.091672150298596794 0.19905995565330339 0 -0.095263362928257378 0.21976797567162529 0 -0.091672150298596794 0.19905995565330339 0 -0.076579395405852208 0.21059188150891439 0 -0.095263362928257378 0.21976797567162529 0 -0.076579395405852208 0.21059188150891439 0 -0.080539096744264183 0.2284776308294526 0 -0.098854575557917962 0.24047599568994721 0 -0.095263362928257378 0.21976797567162529 0 -0.080539096744264183 0.2284776308294526 0 -0.076579395405852208 0.21059188150891439 0 -0.080539096744264183 0.2284776308294526 0 -0.061566935261274269 0.22788521835854289 0 -0.080539096744264183 0.2284776308294526 0 -0.085548685644658812 0.24483507948975389 0 -0.061566935261274269 0.22788521835854289 0 -0.085548685644658812 0.24483507948975389 0 -0.061566935261274269 0.22788521835854289 0 -0.069152285319889512 0.24752277705149431 0 -0.085548685644658812 0.24483507948975389 0 -0.061566935261274269 0.22788521835854289 0 -0.078764058213084659 0.25389215980425162 0 -0.069152285319889512 0.24752277705149431 0 -0.085548685644658812 0.24483507948975389 0 -0.098854575557917962 0.24047599568994721 0 -0.080539096744264183 0.2284776308294526 0 -0.085548685644658812 0.24483507948975389 0 -0.043153712588046289 0.25485468974623288 0 -0.040971529782478103 0.236528876692948 0 -0.054470562174323903 0.24673916689566999 0 -0.043153712588046289 0.25485468974623288 0 -0.040971529782478103 0.236528876692948 0 -0.025069253836144952 0.2467768617014772 0 -0.069152285319889512 0.24752277705149431 0 -0.054470562174323903 0.24673916689566999 0 -0.061566935261274269 0.22788521835854289 0 -0.040971529782478103 0.236528876692948 0 -0.054470562174323903 0.24673916689566999 0 -0.061566935261274269 0.22788521835854289 0 -0.061566935261274269 0.22788521835854289 0 -0.037585184877889713 0.21093535722733189 0 -0.040971529782478103 0.236528876692948 0 -0.037585184877889713 0.21093535722733189 0 -0.024036850456169549 0.23181958493323301 0 -0.040971529782478103 0.236528876692948 0 -0.061566935261274269 0.22788521835854289 0 -0.037585184877889713 0.21093535722733189 0 -0.061566935261274269 0.22788521835854289 0 -0.037585184877889713 0.21093535722733189 0 -0.055302196625204157 0.1993891525043788 0 -0.075132630577516513 0.18897135603618331 0 -0.055302196625204157 0.1993891525043788 0 -0.05696619393996176 0.17865114180386829 0 -0.037585184877889713 0.21093535722733189 0 -0.055302196625204157 0.1993891525043788 0 -0.035333810431642562 0.19396509466376441 0 -0.055302196625204157 0.1993891525043788 0 -0.035333810431642562 0.19396509466376441 0 -0.042343483150745639 0.1816416726589932 0 -0.037585184877889713 0.21093535722733189 0 -0.035333810431642562 0.19396509466376441 0 -0.013603434494504839 0.19398549609612109 0 -0.037585184877889713 0.21093535722733189 0 -0.013603434494504839 0.19398549609612109 0 -0.035333810431642562 0.19396509466376441 0 -0.013603434494504839 0.19398549609612109 0 -0.02783475300986861 0.1838737948319967 0 -0.013603434494504839 0.19398549609612109 0 0.001455357747937643 0.18334221805207929 0 0.003476259735499572 0.2017412353069529 0 -0.013603434494504839 0.19398549609612109 0 0.001455357747937643 0.18334221805207929 0 -0.013603434494504839 0.19398549609612109 0 -0.012538789678792109 0.2182247507271107 0 0.003476259735499572 0.2017412353069529 0 -0.013603434494504839 0.19398549609612109 0 -0.012538789678792109 0.2182247507271107 0 -0.037585184877889713 0.21093535722733189 0 -0.013603434494504839 0.19398549609612109 0 -0.012538789678792109 0.2182247507271107 0 -0.037585184877889713 0.21093535722733189 0 -0.012538789678792109 0.2182247507271107 0 -0.024036850456169549 0.23181958493323301 0 -0.012538789678792109 0.2182247507271107 0 -0.024036850456169549 0.23181958493323301 0 -0.011474144863079599 0.24246400535810039 0 -0.012538789678792109 0.2182247507271107 0 -0.011474144863079599 0.24246400535810039 0 -0.012538789678792109 0.2182247507271107 0 -0.011474144863079599 0.24246400535810039 0 0.0064938139601692499 0.235805076511858 0 -0.0027776851774954509 0.25257493582532792 0 -0.011474144863079599 0.24246400535810039 0 -0.025069253836144952 0.2467768617014772 0 -0.0027776851774954509 0.25257493582532792 0 -0.011474144863079599 0.24246400535810039 0 0.0064938139601692499 0.235805076511858 0 -0.040971529782478103 0.236528876692948 0 -0.024036850456169549 0.23181958493323301 0 -0.025069253836144952 0.2467768617014772 0 -0.024036850456169549 0.23181958493323301 0 -0.011474144863079599 0.24246400535810039 0 -0.025069253836144952 0.2467768617014772 0 -0.039010124753919219 0.15262750419654431 0 -0.032602830810075138 0.13440501861965021 0 -0.02365855346037123 0.149157791165726 0 -0.039010124753919219 0.15262750419654431 0 -0.032602830810075138 0.13440501861965021 0 -0.049047861005029003 0.13323996401506619 0 -0.032602830810075138 0.13440501861965021 0 -0.049047861005029003 0.13323996401506619 0 -0.040746935049833399 0.1230838621614138 0 -0.032602830810075138 0.13440501861965021 0 -0.025229296496558241 0.1200111422506132 0 -0.040746935049833399 0.1230838621614138 0 -0.062902184349766535 0.1303447806329612 0 -0.049047861005029003 0.13323996401506619 0 -0.055030304538799292 0.1177193499460369 0 -0.062980869721965427 0.1439623343911676 0 -0.062902184349766535 0.1303447806329612 0 -0.049047861005029003 0.13323996401506619 0 -0.062980869721965427 0.1439623343911676 0 -0.039010124753919219 0.15262750419654431 0 -0.055938343494260259 0.1619684778838954 0 -0.062980869721965427 0.1439623343911676 0 -0.039010124753919219 0.15262750419654431 0 -0.049047861005029003 0.13323996401506619 0 -0.067282728806680708 0.15602516978365641 0 -0.062980869721965427 0.1439623343911676 0 -0.055938343494260259 0.1619684778838954 0 -0.062980869721965427 0.1439623343911676 0 -0.039010124753919219 0.15262750419654431 0 -0.069699586956280202 0.1726646441713762 0 -0.055938343494260259 0.1619684778838954 0 -0.05696619393996176 0.17865114180386829 0 -0.055938343494260259 0.1619684778838954 0 -0.05696619393996176 0.17865114180386829 0 -0.043380922835763808 0.16727154756838261 0 -0.055302196625204157 0.1993891525043788 0 -0.05696619393996176 0.17865114180386829 0 -0.042343483150745639 0.1816416726589932 0 -0.05696619393996176 0.17865114180386829 0 -0.042343483150745639 0.1816416726589932 0 -0.043380922835763808 0.16727154756838261 0 -0.042343483150745639 0.1816416726589932 0 -0.043380922835763808 0.16727154756838261 0 -0.029697507236266029 0.17049098725747849 0 -0.042343483150745639 0.1816416726589932 0 -0.029697507236266029 0.17049098725747849 0 -0.02783475300986861 0.1838737948319967 0 -0.035333810431642562 0.19396509466376441 0 -0.042343483150745639 0.1816416726589932 0 -0.02783475300986861 0.1838737948319967 0 -0.039010124753919219 0.15262750419654431 0 -0.043380922835763808 0.16727154756838261 0 -0.029697507236266029 0.17049098725747849 0 -0.039010124753919219 0.15262750419654431 0 -0.055938343494260259 0.1619684778838954 0 -0.043380922835763808 0.16727154756838261 0 -0.029697507236266029 0.17049098725747849 0 -0.01432140714018787 0.17763908504902071 0 -0.015039379785872799 0.16129267400192029 0 -0.039010124753919219 0.15262750419654431 0 -0.015039379785872799 0.16129267400192029 0 -0.039010124753919219 0.15262750419654431 0 -0.029697507236266029 0.17049098725747849 0 -0.015039379785872799 0.16129267400192029 0 -0.013603434494504839 0.19398549609612109 0 -0.02783475300986861 0.1838737948319967 0 -0.01432140714018787 0.17763908504902071 0 -0.029697507236266029 0.17049098725747849 0 -0.02783475300986861 0.1838737948319967 0 -0.01432140714018787 0.17763908504902071 0 -0.013603434494504839 0.19398549609612109 0 -0.01432140714018787 0.17763908504902071 0 -0.013603434494504839 0.19398549609612109 0 -0.01432140714018787 0.17763908504902071 0 0.001455357747937643 0.18334221805207929 0 -0.01432140714018787 0.17763908504902071 0 0.00073738510225316092 0.16699580700497749 0 0.001455357747937643 0.18334221805207929 0 -0.015039379785872799 0.16129267400192029 0 0.00073738510225316092 0.16699580700497749 0 -0.015039379785872799 0.16129267400192029 0 -0.0060862720669060486 0.15735157818401069 0 0.00073738510225316092 0.16699580700497749 0 -0.0060862720669060486 0.15735157818401069 0 3.6127928222628861e-05 0.15033432619036749 0 0.00073738510225316092 0.16699580700497749 0 -0.01432140714018787 0.17763908504902071 0 -0.015039379785872799 0.16129267400192029 0 0.00073738510225316092 0.16699580700497749 0 -0.01432140714018787 0.17763908504902071 0 -0.015039379785872799 0.16129267400192029 0 -0.015039379785872799 0.16129267400192029 0 -0.0060862720669060486 0.15735157818401069 0 -0.01535043983835719 0.1542106277584572 0 -0.015039379785872799 0.16129267400192029 0 -0.01535043983835719 0.1542106277584572 0 -0.0060862720669060486 0.15735157818401069 0 -0.01535043983835719 0.1542106277584572 0 3.6127928222628861e-05 0.15033432619036749 0 -0.015997548024419321 0.1444062333589089 0 -0.0078271557630911481 0.1362296072740462 0 3.6127928222628861e-05 0.15033432619036749 0 -0.01535043983835719 0.1542106277584572 0 -0.015997548024419321 0.1444062333589089 0 3.6127928222628861e-05 0.15033432619036749 0 -0.039010124753919219 0.15262750419654431 0 -0.015039379785872799 0.16129267400192029 0 -0.02365855346037123 0.149157791165726 0 -0.015039379785872799 0.16129267400192029 0 -0.01535043983835719 0.1542106277584572 0 -0.02365855346037123 0.149157791165726 0 -0.032602830810075138 0.13440501861965021 0 -0.015997548024419321 0.1444062333589089 0 -0.02365855346037123 0.149157791165726 0 -0.01535043983835719 0.1542106277584572 0 -0.015997548024419321 0.1444062333589089 0 -0.02365855346037123 0.149157791165726 0 -0.032602830810075138 0.13440501861965021 0 -0.0078271557630911481 0.1362296072740462 0 -0.032602830810075138 0.13440501861965021 0 -0.015997548024419321 0.1444062333589089 0 -0.0078271557630911481 0.1362296072740462 0 -0.032602830810075138 0.13440501861965021 0 -0.0078271557630911481 0.1362296072740462 0 -0.025229296496558241 0.1200111422506132 0 -0.0078271557630911481 0.1362296072740462 0 -0.010405554782164719 0.1173276413030134 0 0.0044853743667673286 0.1230927126056903 0 -0.010405554782164719 0.1173276413030134 0 0.0056846848015870014 0.1065612570498935 0 0.0044853743667673286 0.1230927126056903 0 -0.0078271557630911481 0.1362296072740462 0 -0.010405554782164719 0.1173276413030134 0 -0.025229296496558241 0.1200111422506132 0 -0.010405554782164719 0.1173276413030134 0 -0.020583177874181579 0.099574027488301076 0 0.0056846848015870014 0.1065612570498935 0 -0.020583177874181579 0.099574027488301076 0 0.0056846848015870014 0.1065612570498935 0 -0.020583177874181579 0.099574027488301076 0 -0.00097150747810838603 0.091366537172643425 0 0.0056846848015870014 0.1065612570498935 0 -0.020583177874181579 0.099574027488301076 0 -0.025229296496558241 0.1200111422506132 0 -0.039210124700003512 0.1094466966572544 0 -0.010405554782164719 0.1173276413030134 0 -0.020583177874181579 0.099574027488301076 0 -0.025229296496558241 0.1200111422506132 0 -0.0034146629761764979 0.078459957373855332 0 -0.01641452711443829 0.066175692760165328 0 0.0075564468419056794 0.064643204089841588 0 -0.0034146629761764979 0.078459957373855332 0 -0.01846110308930704 0.082801878868459716 0 -0.01641452711443829 0.066175692760165328 0 -0.00097150747810838603 0.091366537172643425 0 -0.0034146629761764979 0.078459957373855332 0 -0.01846110308930704 0.082801878868459716 0 -0.020583177874181579 0.099574027488301076 0 -0.00097150747810838603 0.091366537172643425 0 -0.01846110308930704 0.082801878868459716 0 -0.020583177874181579 0.099574027488301076 0 -0.01846110308930704 0.082801878868459716 0 -0.031380728709817958 0.087263836795197655 0 -0.01846110308930704 0.082801878868459716 0 -0.035292716145263699 0.073768852826052805 0 -0.031380728709817958 0.087263836795197655 0 -0.01846110308930704 0.082801878868459716 0 -0.01641452711443829 0.066175692760165328 0 -0.035292716145263699 0.073768852826052805 0 -0.020583177874181579 0.099574027488301076 0 -0.031380728709817958 0.087263836795197655 0 -0.046851040549950158 0.092586797926708653 0 -0.035292716145263699 0.073768852826052805 0 -0.046851040549950158 0.092586797926708653 0 -0.058103741761960162 0.091442805353114442 0 -0.035292716145263699 0.073768852826052805 0 -0.058103741761960162 0.091442805353114442 0 -0.035292716145263699 0.073768852826052805 0 -0.031380728709817958 0.087263836795197655 0 -0.046851040549950158 0.092586797926708653 0 -0.035292716145263699 0.073768852826052805 0 -0.058103741761960162 0.091442805353114442 0 -0.061654664636582653 0.078008794236807205 0 -0.035292716145263699 0.073768852826052805 0 -0.05827718792851401 0.065095025929475581 0 -0.050760042390073791 0.051064253489881029 0 -0.035292716145263699 0.073768852826052805 0 -0.061654664636582653 0.078008794236807205 0 -0.05827718792851401 0.065095025929475581 0 -0.039210124700003512 0.1094466966572544 0 -0.040746935049833399 0.1230838621614138 0 -0.055030304538799292 0.1177193499460369 0 -0.025229296496558241 0.1200111422506132 0 -0.039210124700003512 0.1094466966572544 0 -0.040746935049833399 0.1230838621614138 0 -0.020583177874181579 0.099574027488301076 0 -0.046851040549950158 0.092586797926708653 0 -0.039210124700003512 0.1094466966572544 0 -0.046851040549950158 0.092586797926708653 0 -0.039210124700003512 0.1094466966572544 0 -0.053194664607470417 0.1041190583902165 0 -0.020583177874181579 0.099574027488301076 0 -0.046851040549950158 0.092586797926708653 0 -0.058103741761960162 0.091442805353114442 0 -0.053194664607470417 0.1041190583902165 0 -0.064045040304201634 0.10891518116115501 0 -0.046851040549950158 0.092586797926708653 0 -0.058103741761960162 0.091442805353114442 0 -0.053194664607470417 0.1041190583902165 0 -0.053194664607470417 0.1041190583902165 0 -0.055030304538799292 0.1177193499460369 0 -0.064045040304201634 0.10891518116115501 0 -0.039210124700003512 0.1094466966572544 0 -0.053194664607470417 0.1041190583902165 0 -0.055030304538799292 0.1177193499460369 0 -0.049047861005029003 0.13323996401506619 0 -0.040746935049833399 0.1230838621614138 0 -0.055030304538799292 0.1177193499460369 0 -0.055030304538799292 0.1177193499460369 0 -0.072981723234121665 0.1221779342362309 0 -0.064045040304201634 0.10891518116115501 0 -0.062902184349766535 0.1303447806329612 0 -0.055030304538799292 0.1177193499460369 0 -0.072981723234121665 0.1221779342362309 0 -0.072981723234121665 0.1221779342362309 0 -0.080914767378656632 0.10911675788017609 0 -0.064045040304201634 0.10891518116115501 0 -0.1037257929953531 0.1267907104072378 0 -0.085512313659306907 0.1218428369365176 0 -0.080914767378656632 0.10911675788017609 0 -0.1037257929953531 0.1267907104072378 0 -0.080914767378656632 0.10911675788017609 0 -0.072981723234121665 0.1221779342362309 0 -0.085512313659306907 0.1218428369365176 0 -0.080914767378656632 0.10911675788017609 0 -0.081025372315448402 0.1291269853407459 0 -0.072981723234121665 0.1221779342362309 0 -0.085512313659306907 0.1218428369365176 0 -0.1037257929953531 0.1267907104072378 0 -0.080914767378656632 0.10911675788017609 0 -0.096537186047811058 0.1123425486614833 0 -0.093099075919428981 0.1039345092794579 0 -0.080914767378656632 0.10911675788017609 0 -0.085940342767475988 0.092184759686669421 0 -0.080914767378656632 0.10911675788017609 0 -0.072704669893251 0.089942218163198237 0 -0.085940342767475988 0.092184759686669421 0 -0.093099075919428981 0.1039345092794579 0 -0.085940342767475988 0.092184759686669421 0 -0.09705159711187189 0.094859645641942492 0 -0.093099075919428981 0.1039345092794579 0 -0.080914767378656632 0.10911675788017609 0 -0.096537186047811058 0.1123425486614833 0 -0.058103741761960162 0.091442805353114442 0 -0.080914767378656632 0.10911675788017609 0 -0.058103741761960162 0.091442805353114442 0 -0.080914767378656632 0.10911675788017609 0 -0.064045040304201634 0.10891518116115501 0 -0.058103741761960162 0.091442805353114442 0 -0.080914767378656632 0.10911675788017609 0 -0.072704669893251 0.089942218163198237 0 -0.058103741761960162 0.091442805353114442 0 -0.061654664636582653 0.078008794236807205 0 -0.072704669893251 0.089942218163198237 0 -0.061654664636582653 0.078008794236807205 0 -0.076909832921579546 0.078957973659224009 0 -0.072704669893251 0.089942218163198237 0 -0.061654664636582653 0.078008794236807205 0 -0.05827718792851401 0.065095025929475581 0 -0.072184788952376233 0.066193251564796843 0 -0.061654664636582653 0.078008794236807205 0 -0.076909832921579546 0.078957973659224009 0 -0.072184788952376233 0.066193251564796843 0 -0.076909832921579546 0.078957973659224009 0 -0.072184788952376233 0.066193251564796843 0 -0.08781716760106946 0.065673508515114165 0 -0.076909832921579546 0.078957973659224009 0 -0.08781716760106946 0.065673508515114165 0 -0.090378246530231979 0.080554170131931224 0 -0.076909832921579546 0.078957973659224009 0 -0.072704669893251 0.089942218163198237 0 -0.085940342767475988 0.092184759686669421 0 -0.076909832921579546 0.078957973659224009 0 -0.090378246530231979 0.080554170131931224 0 -0.085940342767475988 0.092184759686669421 0 -0.085940342767475988 0.092184759686669421 0 -0.094898982936379661 0.087690379367768093 0 -0.09705159711187189 0.094859645641942492 0 -0.090378246530231979 0.080554170131931224 0 -0.085940342767475988 0.092184759686669421 0 -0.094898982936379661 0.087690379367768093 0 -0.094898982936379661 0.087690379367768093 0 -0.1042836329562354 0.082025902609657558 0 -0.09705159711187189 0.094859645641942492 0 -0.1042836329562354 0.082025902609657558 0 -0.1040047129757936 0.10440830650844771 0 -0.1042836329562354 0.082025902609657558 0 -0.10763455016213321 0.085353606372858368 0 -0.1040047129757936 0.10440830650844771 0 -0.090378246530231979 0.080554170131931224 0 -0.094898982936379661 0.087690379367768093 0 -0.1042836329562354 0.082025902609657558 0 -0.1042836329562354 0.082025902609657558 0 -0.10763455016213321 0.085353606372858368 0 -0.1137966244299025 0.075293020842914421 0 -0.1042836329562354 0.082025902609657558 0 -0.10763455016213321 0.085353606372858368 0 -0.08781716760106946 0.065673508515114165 0 -0.1042836329562354 0.082025902609657558 0 -0.1046412986898947 0.053324413032227853 0 -0.1042836329562354 0.082025902609657558 0 -0.1046412986898947 0.053324413032227853 0 -0.08781716760106946 0.065673508515114165 0 -0.1042836329562354 0.082025902609657558 0 -0.1042836329562354 0.082025902609657558 0 -0.1137966244299025 0.075293020842914421 0 -0.1046412986898947 0.053324413032227853 0 -0.08781716760106946 0.065673508515114165 0 -0.090378246530231979 0.080554170131931224 0 -0.1042836329562354 0.082025902609657558 0 -0.1137966244299025 0.075293020842914421 0 -0.1218326549953173 0.066328162818498321 0 -0.1046412986898947 0.053324413032227853 0 -0.1352622788255794 0.082307407319906087 0 -0.1137966244299025 0.075293020842914421 0 -0.1218326549953173 0.066328162818498321 0 -0.1352622788255794 0.082307407319906087 0 -0.10763455016213321 0.085353606372858368 0 -0.1137966244299025 0.075293020842914421 0 -0.1352622788255794 0.082307407319906087 0 -0.10763455016213321 0.085353606372858368 0 -0.1138485410632052 0.10037445756896 0 -0.1352622788255794 0.082307407319906087 0 -0.1138485410632052 0.10037445756896 0 -0.1138485410632052 0.10037445756896 0 -0.1115005669371234 0.1088673119326696 0 -0.1181203545222123 0.1083931156947496 0 -0.1138485410632052 0.10037445756896 0 -0.1115005669371234 0.1088673119326696 0 -0.1040047129757936 0.10440830650844771 0 -0.12807758088514329 0.1094925884079999 0 -0.12690990155583071 0.100532206000305 0 -0.1181203545222123 0.1083931156947496 0 -0.12690990155583071 0.100532206000305 0 -0.1138485410632052 0.10037445756896 0 -0.1181203545222123 0.1083931156947496 0 -0.12807758088514329 0.1094925884079999 0 -0.1181203545222123 0.1083931156947496 0 -0.12379328285889681 0.11583854925377519 0 -0.1181203545222123 0.1083931156947496 0 -0.12379328285889681 0.11583854925377519 0 -0.11456941145668439 0.11596341483864531 0 -0.12379328285889681 0.11583854925377519 0 -0.117932977033919 0.1249899609003047 0 -0.11456941145668439 0.11596341483864531 0 -0.117932977033919 0.1249899609003047 0 -0.11456941145668439 0.11596341483864531 0 -0.1091649361089863 0.1216427434129702 0 -0.105538569733004 0.12819524742989369 0 -0.117932977033919 0.1249899609003047 0 -0.1091649361089863 0.1216427434129702 0 -0.11456941145668439 0.11596341483864531 0 -0.1085930840947881 0.11553449741999409 0 -0.1091649361089863 0.1216427434129702 0 -0.1115005669371234 0.1088673119326696 0 -0.1181203545222123 0.1083931156947496 0 -0.11456941145668439 0.11596341483864531 0 -0.1115005669371234 0.1088673119326696 0 -0.11456941145668439 0.11596341483864531 0 -0.1085930840947881 0.11553449741999409 0 -0.1115005669371234 0.1088673119326696 0 -0.1085930840947881 0.11553449741999409 0 -0.1040047129757936 0.10440830650844771 0 -0.1037257929953531 0.1267907104072378 0 -0.1085930840947881 0.11553449741999409 0 -0.1040047129757936 0.10440830650844771 0 -0.1037257929953531 0.1267907104072378 0 -0.096537186047811058 0.1123425486614833 0 -0.1040047129757936 0.10440830650844771 0 -0.1037257929953531 0.1267907104072378 0 -0.1040047129757936 0.10440830650844771 0 -0.1037257929953531 0.1267907104072378 0 -0.1085930840947881 0.11553449741999409 0 -0.1091649361089863 0.1216427434129702 0 -0.093099075919428981 0.1039345092794579 0 -0.096537186047811058 0.1123425486614833 0 -0.1040047129757936 0.10440830650844771 0 -0.1042836329562354 0.082025902609657558 0 -0.09705159711187189 0.094859645641942492 0 -0.1040047129757936 0.10440830650844771 0 -0.10763455016213321 0.085353606372858368 0 -0.1138485410632052 0.10037445756896 0 -0.1040047129757936 0.10440830650844771 0 -0.093099075919428981 0.1039345092794579 0 -0.09705159711187189 0.094859645641942492 0 -0.1040047129757936 0.10440830650844771 0 -0.10535663015721609 -0.0040785661226313266 0 -0.093136072529625635 -0.0001400556527918449 0 -0.1049989644235554 0.024622923454798239 0 -0.10535663015721609 -0.0040785661226313266 0 -0.1049989644235554 0.024622923454798239 0 -0.093136072529625635 -0.0001400556527918449 0 -0.1049989644235554 0.024622923454798239 0 -0.085635757047457572 0.020873913092472988 0 -0.10535663015721609 -0.0040785661226313266 0 -0.1049989644235554 0.024622923454798239 0 -0.11600006833808139 0.01232157125850198 0 -0.10535663015721609 -0.0040785661226313266 0 -0.11600006833808139 0.01232157125850198 0 -0.1220156274706712 0.0019540870090877772 0 -0.12774746673749759 0.013064643027644389 0 -0.11600006833808139 0.01232157125850198 0 -0.1220156274706712 0.0019540870090877772 0 -0.1049989644235554 0.024622923454798239 0 -0.11600006833808139 0.01232157125850198 0 -0.1212803943925771 0.025361154101400881 0 -0.12774746673749759 0.013064643027644389 0 -0.11600006833808139 0.01232157125850198 0 -0.1212803943925771 0.025361154101400881 0 -0.1049989644235554 0.024622923454798239 0 -0.1212803943925771 0.025361154101400881 0 -0.1170724816181436 0.038684771708001511 0 -0.13169216302489131 0.038025965440706973 0 -0.1212803943925771 0.025361154101400881 0 -0.1170724816181436 0.038684771708001511 0 -0.13169216302489131 0.038025965440706973 0 -0.1170724816181436 0.038684771708001511 0 -0.12274958755979951 0.0520894025108736 0 -0.1170724816181436 0.038684771708001511 0 -0.12274958755979951 0.0520894025108736 0 -0.1046412986898947 0.053324413032227853 0 -0.1218326549953173 0.066328162818498321 0 -0.12274958755979951 0.0520894025108736 0 -0.1046412986898947 0.053324413032227853 0 -0.08781716760106946 0.065673508515114165 0 -0.1046412986898947 0.053324413032227853 0 -0.089486614871809034 0.038927125182302978 0 -0.1049989644235554 0.024622923454798239 0 -0.1046412986898947 0.053324413032227853 0 -0.089486614871809034 0.038927125182302978 0 -0.1049989644235554 0.024622923454798239 0 -0.1170724816181436 0.038684771708001511 0 -0.1046412986898947 0.053324413032227853 0 -0.1049989644235554 0.024622923454798239 0 -0.1046412986898947 0.053324413032227853 0 -0.08781716760106946 0.065673508515114165 0 -0.089486614871809034 0.038927125182302978 0 -0.071350702245902842 0.049321114420571403 0 -0.08781716760106946 0.065673508515114165 0 -0.071350702245902842 0.049321114420571403 0 -0.072184788952376233 0.066193251564796843 0 -0.08781716760106946 0.065673508515114165 0 -0.071350702245902842 0.049321114420571403 0 -0.05827718792851401 0.065095025929475581 0 -0.072184788952376233 0.066193251564796843 0 -0.071350702245902842 0.049321114420571403 0 -0.089486614871809034 0.038927125182302978 0 -0.071350702245902842 0.049321114420571403 0 -0.071051967300964206 0.028549760874076478 0 -0.071350702245902842 0.049321114420571403 0 -0.071051967300964206 0.028549760874076478 0 -0.054884236890736217 0.032968720326028621 0 -0.071350702245902842 0.049321114420571403 0 -0.054884236890736217 0.032968720326028621 0 -0.071051967300964206 0.028549760874076478 0 -0.068161952148550517 0.011775783568938819 0 -0.054389447608130762 0.01594486679229257 0 -0.071051967300964206 0.028549760874076478 0 -0.085635757047457572 0.020873913092472988 0 -0.068161952148550517 0.011775783568938819 0 -0.089486614871809034 0.038927125182302978 0 -0.071051967300964206 0.028549760874076478 0 -0.085635757047457572 0.020873913092472988 0 -0.1049989644235554 0.024622923454798239 0 -0.089486614871809034 0.038927125182302978 0 -0.085635757047457572 0.020873913092472988 0 -0.093136072529625635 -0.0001400556527918449 0 -0.076424423994879476 -0.003132457239380148 0 -0.068161952148550517 0.011775783568938819 0 -0.093136072529625635 -0.0001400556527918449 0 -0.085635757047457572 0.020873913092472988 0 -0.068161952148550517 0.011775783568938819 0 -0.093136072529625635 -0.0001400556527918449 0 -0.068161952148550517 0.011775783568938819 0 -0.076424423994879476 -0.003132457239380148 0 -0.068161952148550517 0.011775783568938819 0 -0.060754386257418823 0.0025528172274389281 0 -0.048704724972793469 0.0044012681014438436 0 -0.054389447608130762 0.01594486679229257 0 -0.038417771535569557 0.0166163262314858 0 -0.060754386257418823 0.0025528172274389281 0 -0.048704724972793469 0.0044012681014438436 0 -0.054389447608130762 0.01594486679229257 0 -0.068161952148550517 0.011775783568938819 0 -0.060754386257418823 0.0025528172274389281 0 -0.054389447608130762 0.01594486679229257 0 -0.054389447608130762 0.01594486679229257 0 -0.038417771535569557 0.0166163262314858 0 -0.054884236890736217 0.032968720326028621 0 -0.071051967300964206 0.028549760874076478 0 -0.054389447608130762 0.01594486679229257 0 -0.054884236890736217 0.032968720326028621 0 -0.038417771535569557 0.0166163262314858 0 -0.054884236890736217 0.032968720326028621 0 -0.038417771535569557 0.0166163262314858 0 -0.054884236890736217 0.032968720326028621 0 -0.035850779511044213 0.031273657373260842 0 -0.037153593021232917 -0.0041909662260797122 0 -0.048704724972793469 0.0044012681014438436 0 -0.038417771535569557 0.0166163262314858 0 -0.05827718792851401 0.065095025929475581 0 -0.071350702245902842 0.049321114420571403 0 -0.050760042390073791 0.051064253489881029 0 -0.071350702245902842 0.049321114420571403 0 -0.050760042390073791 0.051064253489881029 0 -0.054884236890736217 0.032968720326028621 0 -0.050760042390073791 0.051064253489881029 0 -0.054884236890736217 0.032968720326028621 0 -0.032573991509273099 0.047359546467145658 0 -0.054884236890736217 0.032968720326028621 0 -0.035850779511044213 0.031273657373260842 0 -0.032573991509273099 0.047359546467145658 0 -0.035292716145263699 0.073768852826052805 0 -0.050760042390073791 0.051064253489881029 0 -0.032573991509273099 0.047359546467145658 0 -0.01641452711443829 0.066175692760165328 0 -0.032573991509273099 0.047359546467145658 0 -0.0065749151318050206 0.048734312763340913 0 -0.01641452711443829 0.066175692760165328 0 -0.035292716145263699 0.073768852826052805 0 -0.032573991509273099 0.047359546467145658 0 -0.035850779511044213 0.031273657373260842 0 -0.032573991509273099 0.047359546467145658 0 -0.017527118108597931 0.028150036468383301 0 -0.032573991509273099 0.047359546467145658 0 -0.0065749151318050206 0.048734312763340913 0 -0.017527118108597931 0.028150036468383301 0 -0.0065749151318050206 0.048734312763340913 0 -0.017527118108597931 0.028150036468383301 0 0.0021657739143066219 0.031706980140428727 0 -0.01641452711443829 0.066175692760165328 0 -0.0065749151318050206 0.048734312763340913 0 0.0075564468419056794 0.064643204089841588 0 -0.037153593021232917 -0.0041909662260797122 0 -0.038417771535569557 0.0166163262314858 0 -0.01210134886455932 0.0019878388550685811 0 -0.038417771535569557 0.0166163262314858 0 -0.017527118108597931 0.028150036468383301 0 -0.01210134886455932 0.0019878388550685811 0 -0.038417771535569557 0.0166163262314858 0 -0.035850779511044213 0.031273657373260842 0 -0.017527118108597931 0.028150036468383301 0 -0.017527118108597931 0.028150036468383301 0 -0.00474131692760722 0.019443410798480599 0 -0.01210134886455932 0.0019878388550685811 0 -0.017527118108597931 0.028150036468383301 0 -0.00474131692760722 0.019443410798480599 0 0.0021657739143066219 0.031706980140428727 0 -0.00474131692760722 0.019443410798480599 0 -0.01210134886455932 0.0019878388550685811 0 0.0084974253484217423 0.015928787730041801 0 -0.01210134886455932 0.0019878388550685811 0 0.01521681077868578 0.0038680593231585629 0 0.0084974253484217423 0.015928787730041801 0 -0.00474131692760722 0.019443410798480599 0 0.0084974253484217423 0.015928787730041801 0 0.0021657739143066219 0.031706980140428727 0 0.0084974253484217423 0.015928787730041801 0 0.02057469936873076 0.03123138772125738 0 0.0021657739143066219 0.031706980140428727 0 0.0084974253484217423 0.015928787730041801 0 0.02057469936873076 0.03123138772125738 0 0.025916219645408599 0.0143874212992216 0 0.02057469936873076 0.03123138772125738 0 0.025916219645408599 0.0143874212992216 0 0.033920433407665922 0.025745429391281532 0 0.01521681077868578 0.0038680593231585629 0 0.0084974253484217423 0.015928787730041801 0 0.025916219645408599 0.0143874212992216 0 0.025916219645408599 0.0143874212992216 0 0.02856846585004898 0.0023008959674395871 0 0.034495858098099803 0.0079456954704744814 0 0.01521681077868578 0.0038680593231585629 0 0.025916219645408599 0.0143874212992216 0 0.02856846585004898 0.0023008959674395871 0 0.01521681077868578 0.0038680593231585629 0 0.02856846585004898 0.0023008959674395871 0 0.023308490363071602 -0.0033786401451085081 0 0.01259949557410036 0.046969819317724933 0 0.024306635538245351 0.05816499246426704 0 0.0075564468419056794 0.064643204089841588 0 -0.0065749151318050206 0.048734312763340913 0 0.01259949557410036 0.046969819317724933 0 0.0075564468419056794 0.064643204089841588 0 0.02057469936873076 0.03123138772125738 0 0.01259949557410036 0.046969819317724933 0 0.0021657739143066219 0.031706980140428727 0 -0.0065749151318050206 0.048734312763340913 0 0.01259949557410036 0.046969819317724933 0 0.0021657739143066219 0.031706980140428727 0 0.02057469936873076 0.03123138772125738 0 0.01259949557410036 0.046969819317724933 0 0.025354739356712921 0.047259672982749419 0 0.02057469936873076 0.03123138772125738 0 0.025354739356712921 0.047259672982749419 0 0.031735657750958511 0.03859302563134405 0 0.02057469936873076 0.03123138772125738 0 0.031735657750958511 0.03859302563134405 0 0.033920433407665922 0.025745429391281532 0 0.025354739356712921 0.047259672982749419 0 0.035645825829710827 0.050409345199492493 0 0.031735657750958511 0.03859302563134405 0 0.01259949557410036 0.046969819317724933 0 0.025354739356712921 0.047259672982749419 0 0.024306635538245351 0.05816499246426704 0 0.025354739356712921 0.047259672982749419 0 0.024306635538245351 0.05816499246426704 0 0.035645825829710827 0.050409345199492493 0 0.024306635538245351 0.05816499246426704 0 0.035645825829710827 0.050409345199492493 0 0.040940929929812693 0.067423974234348497 0 0.035645825829710827 0.050409345199492493 0 0.044109255737984368 0.054166599420603867 0 0.040940929929812693 0.067423974234348497 0 0.044109255737984368 0.054166599420603867 0 0.053025589583448447 0.054826567280252772 0 0.040940929929812693 0.067423974234348497 0 0.035645825829710827 0.050409345199492493 0 0.044109255737984368 0.054166599420603867 0 0.04586407992991573 0.044461392985222163 0 0.035645825829710827 0.050409345199492493 0 0.04586407992991573 0.044461392985222163 0 0.038963599998795832 0.041499915214118922 0 0.04586407992991573 0.044461392985222163 0 0.038963599998795832 0.041499915214118922 0 0.042608836484598248 0.032535897040416997 0 0.035645825829710827 0.050409345199492493 0 0.038963599998795832 0.041499915214118922 0 0.031735657750958511 0.03859302563134405 0 0.031735657750958511 0.03859302563134405 0 0.042608836484598248 0.032535897040416997 0 0.033920433407665922 0.025745429391281532 0 0.038963599998795832 0.041499915214118922 0 0.031735657750958511 0.03859302563134405 0 0.042608836484598248 0.032535897040416997 0 0.042608836484598248 0.032535897040416997 0 0.053118449714847603 0.03623337209071327 0 0.049937659413750307 0.026169874711546501 0 0.04586407992991573 0.044461392985222163 0 0.042608836484598248 0.032535897040416997 0 0.053118449714847603 0.03623337209071327 0 0.061679399029915899 0.039224579310322437 0 0.060926101606549182 0.02377102778765729 0 0.053118449714847603 0.03623337209071327 0 0.061679399029915899 0.039224579310322437 0 0.060926101606549182 0.02377102778765729 0 0.053118449714847603 0.03623337209071327 0 0.058817348332105023 0.042793957781340049 0 0.052501955811141733 0.042363909498823238 0 0.053118449714847603 0.03623337209071327 0 0.058817348332105023 0.042793957781340049 0 0.061679399029915899 0.039224579310322437 0 0.058817348332105023 0.042793957781340049 0 0.052501955811141733 0.042363909498823238 0 0.053025589583448447 0.054826567280252772 0 0.058817348332105023 0.042793957781340049 0 0.061679399029915899 0.039224579310322437 0 0.04586407992991573 0.044461392985222163 0 0.053118449714847603 0.03623337209071327 0 0.052501955811141733 0.042363909498823238 0 0.061679399029915899 0.039224579310322437 0 0.063017182502748528 0.066668594359726122 0 0.058817348332105023 0.042793957781340049 0 0.053025589583448447 0.054826567280252772 0 0.063017182502748528 0.066668594359726122 0 0.058817348332105023 0.042793957781340049 0 0.061679399029915899 0.039224579310322437 0 0.063017182502748528 0.066668594359726122 0 0.044109255737984368 0.054166599420603867 0 0.04586407992991573 0.044461392985222163 0 0.053025589583448447 0.054826567280252772 0 0.04586407992991573 0.044461392985222163 0 0.052501955811141733 0.042363909498823238 0 0.053025589583448447 0.054826567280252772 0 0.043064831449857482 0.0080286977874358626 0 0.038396492288536588 0.01528748899995707 0 0.050136226220545893 0.01491562125530973 0 0.043064831449857482 0.0080286977874358626 0 0.037800010054661062 0.0012988040134497959 0 0.047552578143709771 0.003114911076836369 0 0.043064831449857482 0.0080286977874358626 0 0.037800010054661062 0.0012988040134497959 0 0.034495858098099803 0.0079456954704744814 0 0.02856846585004898 0.0023008959674395871 0 0.037800010054661062 0.0012988040134497959 0 0.034495858098099803 0.0079456954704744814 0 0.025916219645408599 0.0143874212992216 0 0.038396492288536588 0.01528748899995707 0 0.034495858098099803 0.0079456954704744814 0 0.043064831449857482 0.0080286977874358626 0 0.038396492288536588 0.01528748899995707 0 0.034495858098099803 0.0079456954704744814 0 0.025916219645408599 0.0143874212992216 0 0.038396492288536588 0.01528748899995707 0 0.033920433407665922 0.025745429391281532 0 0.038396492288536588 0.01528748899995707 0 0.033920433407665922 0.025745429391281532 0 0.042898683042210638 0.023393455383635221 0 0.042608836484598248 0.032535897040416997 0 0.033920433407665922 0.025745429391281532 0 0.042898683042210638 0.023393455383635221 0 0.042608836484598248 0.032535897040416997 0 0.042898683042210638 0.023393455383635221 0 0.049937659413750307 0.026169874711546501 0 0.038396492288536588 0.01528748899995707 0 0.042898683042210638 0.023393455383635221 0 0.050136226220545893 0.01491562125530973 0 0.049937659413750307 0.026169874711546501 0 0.060926101606549182 0.02377102778765729 0 0.050136226220545893 0.01491562125530973 0 0.042898683042210638 0.023393455383635221 0 0.049937659413750307 0.026169874711546501 0 0.050136226220545893 0.01491562125530973 0 0.053118449714847603 0.03623337209071327 0 0.049937659413750307 0.026169874711546501 0 0.060926101606549182 0.02377102778765729 0 0.060926101606549182 0.02377102778765729 0 0.06017280418318121 0.0083174762649921123 0 0.050136226220545893 0.01491562125530973 0 0.060926101606549182 0.02377102778765729 0 0.06017280418318121 0.0083174762649921123 0 0.06017280418318121 0.0083174762649921123 0 0.047552578143709771 0.003114911076836369 0 0.039881004700212483 -0.0081759591608999756 0 0.06017280418318121 0.0083174762649921123 0 0.039881004700212483 -0.0081759591608999756 0 0.06017280418318121 0.0083174762649921123 0 0.050231609999323697 0.0085941765961435133 0 0.050136226220545893 0.01491562125530973 0 0.043064831449857482 0.0080286977874358626 0 0.050231609999323697 0.0085941765961435133 0 0.050136226220545893 0.01491562125530973 0 0.06017280418318121 0.0083174762649921123 0 0.050231609999323697 0.0085941765961435133 0 0.047552578143709771 0.003114911076836369 0 0.043064831449857482 0.0080286977874358626 0 0.050231609999323697 0.0085941765961435133 0 0.047552578143709771 0.003114911076836369 0 0.06017280418318121 0.0083174762649921123 0 0.059729978738206742 -0.00076688486139602635 0 0.082348116527549503 0.01344779089910424 0 0.059729978738206742 -0.00076688486139602635 0 0.073828516940257299 -0.001940676278266155 0 0.082348116527549503 0.01344779089910424 0 0.059729978738206742 -0.00076688486139602635 0 0.06017280418318121 0.0083174762649921123 0 0.076088719375069919 0.02125413669679603 0 0.06017280418318121 0.0083174762649921123 0 0.082348116527549503 0.01344779089910424 0 0.076088719375069919 0.02125413669679603 0 0.06017280418318121 0.0083174762649921123 0 0.082348116527549503 0.01344779089910424 0 0.059729978738206742 -0.00076688486139602635 0 0.082348116527549503 0.01344779089910424 0 0.099850704223909487 0.010525360773864231 0 0.093596902684648237 -0.00058102248458167312 0 0.082348116527549503 0.01344779089910424 0 0.093596902684648237 -0.00058102248458167312 0 0.073828516940257299 -0.001940676278266155 0 0.082348116527549503 0.01344779089910424 0 0.093596902684648237 -0.00058102248458167312 0 0.082348116527549503 0.01344779089910424 0 0.10111309937735929 0.025240899126918612 0 0.076088719375069919 0.02125413669679603 0 0.099576638723769179 0.040345419428596159 0 0.082348116527549503 0.01344779089910424 0 0.076088719375069919 0.02125413669679603 0 0.10111309937735929 0.025240899126918612 0 0.076088719375069919 0.02125413669679603 0 0.099576638723769179 0.040345419428596159 0 0.10111309937735929 0.025240899126918612 0 0.082348116527549503 0.01344779089910424 0 0.076088719375069919 0.02125413669679603 0 0.061679399029915899 0.039224579310322437 0 0.076088719375069919 0.02125413669679603 0 0.061679399029915899 0.039224579310322437 0 0.060926101606549182 0.02377102778765729 0 0.076088719375069919 0.02125413669679603 0 0.060926101606549182 0.02377102778765729 0 0.06017280418318121 0.0083174762649921123 0 0.076088719375069919 0.02125413669679603 0 0.061679399029915899 0.039224579310322437 0 0.076088719375069919 0.02125413669679603 0 0.079585376567378435 0.040755873492368887 0 0.061679399029915899 0.039224579310322437 0 0.074617943390904967 0.05231133823842108 0 0.079585376567378435 0.040755873492368887 0 0.074617943390904967 0.05231133823842108 0 0.086606034857047973 0.064043192568718876 0 0.063017182502748528 0.066668594359726122 0 0.061679399029915899 0.039224579310322437 0 0.074617943390904967 0.05231133823842108 0 0.063017182502748528 0.066668594359726122 0 0.074617943390904967 0.05231133823842108 0 0.089429106537947223 0.050341382372566357 0 0.086606034857047973 0.064043192568718876 0 0.074617943390904967 0.05231133823842108 0 0.089429106537947223 0.050341382372566357 0 0.079585376567378435 0.040755873492368887 0 0.089429106537947223 0.050341382372566357 0 0.1019197948463524 0.053811853343732993 0 0.086606034857047973 0.064043192568718876 0 0.089429106537947223 0.050341382372566357 0 0.079585376567378435 0.040755873492368887 0 0.099576638723769179 0.040345419428596159 0 0.076088719375069919 0.02125413669679603 0 0.079585376567378435 0.040755873492368887 0 0.099576638723769179 0.040345419428596159 0 0.099576638723769179 0.040345419428596159 0 0.119878082227169 0.037034007354733188 0 0.10111309937735929 0.025240899126918612 0 0.099576638723769179 0.040345419428596159 0 0.1019197948463524 0.053811853343732993 0 0.119878082227169 0.037034007354733188 0 0.089429106537947223 0.050341382372566357 0 0.099576638723769179 0.040345419428596159 0 0.1019197948463524 0.053811853343732993 0 0.1019197948463524 0.053811853343732993 0 0.11413249712685331 0.061627248170872437 0 0.119878082227169 0.037034007354733188 0 0.11413249712685331 0.061627248170872437 0 0.119878082227169 0.037034007354733188 0 0.1290074287148136 0.058924044505645728 0 0.119878082227169 0.037034007354733188 0 0.11709280539729031 0.02232628034874572 0 0.1297049872092044 0.024734329021407112 0 0.119878082227169 0.037034007354733188 0 0.10111309937735929 0.025240899126918612 0 0.11709280539729031 0.02232628034874572 0 0.1105017536669661 0.013855479053934911 0 0.10111309937735929 0.025240899126918612 0 0.119878082227169 0.037034007354733188 0 0.11709280539729031 0.02232628034874572 0 0.10111309937735929 0.025240899126918612 0 0.11709280539729031 0.02232628034874572 0 0.124266104505753 0.01076668718673477 0 0.1297049872092044 0.024734329021407112 0 0.11709280539729031 0.02232628034874572 0 0.124266104505753 0.01076668718673477 0 0.1105017536669661 0.013855479053934911 0 0.1116936488630241 0.00066365727394526795 0 0.12979039504140011 0.0019083370324715679 0 0.124266104505753 0.01076668718673477 0 0.1116936488630241 0.00066365727394526795 0 0.12979039504140011 0.0019083370324715679 0 0.124266104505753 0.01076668718673477 0 0.1116936488630241 0.00066365727394526795 0 0.1105017536669661 0.013855479053934911 0 0.1116936488630241 0.00066365727394526795 0 0.099850704223909487 0.010525360773864231 0 0.093596902684648237 -0.00058102248458167312 0 0.1116936488630241 0.00066365727394526795 0 0.093596902684648237 -0.00058102248458167312 0 0.1116936488630241 0.00066365727394526795 0 0.1105017536669661 0.013855479053934911 0 0.099850704223909487 0.010525360773864231 0 0.082348116527549503 0.01344779089910424 0 0.099850704223909487 0.010525360773864231 0 0.10111309937735929 0.025240899126918612 0 0.1105017536669661 0.013855479053934911 0 0.099850704223909487 0.010525360773864231 0 0.10111309937735929 0.025240899126918612 0 0.1054961655139285 0.1082697464142202 0 0.1146517881473199 0.087816030685176627 0 0.093546847903948432 0.094114553772597614 0 0.1054961655139285 0.1082697464142202 0 0.093546847903948432 0.094114553772597614 0 0.090488779542200248 0.1190400337794114 0 0.1054961655139285 0.1082697464142202 0 0.090488779542200248 0.1190400337794114 0 0.1083146665460987 0.1325631576509762 0 0.1054961655139285 0.1082697464142202 0 0.12229001127661079 0.11608782895182911 0 0.1083146665460987 0.1325631576509762 0 0.1054961655139285 0.1082697464142202 0 0.12229001127661079 0.11608782895182911 0 0.1146517881473199 0.087816030685176627 0 0.12229001127661079 0.11608782895182911 0 0.1146517881473199 0.087816030685176627 0 0.11413249712685331 0.061627248170872437 0 0.1146517881473199 0.087816030685176627 0 0.13235235897695169 0.075324323404691085 0 0.1019197948463524 0.053811853343732993 0 0.098369101816235496 0.073656814655361155 0 0.086606034857047973 0.064043192568718876 0 0.11413249712685331 0.061627248170872437 0 0.1146517881473199 0.087816030685176627 0 0.098369101816235496 0.073656814655361155 0 0.1019197948463524 0.053811853343732993 0 0.11413249712685331 0.061627248170872437 0 0.098369101816235496 0.073656814655361155 0 0.1146517881473199 0.087816030685176627 0 0.098369101816235496 0.073656814655361155 0 0.093546847903948432 0.094114553772597614 0 0.098369101816235496 0.073656814655361155 0 0.078745268191395684 0.08125317336475768 0 0.093546847903948432 0.094114553772597614 0 0.078745268191395684 0.08125317336475768 0 0.074325834847926264 0.1001790739349999 0 0.093546847903948432 0.094114553772597614 0 0.098369101816235496 0.073656814655361155 0 0.078745268191395684 0.08125317336475768 0 0.086606034857047973 0.064043192568718876 0 0.078745268191395684 0.08125317336475768 0 0.086606034857047973 0.064043192568718876 0 0.063017182502748528 0.066668594359726122 0 0.078745268191395684 0.08125317336475768 0 0.063017182502748528 0.066668594359726122 0 0.060088422469425633 0.08854672488313213 0 0.078745268191395684 0.08125317336475768 0 0.074325834847926264 0.1001790739349999 0 0.060088422469425633 0.08854672488313213 0 0.074325834847926264 0.1001790739349999 0 0.055104821791904082 0.10624359409740219 0 0.060088422469425633 0.08854672488313213 0 0.074325834847926264 0.1001790739349999 0 0.062870374054379327 0.1136742309115103 0 0.055104821791904082 0.10624359409740219 0 0.074325834847926264 0.1001790739349999 0 0.055104821791904082 0.10624359409740219 0 0.074325834847926264 0.1001790739349999 0 0.093546847903948432 0.094114553772597614 0 0.090488779542200248 0.1190400337794114 0 0.074325834847926264 0.1001790739349999 0 0.093546847903948432 0.094114553772597614 0 0.074325834847926264 0.1001790739349999 0 0.090488779542200248 0.1190400337794114 0 0.07294021818332623 0.11825454289582291 0 0.090488779542200248 0.1190400337794114 0 0.07294021818332623 0.11825454289582291 0 0.076176722902640007 0.13067258831019099 0 0.07294021818332623 0.11825454289582291 0 0.061896874752150041 0.12532247366516441 0 0.076176722902640007 0.13067258831019099 0 0.074325834847926264 0.1001790739349999 0 0.07294021818332623 0.11825454289582291 0 0.062870374054379327 0.1136742309115103 0 0.07294021818332623 0.11825454289582291 0 0.062870374054379327 0.1136742309115103 0 0.061896874752150041 0.12532247366516441 0 0.062870374054379327 0.1136742309115103 0 0.050084120696589969 0.1183714699641619 0 0.061896874752150041 0.12532247366516441 0 0.050084120696589969 0.1183714699641619 0 0.055104821791904082 0.10624359409740219 0 0.035883808735882067 0.112308114259805 0 0.050084120696589969 0.1183714699641619 0 0.061896874752150041 0.12532247366516441 0 0.049422611783308798 0.12847743545984119 0 0.062870374054379327 0.1136742309115103 0 0.050084120696589969 0.1183714699641619 0 0.055104821791904082 0.10624359409740219 0 0.055104821791904082 0.10624359409740219 0 0.043870882848002238 0.099873643147340499 0 0.060088422469425633 0.08854672488313213 0 0.043870882848002238 0.099873643147340499 0 0.037611216316076571 0.10295032168103541 0 0.035883808735882067 0.112308114259805 0 0.055104821791904082 0.10624359409740219 0 0.035883808735882067 0.112308114259805 0 0.055104821791904082 0.10624359409740219 0 0.043870882848002238 0.099873643147340499 0 0.035883808735882067 0.112308114259805 0 0.043870882848002238 0.099873643147340499 0 0.032954760183178028 0.096150177096316625 0 0.042749952781831788 0.086577121540806365 0 0.043870882848002238 0.099873643147340499 0 0.032954760183178028 0.096150177096316625 0 0.037611216316076571 0.10295032168103541 0 0.032954760183178028 0.096150177096316625 0 0.037611216316076571 0.10295032168103541 0 0.02689654000695571 0.1040947371866545 0 0.037611216316076571 0.10295032168103541 0 0.03529520373200376 0.1095294904431988 0 0.035883808735882067 0.112308114259805 0 0.03529520373200376 0.1095294904431988 0 0.031952547477355542 0.113548486611486 0 0.02689654000695571 0.1040947371866545 0 0.037611216316076571 0.10295032168103541 0 0.03529520373200376 0.1095294904431988 0 0.02689654000695571 0.1040947371866545 0 0.036396994242060728 0.1147307057437604 0 0.031952547477355542 0.113548486611486 0 0.031816930068872748 0.12282391597419549 0 0.035883808735882067 0.112308114259805 0 0.031952547477355542 0.113548486611486 0 0.03529520373200376 0.1095294904431988 0 0.035883808735882067 0.112308114259805 0 0.031952547477355542 0.113548486611486 0 0.03529520373200376 0.1095294904431988 0 0.035883808735882067 0.112308114259805 0 0.035883808735882067 0.112308114259805 0 0.036396994242060728 0.1147307057437604 0 0.035883808735882067 0.112308114259805 0 0.036396994242060728 0.1147307057437604 0 0.031952547477355542 0.113548486611486 0 0.036396994242060728 0.1147307057437604 0 0.031952547477355542 0.113548486611486 0 0.050084120696589969 0.1183714699641619 0 0.036396994242060728 0.1147307057437604 0 0.049422611783308798 0.12847743545984119 0 0.050084120696589969 0.1183714699641619 0 0.035883808735882067 0.112308114259805 0 0.036396994242060728 0.1147307057437604 0 0.050084120696589969 0.1183714699641619 0 0.036396994242060728 0.1147307057437604 0 0.063017182502748528 0.066668594359726122 0 0.05169912192095466 0.077304103754503278 0 0.060088422469425633 0.08854672488313213 0 0.053025589583448447 0.054826567280252772 0 0.063017182502748528 0.066668594359726122 0 0.040940929929812693 0.067423974234348497 0 0.063017182502748528 0.066668594359726122 0 0.05169912192095466 0.077304103754503278 0 0.040940929929812693 0.067423974234348497 0 0.043870882848002238 0.099873643147340499 0 0.060088422469425633 0.08854672488313213 0 0.042749952781831788 0.086577121540806365 0 0.05169912192095466 0.077304103754503278 0 0.060088422469425633 0.08854672488313213 0 0.042749952781831788 0.086577121540806365 0 0.042749952781831788 0.086577121540806365 0 0.040940929929812693 0.067423974234348497 0 0.028052808283550251 0.085173319202934056 0 0.032954760183178028 0.096150177096316625 0 0.042749952781831788 0.086577121540806365 0 0.028052808283550251 0.085173319202934056 0 0.05169912192095466 0.077304103754503278 0 0.042749952781831788 0.086577121540806365 0 0.040940929929812693 0.067423974234348497 0 0.024306635538245351 0.05816499246426704 0 0.040940929929812693 0.067423974234348497 0 0.02411310423083738 0.071901434747286427 0 0.024306635538245351 0.05816499246426704 0 0.02411310423083738 0.071901434747286427 0 0.0075564468419056794 0.064643204089841588 0 0.040940929929812693 0.067423974234348497 0 0.02411310423083738 0.071901434747286427 0 0.028052808283550251 0.085173319202934056 0 0.02411310423083738 0.071901434747286427 0 0.028052808283550251 0.085173319202934056 0 0.01252274573168081 0.08147689454017551 0 0.032954760183178028 0.096150177096316625 0 0.028052808283550251 0.085173319202934056 0 0.017880827531533319 0.095828690237996755 0 0.028052808283550251 0.085173319202934056 0 0.01252274573168081 0.08147689454017551 0 0.017880827531533319 0.095828690237996755 0 -0.00097150747810838603 0.091366537172643425 0 0.01252274573168081 0.08147689454017551 0 0.017880827531533319 0.095828690237996755 0 -0.00097150747810838603 0.091366537172643425 0 -0.0034146629761764979 0.078459957373855332 0 0.01252274573168081 0.08147689454017551 0 0.02411310423083738 0.071901434747286427 0 0.01252274573168081 0.08147689454017551 0 0.0075564468419056794 0.064643204089841588 0 -0.0034146629761764979 0.078459957373855332 0 0.01252274573168081 0.08147689454017551 0 0.0075564468419056794 0.064643204089841588 0 0.031952547477355542 0.113548486611486 0 0.020998350916935232 0.11700470120901869 0 0.0056846848015870014 0.1065612570498935 0 0.031952547477355542 0.113548486611486 0 0.0056846848015870014 0.1065612570498935 0 0.031952547477355542 0.113548486611486 0 0.031816930068872748 0.12282391597419549 0 0.020998350916935232 0.11700470120901869 0 0.031816930068872748 0.12282391597419549 0 0.020998350916935232 0.11700470120901869 0 0.028012563377135449 0.128956901723875 0 0.031952547477355542 0.113548486611486 0 0.020998350916935232 0.11700470120901869 0 0.031952547477355542 0.113548486611486 0 0.02689654000695571 0.1040947371866545 0 0.0056846848015870014 0.1065612570498935 0 0.02689654000695571 0.1040947371866545 0 0.017880827531533319 0.095828690237996755 0 0.0056846848015870014 0.1065612570498935 0 0.032954760183178028 0.096150177096316625 0 0.02689654000695571 0.1040947371866545 0 0.017880827531533319 0.095828690237996755 0 -0.00097150747810838603 0.091366537172643425 0 0.017880827531533319 0.095828690237996755 0 0.0056846848015870014 0.1065612570498935 0 0.020998350916935232 0.11700470120901869 0 0.0056846848015870014 0.1065612570498935 0 0.0044853743667673286 0.1230927126056903 0 0.020998350916935232 0.11700470120901869 0 0.0044853743667673286 0.1230927126056903 0 0.016948519283892859 0.1380541959284422 0 -0.0078271557630911481 0.1362296072740462 0 0.0044853743667673286 0.1230927126056903 0 0.016948519283892859 0.1380541959284422 0 -0.0078271557630911481 0.1362296072740462 0 0.016948519283892859 0.1380541959284422 0 0.016948519283892859 0.1380541959284422 0 0.028012563377135449 0.128956901723875 0 0.041724194330876971 0.13987878458283681 0 0.020998350916935232 0.11700470120901869 0 0.016948519283892859 0.1380541959284422 0 0.028012563377135449 0.128956901723875 0 0.016948519283892859 0.1380541959284422 0 0.041724194330876971 0.13987878458283681 0 0.016948519283892859 0.1380541959284422 0 0.018802651348948721 0.15540253774808949 0 0.041724194330876971 0.13987878458283681 0 -0.0078271557630911481 0.1362296072740462 0 0.016948519283892859 0.1380541959284422 0 3.6127928222628861e-05 0.15033432619036749 0 0.016948519283892859 0.1380541959284422 0 0.018802651348948721 0.15540253774808949 0 3.6127928222628861e-05 0.15033432619036749 0 0.018802651348948721 0.15540253774808949 0 0.00073738510225316092 0.16699580700497749 0 0.016514149990378899 0.17269894000803551 0 0.018802651348948721 0.15540253774808949 0 3.6127928222628861e-05 0.15033432619036749 0 0.00073738510225316092 0.16699580700497749 0 0.00073738510225316092 0.16699580700497749 0 0.016514149990378899 0.17269894000803551 0 0.00073738510225316092 0.16699580700497749 0 0.001455357747937643 0.18334221805207929 0 0.016514149990378899 0.17269894000803551 0 0.001455357747937643 0.18334221805207929 0 0.016514149990378899 0.17269894000803551 0 0.01837967180687948 0.18954566312012289 0 0.001455357747937643 0.18334221805207929 0 0.016514149990378899 0.17269894000803551 0 0.02998210087260628 0.177567461260942 0 0.01837967180687948 0.18954566312012289 0 0.035374775633480342 0.19498170269149701 0 0.016514149990378899 0.17269894000803551 0 0.02998210087260628 0.177567461260942 0 0.01837967180687948 0.18954566312012289 0 0.016514149990378899 0.17269894000803551 0 0.02998210087260628 0.177567461260942 0 0.016514149990378899 0.17269894000803551 0 0.035871123701883632 0.1590177861687499 0 0.016514149990378899 0.17269894000803551 0 0.02998210087260628 0.177567461260942 0 0.035871123701883632 0.1590177861687499 0 0.018802651348948721 0.15540253774808949 0 0.016514149990378899 0.17269894000803551 0 0.035871123701883632 0.1590177861687499 0 0.02998210087260628 0.177567461260942 0 0.035871123701883632 0.1590177861687499 0 0.04669316655337126 0.1633357794614072 0 0.02998210087260628 0.177567461260942 0 0.051662138775865153 0.18679277433997779 0 0.035374775633480342 0.19498170269149701 0 0.02998210087260628 0.177567461260942 0 0.04669316655337126 0.1633357794614072 0 0.051662138775865153 0.18679277433997779 0 0.051662138775865153 0.18679277433997779 0 0.05973062560533076 0.17102349909430301 0 0.068770788565812424 0.18148872268214911 0 0.04669316655337126 0.1633357794614072 0 0.051662138775865153 0.18679277433997779 0 0.05973062560533076 0.17102349909430301 0 0.04669316655337126 0.1633357794614072 0 0.051662138775865153 0.18679277433997779 0 0.04669316655337126 0.1633357794614072 0 0.05973062560533076 0.17102349909430301 0 0.059554590606376433 0.15601719962520799 0 0.04669316655337126 0.1633357794614072 0 0.059554590606376433 0.15601719962520799 0 0.041724194330876971 0.13987878458283681 0 0.059554590606376433 0.15601719962520799 0 0.060030834038929719 0.14122696529024931 0 0.041724194330876971 0.13987878458283681 0 0.060030834038929719 0.14122696529024931 0 0.049422611783308798 0.12847743545984119 0 0.041724194330876971 0.13987878458283681 0 0.060030834038929719 0.14122696529024931 0 0.061896874752150041 0.12532247366516441 0 0.049422611783308798 0.12847743545984119 0 0.060030834038929719 0.14122696529024931 0 0.041724194330876971 0.13987878458283681 0 0.036396994242060728 0.1147307057437604 0 0.031816930068872748 0.12282391597419549 0 0.041724194330876971 0.13987878458283681 0 0.036396994242060728 0.1147307057437604 0 0.041724194330876971 0.13987878458283681 0 0.031816930068872748 0.12282391597419549 0 0.028012563377135449 0.128956901723875 0 0.041724194330876971 0.13987878458283681 0 0.036396994242060728 0.1147307057437604 0 0.049422611783308798 0.12847743545984119 0 0.041724194330876971 0.13987878458283681 0 0.035871123701883632 0.1590177861687499 0 0.04669316655337126 0.1633357794614072 0 0.041724194330876971 0.13987878458283681 0 0.018802651348948721 0.15540253774808949 0 0.035871123701883632 0.1590177861687499 0 0.041724194330876971 0.13987878458283681 0 0.04669316655337126 0.1633357794614072 0 0.041724194330876971 0.13987878458283681 0 0.023999282035763351 0.24359914253080089 0 0.0064938139601692499 0.235805076511858 0 0.031276193878927792 0.22525165285791859 0 -0.0027776851774954509 0.25257493582532792 0 0.023999282035763351 0.24359914253080089 0 -0.0027776851774954509 0.25257493582532792 0 0.023999282035763351 0.24359914253080089 0 0.0064938139601692499 0.235805076511858 0 -0.012538789678792109 0.2182247507271107 0 0.0064938139601692499 0.235805076511858 0 0.01097099018572165 0.21764037675596351 0 0.0064938139601692499 0.235805076511858 0 0.01097099018572165 0.21764037675596351 0 0.031276193878927792 0.22525165285791859 0 0.02379564921464071 0.2069605532010336 0 0.01097099018572165 0.21764037675596351 0 0.031276193878927792 0.22525165285791859 0 0.02379564921464071 0.2069605532010336 0 0.01097099018572165 0.21764037675596351 0 0.003476259735499572 0.2017412353069529 0 -0.012538789678792109 0.2182247507271107 0 0.01097099018572165 0.21764037675596351 0 0.003476259735499572 0.2017412353069529 0 0.02379564921464071 0.2069605532010336 0 0.003476259735499572 0.2017412353069529 0 0.01837967180687948 0.18954566312012289 0 0.001455357747937643 0.18334221805207929 0 0.003476259735499572 0.2017412353069529 0 0.01837967180687948 0.18954566312012289 0 0.02379564921464071 0.2069605532010336 0 0.01837967180687948 0.18954566312012289 0 0.035374775633480342 0.19498170269149701 0 0.051662138775865153 0.18679277433997779 0 0.035374775633480342 0.19498170269149701 0 0.047011694194991738 0.2105938297209741 0 0.051662138775865153 0.18679277433997779 0 0.047011694194991738 0.2105938297209741 0 0.073158302747536 0.1992708804815814 0 0.02379564921464071 0.2069605532010336 0 0.035374775633480342 0.19498170269149701 0 0.047011694194991738 0.2105938297209741 0 0.02379564921464071 0.2069605532010336 0 0.047011694194991738 0.2105938297209741 0 0.031276193878927792 0.22525165285791859 0 0.047011694194991738 0.2105938297209741 0 0.031276193878927792 0.22525165285791859 0 0.050776249249022187 0.2346233492362739 0 0.047011694194991738 0.2105938297209741 0 0.050776249249022187 0.2346233492362739 0 0.077553216462281013 0.22564755594174679 0 0.050776249249022187 0.2346233492362739 0 0.050354998163758158 0.2543889014659465 0 0.073062354807743687 0.25328454769075631 0 0.023999282035763351 0.24359914253080089 0 0.031276193878927792 0.22525165285791859 0 0.050776249249022187 0.2346233492362739 0 0.023999282035763351 0.24359914253080089 0 0.050776249249022187 0.2346233492362739 0 0.050354998163758158 0.2543889014659465 0 0.023999282035763351 0.24359914253080089 0 0.050776249249022187 0.2346233492362739 0 0.093626826958157341 0.2408364381341962 0 0.077553216462281013 0.22564755594174679 0 0.073062354807743687 0.25328454769075631 0 0.050776249249022187 0.2346233492362739 0 0.077553216462281013 0.22564755594174679 0 0.073062354807743687 0.25328454769075631 0 0.050776249249022187 0.2346233492362739 0 0.077553216462281013 0.22564755594174679 0 0.093626826958157341 0.2408364381341962 0 0.077553216462281013 0.22564755594174679 0 0.1043301836755398 0.21667176264721991 0 0.077553216462281013 0.22564755594174679 0 0.1043301836755398 0.21667176264721991 0 0.077553216462281013 0.22564755594174679 0 0.073158302747536 0.1992708804815814 0 0.093907363879826122 0.19962849840817609 0 0.077553216462281013 0.22564755594174679 0 0.093907363879826122 0.19962849840817609 0 0.1043301836755398 0.21667176264721991 0 0.047011694194991738 0.2105938297209741 0 0.077553216462281013 0.22564755594174679 0 0.073158302747536 0.1992708804815814 0 0.051662138775865153 0.18679277433997779 0 0.073158302747536 0.1992708804815814 0 0.068770788565812424 0.18148872268214911 0 0.073158302747536 0.1992708804815814 0 0.093907363879826122 0.19962849840817609 0 0.087805019906555065 0.1775071508399165 0 0.093907363879826122 0.19962849840817609 0 0.11864289311327809 0.19291173864207781 0 0.1043301836755398 0.21667176264721991 0 0.093907363879826122 0.19962849840817609 0 0.11864289311327809 0.19291173864207781 0 0.111759414399882 0.1735459449318143 0 0.11864289311327809 0.19291173864207781 0 0.1246222707262022 0.2081657957665119 0 0.1043301836755398 0.21667176264721991 0 0.1246222707262022 0.2081657957665119 0 0.1043301836755398 0.21667176264721991 0 0.13031132545150739 0.22217645802496369 0 0.093626826958157341 0.2408364381341962 0 0.1043301836755398 0.21667176264721991 0 0.1160311557347623 0.24436958391682351 0 0.1043301836755398 0.21667176264721991 0 0.1160311557347623 0.24436958391682351 0 0.13031132545150739 0.22217645802496369 0 0.093626826958157341 0.2408364381341962 0 0.1160311557347623 0.24436958391682351 0 0.097157224110459878 0.26420874047443449 0 0.078337473746982578 0.1425751459976603 0 0.084337035848463138 0.1551941093745553 0 0.091004758727419838 0.1386382795081792 0 0.084337035848463138 0.1551941093745553 0 0.091004758727419838 0.1386382795081792 0 0.1027065175585391 0.1542372289971001 0 0.078337473746982578 0.1425751459976603 0 0.084337035848463138 0.1551941093745553 0 0.071709711692945169 0.1531579242097266 0 0.090488779542200248 0.1190400337794114 0 0.091004758727419838 0.1386382795081792 0 0.076176722902640007 0.13067258831019099 0 0.078337473746982578 0.1425751459976603 0 0.091004758727419838 0.1386382795081792 0 0.076176722902640007 0.13067258831019099 0 0.060030834038929719 0.14122696529024931 0 0.078337473746982578 0.1425751459976603 0 0.076176722902640007 0.13067258831019099 0 0.060030834038929719 0.14122696529024931 0 0.061896874752150041 0.12532247366516441 0 0.076176722902640007 0.13067258831019099 0 0.060030834038929719 0.14122696529024931 0 0.078337473746982578 0.1425751459976603 0 0.060030834038929719 0.14122696529024931 0 0.078337473746982578 0.1425751459976603 0 0.071709711692945169 0.1531579242097266 0 0.059554590606376433 0.15601719962520799 0 0.060030834038929719 0.14122696529024931 0 0.071709711692945169 0.1531579242097266 0 0.059554590606376433 0.15601719962520799 0 0.071709711692945169 0.1531579242097266 0 0.072097335033505752 0.1660708379700904 0 0.05973062560533076 0.17102349909430301 0 0.059554590606376433 0.15601719962520799 0 0.072097335033505752 0.1660708379700904 0 0.084337035848463138 0.1551941093745553 0 0.071709711692945169 0.1531579242097266 0 0.072097335033505752 0.1660708379700904 0 0.073158302747536 0.1992708804815814 0 0.068770788565812424 0.18148872268214911 0 0.087805019906555065 0.1775071508399165 0 0.072097335033505752 0.1660708379700904 0 0.068770788565812424 0.18148872268214911 0 0.087805019906555065 0.1775071508399165 0 0.05973062560533076 0.17102349909430301 0 0.072097335033505752 0.1660708379700904 0 0.068770788565812424 0.18148872268214911 0 0.084337035848463138 0.1551941093745553 0 0.087805019906555065 0.1775071508399165 0 0.1027065175585391 0.1542372289971001 0 0.084337035848463138 0.1551941093745553 0 0.072097335033505752 0.1660708379700904 0 0.087805019906555065 0.1775071508399165 0 0.087805019906555065 0.1775071508399165 0 0.111759414399882 0.1735459449318143 0 0.1027065175585391 0.1542372289971001 0 0.093907363879826122 0.19962849840817609 0 0.087805019906555065 0.1775071508399165 0 0.111759414399882 0.1735459449318143 0 0.11864289311327809 0.19291173864207781 0 0.111759414399882 0.1735459449318143 0 0.13756645753519239 0.17263142548513391 0 0.111759414399882 0.1735459449318143 0 0.1027065175585391 0.1542372289971001 0 0.12992823440590159 0.1443596272184815 0 0.1027065175585391 0.1542372289971001 0 0.1083146665460987 0.1325631576509762 0 0.12992823440590159 0.1443596272184815 0 0.091004758727419838 0.1386382795081792 0 0.1027065175585391 0.1542372289971001 0 0.1083146665460987 0.1325631576509762 0 0.090488779542200248 0.1190400337794114 0 0.091004758727419838 0.1386382795081792 0 0.1083146665460987 0.1325631576509762 0 0.12229001127661079 0.11608782895182911 0 0.1083146665460987 0.1325631576509762 0 0.12992823440590159 0.1443596272184815 0 0.12229001127661079 0.11608782895182911 0 0.14242621007528419 0.13041429978285329 0 0.12992823440590159 0.1443596272184815 0 0.12229001127661079 0.11608782895182911 0 0.12992823440590159 0.1443596272184815 0 0.14242621007528419 0.13041429978285329 0 0.1536027255492968 0.1483299584732132 0 0.1603417937121005 0.12979820936297709 0 0.14242621007528419 0.13041429978285329 0 0.1536027255492968 0.1483299584732132 0 0.12992823440590159 0.1443596272184815 0 0.1536027255492968 0.1483299584732132 0 0.12992823440590159 0.1443596272184815 0 0.13756645753519239 0.17263142548513391 0 0.111759414399882 0.1735459449318143 0 0.12992823440590159 0.1443596272184815 0 0.13756645753519239 0.17263142548513391 0 0.12992823440590159 0.1443596272184815 0 0.13756645753519239 0.17263142548513391 0 0.13756645753519239 0.17263142548513391 0 0.15057406521692041 0.18516889465928479 0 0.1452046806644833 0.20090322375178629 0 0.13756645753519239 0.17263142548513391 0 0.15057406521692041 0.18516889465928479 0 0.16474536136648429 0.17038511715301821 0 0.13756645753519239 0.17263142548513391 0 0.1452046806644833 0.20090322375178629 0 0.1536027255492968 0.1483299584732132 0 0.13756645753519239 0.17263142548513391 0 0.16474536136648429 0.17038511715301821 0 0.15057406521692041 0.18516889465928479 0 0.16474536136648429 0.17038511715301821 0 0.16085859250051829 0.18964006093428071 0 0.16474536136648429 0.17038511715301821 0 0.16085859250051829 0.18964006093428071 0 0.17357922175609131 0.1916371444468091 0 0.1815294565241509 0.17331230935149891 0 0.17357922175609131 0.1916371444468091 0 0.19338665766208629 0.18223215661324321 0 0.16474536136648429 0.17038511715301821 0 0.1815294565241509 0.17331230935149891 0 0.17357922175609131 0.1916371444468091 0 0.17357922175609131 0.1916371444468091 0 0.19338665766208629 0.18223215661324321 0 0.16474536136648429 0.17038511715301821 0 0.1815294565241509 0.17331230935149891 0 0.18490641925670689 0.15777566011544861 0 0.16474536136648429 0.17038511715301821 0 0.18490641925670689 0.15777566011544861 0 0.1715162822467903 0.14494189023406301 0 0.18490641925670689 0.15777566011544861 0 0.1715162822467903 0.14494189023406301 0 0.18968602440200211 0.13497978608553829 0 0.17581536919415111 0.1283826102141829 0 0.18968602440200211 0.13497978608553829 0 0.18343726518739459 0.1153363614163182 0 0.17581536919415111 0.1283826102141829 0 0.1715162822467903 0.14494189023406301 0 0.18968602440200211 0.13497978608553829 0 0.17581536919415111 0.1283826102141829 0 0.1603417937121005 0.12979820936297709 0 0.1715162822467903 0.14494189023406301 0 0.1536027255492968 0.1483299584732132 0 0.16474536136648429 0.17038511715301821 0 0.1715162822467903 0.14494189023406301 0 0.1536027255492968 0.1483299584732132 0 0.1603417937121005 0.12979820936297709 0 0.1715162822467903 0.14494189023406301 0 0.139967173851379 0.24782138501883791 0 0.15284290379377399 0.22917502201843851 0 0.16048112692306479 0.25744682028509069 0 0.1160311557347623 0.24436958391682351 0 0.139967173851379 0.24782138501883791 0 0.13031132545150739 0.22217645802496369 0 0.139967173851379 0.24782138501883791 0 0.13031132545150739 0.22217645802496369 0 0.15284290379377399 0.22917502201843851 0 0.13031132545150739 0.22217645802496369 0 0.15284290379377399 0.22917502201843851 0 0.1452046806644833 0.20090322375178629 0 0.15284290379377399 0.22917502201843851 0 0.1452046806644833 0.20090322375178629 0 0.15284290379377399 0.22917502201843851 0 0.1452046806644833 0.20090322375178629 0 0.16228063900430931 0.21149890735982671 0 0.1452046806644833 0.20090322375178629 0 0.15377178585009621 0.20104213228037501 0 0.16228063900430931 0.21149890735982671 0 0.1246222707262022 0.2081657957665119 0 0.13031132545150739 0.22217645802496369 0 0.1452046806644833 0.20090322375178629 0 0.11864289311327809 0.19291173864207781 0 0.1246222707262022 0.2081657957665119 0 0.1452046806644833 0.20090322375178629 0 0.11864289311327809 0.19291173864207781 0 0.13756645753519239 0.17263142548513391 0 0.1452046806644833 0.20090322375178629 0 0.15057406521692041 0.18516889465928479 0 0.1452046806644833 0.20090322375178629 0 0.15377178585009621 0.20104213228037501 0 0.15057406521692041 0.18516889465928479 0 0.15377178585009621 0.20104213228037501 0 0.16085859250051829 0.18964006093428071 0 0.15377178585009621 0.20104213228037501 0 0.17357922175609131 0.1916371444468091 0 0.15377178585009621 0.20104213228037501 0 0.16085859250051829 0.18964006093428071 0 0.17357922175609131 0.1916371444468091 0 0.15377178585009621 0.20104213228037501 0 0.17357922175609131 0.1916371444468091 0 0.16699290143610471 0.20314462353909549 0 0.17357922175609131 0.1916371444468091 0 0.1879884888534353 0.19704593959003161 0 0.19338665766208629 0.18223215661324321 0 0.17357922175609131 0.1916371444468091 0 0.1792293899639156 0.20957599744263899 0 0.16699290143610471 0.20314462353909549 0 0.17357922175609131 0.1916371444468091 0 0.1792293899639156 0.20957599744263899 0 0.1879884888534353 0.19704593959003161 0 0.1792293899639156 0.20957599744263899 0 0.16228063900430931 0.21149890735982671 0 0.174570480876651 0.22514729004615791 0 0.1792293899639156 0.20957599744263899 0 0.16699290143610471 0.20314462353909549 0 0.16228063900430931 0.21149890735982671 0 0.15377178585009621 0.20104213228037501 0 0.16699290143610471 0.20314462353909549 0 0.16228063900430931 0.21149890735982671 0 0.15284290379377399 0.22917502201843851 0 0.16228063900430931 0.21149890735982671 0 0.174570480876651 0.22514729004615791 0 0.15284290379377399 0.22917502201843851 0 0.174570480876651 0.22514729004615791 0 0.16874983862555221 0.2400451405179696 0 0.174570480876651 0.22514729004615791 0 0.16874983862555221 0.2400451405179696 0 0.19123214693339791 0.23101809622753039 0 0.1792293899639156 0.20957599744263899 0 0.19123214693339791 0.23101809622753039 0 0.1792293899639156 0.20957599744263899 0 0.174570480876651 0.22514729004615791 0 0.19123214693339791 0.23101809622753039 0 0.19123214693339791 0.23101809622753039 0 0.17780608738777809 0.25705026945876192 0 0.19078065725116791 0.25894683703501692 0 0.19123214693339791 0.23101809622753039 0 0.17780608738777809 0.25705026945876192 0 0.16874983862555221 0.2400451405179696 0 0.19123214693339791 0.23101809622753039 0 0.17780608738777809 0.25705026945876192 0 0.15284290379377399 0.22917502201843851 0 0.16048112692306479 0.25744682028509069 0 0.15284290379377399 0.22917502201843851 0 0.16874983862555221 0.2400451405179696 0 0.16048112692306479 0.25744682028509069 0 0.21686762879133989 0.2316253440312416 0 0.2197545742336772 0.24675856098265139 0 0.20480194690244569 0.25525960942045761 0 0.19123214693339791 0.23101809622753039 0 0.21686762879133989 0.2316253440312416 0 0.20480194690244569 0.25525960942045761 0 0.19123214693339791 0.23101809622753039 0 0.19078065725116791 0.25894683703501692 0 0.20480194690244569 0.25525960942045761 0 0.19123214693339791 0.23101809622753039 0 0.20480194690244569 0.25525960942045761 0 0.19123214693339791 0.23101809622753039 0 0.21686762879133989 0.2316253440312416 0 0.2042190543567681 0.20583740768413411 0 0.21686762879133989 0.2316253440312416 0 0.2042190543567681 0.20583740768413411 0 0.23038473891786951 0.20637638236074549 0 0.1792293899639156 0.20957599744263899 0 0.2042190543567681 0.20583740768413411 0 0.1879884888534353 0.19704593959003161 0 0.1792293899639156 0.20957599744263899 0 0.19123214693339791 0.23101809622753039 0 0.2042190543567681 0.20583740768413411 0 0.19123214693339791 0.23101809622753039 0 0.2042190543567681 0.20583740768413411 0 0.2042190543567681 0.20583740768413411 0 0.1879884888534353 0.19704593959003161 0 0.19338665766208629 0.18223215661324321 0 0.2042190543567681 0.20583740768413411 0 0.2172059617801407 0.18065671914073919 0 0.2042190543567681 0.20583740768413411 0 0.23038473891786951 0.20637638236074549 0 0.2172059617801407 0.18065671914073919 0 0.2042190543567681 0.20583740768413411 0 0.19338665766208629 0.18223215661324321 0 0.2172059617801407 0.18065671914073919 0 0.23038473891786951 0.20637638236074549 0 0.2172059617801407 0.18065671914073919 0 0.2312076880172618 0.18265163083413979 0 0.23038473891786951 0.20637638236074549 0 0.2172059617801407 0.18065671914073919 0 0.23038473891786951 0.20637638236074549 0 0.2312076880172618 0.18265163083413979 0 0.24526457073502539 0.18633975808042899 0 0.23038473891786951 0.20637638236074549 0 0.24526457073502539 0.18633975808042899 0 0.25472824108373948 0.2097414374489398 0 0.23038473891786951 0.20637638236074549 0 0.2435635160555997 0.23209604558075109 0 0.25472824108373948 0.2097414374489398 0 0.21686762879133989 0.2316253440312416 0 0.23038473891786951 0.20637638236074549 0 0.2435635160555997 0.23209604558075109 0 0.23038473891786951 0.20637638236074549 0 0.2435635160555997 0.23209604558075109 0 0.2435635160555997 0.23209604558075109 0 0.2311707380788057 0.25749821458281719 0 0.25674229319332992 0.25781570880075683 0 0.21686762879133989 0.2316253440312416 0 0.2435635160555997 0.23209604558075109 0 0.2197545742336772 0.24675856098265139 0 0.2435635160555997 0.23209604558075109 0 0.2197545742336772 0.24675856098265139 0 0.2311707380788057 0.25749821458281719 0 0.2181845406577852 0.15116565171391261 0 0.20086398190022159 0.15086353661971061 0 0.20868132395589131 0.1582811583469286 0 0.2181845406577852 0.15116565171391261 0 0.20855097650927201 0.13195195264722989 0 0.20086398190022159 0.15086353661971061 0 0.2181845406577852 0.15116565171391261 0 0.20855097650927201 0.13195195264722989 0 0.2267906199067663 0.126794369389889 0 0.20855097650927201 0.13195195264722989 0 0.18968602440200211 0.13497978608553829 0 0.19822397090556659 0.1179480503769932 0 0.20855097650927201 0.13195195264722989 0 0.18968602440200211 0.13497978608553829 0 0.20086398190022159 0.15086353661971061 0 0.18490641925670689 0.15777566011544861 0 0.18968602440200211 0.13497978608553829 0 0.20086398190022159 0.15086353661971061 0 0.1815294565241509 0.17331230935149891 0 0.18490641925670689 0.15777566011544861 0 0.19895488964431929 0.16589524247473469 0 0.18490641925670689 0.15777566011544861 0 0.20086398190022159 0.15086353661971061 0 0.19895488964431929 0.16589524247473469 0 0.20086398190022159 0.15086353661971061 0 0.19895488964431929 0.16589524247473469 0 0.20868132395589131 0.1582811583469286 0 0.19895488964431929 0.16589524247473469 0 0.19338665766208629 0.18223215661324321 0 0.21319409356808139 0.17282716877967719 0 0.1815294565241509 0.17331230935149891 0 0.19895488964431929 0.16589524247473469 0 0.19338665766208629 0.18223215661324321 0 0.19338665766208629 0.18223215661324321 0 0.21319409356808139 0.17282716877967719 0 0.2172059617801407 0.18065671914073919 0 0.19338665766208629 0.18223215661324321 0 0.21319409356808139 0.17282716877967719 0 0.21319409356808139 0.17282716877967719 0 0.2172059617801407 0.18065671914073919 0 0.21319409356808139 0.17282716877967719 0 0.2172059617801407 0.18065671914073919 0 0.22385470068227681 0.16776528794445361 0 0.19895488964431929 0.16589524247473469 0 0.20868132395589131 0.1582811583469286 0 0.21006095756633419 0.16671254965034971 0 0.19895488964431929 0.16589524247473469 0 0.21319409356808139 0.17282716877967719 0 0.21006095756633419 0.16671254965034971 0 0.21319409356808139 0.17282716877967719 0 0.21006095756633419 0.16671254965034971 0 0.21480739070142649 0.16320279485632189 0 0.21319409356808139 0.17282716877967719 0 0.22385470068227681 0.16776528794445361 0 0.21319409356808139 0.17282716877967719 0 0.21480739070142649 0.16320279485632189 0 0.22385470068227681 0.16776528794445361 0 0.21319409356808139 0.17282716877967719 0 0.21006095756633419 0.16671254965034971 0 0.20868132395589131 0.1582811583469286 0 0.21006095756633419 0.16671254965034971 0 0.21480739070142649 0.16320279485632189 0 0.2181845406577852 0.15116565171391261 0 0.20868132395589131 0.1582811583469286 0 0.21480739070142649 0.16320279485632189 0 0.2181845406577852 0.15116565171391261 0 0.21480739070142649 0.16320279485632189 0 0.22385470068227681 0.16776528794445361 0 0.2172059617801407 0.18065671914073919 0 0.22385470068227681 0.16776528794445361 0 0.2312076880172618 0.18265163083413979 0 0.2172059617801407 0.18065671914073919 0 0.22385470068227681 0.16776528794445361 0 0.22385470068227681 0.16776528794445361 0 0.2312076880172618 0.18265163083413979 0 0.2393284679709981 0.17212000664433211 0 0.2393284679709981 0.17212000664433211 0 0.24526457073502539 0.18633975808042899 0 0.25371488617394888 0.17028876903168511 0 0.2312076880172618 0.18265163083413979 0 0.2393284679709981 0.17212000664433211 0 0.24526457073502539 0.18633975808042899 0 0.22385470068227681 0.16776528794445361 0 0.2451536813182742 0.15765208325205629 0 0.2359687261488628 0.14427705534706681 0 0.22385470068227681 0.16776528794445361 0 0.2393284679709981 0.17212000664433211 0 0.2451536813182742 0.15765208325205629 0 0.22385470068227681 0.16776528794445361 0 0.2451536813182742 0.15765208325205629 0 0.2393284679709981 0.17212000664433211 0 0.2451536813182742 0.15765208325205629 0 0.25371488617394888 0.17028876903168511 0 0.2451536813182742 0.15765208325205629 0 0.2359687261488628 0.14427705534706681 0 0.25240810899499322 0.14204669382305679 0 0.22385470068227681 0.16776528794445361 0 0.2359687261488628 0.14427705534706681 0 0.2181845406577852 0.15116565171391261 0 0.2359687261488628 0.14427705534706681 0 0.2267906199067663 0.126794369389889 0 0.2181845406577852 0.15116565171391261 0 0.22385470068227681 0.16776528794445361 0 0.2359687261488628 0.14427705534706681 0 0.2359687261488628 0.14427705534706681 0 0.24808275161545071 0.1207888227496809 0 0.25240810899499322 0.14204669382305679 0 0.2359687261488628 0.14427705534706681 0 0.24808275161545071 0.1207888227496809 0 0.2359687261488628 0.14427705534706681 0 0.2267906199067663 0.126794369389889 0 0.24808275161545071 0.1207888227496809 0 0.2267906199067663 0.126794369389889 0 0.24808275161545071 0.1207888227496809 0 0.22991703510206751 0.10650381689637151 0 0.24808275161545071 0.1207888227496809 0 0.22991703510206751 0.10650381689637151 0 0.24808275161545071 0.1207888227496809 0 0.24334447048378879 0.099290364181984087 0 0.22991703510206751 0.10650381689637151 0 0.24808275161545071 0.1207888227496809 0 0.24334447048378879 0.099290364181984087 0 0.25567809220186771 0.1060619983062154 0 0.22991703510206751 0.10650381689637151 0 0.21175131858868529 0.092218811043060581 0 0.24334447048378879 0.099290364181984087 0 0.22991703510206751 0.10650381689637151 0 0.22705421155002459 0.091451524620777824 0 0.22991703510206751 0.10650381689637151 0 0.21175131858868529 0.092218811043060581 0 0.22705421155002459 0.091451524620777824 0 0.2267906199067663 0.126794369389889 0 0.22991703510206751 0.10650381689637151 0 0.21310411102134491 0.1095824205891423 0 0.20855097650927201 0.13195195264722989 0 0.21310411102134491 0.1095824205891423 0 0.19822397090556659 0.1179480503769932 0 0.20855097650927201 0.13195195264722989 0 0.2267906199067663 0.126794369389889 0 0.21310411102134491 0.1095824205891423 0 0.21310411102134491 0.1095824205891423 0 0.1940002704781765 0.098111161490792437 0 0.21175131858868529 0.092218811043060581 0 0.22991703510206751 0.10650381689637151 0 0.21310411102134491 0.1095824205891423 0 0.21175131858868529 0.092218811043060581 0 0.21310411102134491 0.1095824205891423 0 0.1940002704781765 0.098111161490792437 0 0.19822397090556659 0.1179480503769932 0 0.18968602440200211 0.13497978608553829 0 0.19822397090556659 0.1179480503769932 0 0.18343726518739459 0.1153363614163182 0 0.1940002704781765 0.098111161490792437 0 0.19822397090556659 0.1179480503769932 0 0.18343726518739459 0.1153363614163182 0 0.2027972004585315 0.069363914719689668 0 0.1935856020753032 0.077933805189749739 0 0.2105168445643873 0.079520979104901163 0 0.1935856020753032 0.077933805189749739 0 0.18754560202129811 0.062205910075521002 0 0.1831613749385769 0.07384286034377438 0 0.2027972004585315 0.069363914719689668 0 0.1935856020753032 0.077933805189749739 0 0.18754560202129811 0.062205910075521002 0 0.2027972004585315 0.069363914719689668 0 0.20689186650085839 0.058836700058207507 0 0.18754560202129811 0.062205910075521002 0 0.1935856020753032 0.077933805189749739 0 0.21175131858868529 0.092218811043060581 0 0.1940002704781765 0.098111161490792437 0 0.1935856020753032 0.077933805189749739 0 0.1796100618657559 0.084571286359360259 0 0.1940002704781765 0.098111161490792437 0 0.1935856020753032 0.077933805189749739 0 0.21175131858868529 0.092218811043060581 0 0.1935856020753032 0.077933805189749739 0 0.2105168445643873 0.079520979104901163 0 0.21175131858868529 0.092218811043060581 0 0.2105168445643873 0.079520979104901163 0 0.21175131858868529 0.092218811043060581 0 0.2229559445684493 0.076687667767375567 0 0.2027972004585315 0.069363914719689668 0 0.2229559445684493 0.076687667767375567 0 0.2027972004585315 0.069363914719689668 0 0.2105168445643873 0.079520979104901163 0 0.2229559445684493 0.076687667767375567 0 0.2027972004585315 0.069363914719689668 0 0.21714005736007189 0.064337849890020032 0 0.2229559445684493 0.076687667767375567 0 0.2027972004585315 0.069363914719689668 0 0.21714005736007189 0.064337849890020032 0 0.20689186650085839 0.058836700058207507 0 0.23380950856256619 0.064544021335642118 0 0.2229559445684493 0.076687667767375567 0 0.243114688678367 0.084011420815061466 0 0.21714005736007189 0.064337849890020032 0 0.23380950856256619 0.064544021335642118 0 0.2229559445684493 0.076687667767375567 0 0.2229559445684493 0.076687667767375567 0 0.243114688678367 0.084011420815061466 0 0.2229559445684493 0.076687667767375567 0 0.22705421155002459 0.091451524620777824 0 0.243114688678367 0.084011420815061466 0 0.21175131858868529 0.092218811043060581 0 0.2229559445684493 0.076687667767375567 0 0.22705421155002459 0.091451524620777824 0 0.24334447048378879 0.099290364181984087 0 0.22705421155002459 0.091451524620777824 0 0.243114688678367 0.084011420815061466 0 0.24334447048378879 0.099290364181984087 0 0.243114688678367 0.084011420815061466 0 0.26327343278828402 0.091335173862749586 0 0.23380950856256619 0.064544021335642118 0 0.243114688678367 0.084011420815061466 0 0.25335968314542351 0.066303674114439173 0 0.23380950856256619 0.064544021335642118 0 0.2398240155596181 0.047967347758872132 0 0.25335968314542351 0.066303674114439173 0 0.2398240155596181 0.047967347758872132 0 0.2331828806617299 0.02901204680372935 0 0.25222260686987391 0.030896380053868761 0 0.2398240155596181 0.047967347758872132 0 0.22546185805631111 0.040580677308103073 0 0.2331828806617299 0.02901204680372935 0 0.22546185805631111 0.040580677308103073 0 0.2331828806617299 0.02901204680372935 0 0.21158873281324009 0.03322821857484512 0 0.22546185805631111 0.040580677308103073 0 0.2192457667099541 0.052256945569185267 0 0.21158873281324009 0.03322821857484512 0 0.21714005736007189 0.064337849890020032 0 0.23380950856256619 0.064544021335642118 0 0.2192457667099541 0.052256945569185267 0 0.2398240155596181 0.047967347758872132 0 0.22546185805631111 0.040580677308103073 0 0.2192457667099541 0.052256945569185267 0 0.23380950856256619 0.064544021335642118 0 0.2398240155596181 0.047967347758872132 0 0.2192457667099541 0.052256945569185267 0 0.24683678386874991 0.011759387503803471 0 0.2331828806617299 0.02901204680372935 0 0.25222260686987391 0.030896380053868761 0 0.24683678386874991 0.011759387503803471 0 0.2331828806617299 0.02901204680372935 0 0.22677223899630891 0.01369550584974533 0 0.2331828806617299 0.02901204680372935 0 0.22677223899630891 0.01369550584974533 0 0.21158873281324009 0.03322821857484512 0 0.22677223899630891 0.01369550584974533 0 0.20923784945252041 0.0098223260899010824 0 0.22643588993749281 -0.0029050851839538929 0 0.24683678386874991 0.011759387503803471 0 0.22677223899630891 0.01369550584974533 0 0.22643588993749281 -0.0029050851839538929 0 0.20923784945252041 0.0098223260899010824 0 0.1943347960245187 0.02263458405324319 0 0.21158873281324009 0.03322821857484512 0 0.22677223899630891 0.01369550584974533 0 0.20923784945252041 0.0098223260899010824 0 0.21158873281324009 0.03322821857484512 0 0.1943347960245187 0.02263458405324319 0 0.21158873281324009 0.03322821857484512 0 0.19052621622741581 0.036902948417308401 0 0.20923784945252041 0.0098223260899010824 0 0.1893930781060881 0.0033881031404621731 0 0.20690236083747379 -0.011107369894935401 0 0.1943347960245187 0.02263458405324319 0 0.1893930781060881 0.0033881031404621731 0 0.18138283609121611 0.011645950235277199 0 0.20923784945252041 0.0098223260899010824 0 0.1943347960245187 0.02263458405324319 0 0.1893930781060881 0.0033881031404621731 0 0.2192457667099541 0.052256945569185267 0 0.20689186650085839 0.058836700058207507 0 0.19875517794935649 0.048821617337379941 0 0.21714005736007189 0.064337849890020032 0 0.2192457667099541 0.052256945569185267 0 0.20689186650085839 0.058836700058207507 0 0.2192457667099541 0.052256945569185267 0 0.21158873281324009 0.03322821857484512 0 0.19875517794935649 0.048821617337379941 0 0.19052621622741581 0.036902948417308401 0 0.19875517794935649 0.048821617337379941 0 0.1776960298692373 0.048537178832354602 0 0.21158873281324009 0.03322821857484512 0 0.19052621622741581 0.036902948417308401 0 0.19875517794935649 0.048821617337379941 0 0.20689186650085839 0.058836700058207507 0 0.18754560202129811 0.062205910075521002 0 0.19875517794935649 0.048821617337379941 0 0.18754560202129811 0.062205910075521002 0 0.19875517794935649 0.048821617337379941 0 0.1776960298692373 0.048537178832354602 0 0.18754560202129811 0.062205910075521002 0 0.1776960298692373 0.048537178832354602 0 0.1663277010689812 0.05724010564638965 0 0.19052621622741581 0.036902948417308401 0 0.1776960298692373 0.048537178832354602 0 0.17487944742087611 0.026676491303802039 0 0.1776960298692373 0.048537178832354602 0 0.17487944742087611 0.026676491303802039 0 0.1776960298692373 0.048537178832354602 0 0.1588651646601365 0.04191133693892312 0 0.17487944742087611 0.026676491303802039 0 0.1588651646601365 0.04191133693892312 0 0.1663277010689812 0.05724010564638965 0 0.152380479391066 0.065273195759883634 0 0.1776960298692373 0.048537178832354602 0 0.1588651646601365 0.04191133693892312 0 0.1663277010689812 0.05724010564638965 0 0.17206286497251441 0.0048158037752495672 0 0.18138283609121611 0.011645950235277199 0 0.17487944742087611 0.026676491303802039 0 0.17206286497251441 0.0048158037752495672 0 0.17504892260782259 0.0050211824361357446 0 0.18138283609121611 0.011645950235277199 0 0.17206286497251441 0.0048158037752495672 0 0.17504892260782259 0.0050211824361357446 0 0.18037517114347609 0.0008153331900191184 0 0.17206286497251441 0.0048158037752495672 0 0.17504892260782259 0.0050211824361357446 0 0.17504892260782259 0.0050211824361357446 0 0.1816316691858702 0.005025707522054371 0 0.18138283609121611 0.011645950235277199 0 0.17504892260782259 0.0050211824361357446 0 0.18037517114347609 0.0008153331900191184 0 0.1816316691858702 0.005025707522054371 0 0.1893930781060881 0.0033881031404621731 0 0.1816316691858702 0.005025707522054371 0 0.18138283609121611 0.011645950235277199 0 0.1893930781060881 0.0033881031404621731 0 0.18037517114347609 0.0008153331900191184 0 0.1816316691858702 0.005025707522054371 0 0.1943347960245187 0.02263458405324319 0 0.19052621622741581 0.036902948417308401 0 0.17487944742087611 0.026676491303802039 0 0.1943347960245187 0.02263458405324319 0 0.18138283609121611 0.011645950235277199 0 0.17487944742087611 0.026676491303802039 0 0.17206286497251441 0.0048158037752495672 0 0.17487944742087611 0.026676491303802039 0 0.17206286497251441 0.0048158037752495672 0 0.17487944742087611 0.026676491303802039 0 0.15846989451487159 0.01841674353528918 0 0.1588651646601365 0.04191133693892312 0 0.17487944742087611 0.026676491303802039 0 0.15846989451487159 0.01841674353528918 0 0.17206286497251441 0.0048158037752495672 0 0.15846989451487159 0.01841674353528918 0 0.15092663000695719 0.003362070403861992 0 0.17206286497251441 0.0048158037752495672 0 0.15092663000695719 0.003362070403861992 0 0.15846989451487159 0.01841674353528918 0 0.15092663000695719 0.003362070403861992 0 0.13834254672427801 0.01350984960024202 0 0.15846989451487159 0.01841674353528918 0 0.1448386600247768 0.028576569376524971 0 0.13834254672427801 0.01350984960024202 0 0.1588651646601365 0.04191133693892312 0 0.15846989451487159 0.01841674353528918 0 0.1448386600247768 0.028576569376524971 0 0.124266104505753 0.01076668718673477 0 0.1297049872092044 0.024734329021407112 0 0.13834254672427801 0.01350984960024202 0 0.1448386600247768 0.028576569376524971 0 0.1297049872092044 0.024734329021407112 0 0.13834254672427801 0.01350984960024202 0 0.15092663000695719 0.003362070403861992 0 0.12979039504140011 0.0019083370324715679 0 0.15092663000695719 0.003362070403861992 0 0.13834254672427801 0.01350984960024202 0 0.12979039504140011 0.0019083370324715679 0 0.124266104505753 0.01076668718673477 0 0.13834254672427801 0.01350984960024202 0 0.12979039504140011 0.0019083370324715679 0 0.124266104505753 0.01076668718673477 0 0.12979039504140011 0.0019083370324715679 0 0.1588651646601365 0.04191133693892312 0 0.13864306507697871 0.048827115582547771 0 0.152380479391066 0.065273195759883634 0 0.1588651646601365 0.04191133693892312 0 0.1448386600247768 0.028576569376524971 0 0.13864306507697871 0.048827115582547771 0 0.119878082227169 0.037034007354733188 0 0.1297049872092044 0.024734329021407112 0 0.13864306507697871 0.048827115582547771 0 0.119878082227169 0.037034007354733188 0 0.13864306507697871 0.048827115582547771 0 0.1448386600247768 0.028576569376524971 0 0.1297049872092044 0.024734329021407112 0 0.13864306507697871 0.048827115582547771 0 0.13864306507697871 0.048827115582547771 0 0.1290074287148136 0.058924044505645728 0 0.152380479391066 0.065273195759883634 0 0.119878082227169 0.037034007354733188 0 0.13864306507697871 0.048827115582547771 0 0.1290074287148136 0.058924044505645728 0 0.1290074287148136 0.058924044505645728 0 0.13235235897695169 0.075324323404691085 0 0.152380479391066 0.065273195759883634 0 0.11413249712685331 0.061627248170872437 0 0.1290074287148136 0.058924044505645728 0 0.13235235897695169 0.075324323404691085 0 0.152380479391066 0.065273195759883634 0 0.14978437956517099 0.083215413968425356 0 0.16458081978249839 0.083448701844854478 0 0.13235235897695169 0.075324323404691085 0 0.152380479391066 0.065273195759883634 0 0.14978437956517099 0.083215413968425356 0 0.14978437956517099 0.083215413968425356 0 0.13807216851621781 0.096239437265063815 0 0.1579992228848211 0.098242327332712612 0 0.1146517881473199 0.087816030685176627 0 0.13235235897695169 0.075324323404691085 0 0.13807216851621781 0.096239437265063815 0 0.13235235897695169 0.075324323404691085 0 0.14978437956517099 0.083215413968425356 0 0.13807216851621781 0.096239437265063815 0 0.12229001127661079 0.11608782895182911 0 0.13807216851621781 0.096239437265063815 0 0.14832788267816541 0.1142822762218864 0 0.12229001127661079 0.11608782895182911 0 0.1146517881473199 0.087816030685176627 0 0.13807216851621781 0.096239437265063815 0 0.12229001127661079 0.11608782895182911 0 0.14242621007528419 0.13041429978285329 0 0.14832788267816541 0.1142822762218864 0 0.14242621007528419 0.13041429978285329 0 0.1603417937121005 0.12979820936297709 0 0.14832788267816541 0.1142822762218864 0 0.13807216851621781 0.096239437265063815 0 0.14832788267816541 0.1142822762218864 0 0.1579992228848211 0.098242327332712612 0 0.1579992228848211 0.098242327332712612 0 0.167091414948245 0.1138670124321241 0 0.1758065411962263 0.098729547898278397 0 0.14832788267816541 0.1142822762218864 0 0.1579992228848211 0.098242327332712612 0 0.167091414948245 0.1138670124321241 0 0.1603417937121005 0.12979820936297709 0 0.14832788267816541 0.1142822762218864 0 0.167091414948245 0.1138670124321241 0 0.17581536919415111 0.1283826102141829 0 0.1603417937121005 0.12979820936297709 0 0.167091414948245 0.1138670124321241 0 0.17581536919415111 0.1283826102141829 0 0.167091414948245 0.1138670124321241 0 0.18343726518739459 0.1153363614163182 0 0.1940002704781765 0.098111161490792437 0 0.18343726518739459 0.1153363614163182 0 0.1758065411962263 0.098729547898278397 0 0.167091414948245 0.1138670124321241 0 0.18343726518739459 0.1153363614163182 0 0.1758065411962263 0.098729547898278397 0 0.1940002704781765 0.098111161490792437 0 0.1758065411962263 0.098729547898278397 0 0.1796100618657559 0.084571286359360259 0 0.1758065411962263 0.098729547898278397 0 0.1796100618657559 0.084571286359360259 0 0.16458081978249839 0.083448701844854478 0 0.1796100618657559 0.084571286359360259 0 0.17190423379195061 0.070660439750466528 0 0.16458081978249839 0.083448701844854478 0 0.1935856020753032 0.077933805189749739 0 0.1796100618657559 0.084571286359360259 0 0.1831613749385769 0.07384286034377438 0 0.18754560202129811 0.062205910075521002 0 0.1831613749385769 0.07384286034377438 0 0.17190423379195061 0.070660439750466528 0 0.18754560202129811 0.062205910075521002 0 0.1663277010689812 0.05724010564638965 0 0.17190423379195061 0.070660439750466528 0 0.1796100618657559 0.084571286359360259 0 0.1831613749385769 0.07384286034377438 0 0.17190423379195061 0.070660439750466528 0 0.152380479391066 0.065273195759883634 0 0.17190423379195061 0.070660439750466528 0 0.16458081978249839 0.083448701844854478 0 0.1663277010689812 0.05724010564638965 0 0.152380479391066 0.065273195759883634 0 0.17190423379195061 0.070660439750466528 0 0.1579992228848211 0.098242327332712612 0 0.1758065411962263 0.098729547898278397 0 0.16458081978249839 0.083448701844854478 0 0.14978437956517099 0.083215413968425356 0 0.1579992228848211 0.098242327332712612 0 0.16458081978249839 0.083448701844854478 0 0.097205749476315967 0.4758417181507355 0 0.098925634576218585 0.47686424316731019 0 0.096984276812783987 0.50000000000000167 0 0.098925634576218585 0.47686424316731019 0 0.10816559881148741 0.48683639522950078 0 0.1108558930011689 0.47614439769192868 0 0.098925634576218585 0.47686424316731019 0 0.1108558930011689 0.47614439769192868 0 0.1030764764483558 0.46792485095394792 0 0.097205749476315967 0.4758417181507355 0 0.098925634576218585 0.47686424316731019 0 0.1030764764483558 0.46792485095394792 0 0.097205749476315967 0.4758417181507355 0 0.098925634576218585 0.47686424316731019 0 0.097205749476315967 0.4758417181507355 0 0.096984276812783987 0.50000000000000167 0 0.089506092948060889 0.48477218397205402 0 0.096984276812783987 0.50000000000000167 0 0.10816559881148741 0.48683639522950078 0 0.1222220387075891 0.5 0 0.098925634576218585 0.47686424316731019 0 0.096984276812783987 0.50000000000000167 0 0.10816559881148741 0.48683639522950078 0 0.097205749476315967 0.4758417181507355 0 0.096984276812783987 0.50000000000000167 0 0.10816559881148741 0.48683639522950078 0 0.1222220387075891 0.5 0 0.1189307255613999 0.48432218398866927 0 0.1189307255613999 0.48432218398866927 0 0.1108558930011689 0.47614439769192868 0 0.12403912622496539 0.47448368195361967 0 0.10816559881148741 0.48683639522950078 0 0.1189307255613999 0.48432218398866927 0 0.1108558930011689 0.47614439769192868 0 0.1108558930011689 0.47614439769192868 0 0.1149436683652591 0.46682383568409491 0 0.1030764764483558 0.46792485095394792 0 0.1108558930011689 0.47614439769192868 0 0.12403912622496539 0.47448368195361967 0 0.1149436683652591 0.46682383568409491 0 0.12403912622496539 0.47448368195361967 0 0.1235657929076949 0.45743785159519362 0 0.1149436683652591 0.46682383568409491 0 0.1235657929076949 0.45743785159519362 0 0.1095897460094141 0.45461541845053488 0 0.1149436683652591 0.46682383568409491 0 0.1095897460094141 0.45461541845053488 0 0.122431196238569 0.44368730251370347 0 0.109183139371307 0.43288828789193701 0 0.1235657929076949 0.45743785159519362 0 0.1095897460094141 0.45461541845053488 0 0.122431196238569 0.44368730251370347 0 0.097498012154117283 0.44396164757361289 0 0.097351880815217007 0.4599016828621742 0 0.1095897460094141 0.45461541845053488 0 0.097498012154117283 0.44396164757361289 0 0.109183139371307 0.43288828789193701 0 0.1095897460094141 0.45461541845053488 0 0.097498012154117283 0.44396164757361289 0 0.097351880815217007 0.4599016828621742 0 0.097205749476315967 0.4758417181507355 0 0.097351880815217007 0.4599016828621742 0 0.097205749476315967 0.4758417181507355 0 0.1030764764483558 0.46792485095394792 0 0.097351880815217007 0.4599016828621742 0 0.1095897460094141 0.45461541845053488 0 0.1149436683652591 0.46682383568409491 0 0.1030764764483558 0.46792485095394792 0 0.1095897460094141 0.45461541845053488 0 0.1030764764483558 0.46792485095394792 0 0.097351880815217007 0.4599016828621742 0 0.097351880815217007 0.4599016828621742 0 0.085765099524775845 0.45182477279157368 0 0.074850401840414804 0.46255077085825791 0 0.097205749476315967 0.4758417181507355 0 0.097351880815217007 0.4599016828621742 0 0.074850401840414804 0.46255077085825791 0 0.097498012154117283 0.44396164757361289 0 0.076432675817404538 0.44122566539579172 0 0.088893970854358517 0.42997630674629811 0 0.097498012154117283 0.44396164757361289 0 0.097351880815217007 0.4599016828621742 0 0.085765099524775845 0.45182477279157368 0 0.097498012154117283 0.44396164757361289 0 0.085765099524775845 0.45182477279157368 0 0.076432675817404538 0.44122566539579172 0 0.085765099524775845 0.45182477279157368 0 0.076432675817404538 0.44122566539579172 0 0.074850401840414804 0.46255077085825791 0 0.076432675817404538 0.44122566539579172 0 0.074850401840414804 0.46255077085825791 0 0.05249505420451385 0.44925982356577998 0 0.076432675817404538 0.44122566539579172 0 0.05249505420451385 0.44925982356577998 0 0.059664043557368533 0.43101956867315783 0 0.074850401840414804 0.46255077085825791 0 0.05249505420451385 0.44925982356577998 0 0.074850401840414804 0.46255077085825791 0 0.068495096790200494 0.48297238419235827 0 0.058200956221542227 0.46856909021867182 0 0.074850401840414804 0.46255077085825791 0 0.068495096790200494 0.48297238419235827 0 0.082737257938379702 0.4758500918215588 0 0.068495096790200494 0.48297238419235827 0 0.082737257938379702 0.4758500918215588 0 0.081097087564763859 0.48739692591592182 0 0.097205749476315967 0.4758417181507355 0 0.074850401840414804 0.46255077085825791 0 0.097205749476315967 0.4758417181507355 0 0.074850401840414804 0.46255077085825791 0 0.082737257938379702 0.4758500918215588 0 0.082737257938379702 0.4758500918215588 0 0.089506092948060889 0.48477218397205402 0 0.081097087564763859 0.48739692591592182 0 0.097205749476315967 0.4758417181507355 0 0.082737257938379702 0.4758500918215588 0 0.089506092948060889 0.48477218397205402 0 0.096984276812783987 0.50000000000000167 0 0.081097087564763859 0.48739692591592182 0 0.067265599025332801 0.5 0 0.096984276812783987 0.50000000000000167 0 0.089506092948060889 0.48477218397205402 0 0.081097087564763859 0.48739692591592182 0 0.068495096790200494 0.48297238419235827 0 0.081097087564763859 0.48739692591592182 0 0.067265599025332801 0.5 0 0.068495096790200494 0.48297238419235827 0 0.067265599025332801 0.5 0 0.052406260131607207 0.49036886853490802 0 0.067265599025332801 0.5 0 0.052406260131607207 0.49036886853490802 0 0.037546921237881559 0.5 0 0.068495096790200494 0.48297238419235827 0 0.052406260131607207 0.49036886853490802 0 0.04192262861736637 0.47552899379205887 0 0.068495096790200494 0.48297238419235827 0 0.04192262861736637 0.47552899379205887 0 0.068495096790200494 0.48297238419235827 0 0.04192262861736637 0.47552899379205887 0 0.058200956221542227 0.46856909021867182 0 0.052406260131607207 0.49036886853490802 0 0.04192262861736637 0.47552899379205887 0 0.037546921237881559 0.5 0 0.04192262861736637 0.47552899379205887 0 0.037546921237881559 0.5 0 0.01896074780478612 0.48459691919399989 0 0.037546921237881559 0.5 0 0.01896074780478612 0.48459691919399989 0 0.0078282434504303722 0.5 0 0.04192262861736637 0.47552899379205887 0 0.0153501604445323 0.46808560339175959 0 0.04192262861736637 0.47552899379205887 0 0.01896074780478612 0.48459691919399989 0 0.0153501604445323 0.46808560339175959 0 -0.00065462977569910325 0.47406899451073758 0 0.01896074780478612 0.48459691919399989 0 0.0153501604445323 0.46808560339175959 0 -0.002504903111400929 0.48865815071454061 0 -0.00065462977569910325 0.47406899451073758 0 0.01896074780478612 0.48459691919399989 0 -0.002504903111400929 0.48865815071454061 0 0.01896074780478612 0.48459691919399989 0 0.0078282434504303722 0.5 0 0.0053080445473378327 0.45227336431711868 0 0.019500549498717962 0.4498549983421099 0 0.011475021653931239 0.43578637022276501 0 -0.0057895499775989651 0.4405992072919957 0 0.0053080445473378327 0.45227336431711868 0 0.011475021653931239 0.43578637022276501 0 0.0053080445473378327 0.45227336431711868 0 0.0153501604445323 0.46808560339175959 0 0.019500549498717962 0.4498549983421099 0 -0.011222307728302169 0.46064221299146202 0 -0.00065462977569910325 0.47406899451073758 0 0.0153501604445323 0.46808560339175959 0 -0.011222307728302169 0.46064221299146202 0 0.0053080445473378327 0.45227336431711868 0 0.0153501604445323 0.46808560339175959 0 -0.011222307728302169 0.46064221299146202 0 0.0153501604445323 0.46808560339175959 0 0.0153501604445323 0.46808560339175959 0 0.019500549498717962 0.4498549983421099 0 0.035229814279175542 0.45716077750560441 0 0.04192262861736637 0.47552899379205887 0 0.0153501604445323 0.46808560339175959 0 0.035229814279175542 0.45716077750560441 0 0.019500549498717962 0.4498549983421099 0 0.030139706568612899 0.43596887627330211 0 0.011475021653931239 0.43578637022276501 0 0.019500549498717962 0.4498549983421099 0 0.035229814279175542 0.45716077750560441 0 0.030139706568612899 0.43596887627330211 0 0.05249505420451385 0.44925982356577998 0 0.030139706568612899 0.43596887627330211 0 0.035229814279175542 0.45716077750560441 0 0.05249505420451385 0.44925982356577998 0 0.030139706568612899 0.43596887627330211 0 0.04192262861736637 0.47552899379205887 0 0.035229814279175542 0.45716077750560441 0 0.058200956221542227 0.46856909021867182 0 0.035229814279175542 0.45716077750560441 0 0.058200956221542227 0.46856909021867182 0 0.05249505420451385 0.44925982356577998 0 0.074850401840414804 0.46255077085825791 0 0.058200956221542227 0.46856909021867182 0 0.05249505420451385 0.44925982356577998 0 0.05249505420451385 0.44925982356577998 0 0.059664043557368533 0.43101956867315783 0 0.030139706568612899 0.43596887627330211 0 0.059664043557368533 0.43101956867315783 0 0.06012012300875165 0.4108474951797943 0 0.044817007938727477 0.41820747115134149 0 0.06012012300875165 0.4108474951797943 0 0.044817007938727477 0.41820747115134149 0 0.041789669728677183 0.40213825584342261 0 0.032613293089127221 0.41470322576162533 0 0.024242275846403271 0.40679924025984998 0 0.041789669728677183 0.40213825584342261 0 0.044817007938727477 0.41820747115134149 0 0.032613293089127221 0.41470322576162533 0 0.041789669728677183 0.40213825584342261 0 0.059664043557368533 0.43101956867315783 0 0.044817007938727477 0.41820747115134149 0 0.030139706568612899 0.43596887627330211 0 0.044817007938727477 0.41820747115134149 0 0.032613293089127221 0.41470322576162533 0 0.030139706568612899 0.43596887627330211 0 0.032613293089127221 0.41470322576162533 0 0.030139706568612899 0.43596887627330211 0 0.021256251730343661 0.41659122154158601 0 0.030139706568612899 0.43596887627330211 0 0.021256251730343661 0.41659122154158601 0 0.011475021653931239 0.43578637022276501 0 0.032613293089127221 0.41470322576162533 0 0.024242275846403271 0.40679924025984998 0 0.021256251730343661 0.41659122154158601 0 0.024242275846403271 0.40679924025984998 0 0.021256251730343661 0.41659122154158601 0 0.01795785809805539 0.40504795976918351 0 0.021256251730343661 0.41659122154158601 0 0.011694235523254329 0.40140066107697792 0 0.01795785809805539 0.40504795976918351 0 -0.00035679222689577629 0.42055620159252949 0 0.021256251730343661 0.41659122154158601 0 0.0050759655238069544 0.40051319589306322 0 -0.00035679222689577629 0.42055620159252949 0 0.0050759655238069544 0.40051319589306322 0 0.021256251730343661 0.41659122154158601 0 0.0050759655238069544 0.40051319589306322 0 -0.00035679222689577629 0.42055620159252949 0 -0.0057895499775989651 0.4405992072919957 0 0.011475021653931239 0.43578637022276501 0 -0.00035679222689577629 0.42055620159252949 0 0.021256251730343661 0.41659122154158601 0 0.011475021653931239 0.43578637022276501 0 -0.0017659085872152841 0.39371456291236251 0 -0.00095304987135879531 0.37767319038413988 0 0.01435818342609572 0.37956848106916058 0 -0.0017659085872152841 0.39371456291236251 0 0.01330595144639486 0.39011138187843442 0 0.01435818342609572 0.37956848106916058 0 -0.0017659085872152841 0.39371456291236251 0 0.01435818342609572 0.37956848106916058 0 -0.00095304987135879531 0.37767319038413988 0 0.01435818342609572 0.37956848106916058 0 0.0089800691112377311 0.37056447803136411 0 -0.0017659085872152841 0.39371456291236251 0 0.0057543059717396951 0.39801060290291468 0 0.010043359176006151 0.395354827320054 0 -0.0017659085872152841 0.39371456291236251 0 0.01330595144639486 0.39011138187843442 0 0.010043359176006151 0.395354827320054 0 0.021256251730343661 0.41659122154158601 0 0.0050759655238069544 0.40051319589306322 0 0.011694235523254329 0.40140066107697792 0 -0.0017659085872152841 0.39371456291236251 0 0.0050759655238069544 0.40051319589306322 0 -0.0017659085872152841 0.39371456291236251 0 0.0057543059717396951 0.39801060290291468 0 0.0050759655238069544 0.40051319589306322 0 0.0057543059717396951 0.39801060290291468 0 0.0050759655238069544 0.40051319589306322 0 0.0057543059717396951 0.39801060290291468 0 0.0050759655238069544 0.40051319589306322 0 0.0081419665487017824 0.39881982179825248 0 0.0050759655238069544 0.40051319589306322 0 0.011694235523254329 0.40140066107697792 0 0.0081419665487017824 0.39881982179825248 0 0.011694235523254329 0.40140066107697792 0 0.0081419665487017824 0.39881982179825248 0 0.010043359176006151 0.395354827320054 0 0.0057543059717396951 0.39801060290291468 0 0.0081419665487017824 0.39881982179825248 0 0.010043359176006151 0.395354827320054 0 0.011694235523254329 0.40140066107697792 0 0.010043359176006151 0.395354827320054 0 0.017434325955503208 0.3974708150079006 0 0.01330595144639486 0.39011138187843442 0 0.010043359176006151 0.395354827320054 0 0.017434325955503208 0.3974708150079006 0 0.024242275846403271 0.40679924025984998 0 0.017434325955503208 0.3974708150079006 0 0.027362275642905279 0.38611081974290451 0 0.024242275846403271 0.40679924025984998 0 0.027362275642905279 0.38611081974290451 0 0.041789669728677183 0.40213825584342261 0 0.01330595144639486 0.39011138187843442 0 0.017434325955503208 0.3974708150079006 0 0.027362275642905279 0.38611081974290451 0 0.024242275846403271 0.40679924025984998 0 0.027362275642905279 0.38611081974290451 0 0.024242275846403271 0.40679924025984998 0 0.017434325955503208 0.3974708150079006 0 0.01795785809805539 0.40504795976918351 0 0.011694235523254329 0.40140066107697792 0 0.017434325955503208 0.3974708150079006 0 0.01795785809805539 0.40504795976918351 0 0.027362275642905279 0.38611081974290451 0 0.03048227543940682 0.36542239922595898 0 0.01435818342609572 0.37956848106916058 0 0.027362275642905279 0.38611081974290451 0 0.03048227543940682 0.36542239922595898 0 0.01330595144639486 0.39011138187843442 0 0.01435818342609572 0.37956848106916058 0 0.027362275642905279 0.38611081974290451 0 0.027362275642905279 0.38611081974290451 0 0.044030508885968871 0.38629506210330189 0 0.03893293756256698 0.3734283947339519 0 0.044030508885968871 0.38629506210330189 0 0.051576318754581379 0.37612939453677208 0 0.03893293756256698 0.3734283947339519 0 0.027362275642905279 0.38611081974290451 0 0.044030508885968871 0.38629506210330189 0 0.041789669728677183 0.40213825584342261 0 0.044030508885968871 0.38629506210330189 0 0.041789669728677183 0.40213825584342261 0 0.059211496917585253 0.39231618276660479 0 0.06012012300875165 0.4108474951797943 0 0.041789669728677183 0.40213825584342261 0 0.059211496917585253 0.39231618276660479 0 0.044030508885968871 0.38629506210330189 0 0.059211496917585253 0.39231618276660479 0 0.051576318754581379 0.37612939453677208 0 0.059211496917585253 0.39231618276660479 0 0.051576318754581379 0.37612939453677208 0 0.064782345364425717 0.37427572915239787 0 0.059211496917585253 0.39231618276660479 0 0.080533354468352469 0.37746978050859298 0 0.0793763713238686 0.40141672508237708 0 0.059211496917585253 0.39231618276660479 0 0.080533354468352469 0.37746978050859298 0 0.064782345364425717 0.37427572915239787 0 0.059211496917585253 0.39231618276660479 0 0.080533354468352469 0.37746978050859298 0 0.0793763713238686 0.40141672508237708 0 0.096683819197108917 0.41432100957736051 0 0.1037165789938591 0.39387082096151221 0 0.080533354468352469 0.37746978050859298 0 0.0793763713238686 0.40141672508237708 0 0.1037165789938591 0.39387082096151221 0 0.06012012300875165 0.4108474951797943 0 0.059211496917585253 0.39231618276660479 0 0.0793763713238686 0.40141672508237708 0 0.059664043557368533 0.43101956867315783 0 0.06012012300875165 0.4108474951797943 0 0.075862148586282915 0.41998676756186182 0 0.06012012300875165 0.4108474951797943 0 0.0793763713238686 0.40141672508237708 0 0.075862148586282915 0.41998676756186182 0 0.076432675817404538 0.44122566539579172 0 0.059664043557368533 0.43101956867315783 0 0.075862148586282915 0.41998676756186182 0 0.076432675817404538 0.44122566539579172 0 0.075862148586282915 0.41998676756186182 0 0.088893970854358517 0.42997630674629811 0 0.075862148586282915 0.41998676756186182 0 0.088893970854358517 0.42997630674629811 0 0.096683819197108917 0.41432100957736051 0 0.0793763713238686 0.40141672508237708 0 0.075862148586282915 0.41998676756186182 0 0.096683819197108917 0.41432100957736051 0 0.096683819197108917 0.41432100957736051 0 0.109183139371307 0.43288828789193701 0 0.1181870658861582 0.41103089047793939 0 0.096683819197108917 0.41432100957736051 0 0.1181870658861582 0.41103089047793939 0 0.1037165789938591 0.39387082096151221 0 0.088893970854358517 0.42997630674629811 0 0.096683819197108917 0.41432100957736051 0 0.109183139371307 0.43288828789193701 0 0.097498012154117283 0.44396164757361289 0 0.088893970854358517 0.42997630674629811 0 0.109183139371307 0.43288828789193701 0 0.109183139371307 0.43288828789193701 0 0.1181870658861582 0.41103089047793939 0 0.13050023848874989 0.4276930947070825 0 0.122431196238569 0.44368730251370347 0 0.109183139371307 0.43288828789193701 0 0.13050023848874989 0.4276930947070825 0 0.1037165789938591 0.39387082096151221 0 0.129141314825131 0.38962274306418437 0 0.1181870658861582 0.41103089047793939 0 0.1037165789938591 0.39387082096151221 0 0.129141314825131 0.38962274306418437 0 0.1037165789938591 0.39387082096151221 0 0.1213755573139664 0.37197883584600439 0 0.129141314825131 0.38962274306418437 0 0.080533354468352469 0.37746978050859298 0 0.1037165789938591 0.39387082096151221 0 0.10185521201911971 0.36262337825058127 0 0.1037165789938591 0.39387082096151221 0 0.10185521201911971 0.36262337825058127 0 0.1213755573139664 0.37197883584600439 0 0.10185521201911971 0.36262337825058127 0 0.1113827595682001 0.34479623253152142 0 0.1022546160837038 0.33911802054802792 0 0.10185521201911971 0.36262337825058127 0 0.1022546160837038 0.33911802054802792 0 0.092742970680347869 0.34370682150715359 0 0.1213755573139664 0.37197883584600439 0 0.1201709423638405 0.35974568090265141 0 0.131535148721732 0.35493511837226138 0 0.10185521201911971 0.36262337825058127 0 0.1213755573139664 0.37197883584600439 0 0.1201709423638405 0.35974568090265141 0 0.10185521201911971 0.36262337825058127 0 0.123177069569887 0.34777697599256963 0 0.10185521201911971 0.36262337825058127 0 0.1113827595682001 0.34479623253152142 0 0.123177069569887 0.34777697599256963 0 0.1201709423638405 0.35974568090265141 0 0.123177069569887 0.34777697599256963 0 0.131535148721732 0.35493511837226138 0 0.10185521201911971 0.36262337825058127 0 0.1201709423638405 0.35974568090265141 0 0.123177069569887 0.34777697599256963 0 0.1113827595682001 0.34479623253152142 0 0.123177069569887 0.34777697599256963 0 0.1179641290020314 0.34112194633724591 0 0.12481482618670139 0.33719959393898719 0 0.1126615743016595 0.32774369653702851 0 0.1164988879828652 0.32079255147347419 0 0.12481482618670139 0.33719959393898719 0 0.1180945036516703 0.31946406950571332 0 0.123177069569887 0.34777697599256963 0 0.1179641290020314 0.34112194633724591 0 0.12481482618670139 0.33719959393898719 0 0.1179641290020314 0.34112194633724591 0 0.12481482618670139 0.33719959393898719 0 0.11248186068333731 0.3347149828859054 0 0.12481482618670139 0.33719959393898719 0 0.11248186068333731 0.3347149828859054 0 0.1126615743016595 0.32774369653702851 0 0.11248186068333731 0.3347149828859054 0 0.1126615743016595 0.32774369653702851 0 0.1063890900915888 0.330953853583628 0 0.1113827595682001 0.34479623253152142 0 0.1179641290020314 0.34112194633724591 0 0.11248186068333731 0.3347149828859054 0 0.12481482618670139 0.33719959393898719 0 0.1180945036516703 0.31946406950571332 0 0.1164988879828652 0.32079255147347419 0 0.1180945036516703 0.31946406950571332 0 0.1164988879828652 0.32079255147347419 0 0.1126615743016595 0.32774369653702851 0 0.1164988879828652 0.32079255147347419 0 0.11005551057377889 0.31994970771077319 0 0.1180945036516703 0.31946406950571332 0 0.11005551057377889 0.31994970771077319 0 0.1043592720935845 0.31113529038990573 0 0.1180945036516703 0.31946406950571332 0 0.1164988879828652 0.32079255147347419 0 0.11005551057377889 0.31994970771077319 0 0.11005551057377889 0.31994970771077319 0 0.1035632919865839 0.31770194816449049 0 0.1043592720935845 0.31113529038990573 0 0.1126615743016595 0.32774369653702851 0 0.10468162931837879 0.32356251872866898 0 0.1063890900915888 0.330953853583628 0 0.1126615743016595 0.32774369653702851 0 0.11005551057377889 0.31994970771077319 0 0.10468162931837879 0.32356251872866898 0 0.11005551057377889 0.31994970771077319 0 0.1035632919865839 0.31770194816449049 0 0.10468162931837879 0.32356251872866898 0 0.10468162931837879 0.32356251872866898 0 0.1063890900915888 0.330953853583628 0 0.099865770070864321 0.32963004921850891 0 0.10468162931837879 0.32356251872866898 0 0.095425204864832525 0.31829223715088178 0 0.099865770070864321 0.32963004921850891 0 0.095425204864832525 0.31829223715088178 0 0.099865770070864321 0.32963004921850891 0 0.091115387138314505 0.33088442666183548 0 0.1035632919865839 0.31770194816449049 0 0.095425204864832525 0.31829223715088178 0 0.1043592720935845 0.31113529038990573 0 0.1035632919865839 0.31770194816449049 0 0.10468162931837879 0.32356251872866898 0 0.095425204864832525 0.31829223715088178 0 0.1113827595682001 0.34479623253152142 0 0.11248186068333731 0.3347149828859054 0 0.1022546160837038 0.33911802054802792 0 0.1022546160837038 0.33911802054802792 0 0.1063890900915888 0.330953853583628 0 0.099865770070864321 0.32963004921850891 0 0.11248186068333731 0.3347149828859054 0 0.1022546160837038 0.33911802054802792 0 0.1063890900915888 0.330953853583628 0 0.1022546160837038 0.33911802054802792 0 0.099865770070864321 0.32963004921850891 0 0.091115387138314505 0.33088442666183548 0 0.1022546160837038 0.33911802054802792 0 0.092742970680347869 0.34370682150715359 0 0.091115387138314505 0.33088442666183548 0 0.092742970680347869 0.34370682150715359 0 0.091115387138314505 0.33088442666183548 0 0.084803271007805769 0.33696014258382612 0 0.092742970680347869 0.34370682150715359 0 0.084803271007805769 0.33696014258382612 0 0.083686367152795565 0.34894813949149728 0 0.091115387138314505 0.33088442666183548 0 0.078372924190820911 0.33092439514885469 0 0.084803271007805769 0.33696014258382612 0 0.078372924190820911 0.33092439514885469 0 0.084803271007805769 0.33696014258382612 0 0.07703054355175315 0.34046924059317601 0 0.084803271007805769 0.33696014258382612 0 0.07703054355175315 0.34046924059317601 0 0.083686367152795565 0.34894813949149728 0 0.095425204864832525 0.31829223715088178 0 0.08761517857484194 0.3147120758943886 0 0.084786367013857833 0.32195152801170468 0 0.095425204864832525 0.31829223715088178 0 0.091115387138314505 0.33088442666183548 0 0.084786367013857833 0.32195152801170468 0 0.091115387138314505 0.33088442666183548 0 0.078372924190820911 0.33092439514885469 0 0.084786367013857833 0.32195152801170468 0 0.078372924190820911 0.33092439514885469 0 0.084786367013857833 0.32195152801170468 0 0.076156918949213503 0.3227746707974376 0 0.08761517857484194 0.3147120758943886 0 0.084786367013857833 0.32195152801170468 0 0.080639183380315366 0.31202870437473601 0 0.084786367013857833 0.32195152801170468 0 0.076156918949213503 0.3227746707974376 0 0.080639183380315366 0.31202870437473601 0 0.070401494113538673 0.31420067058398399 0 0.076156918949213503 0.3227746707974376 0 0.080639183380315366 0.31202870437473601 0 0.070401494113538673 0.31420067058398399 0 0.076156918949213503 0.3227746707974376 0 0.066799850459924801 0.32349597922959072 0 0.076156918949213503 0.3227746707974376 0 0.066799850459924801 0.32349597922959072 0 0.072637714059283057 0.32901236768147712 0 0.078372924190820911 0.33092439514885469 0 0.076156918949213503 0.3227746707974376 0 0.072637714059283057 0.32901236768147712 0 0.066799850459924801 0.32349597922959072 0 0.072637714059283057 0.32901236768147712 0 0.067371279065984141 0.33157581273890802 0 0.062814616750303282 0.32799885837061887 0 0.066799850459924801 0.32349597922959072 0 0.067371279065984141 0.33157581273890802 0 0.062814616750303282 0.32799885837061887 0 0.066799850459924801 0.32349597922959072 0 0.059111763459905139 0.32362127559201093 0 0.070401494113538673 0.31420067058398399 0 0.066799850459924801 0.32349597922959072 0 0.059808964596031078 0.31702713439487568 0 0.070401494113538673 0.31420067058398399 0 0.059808964596031078 0.31702713439487568 0 0.061895183144112277 0.31008065782188893 0 0.07703054355175315 0.34046924059317601 0 0.072886011010444007 0.33505280085410177 0 0.068324329637473313 0.34018515050777942 0 0.07703054355175315 0.34046924059317601 0 0.068324329637473313 0.34018515050777942 0 0.071106697631162313 0.34933592579806533 0 0.078372924190820911 0.33092439514885469 0 0.07703054355175315 0.34046924059317601 0 0.072886011010444007 0.33505280085410177 0 0.078372924190820911 0.33092439514885469 0 0.072637714059283057 0.32901236768147712 0 0.072886011010444007 0.33505280085410177 0 0.072637714059283057 0.32901236768147712 0 0.072886011010444007 0.33505280085410177 0 0.067371279065984141 0.33157581273890802 0 0.072886011010444007 0.33505280085410177 0 0.067371279065984141 0.33157581273890802 0 0.068324329637473313 0.34018515050777942 0 0.067371279065984141 0.33157581273890802 0 0.062906573013723807 0.33449338485721558 0 0.068324329637473313 0.34018515050777942 0 0.062814616750303282 0.32799885837061887 0 0.067371279065984141 0.33157581273890802 0 0.062906573013723807 0.33449338485721558 0 0.062906573013723807 0.33449338485721558 0 0.068324329637473313 0.34018515050777942 0 0.058710544562371868 0.3408188759487305 0 0.068324329637473313 0.34018515050777942 0 0.064658351525869212 0.34544744219029611 0 0.058710544562371868 0.3408188759487305 0 0.064658351525869212 0.34544744219029611 0 0.071106697631162313 0.34933592579806533 0 0.060491834272469368 0.35144981650660928 0 0.068324329637473313 0.34018515050777942 0 0.064658351525869212 0.34544744219029611 0 0.071106697631162313 0.34933592579806533 0 0.071106697631162313 0.34933592579806533 0 0.073903080806487206 0.36134405975837408 0 0.060491834272469368 0.35144981650660928 0 0.073903080806487206 0.36134405975837408 0 0.058687475875122283 0.36411922819164533 0 0.060491834272469368 0.35144981650660928 0 0.071106697631162313 0.34933592579806533 0 0.083686367152795565 0.34894813949149728 0 0.073903080806487206 0.36134405975837408 0 0.07703054355175315 0.34046924059317601 0 0.071106697631162313 0.34933592579806533 0 0.083686367152795565 0.34894813949149728 0 0.10185521201911971 0.36262337825058127 0 0.092742970680347869 0.34370682150715359 0 0.083686367152795565 0.34894813949149728 0 0.10185521201911971 0.36262337825058127 0 0.083686367152795565 0.34894813949149728 0 0.073903080806487206 0.36134405975837408 0 0.080533354468352469 0.37746978050859298 0 0.10185521201911971 0.36262337825058127 0 0.073903080806487206 0.36134405975837408 0 0.080533354468352469 0.37746978050859298 0 0.10185521201911971 0.36262337825058127 0 0.080533354468352469 0.37746978050859298 0 0.073903080806487206 0.36134405975837408 0 0.064782345364425717 0.37427572915239787 0 0.073903080806487206 0.36134405975837408 0 0.064782345364425717 0.37427572915239787 0 0.058687475875122283 0.36411922819164533 0 0.051576318754581379 0.37612939453677208 0 0.064782345364425717 0.37427572915239787 0 0.058687475875122283 0.36411922819164533 0 0.058687475875122283 0.36411922819164533 0 0.053953877855968793 0.35678514027323421 0 0.045207189214132512 0.36510034337894648 0 0.051576318754581379 0.37612939453677208 0 0.058687475875122283 0.36411922819164533 0 0.045207189214132512 0.36510034337894648 0 0.064658351525869212 0.34544744219029611 0 0.060491834272469368 0.35144981650660928 0 0.058710544562371868 0.3408188759487305 0 0.060491834272469368 0.35144981650660928 0 0.052478653200702087 0.34917200593394881 0 0.058710544562371868 0.3408188759487305 0 0.058687475875122283 0.36411922819164533 0 0.060491834272469368 0.35144981650660928 0 0.053953877855968793 0.35678514027323421 0 0.060491834272469368 0.35144981650660928 0 0.053953877855968793 0.35678514027323421 0 0.052478653200702087 0.34917200593394881 0 0.053953877855968793 0.35678514027323421 0 0.046610516829163763 0.35519000825574371 0 0.045207189214132512 0.36510034337894648 0 0.053953877855968793 0.35678514027323421 0 0.052478653200702087 0.34917200593394881 0 0.046610516829163763 0.35519000825574371 0 0.052478653200702087 0.34917200593394881 0 0.05034956612394334 0.34186910053230563 0 0.058710544562371868 0.3408188759487305 0 0.052478653200702087 0.34917200593394881 0 0.044305575106518197 0.34673087464712721 0 0.046610516829163763 0.35519000825574371 0 0.052478653200702087 0.34917200593394881 0 0.044305575106518197 0.34673087464712721 0 0.05034956612394334 0.34186910053230563 0 0.040904126728702438 0.35283795029959492 0 0.033580266404557052 0.34487991716664163 0 0.034939057438407292 0.36151234941582822 0 0.033580266404557052 0.34487991716664163 0 0.03048227543940682 0.36542239922595898 0 0.033580266404557052 0.34487991716664163 0 0.034939057438407292 0.36151234941582822 0 0.03048227543940682 0.36542239922595898 0 0.044305575106518197 0.34673087464712721 0 0.040904126728702438 0.35283795029959492 0 0.033580266404557052 0.34487991716664163 0 0.040904126728702438 0.35283795029959492 0 0.041523730095835813 0.35934491024216653 0 0.034939057438407292 0.36151234941582822 0 0.044305575106518197 0.34673087464712721 0 0.040904126728702438 0.35283795029959492 0 0.046610516829163763 0.35519000825574371 0 0.040904126728702438 0.35283795029959492 0 0.046610516829163763 0.35519000825574371 0 0.041523730095835813 0.35934491024216653 0 0.027362275642905279 0.38611081974290451 0 0.03893293756256698 0.3734283947339519 0 0.03048227543940682 0.36542239922595898 0 0.051576318754581379 0.37612939453677208 0 0.045207189214132512 0.36510034337894648 0 0.03893293756256698 0.3734283947339519 0 0.046610516829163763 0.35519000825574371 0 0.041523730095835813 0.35934491024216653 0 0.045207189214132512 0.36510034337894648 0 0.045207189214132512 0.36510034337894648 0 0.034939057438407292 0.36151234941582822 0 0.03893293756256698 0.3734283947339519 0 0.041523730095835813 0.35934491024216653 0 0.045207189214132512 0.36510034337894648 0 0.034939057438407292 0.36151234941582822 0 0.034939057438407292 0.36151234941582822 0 0.03893293756256698 0.3734283947339519 0 0.03048227543940682 0.36542239922595898 0 0.034939057438407292 0.36151234941582822 0 0.03048227543940682 0.36542239922595898 0 0.01435818342609572 0.37956848106916058 0 0.026016288270820351 0.36245768992662158 0 0.03048227543940682 0.36542239922595898 0 0.01435818342609572 0.37956848106916058 0 0.026016288270820351 0.36245768992662158 0 0.0089800691112377311 0.37056447803136411 0 0.01435818342609572 0.37956848106916058 0 0.03048227543940682 0.36542239922595898 0 0.026016288270820351 0.36245768992662158 0 0.03048227543940682 0.36542239922595898 0 0.02503437386482537 0.35161882473577721 0 0.02503437386482537 0.35161882473577721 0 0.0081969799948278261 0.35085900386981522 0 0.015711448780474899 0.33457941842930861 0 0.02503437386482537 0.35161882473577721 0 0.013936624187466801 0.35687351731943712 0 0.0081969799948278261 0.35085900386981522 0 0.033580266404557052 0.34487991716664163 0 0.03048227543940682 0.36542239922595898 0 0.02503437386482537 0.35161882473577721 0 0.026016288270820351 0.36245768992662158 0 0.02503437386482537 0.35161882473577721 0 0.013936624187466801 0.35687351731943712 0 -0.0035011453806063492 0.36255855074553422 0 0.013936624187466801 0.35687351731943712 0 0.0081969799948278261 0.35085900386981522 0 -0.0020463162591698482 0.35396806797965119 0 -0.0052553598087585933 0.34482140175129239 0 0.0081969799948278261 0.35085900386981522 0 -0.0035011453806063492 0.36255855074553422 0 -0.0020463162591698482 0.35396806797965119 0 0.0081969799948278261 0.35085900386981522 0 -0.0035011453806063492 0.36255855074553422 0 0.026016288270820351 0.36245768992662158 0 -0.0035011453806063492 0.36255855074553422 0 0.026016288270820351 0.36245768992662158 0 0.013936624187466801 0.35687351731943712 0 -0.0035011453806063492 0.36255855074553422 0 0.026016288270820351 0.36245768992662158 0 0.0089800691112377311 0.37056447803136411 0 -0.0035011453806063492 0.36255855074553422 0 -0.00095304987135879531 0.37767319038413988 0 0.0089800691112377311 0.37056447803136411 0 0.013912202589993801 0.31309419793256349 0 0.0028937517168451852 0.3302129616722384 0 0.022766868570571169 0.32244085090497132 0 0.013912202589993801 0.31309419793256349 0 0.0010950197022403111 0.31679193839657172 0 0.0028937517168451852 0.3302129616722384 0 -0.0052553598087585933 0.34482140175129239 0 0.0028937517168451852 0.3302129616722384 0 0.015711448780474899 0.33457941842930861 0 -0.0052553598087585933 0.34482140175129239 0 0.0081969799948278261 0.35085900386981522 0 0.015711448780474899 0.33457941842930861 0 0.0028937517168451852 0.3302129616722384 0 0.015711448780474899 0.33457941842930861 0 0.022766868570571169 0.32244085090497132 0 -0.0052553598087585933 0.34482140175129239 0 0.015711448780474899 0.33457941842930861 0 0.015711448780474899 0.33457941842930861 0 0.036678257369708062 0.32433743510732449 0 0.033580266404557052 0.34487991716664163 0 0.015711448780474899 0.33457941842930861 0 0.036678257369708062 0.32433743510732449 0 0.033580266404557052 0.34487991716664163 0 0.02503437386482537 0.35161882473577721 0 0.015711448780474899 0.33457941842930861 0 0.015711448780474899 0.33457941842930861 0 0.022766868570571169 0.32244085090497132 0 0.036678257369708062 0.32433743510732449 0 0.013912202589993801 0.31309419793256349 0 0.022766868570571169 0.32244085090497132 0 0.02604608480415261 0.30878909237902352 0 0.022766868570571169 0.32244085090497132 0 0.036678257369708062 0.32433743510732449 0 0.02604608480415261 0.30878909237902352 0 0.036678257369708062 0.32433743510732449 0 0.039762894276007488 0.32283063450797622 0 0.036678257369708062 0.32433743510732449 0 0.039762894276007488 0.32283063450797622 0 0.044089170923344148 0.31405009544338419 0 0.036678257369708062 0.32433743510732449 0 0.039762894276007488 0.32283063450797622 0 0.043045641884890733 0.32673648797181282 0 0.043045641884890733 0.32673648797181282 0 0.046699400266099617 0.32249035366354589 0 0.048222488122565833 0.32863286276018477 0 0.039762894276007488 0.32283063450797622 0 0.043045641884890733 0.32673648797181282 0 0.046699400266099617 0.32249035366354589 0 0.039762894276007488 0.32283063450797622 0 0.046699400266099617 0.32249035366354589 0 0.044575386054961343 0.31919867513160088 0 0.046699400266099617 0.32249035366354589 0 0.044575386054961343 0.31919867513160088 0 0.047750078754394111 0.31742361691149762 0 0.039762894276007488 0.32283063450797622 0 0.044575386054961343 0.31919867513160088 0 0.044089170923344148 0.31405009544338419 0 0.044575386054961343 0.31919867513160088 0 0.044089170923344148 0.31405009544338419 0 0.047750078754394111 0.31742361691149762 0 0.033580266404557052 0.34487991716664163 0 0.036678257369708062 0.32433743510732449 0 0.041910321352040487 0.3364362656945285 0 0.033580266404557052 0.34487991716664163 0 0.036678257369708062 0.32433743510732449 0 0.036678257369708062 0.32433743510732449 0 0.043045641884890733 0.32673648797181282 0 0.041910321352040487 0.3364362656945285 0 0.043045641884890733 0.32673648797181282 0 0.041910321352040487 0.3364362656945285 0 0.048222488122565833 0.32863286276018477 0 0.044305575106518197 0.34673087464712721 0 0.033580266404557052 0.34487991716664163 0 0.041910321352040487 0.3364362656945285 0 0.044305575106518197 0.34673087464712721 0 0.041910321352040487 0.3364362656945285 0 0.05034956612394334 0.34186910053230563 0 0.05034956612394334 0.34186910053230563 0 0.05202660353078499 0.3348105679963912 0 0.058710544562371868 0.3408188759487305 0 0.041910321352040487 0.3364362656945285 0 0.05034956612394334 0.34186910053230563 0 0.05202660353078499 0.3348105679963912 0 0.05202660353078499 0.3348105679963912 0 0.048222488122565833 0.32863286276018477 0 0.05378864735906598 0.32608483005685113 0 0.041910321352040487 0.3364362656945285 0 0.05202660353078499 0.3348105679963912 0 0.048222488122565833 0.32863286276018477 0 0.05202660353078499 0.3348105679963912 0 0.058202859558705473 0.33100410014521048 0 0.05378864735906598 0.32608483005685113 0 0.062906573013723807 0.33449338485721558 0 0.058202859558705473 0.33100410014521048 0 0.058710544562371868 0.3408188759487305 0 0.05202660353078499 0.3348105679963912 0 0.058202859558705473 0.33100410014521048 0 0.058710544562371868 0.3408188759487305 0 0.062814616750303282 0.32799885837061887 0 0.062906573013723807 0.33449338485721558 0 0.058202859558705473 0.33100410014521048 0 0.052379359091215993 0.31925464307362078 0 0.051591625389110267 0.31335309700254882 0 0.059808964596031078 0.31702713439487568 0 0.044089170923344148 0.31405009544338419 0 0.051591625389110267 0.31335309700254882 0 0.047750078754394111 0.31742361691149762 0 0.052379359091215993 0.31925464307362078 0 0.051591625389110267 0.31335309700254882 0 0.047750078754394111 0.31742361691149762 0 0.046699400266099617 0.32249035366354589 0 0.052379359091215993 0.31925464307362078 0 0.047750078754394111 0.31742361691149762 0 0.046699400266099617 0.32249035366354589 0 0.048222488122565833 0.32863286276018477 0 0.05378864735906598 0.32608483005685113 0 0.046699400266099617 0.32249035366354589 0 0.052379359091215993 0.31925464307362078 0 0.05378864735906598 0.32608483005685113 0 0.052379359091215993 0.31925464307362078 0 0.05378864735906598 0.32608483005685113 0 0.059111763459905139 0.32362127559201093 0 0.058202859558705473 0.33100410014521048 0 0.05378864735906598 0.32608483005685113 0 0.059111763459905139 0.32362127559201093 0 0.062814616750303282 0.32799885837061887 0 0.058202859558705473 0.33100410014521048 0 0.059111763459905139 0.32362127559201093 0 0.066799850459924801 0.32349597922959072 0 0.059111763459905139 0.32362127559201093 0 0.059808964596031078 0.31702713439487568 0 0.051591625389110267 0.31335309700254882 0 0.059808964596031078 0.31702713439487568 0 0.061895183144112277 0.31008065782188893 0 0.052379359091215993 0.31925464307362078 0 0.059111763459905139 0.32362127559201093 0 0.059808964596031078 0.31702713439487568 0 0.051591625389110267 0.31335309700254882 0 0.061895183144112277 0.31008065782188893 0 0.05079983389047505 0.30563207583819568 0 0.059248206991177832 0.30181006744058769 0 0.053909813749631948 0.29288915355060807 0 0.07038799718049206 0.29863838255165809 0 0.061895183144112277 0.31008065782188893 0 0.059248206991177832 0.30181006744058769 0 0.05079983389047505 0.30563207583819568 0 0.059248206991177832 0.30181006744058769 0 0.05079983389047505 0.30563207583819568 0 0.053909813749631948 0.29288915355060807 0 0.05079983389047505 0.30563207583819568 0 0.053909813749631948 0.29288915355060807 0 0.040790762464800609 0.29706780679492162 0 0.044089170923344148 0.31405009544338419 0 0.051591625389110267 0.31335309700254882 0 0.05079983389047505 0.30563207583819568 0 0.053909813749631948 0.29288915355060807 0 0.033534721852605767 0.28839475620343868 0 0.058303188135699222 0.27549718977769683 0 0.053909813749631948 0.29288915355060807 0 0.058303188135699222 0.27549718977769683 0 0.07038799718049206 0.29863838255165809 0 0.033534721852605767 0.28839475620343868 0 0.058303188135699222 0.27549718977769683 0 0.053909813749631948 0.29288915355060807 0 0.033534721852605767 0.28839475620343868 0 0.040790762464800609 0.29706780679492162 0 0.033534721852605767 0.28839475620343868 0 0.040790762464800609 0.29706780679492162 0 0.030045590681609231 0.29868562704533141 0 0.036678257369708062 0.32433743510732449 0 0.040790762464800609 0.29706780679492162 0 0.044089170923344148 0.31405009544338419 0 0.05079983389047505 0.30563207583819568 0 0.040790762464800609 0.29706780679492162 0 0.036678257369708062 0.32433743510732449 0 0.040790762464800609 0.29706780679492162 0 0.02604608480415261 0.30878909237902352 0 0.036678257369708062 0.32433743510732449 0 0.044089170923344148 0.31405009544338419 0 0.040790762464800609 0.29706780679492162 0 0.040790762464800609 0.29706780679492162 0 0.02604608480415261 0.30878909237902352 0 0.030045590681609231 0.29868562704533141 0 0.013912202589993801 0.31309419793256349 0 0.02604608480415261 0.30878909237902352 0 0.0087662555695123632 0.30129232262918049 0 0.02604608480415261 0.30878909237902352 0 0.030045590681609231 0.29868562704533141 0 0.0087662555695123632 0.30129232262918049 0 0.033534721852605767 0.28839475620343868 0 0.015692228675685111 0.2846282142711376 0 0.0087662555695123632 0.30129232262918049 0 0.033534721852605767 0.28839475620343868 0 0.015692228675685111 0.2846282142711376 0 0.026167041807190729 0.27767049255592952 0 0.033534721852605767 0.28839475620343868 0 0.030045590681609231 0.29868562704533141 0 0.0087662555695123632 0.30129232262918049 0 0.033534721852605767 0.28839475620343868 0 0.0087662555695123632 0.30129232262918049 0 -0.0022586230721503009 0.28774745583177708 0 0.015692228675685111 0.2846282142711376 0 0.0087662555695123632 0.30129232262918049 0 -0.0022586230721503009 0.28774745583177708 0 0.015692228675685111 0.2846282142711376 0 0.0053449175321244697 0.27715163150546163 0 0.013912202589993801 0.31309419793256349 0 0.0010950197022403111 0.31679193839657172 0 0.0087662555695123632 0.30129232262918049 0 -0.0027776851774954509 0.25257493582532792 0 0.023999282035763351 0.24359914253080089 0 0.0061393108742415709 0.26306138642428062 0 -0.003382447522311832 0.27165366474939667 0 0.0061393108742415709 0.26306138642428062 0 0.0053449175321244697 0.27715163150546163 0 0.015692228675685111 0.2846282142711376 0 0.0053449175321244697 0.27715163150546163 0 0.01891777333566895 0.26974841660485271 0 0.0061393108742415709 0.26306138642428062 0 0.0053449175321244697 0.27715163150546163 0 0.01891777333566895 0.26974841660485271 0 0.01891777333566895 0.26974841660485271 0 0.026167041807190729 0.27767049255592952 0 0.036233938338755871 0.26769902129821349 0 0.015692228675685111 0.2846282142711376 0 0.01891777333566895 0.26974841660485271 0 0.026167041807190729 0.27767049255592952 0 0.023999282035763351 0.24359914253080089 0 0.0061393108742415709 0.26306138642428062 0 0.01891777333566895 0.26974841660485271 0 0.023999282035763351 0.24359914253080089 0 0.01891777333566895 0.26974841660485271 0 0.036233938338755871 0.26769902129821349 0 0.023999282035763351 0.24359914253080089 0 0.036233938338755871 0.26769902129821349 0 0.050354998163758158 0.2543889014659465 0 0.033534721852605767 0.28839475620343868 0 0.036233938338755871 0.26769902129821349 0 0.058303188135699222 0.27549718977769683 0 0.033534721852605767 0.28839475620343868 0 0.026167041807190729 0.27767049255592952 0 0.036233938338755871 0.26769902129821349 0 0.036233938338755871 0.26769902129821349 0 0.058303188135699222 0.27549718977769683 0 0.050354998163758158 0.2543889014659465 0 0.058303188135699222 0.27549718977769683 0 0.050354998163758158 0.2543889014659465 0 0.073062354807743687 0.25328454769075631 0 0.093626826958157341 0.2408364381341962 0 0.073062354807743687 0.25328454769075631 0 0.097157224110459878 0.26420874047443449 0 0.073062354807743687 0.25328454769075631 0 0.082891501948613944 0.28119667471681747 0 0.097157224110459878 0.26420874047443449 0 0.058303188135699222 0.27549718977769683 0 0.073062354807743687 0.25328454769075631 0 0.082891501948613944 0.28119667471681747 0 0.058303188135699222 0.27549718977769683 0 0.082891501948613944 0.28119667471681747 0 0.07038799718049206 0.29863838255165809 0 0.070401494113538673 0.31420067058398399 0 0.061895183144112277 0.31008065782188893 0 0.07038799718049206 0.29863838255165809 0 0.061895183144112277 0.31008065782188893 0 0.059248206991177832 0.30181006744058769 0 0.07038799718049206 0.29863838255165809 0 0.070401494113538673 0.31420067058398399 0 0.07038799718049206 0.29863838255165809 0 0.080639183380315366 0.31202870437473601 0 0.07038799718049206 0.29863838255165809 0 0.080639183380315366 0.31202870437473601 0 0.090812383576223607 0.30371478281628589 0 0.08761517857484194 0.3147120758943886 0 0.080639183380315366 0.31202870437473601 0 0.090812383576223607 0.30371478281628589 0 0.095425204864832525 0.31829223715088178 0 0.08761517857484194 0.3147120758943886 0 0.090812383576223607 0.30371478281628589 0 0.082891501948613944 0.28119667471681747 0 0.07038799718049206 0.29863838255165809 0 0.090812383576223607 0.30371478281628589 0 0.082891501948613944 0.28119667471681747 0 0.090812383576223607 0.30371478281628589 0 0.10762586388106531 0.29183640499007379 0 0.090812383576223607 0.30371478281628589 0 0.10762586388106531 0.29183640499007379 0 0.1043592720935845 0.31113529038990573 0 0.095425204864832525 0.31829223715088178 0 0.090812383576223607 0.30371478281628589 0 0.1043592720935845 0.31113529038990573 0 0.1180945036516703 0.31946406950571332 0 0.10762586388106531 0.29183640499007379 0 0.1228384346263648 0.30062118262991028 0 0.1180945036516703 0.31946406950571332 0 0.10762586388106531 0.29183640499007379 0 0.1180945036516703 0.31946406950571332 0 0.10762586388106531 0.29183640499007379 0 0.1043592720935845 0.31113529038990573 0 0.10762586388106531 0.29183640499007379 0 0.1228384346263648 0.30062118262991028 0 0.12936732892117939 0.28684949463581561 0 0.10762586388106531 0.29183640499007379 0 0.1230526862221317 0.26777391949864099 0 0.12936732892117939 0.28684949463581561 0 0.1160311557347623 0.24436958391682351 0 0.1230526862221317 0.26777391949864099 0 0.097157224110459878 0.26420874047443449 0 0.082891501948613944 0.28119667471681747 0 0.10762586388106531 0.29183640499007379 0 0.097157224110459878 0.26420874047443449 0 0.10762586388106531 0.29183640499007379 0 0.097157224110459878 0.26420874047443449 0 0.10762586388106531 0.29183640499007379 0 0.1230526862221317 0.26777391949864099 0 0.097157224110459878 0.26420874047443449 0 0.139967173851379 0.24782138501883791 0 0.14708532205023009 0.27082288058994131 0 0.16048112692306479 0.25744682028509069 0 0.1160311557347623 0.24436958391682351 0 0.139967173851379 0.24782138501883791 0 0.1230526862221317 0.26777391949864099 0 0.139967173851379 0.24782138501883791 0 0.1230526862221317 0.26777391949864099 0 0.14708532205023009 0.27082288058994131 0 0.1230526862221317 0.26777391949864099 0 0.14708532205023009 0.27082288058994131 0 0.12936732892117939 0.28684949463581561 0 0.12936732892117939 0.28684949463581561 0 0.136266042051544 0.3043347613880385 0 0.15443758045141859 0.28920545327036462 0 0.1180945036516703 0.31946406950571332 0 0.136266042051544 0.3043347613880385 0 0.1180945036516703 0.31946406950571332 0 0.1228384346263648 0.30062118262991028 0 0.136266042051544 0.3043347613880385 0 0.1228384346263648 0.30062118262991028 0 0.12936732892117939 0.28684949463581561 0 0.136266042051544 0.3043347613880385 0 0.136266042051544 0.3043347613880385 0 0.15443758045141859 0.28920545327036462 0 0.152636167961094 0.31887328660776232 0 0.14708532205023009 0.27082288058994131 0 0.12936732892117939 0.28684949463581561 0 0.15443758045141859 0.28920545327036462 0 0.136266042051544 0.3043347613880385 0 0.15443758045141859 0.28920545327036462 0 0.15443758045141859 0.28920545327036462 0 0.17260911885129321 0.2740761451526908 0 0.15443758045141859 0.28920545327036462 0 0.17803753867673519 0.29043254965715842 0 0.17260911885129321 0.2740761451526908 0 0.15443758045141859 0.28920545327036462 0 0.16921428387288021 0.30795467551344241 0 0.17803753867673519 0.29043254965715842 0 0.15443758045141859 0.28920545327036462 0 0.16921428387288021 0.30795467551344241 0 0.152636167961094 0.31887328660776232 0 0.16921428387288021 0.30795467551344241 0 0.17803753867673519 0.29043254965715842 0 0.19027783557892361 0.30858688037897408 0 0.17803753867673519 0.29043254965715842 0 0.18719595390039809 0.27543868594675308 0 0.195453132374418 0.28386543112137869 0 0.17260911885129321 0.2740761451526908 0 0.19078065725116791 0.25894683703501692 0 0.17803753867673519 0.29043254965715842 0 0.17260911885129321 0.2740761451526908 0 0.18719595390039809 0.27543868594675308 0 0.17260911885129321 0.2740761451526908 0 0.18719595390039809 0.27543868594675308 0 0.19078065725116791 0.25894683703501692 0 0.14708532205023009 0.27082288058994131 0 0.17260911885129321 0.2740761451526908 0 0.16048112692306479 0.25744682028509069 0 0.14708532205023009 0.27082288058994131 0 0.15443758045141859 0.28920545327036462 0 0.17260911885129321 0.2740761451526908 0 0.17260911885129321 0.2740761451526908 0 0.16048112692306479 0.25744682028509069 0 0.17780608738777809 0.25705026945876192 0 0.16874983862555221 0.2400451405179696 0 0.16048112692306479 0.25744682028509069 0 0.17780608738777809 0.25705026945876192 0 0.17260911885129321 0.2740761451526908 0 0.17780608738777809 0.25705026945876192 0 0.19078065725116791 0.25894683703501692 0 0.19078065725116791 0.25894683703501692 0 0.19909932234837649 0.26987246676752069 0 0.20480194690244569 0.25525960942045761 0 0.18719595390039809 0.27543868594675308 0 0.19078065725116791 0.25894683703501692 0 0.19909932234837649 0.26987246676752069 0 0.18719595390039809 0.27543868594675308 0 0.19909932234837649 0.26987246676752069 0 0.195453132374418 0.28386543112137869 0 0.19909932234837649 0.26987246676752069 0 0.218371746871488 0.27950112261338789 0 0.195453132374418 0.28386543112137869 0 0.19909932234837649 0.26987246676752069 0 0.218371746871488 0.27950112261338789 0 0.20480194690244569 0.25525960942045761 0 0.218371746871488 0.27950112261338789 0 0.20480194690244569 0.25525960942045761 0 0.2197545742336772 0.24675856098265139 0 0.20480194690244569 0.25525960942045761 0 0.2311707380788057 0.25749821458281719 0 0.218371746871488 0.27950112261338789 0 0.20480194690244569 0.25525960942045761 0 0.2311707380788057 0.25749821458281719 0 0.218371746871488 0.27950112261338789 0 0.23410993606614561 0.2739769798848336 0 0.23772592747999149 0.28990764062930913 0 0.218371746871488 0.27950112261338789 0 0.2311707380788057 0.25749821458281719 0 0.23410993606614561 0.2739769798848336 0 0.23410993606614561 0.2739769798848336 0 0.23772592747999149 0.28990764062930913 0 0.25062153209682803 0.27383868758805202 0 0.2311707380788057 0.25749821458281719 0 0.23410993606614561 0.2739769798848336 0 0.25062153209682803 0.27383868758805202 0 0.2311707380788057 0.25749821458281719 0 0.25674229319332992 0.25781570880075683 0 0.25062153209682803 0.27383868758805202 0 0.23791684407509101 0.30979084104493892 0 0.2486573374751776 0.29929677771612212 0 0.23772592747999149 0.28990764062930913 0 0.23791684407509101 0.30979084104493892 0 0.2486573374751776 0.29929677771612212 0 0.25412084660844331 0.30948377448199033 0 0.23772592747999149 0.28990764062930913 0 0.25301159348787822 0.28878875444533147 0 0.25062153209682803 0.27383868758805202 0 0.2486573374751776 0.29929677771612212 0 0.23772592747999149 0.28990764062930913 0 0.25301159348787822 0.28878875444533147 0 0.218371746871488 0.27950112261338789 0 0.23772592747999149 0.28990764062930913 0 0.22316380349321849 0.30362390634489739 0 0.23791684407509101 0.30979084104493892 0 0.23772592747999149 0.28990764062930913 0 0.22316380349321849 0.30362390634489739 0 0.23791684407509101 0.30979084104493892 0 0.22316380349321849 0.30362390634489739 0 0.23021838694069999 0.32251082580957291 0 0.22316380349321849 0.30362390634489739 0 0.20608943517126219 0.29788788591586057 0 0.2096151129861451 0.32048891531848411 0 0.218371746871488 0.27950112261338789 0 0.20608943517126219 0.29788788591586057 0 0.195453132374418 0.28386543112137869 0 0.218371746871488 0.27950112261338789 0 0.22316380349321849 0.30362390634489739 0 0.20608943517126219 0.29788788591586057 0 0.17803753867673519 0.29043254965715842 0 0.195453132374418 0.28386543112137869 0 0.19027783557892361 0.30858688037897408 0 0.20608943517126219 0.29788788591586057 0 0.195453132374418 0.28386543112137869 0 0.19027783557892361 0.30858688037897408 0 0.20608943517126219 0.29788788591586057 0 0.19027783557892361 0.30858688037897408 0 0.2096151129861451 0.32048891531848411 0 0.19027783557892361 0.30858688037897408 0 0.19276246870074251 0.32621651614808489 0 0.2096151129861451 0.32048891531848411 0 0.19276246870074251 0.32621651614808489 0 0.20412143147795869 0.34087776567992611 0 0.2096151129861451 0.32048891531848411 0 0.19276246870074251 0.32621651614808489 0 0.20412143147795869 0.34087776567992611 0 0.1836192063361044 0.34023176362563418 0 0.20412143147795869 0.34087776567992611 0 0.2096151129861451 0.32048891531848411 0 0.2223682164577179 0.33827021063285212 0 0.2096151129861451 0.32048891531848411 0 0.23021838694069999 0.32251082580957291 0 0.2223682164577179 0.33827021063285212 0 0.22316380349321849 0.30362390634489739 0 0.2096151129861451 0.32048891531848411 0 0.23021838694069999 0.32251082580957291 0 0.2223682164577179 0.33827021063285212 0 0.24157575885834939 0.33744349484782749 0 0.23341080179662821 0.34965850994212372 0 0.23021838694069999 0.32251082580957291 0 0.2223682164577179 0.33827021063285212 0 0.24157575885834939 0.33744349484782749 0 0.24157575885834939 0.33744349484782749 0 0.2498024738269416 0.35536015624222739 0 0.25710497453668713 0.33647232278684081 0 0.24157575885834939 0.33744349484782749 0 0.2476904742205393 0.3234252158892445 0 0.25710497453668713 0.33647232278684081 0 0.23791684407509101 0.30979084104493892 0 0.2476904742205393 0.3234252158892445 0 0.25412084660844331 0.30948377448199033 0 0.23021838694069999 0.32251082580957291 0 0.24157575885834939 0.33744349484782749 0 0.2476904742205393 0.3234252158892445 0 0.23791684407509101 0.30979084104493892 0 0.23021838694069999 0.32251082580957291 0 0.2476904742205393 0.3234252158892445 0 0.24245383387187089 0.37214504599554488 0 0.2498024738269416 0.35536015624222739 0 0.23430373866983381 0.36214134106911799 0 0.24245383387187089 0.37214504599554488 0 0.23430373866983381 0.36214134106911799 0 0.227560083143859 0.37317849769811151 0 0.24157575885834939 0.33744349484782749 0 0.2498024738269416 0.35536015624222739 0 0.23341080179662821 0.34965850994212372 0 0.2498024738269416 0.35536015624222739 0 0.23341080179662821 0.34965850994212372 0 0.23430373866983381 0.36214134106911799 0 0.23341080179662821 0.34965850994212372 0 0.23430373866983381 0.36214134106911799 0 0.21838932478814241 0.35840953195827008 0 0.2223682164577179 0.33827021063285212 0 0.23341080179662821 0.34965850994212372 0 0.21838932478814241 0.35840953195827008 0 0.23430373866983381 0.36214134106911799 0 0.227560083143859 0.37317849769811151 0 0.21838932478814241 0.35840953195827008 0 0.227560083143859 0.37317849769811151 0 0.21838932478814241 0.35840953195827008 0 0.20541552231894669 0.37687850937220141 0 0.21838932478814241 0.35840953195827008 0 0.19849046357701561 0.35591233124536159 0 0.20541552231894669 0.37687850937220141 0 0.20412143147795869 0.34087776567992611 0 0.21838932478814241 0.35840953195827008 0 0.19849046357701561 0.35591233124536159 0 0.20412143147795869 0.34087776567992611 0 0.2223682164577179 0.33827021063285212 0 0.21838932478814241 0.35840953195827008 0 0.20412143147795869 0.34087776567992611 0 0.19849046357701561 0.35591233124536159 0 0.1836192063361044 0.34023176362563418 0 0.19849046357701561 0.35591233124536159 0 0.1809068329639256 0.36316408559077568 0 0.1836192063361044 0.34023176362563418 0 0.1809068329639256 0.36316408559077568 0 0.17999078648767469 0.38112658726952858 0 0.20541552231894669 0.37687850937220141 0 0.19849046357701561 0.35591233124536159 0 0.1809068329639256 0.36316408559077568 0 0.20541552231894669 0.37687850937220141 0 0.1809068329639256 0.36316408559077568 0 0.20541552231894669 0.37687850937220141 0 0.1809068329639256 0.36316408559077568 0 0.1664850503554467 0.37058032192429857 0 0.17999078648767469 0.38112658726952858 0 0.1809068329639256 0.36316408559077568 0 0.1664850503554467 0.37058032192429857 0 0.1688479259088457 0.35095684080151562 0 0.1664850503554467 0.37058032192429857 0 0.15630597520669159 0.35853971768295001 0 0.1688479259088457 0.35095684080151562 0 0.1664850503554467 0.37058032192429857 0 0.15630597520669159 0.35853971768295001 0 0.1543795406659465 0.37092994038781868 0 0.1688479259088457 0.35095684080151562 0 0.16042133639532949 0.33384861031155721 0 0.1550267627713165 0.34657492211543189 0 0.15630597520669159 0.35853971768295001 0 0.1688479259088457 0.35095684080151562 0 0.1550267627713165 0.34657492211543189 0 0.1809068329639256 0.36316408559077568 0 0.1688479259088457 0.35095684080151562 0 0.1836192063361044 0.34023176362563418 0 0.1836192063361044 0.34023176362563418 0 0.1748294189357408 0.32381447233538802 0 0.16042133639532949 0.33384861031155721 0 0.19276246870074251 0.32621651614808489 0 0.1836192063361044 0.34023176362563418 0 0.1748294189357408 0.32381447233538802 0 0.19027783557892361 0.30858688037897408 0 0.19276246870074251 0.32621651614808489 0 0.1748294189357408 0.32381447233538802 0 0.16921428387288021 0.30795467551344241 0 0.19027783557892361 0.30858688037897408 0 0.1748294189357408 0.32381447233538802 0 0.1748294189357408 0.32381447233538802 0 0.16042133639532949 0.33384861031155721 0 0.152636167961094 0.31887328660776232 0 0.16921428387288021 0.30795467551344241 0 0.1748294189357408 0.32381447233538802 0 0.152636167961094 0.31887328660776232 0 0.1688479259088457 0.35095684080151562 0 0.1836192063361044 0.34023176362563418 0 0.16042133639532949 0.33384861031155721 0 0.16042133639532949 0.33384861031155721 0 0.14514238106760849 0.33619801863963911 0 0.152636167961094 0.31887328660776232 0 0.16042133639532949 0.33384861031155721 0 0.14514238106760849 0.33619801863963911 0 0.1550267627713165 0.34657492211543189 0 0.136266042051544 0.3043347613880385 0 0.152636167961094 0.31887328660776232 0 0.13588058312874751 0.32350938396624718 0 0.14514238106760849 0.33619801863963911 0 0.152636167961094 0.31887328660776232 0 0.13588058312874751 0.32350938396624718 0 0.1180945036516703 0.31946406950571332 0 0.136266042051544 0.3043347613880385 0 0.13588058312874751 0.32350938396624718 0 0.12481482618670139 0.33719959393898719 0 0.1180945036516703 0.31946406950571332 0 0.13588058312874751 0.32350938396624718 0 0.14514238106760849 0.33619801863963911 0 0.13614589402550781 0.3431033466684158 0 0.13549592110214129 0.33500258580332232 0 0.14514238106760849 0.33619801863963911 0 0.13588058312874751 0.32350938396624718 0 0.13549592110214129 0.33500258580332232 0 0.12481482618670139 0.33719959393898719 0 0.13588058312874751 0.32350938396624718 0 0.13549592110214129 0.33500258580332232 0 0.12481482618670139 0.33719959393898719 0 0.13614589402550781 0.3431033466684158 0 0.13549592110214129 0.33500258580332232 0 0.12481482618670139 0.33719959393898719 0 0.13614589402550781 0.3431033466684158 0 0.131535148721732 0.35493511837226138 0 0.12481482618670139 0.33719959393898719 0 0.131535148721732 0.35493511837226138 0 0.123177069569887 0.34777697599256963 0 0.12481482618670139 0.33719959393898719 0 0.131535148721732 0.35493511837226138 0 0.13614589402550781 0.3431033466684158 0 0.131535148721732 0.35493511837226138 0 0.1444161952781072 0.35333142314149768 0 0.1213755573139664 0.37197883584600439 0 0.131535148721732 0.35493511837226138 0 0.14183414696011609 0.37107527352483571 0 0.131535148721732 0.35493511837226138 0 0.14183414696011609 0.37107527352483571 0 0.1444161952781072 0.35333142314149768 0 0.15630597520669159 0.35853971768295001 0 0.14183414696011609 0.37107527352483571 0 0.1444161952781072 0.35333142314149768 0 0.15630597520669159 0.35853971768295001 0 0.14183414696011609 0.37107527352483571 0 0.1543795406659465 0.37092994038781868 0 0.14514238106760849 0.33619801863963911 0 0.1550267627713165 0.34657492211543189 0 0.1444161952781072 0.35333142314149768 0 0.15630597520669159 0.35853971768295001 0 0.1550267627713165 0.34657492211543189 0 0.1444161952781072 0.35333142314149768 0 0.14514238106760849 0.33619801863963911 0 0.13614589402550781 0.3431033466684158 0 0.1444161952781072 0.35333142314149768 0 0.1545660506564028 0.38537466516685648 0 0.129141314825131 0.38962274306418437 0 0.13989730444079351 0.40778938666556019 0 0.1545660506564028 0.38537466516685648 0 0.13989730444079351 0.40778938666556019 0 0.155874936087465 0.40940903878093188 0 0.14183414696011609 0.37107527352483571 0 0.1545660506564028 0.38537466516685648 0 0.129141314825131 0.38962274306418437 0 0.1545660506564028 0.38537466516685648 0 0.129141314825131 0.38962274306418437 0 0.14183414696011609 0.37107527352483571 0 0.1543795406659465 0.37092994038781868 0 0.1545660506564028 0.38537466516685648 0 0.1213755573139664 0.37197883584600439 0 0.14183414696011609 0.37107527352483571 0 0.129141314825131 0.38962274306418437 0 0.1181870658861582 0.41103089047793939 0 0.129141314825131 0.38962274306418437 0 0.13989730444079351 0.40778938666556019 0 0.1181870658861582 0.41103089047793939 0 0.13989730444079351 0.40778938666556019 0 0.13050023848874989 0.4276930947070825 0 0.13989730444079351 0.40778938666556019 0 0.13050023848874989 0.4276930947070825 0 0.14927737003294969 0.42521592790830143 0 0.13050023848874989 0.4276930947070825 0 0.14927737003294969 0.42521592790830143 0 0.13931706441567909 0.44580185992376969 0 0.14927737003294969 0.42521592790830143 0 0.160077532267799 0.43907467796214128 0 0.13931706441567909 0.44580185992376969 0 0.13989730444079351 0.40778938666556019 0 0.14927737003294969 0.42521592790830143 0 0.155874936087465 0.40940903878093188 0 0.14927737003294969 0.42521592790830143 0 0.155874936087465 0.40940903878093188 0 0.16568458847793149 0.42188001162472749 0 0.155874936087465 0.40940903878093188 0 0.16994936682924761 0.40678520253921369 0 0.16568458847793149 0.42188001162472749 0 0.14927737003294969 0.42521592790830143 0 0.16568458847793149 0.42188001162472749 0 0.160077532267799 0.43907467796214128 0 0.16568458847793149 0.42188001162472749 0 0.17543232617966811 0.43519482504176082 0 0.160077532267799 0.43907467796214128 0 0.17543232617966811 0.43519482504176082 0 0.18337028864682961 0.41617710371521882 0 0.2017094500865047 0.42844959389513643 0 0.16568458847793149 0.42188001162472749 0 0.17543232617966811 0.43519482504176082 0 0.18337028864682961 0.41617710371521882 0 0.16994936682924761 0.40678520253921369 0 0.16568458847793149 0.42188001162472749 0 0.18337028864682961 0.41617710371521882 0 0.16994936682924761 0.40678520253921369 0 0.18337028864682961 0.41617710371521882 0 0.18180221557994211 0.39637470787799978 0 0.18180221557994211 0.39637470787799978 0 0.17999078648767469 0.38112658726952858 0 0.1972259780581132 0.39994110488409218 0 0.18337028864682961 0.41617710371521882 0 0.18180221557994211 0.39637470787799978 0 0.1972259780581132 0.39994110488409218 0 0.1545660506564028 0.38537466516685648 0 0.155874936087465 0.40940903878093188 0 0.16994936682924761 0.40678520253921369 0 0.1545660506564028 0.38537466516685648 0 0.16994936682924761 0.40678520253921369 0 0.18180221557994211 0.39637470787799978 0 0.1545660506564028 0.38537466516685648 0 0.17999078648767469 0.38112658726952858 0 0.1664850503554467 0.37058032192429857 0 0.1545660506564028 0.38537466516685648 0 0.17999078648767469 0.38112658726952858 0 0.1664850503554467 0.37058032192429857 0 0.1543795406659465 0.37092994038781868 0 0.1545660506564028 0.38537466516685648 0 0.1545660506564028 0.38537466516685648 0 0.18180221557994211 0.39637470787799978 0 0.17999078648767469 0.38112658726952858 0 0.17999078648767469 0.38112658726952858 0 0.1972259780581132 0.39994110488409218 0 0.20541552231894669 0.37687850937220141 0 0.17999078648767469 0.38112658726952858 0 0.20541552231894669 0.37687850937220141 0 0.21591222431653961 0.40570984938816579 0 0.21095543341564099 0.39262922678029932 0 0.22526800896896459 0.38798744347673791 0 0.1972259780581132 0.39994110488409218 0 0.21591222431653961 0.40570984938816579 0 0.21095543341564099 0.39262922678029932 0 0.21095543341564099 0.39262922678029932 0 0.20541552231894669 0.37687850937220141 0 0.22526800896896459 0.38798744347673791 0 0.20541552231894669 0.37687850937220141 0 0.22526800896896459 0.38798744347673791 0 0.227560083143859 0.37317849769811151 0 0.20541552231894669 0.37687850937220141 0 0.1972259780581132 0.39994110488409218 0 0.21095543341564099 0.39262922678029932 0 0.20541552231894669 0.37687850937220141 0 0.227560083143859 0.37317849769811151 0 0.20541552231894669 0.37687850937220141 0 0.22526800896896459 0.38798744347673791 0 0.227560083143859 0.37317849769811151 0 0.22526800896896459 0.38798744347673791 0 0.2393829010497367 0.38605648548976201 0 0.21591222431653961 0.40570984938816579 0 0.22526800896896459 0.38798744347673791 0 0.23371020015960131 0.40589143295931529 0 0.22526800896896459 0.38798744347673791 0 0.24512049561898311 0.3990963775812737 0 0.22526800896896459 0.38798744347673791 0 0.23371020015960131 0.40589143295931529 0 0.24512049561898311 0.3990963775812737 0 0.24512049561898311 0.3990963775812737 0 0.2393829010497367 0.38605648548976201 0 0.25928559359573472 0.38778951337144141 0 0.22526800896896459 0.38798744347673791 0 0.24512049561898311 0.3990963775812737 0 0.2393829010497367 0.38605648548976201 0 0.24245383387187089 0.37214504599554488 0 0.2393829010497367 0.38605648548976201 0 0.25928559359573472 0.38778951337144141 0 0.24245383387187089 0.37214504599554488 0 0.227560083143859 0.37317849769811151 0 0.2393829010497367 0.38605648548976201 0 0.24995727272902341 0.43268012710755699 0 0.2279865739933413 0.42170436274851192 0 0.25426369790017778 0.41495913160188752 0 0.24995727272902341 0.43268012710755699 0 0.2279865739933413 0.42170436274851192 0 0.23690345795038889 0.43867745041884088 0 0.2279865739933413 0.42170436274851192 0 0.25426369790017778 0.41495913160188752 0 0.23371020015960131 0.40589143295931529 0 0.2279865739933413 0.42170436274851192 0 0.25426369790017778 0.41495913160188752 0 0.23371020015960131 0.40589143295931529 0 0.24512049561898311 0.3990963775812737 0 0.25426369790017778 0.41495913160188752 0 0.21591222431653961 0.40570984938816579 0 0.23371020015960131 0.40589143295931529 0 0.2279865739933413 0.42170436274851192 0 0.2279865739933413 0.42170436274851192 0 0.22464920828544799 0.44826410146975992 0 0.23690345795038889 0.43867745041884088 0 0.2279865739933413 0.42170436274851192 0 0.2017094500865047 0.42844959389513643 0 0.22464920828544799 0.44826410146975992 0 0.2279865739933413 0.42170436274851192 0 0.2017094500865047 0.42844959389513643 0 0.1972259780581132 0.39994110488409218 0 0.21591222431653961 0.40570984938816579 0 0.2017094500865047 0.42844959389513643 0 0.21591222431653961 0.40570984938816579 0 0.2279865739933413 0.42170436274851192 0 0.2017094500865047 0.42844959389513643 0 0.18337028864682961 0.41617710371521882 0 0.1972259780581132 0.39994110488409218 0 0.2017094500865047 0.42844959389513643 0 0.17543232617966811 0.43519482504176082 0 0.2017094500865047 0.42844959389513643 0 0.2017094500865047 0.42844959389513643 0 0.20618133057568869 0.45090943603715722 0 0.18406923556170349 0.45234499480747842 0 0.20380224338647729 0.46258355950590407 0 0.20618133057568869 0.45090943603715722 0 0.18406923556170349 0.45234499480747842 0 0.19977420028839679 0.47597813245472459 0 0.18164720793810951 0.47098929930198341 0 0.18406923556170349 0.45234499480747842 0 0.20380224338647729 0.46258355950590407 0 0.19977420028839679 0.47597813245472459 0 0.18406923556170349 0.45234499480747842 0 0.19977420028839679 0.47597813245472459 0 0.18406923556170349 0.45234499480747842 0 0.20618133057568869 0.45090943603715722 0 0.22464920828544799 0.44826410146975992 0 0.21881564972134679 0.46248104091180309 0 0.20380224338647729 0.46258355950590407 0 0.21881564972134679 0.46248104091180309 0 0.2101708007852508 0.47120419331835678 0 0.20380224338647729 0.46258355950590407 0 0.20618133057568869 0.45090943603715722 0 0.21881564972134679 0.46248104091180309 0 0.2017094500865047 0.42844959389513643 0 0.20618133057568869 0.45090943603715722 0 0.22464920828544799 0.44826410146975992 0 0.22464920828544799 0.44826410146975992 0 0.21881564972134679 0.46248104091180309 0 0.2415693043808303 0.46896466168795481 0 0.24596315281190881 0.45061517806106388 0 0.2415693043808303 0.46896466168795481 0 0.25758842717090291 0.46261278833229058 0 0.22464920828544799 0.44826410146975992 0 0.24596315281190881 0.45061517806106388 0 0.2415693043808303 0.46896466168795481 0 0.22464920828544799 0.44826410146975992 0 0.23690345795038889 0.43867745041884088 0 0.24596315281190881 0.45061517806106388 0 0.24995727272902341 0.43268012710755699 0 0.23690345795038889 0.43867745041884088 0 0.24596315281190881 0.45061517806106388 0 0.24530858072629549 0.5 0 0.23265443333220401 0.48660616531394441 0 0.25326129250108809 0.48329889019814432 0 0.2415693043808303 0.46896466168795481 0 0.23265443333220401 0.48660616531394441 0 0.25326129250108809 0.48329889019814432 0 0.21881564972134679 0.46248104091180309 0 0.2415693043808303 0.46896466168795481 0 0.2225432592986018 0.47528767730230059 0 0.2415693043808303 0.46896466168795481 0 0.2225432592986018 0.47528767730230059 0 0.23265443333220401 0.48660616531394441 0 0.2415693043808303 0.46896466168795481 0 0.2225432592986018 0.47528767730230059 0 0.2225432592986018 0.47528767730230059 0 0.23265443333220401 0.48660616531394441 0 0.21778260261130861 0.48653001311640748 0 0.23265443333220401 0.48660616531394441 0 0.21573748828252279 0.5 0 0.21778260261130861 0.48653001311640748 0 0.24530858072629549 0.5 0 0.23265443333220401 0.48660616531394441 0 0.21573748828252279 0.5 0 0.21573748828252279 0.5 0 0.20351721421637331 0.48161069291664638 0 0.1932195002747307 0.5 0 0.21573748828252279 0.5 0 0.21778260261130861 0.48653001311640748 0 0.20351721421637331 0.48161069291664638 0 0.21573748828252279 0.5 0 0.20351721421637331 0.48161069291664638 0 0.2225432592986018 0.47528767730230059 0 0.21778260261130861 0.48653001311640748 0 0.20351721421637331 0.48161069291664638 0 0.2225432592986018 0.47528767730230059 0 0.20351721421637331 0.48161069291664638 0 0.2225432592986018 0.47528767730230059 0 0.20351721421637331 0.48161069291664638 0 0.2101708007852508 0.47120419331835678 0 0.21881564972134679 0.46248104091180309 0 0.2225432592986018 0.47528767730230059 0 0.2101708007852508 0.47120419331835678 0 0.2101708007852508 0.47120419331835678 0 0.19977420028839679 0.47597813245472459 0 0.20380224338647729 0.46258355950590407 0 0.2101708007852508 0.47120419331835678 0 0.19977420028839679 0.47597813245472459 0 0.20351721421637331 0.48161069291664638 0 0.2101708007852508 0.47120419331835678 0 0.19977420028839679 0.47597813245472459 0 0.20351721421637331 0.48161069291664638 0 0.19977420028839679 0.47597813245472459 0 0.17585036923776029 0.49080534645832541 0 0.20351721421637331 0.48161069291664638 0 0.19977420028839679 0.47597813245472459 0 0.20351721421637331 0.48161069291664638 0 0.17585036923776029 0.49080534645832541 0 0.20351721421637331 0.48161069291664638 0 0.1932195002747307 0.5 0 0.17585036923776029 0.49080534645832541 0 0.1932195002747307 0.5 0 0.17585036923776029 0.49080534645832541 0 0.17070151226693861 0.5 0 0.19977420028839679 0.47597813245472459 0 0.1736170004453956 0.48798906622736321 0 0.17585036923776029 0.49080534645832541 0 0.1736170004453956 0.48798906622736321 0 0.14745980060239419 0.50000000000000089 0 0.15217975529367919 0.47704632806457531 0 0.17585036923776029 0.49080534645832541 0 0.17070151226693861 0.5 0 0.14745980060239419 0.50000000000000089 0 0.1736170004453956 0.48798906622736321 0 0.17585036923776029 0.49080534645832541 0 0.14745980060239419 0.50000000000000089 0 0.17585036923776029 0.49080534645832541 0 0.14745980060239419 0.50000000000000089 0 0.1736170004453956 0.48798906622736321 0 0.14745980060239419 0.50000000000000089 0 0.1736170004453956 0.48798906622736321 0 0.1661376039313964 0.46820834916855952 0 0.15217975529367919 0.47704632806457531 0 0.19977420028839679 0.47597813245472459 0 0.1736170004453956 0.48798906622736321 0 0.1736170004453956 0.48798906622736321 0 0.18164720793810951 0.47098929930198341 0 0.1661376039313964 0.46820834916855952 0 0.19977420028839679 0.47597813245472459 0 0.1736170004453956 0.48798906622736321 0 0.18164720793810951 0.47098929930198341 0 0.18164720793810951 0.47098929930198341 0 0.18406923556170349 0.45234499480747842 0 0.1661376039313964 0.46820834916855952 0 0.18406923556170349 0.45234499480747842 0 0.168344248854286 0.45018194626464342 0 0.1661376039313964 0.46820834916855952 0 0.17543232617966811 0.43519482504176082 0 0.2017094500865047 0.42844959389513643 0 0.18406923556170349 0.45234499480747842 0 0.17543232617966811 0.43519482504176082 0 0.18406923556170349 0.45234499480747842 0 0.168344248854286 0.45018194626464342 0 0.168344248854286 0.45018194626464342 0 0.160077532267799 0.43907467796214128 0 0.156004546330863 0.45608688434327682 0 0.17543232617966811 0.43519482504176082 0 0.168344248854286 0.45018194626464342 0 0.160077532267799 0.43907467796214128 0 0.168344248854286 0.45018194626464342 0 0.1661376039313964 0.46820834916855952 0 0.156004546330863 0.45608688434327682 0 0.1661376039313964 0.46820834916855952 0 0.156004546330863 0.45608688434327682 0 0.15217975529367919 0.47704632806457531 0 0.156004546330863 0.45608688434327682 0 0.13561054107493159 0.46538730039660692 0 0.15217975529367919 0.47704632806457531 0 0.156004546330863 0.45608688434327682 0 0.13931706441567909 0.44580185992376969 0 0.13561054107493159 0.46538730039660692 0 0.160077532267799 0.43907467796214128 0 0.156004546330863 0.45608688434327682 0 0.13931706441567909 0.44580185992376969 0 0.122431196238569 0.44368730251370347 0 0.13050023848874989 0.4276930947070825 0 0.13931706441567909 0.44580185992376969 0 0.1235657929076949 0.45743785159519362 0 0.122431196238569 0.44368730251370347 0 0.13931706441567909 0.44580185992376969 0 0.12403912622496539 0.47448368195361967 0 0.1235657929076949 0.45743785159519362 0 0.13561054107493159 0.46538730039660692 0 0.1235657929076949 0.45743785159519362 0 0.13931706441567909 0.44580185992376969 0 0.13561054107493159 0.46538730039660692 0 0.12403912622496539 0.47448368195361967 0 0.13561054107493159 0.46538730039660692 0 0.1340558545288795 0.48438019965948892 0 0.13561054107493159 0.46538730039660692 0 0.1340558545288795 0.48438019965948892 0 0.15217975529367919 0.47704632806457531 0 0.1189307255613999 0.48432218398866927 0 0.12403912622496539 0.47448368195361967 0 0.1340558545288795 0.48438019965948892 0 0.1222220387075891 0.5 0 0.1189307255613999 0.48432218398866927 0 0.1340558545288795 0.48438019965948892 0 0.1222220387075891 0.5 0 0.1340558545288795 0.48438019965948892 0 0.14745980060239419 0.50000000000000089 0 0.1340558545288795 0.48438019965948892 0 0.14745980060239419 0.50000000000000089 0 0.15217975529367919 0.47704632806457531 0 0.3635929505013864 0.5 0 0.37138926614346762 0.47343953077055462 0 0.3445777425907926 0.46708808687990322 0 0.3635929505013864 0.5 0 0.3445777425907926 0.46708808687990322 0 0.3340218580576137 0.5 0 0.3635929505013864 0.5 0 0.37138926614346762 0.47343953077055462 0 0.38591749702153427 0.48325521994250031 0 0.37138926614346762 0.47343953077055462 0 0.36636443174205752 0.44880924381662812 0 0.3445777425907926 0.46708808687990322 0 0.37138926614346762 0.47343953077055462 0 0.36636443174205752 0.44880924381662812 0 0.3811742015566395 0.45562926842028312 0 0.36636443174205752 0.44880924381662812 0 0.34760903798901499 0.44672585270692949 0 0.36581725510251878 0.4260337798625804 0 0.36636443174205752 0.44880924381662812 0 0.3445777425907926 0.46708808687990322 0 0.36636443174205752 0.44880924381662812 0 0.34760903798901499 0.44672585270692949 0 0.3445777425907926 0.46708808687990322 0 0.3445777425907926 0.46708808687990322 0 0.32879007817259109 0.44260540225526651 0 0.31701557964424648 0.45852854130349491 0 0.3445777425907926 0.46708808687990322 0 0.31701557964424648 0.45852854130349491 0 0.31261036405682968 0.47910003794471279 0 0.34760903798901499 0.44672585270692949 0 0.3445777425907926 0.46708808687990322 0 0.32879007817259109 0.44260540225526651 0 0.34760903798901499 0.44672585270692949 0 0.32879007817259109 0.44260540225526651 0 0.34064698858970899 0.43000118044812868 0 0.32879007817259109 0.44260540225526651 0 0.31701557964424648 0.45852854130349491 0 0.30978087276732608 0.43472291549913078 0 0.3445777425907926 0.46708808687990322 0 0.31261036405682968 0.47910003794471279 0 0.3340218580576137 0.5 0 0.31261036405682968 0.47910003794471279 0 0.3340218580576137 0.5 0 0.30445076561384099 0.5 0 0.31261036405682968 0.47910003794471279 0 0.30445076561384099 0.5 0 0.28682024180477239 0.48302693850153178 0 0.31261036405682968 0.47910003794471279 0 0.28682024180477239 0.48302693850153178 0 0.29248953920417242 0.46632713236358259 0 0.28682024180477239 0.48302693850153178 0 0.26749587133636182 0.47148578482449449 0 0.29248953920417242 0.46632713236358259 0 0.30445076561384099 0.5 0 0.28682024180477239 0.48302693850153178 0 0.27487967317006817 0.5 0 0.28682024180477239 0.48302693850153178 0 0.27487967317006817 0.5 0 0.26749587133636182 0.47148578482449449 0 0.26749587133636182 0.47148578482449449 0 0.25326129250108809 0.48329889019814432 0 0.25758842717090291 0.46261278833229058 0 0.2415693043808303 0.46896466168795481 0 0.25326129250108809 0.48329889019814432 0 0.25758842717090291 0.46261278833229058 0 0.24530858072629549 0.5 0 0.27487967317006817 0.5 0 0.25326129250108809 0.48329889019814432 0 0.27487967317006817 0.5 0 0.26749587133636182 0.47148578482449449 0 0.25326129250108809 0.48329889019814432 0 0.24596315281190881 0.45061517806106388 0 0.26070900772311612 0.44580814029368437 0 0.25758842717090291 0.46261278833229058 0 0.24995727272902341 0.43268012710755699 0 0.24596315281190881 0.45061517806106388 0 0.26070900772311612 0.44580814029368437 0 0.26070900772311612 0.44580814029368437 0 0.27181884979027793 0.43968026710015679 0 0.26290603988073208 0.43431533083421581 0 0.24995727272902341 0.43268012710755699 0 0.26070900772311612 0.44580814029368437 0 0.26290603988073208 0.43431533083421581 0 0.26070900772311612 0.44580814029368437 0 0.25758842717090291 0.46261278833229058 0 0.27653193427211242 0.45550407492840139 0 0.26749587133636182 0.47148578482449449 0 0.27653193427211242 0.45550407492840139 0 0.29248953920417242 0.46632713236358259 0 0.26749587133636182 0.47148578482449449 0 0.25758842717090291 0.46261278833229058 0 0.27653193427211242 0.45550407492840139 0 0.26070900772311612 0.44580814029368437 0 0.27653193427211242 0.45550407492840139 0 0.27181884979027793 0.43968026710015679 0 0.27653193427211242 0.45550407492840139 0 0.27181884979027793 0.43968026710015679 0 0.28353418263917102 0.4410914889330213 0 0.27653193427211242 0.45550407492840139 0 0.28353418263917102 0.4410914889330213 0 0.29685714381112882 0.44791840826177348 0 0.28353418263917102 0.4410914889330213 0 0.29685714381112882 0.44791840826177348 0 0.29142574777007879 0.43242946476335598 0 0.27653193427211242 0.45550407492840139 0 0.29685714381112882 0.44791840826177348 0 0.29248953920417242 0.46632713236358259 0 0.31701557964424648 0.45852854130349491 0 0.29685714381112882 0.44791840826177348 0 0.29248953920417242 0.46632713236358259 0 0.31701557964424648 0.45852854130349491 0 0.31261036405682968 0.47910003794471279 0 0.29248953920417242 0.46632713236358259 0 0.29685714381112882 0.44791840826177348 0 0.30978087276732608 0.43472291549913078 0 0.29142574777007879 0.43242946476335598 0 0.31701557964424648 0.45852854130349491 0 0.29685714381112882 0.44791840826177348 0 0.30978087276732608 0.43472291549913078 0 0.30978087276732608 0.43472291549913078 0 0.29294911304346238 0.41907844812323441 0 0.30978087276732608 0.43472291549913078 0 0.29294911304346238 0.41907844812323441 0 0.29142574777007879 0.43242946476335598 0 0.30978087276732608 0.43472291549913078 0 0.30730414114933202 0.4181936070905331 0 0.29294911304346238 0.41907844812323441 0 0.30990688266911182 0.40801835394690628 0 0.30730414114933202 0.4181936070905331 0 0.29930800143822989 0.41128357884905431 0 0.30730414114933202 0.4181936070905331 0 0.29930800143822989 0.41128357884905431 0 0.29294911304346238 0.41907844812323441 0 0.29930800143822989 0.41128357884905431 0 0.29198924530019432 0.40627555182660929 0 0.30034380513644748 0.40270474179518101 0 0.30990688266911182 0.40801835394690628 0 0.29930800143822989 0.41128357884905431 0 0.30034380513644748 0.40270474179518101 0 0.29294911304346238 0.41907844812323441 0 0.28482546891901972 0.42131424579034532 0 0.27611735331959858 0.40343398074733788 0 0.29294911304346238 0.41907844812323441 0 0.27611735331959858 0.40343398074733788 0 0.29294911304346238 0.41907844812323441 0 0.27611735331959858 0.40343398074733788 0 0.285662538360479 0.40382000241822968 0 0.29930800143822989 0.41128357884905431 0 0.29198924530019432 0.40627555182660929 0 0.29294911304346238 0.41907844812323441 0 0.29198924530019432 0.40627555182660929 0 0.29294911304346238 0.41907844812323441 0 0.285662538360479 0.40382000241822968 0 0.29294911304346238 0.41907844812323441 0 0.28482546891901972 0.42131424579034532 0 0.29142574777007879 0.43242946476335598 0 0.28482546891901972 0.42131424579034532 0 0.29142574777007879 0.43242946476335598 0 0.27880822513313119 0.43064106812199632 0 0.28353418263917102 0.4410914889330213 0 0.29142574777007879 0.43242946476335598 0 0.27880822513313119 0.43064106812199632 0 0.27181884979027793 0.43968026710015679 0 0.28353418263917102 0.4410914889330213 0 0.27880822513313119 0.43064106812199632 0 0.27181884979027793 0.43968026710015679 0 0.27880822513313119 0.43064106812199632 0 0.26991356176120218 0.42922295455335457 0 0.27181884979027793 0.43968026710015679 0 0.26991356176120218 0.42922295455335457 0 0.26290603988073208 0.43431533083421581 0 0.27226534252790802 0.42222958997886367 0 0.26991356176120218 0.42922295455335457 0 0.26213150740004121 0.42418516511632592 0 0.27880822513313119 0.43064106812199632 0 0.27226534252790802 0.42222958997886367 0 0.26991356176120218 0.42922295455335457 0 0.28482546891901972 0.42131424579034532 0 0.27880822513313119 0.43064106812199632 0 0.27226534252790802 0.42222958997886367 0 0.28482546891901972 0.42131424579034532 0 0.26497298226900151 0.41020531168580948 0 0.27611735331959858 0.40343398074733788 0 0.28482546891901972 0.42131424579034532 0 0.26497298226900151 0.41020531168580948 0 0.28482546891901972 0.42131424579034532 0 0.27226534252790802 0.42222958997886367 0 0.26497298226900151 0.41020531168580948 0 0.27226534252790802 0.42222958997886367 0 0.26497298226900151 0.41020531168580948 0 0.26213150740004121 0.42418516511632592 0 0.24512049561898311 0.3990963775812737 0 0.26497298226900151 0.41020531168580948 0 0.25426369790017778 0.41495913160188752 0 0.26497298226900151 0.41020531168580948 0 0.25426369790017778 0.41495913160188752 0 0.26213150740004121 0.42418516511632592 0 0.24995727272902341 0.43268012710755699 0 0.25426369790017778 0.41495913160188752 0 0.26213150740004121 0.42418516511632592 0 0.24995727272902341 0.43268012710755699 0 0.26290603988073208 0.43431533083421581 0 0.26213150740004121 0.42418516511632592 0 0.26991356176120218 0.42922295455335457 0 0.26290603988073208 0.43431533083421581 0 0.26213150740004121 0.42418516511632592 0 0.24245383387187089 0.37214504599554488 0 0.25928559359573472 0.38778951337144141 0 0.25811486834001779 0.37126792942840298 0 0.24245383387187089 0.37214504599554488 0 0.25928559359573472 0.38778951337144141 0 0.25928559359573472 0.38778951337144141 0 0.27347973713902157 0.37651771951711072 0 0.25811486834001779 0.37126792942840298 0 0.24512049561898311 0.3990963775812737 0 0.26497298226900151 0.41020531168580948 0 0.24512049561898311 0.3990963775812737 0 0.26497298226900151 0.41020531168580948 0 0.25928559359573472 0.38778951337144141 0 0.25928559359573472 0.38778951337144141 0 0.27611735331959858 0.40343398074733788 0 0.26497298226900151 0.41020531168580948 0 0.25928559359573472 0.38778951337144141 0 0.27611735331959858 0.40343398074733788 0 0.25928559359573472 0.38778951337144141 0 0.27611735331959858 0.40343398074733788 0 0.27331314758838388 0.38833203162994667 0 0.27611735331959858 0.40343398074733788 0 0.28041867356641231 0.39512619124517312 0 0.285662538360479 0.40382000241822968 0 0.27611735331959858 0.40343398074733788 0 0.28041867356641231 0.39512619124517312 0 0.27331314758838388 0.38833203162994667 0 0.28041867356641231 0.39512619124517312 0 0.27331314758838388 0.38833203162994667 0 0.2814788691543697 0.38833253368652088 0 0.27331314758838388 0.38833203162994667 0 0.27980585198051883 0.38166390788761789 0 0.2814788691543697 0.38833253368652088 0 0.25928559359573472 0.38778951337144141 0 0.27331314758838388 0.38833203162994667 0 0.27347973713902157 0.37651771951711072 0 0.27331314758838388 0.38833203162994667 0 0.27347973713902157 0.37651771951711072 0 0.27980585198051883 0.38166390788761789 0 0.27347973713902157 0.37651771951711072 0 0.27980585198051883 0.38166390788761789 0 0.28253103231276527 0.37343292465635641 0 0.28933107714594419 0.38880585363697112 0 0.28992635340373901 0.38118723302171892 0 0.30418727168589821 0.3713529888789604 0 0.27980585198051883 0.38166390788761789 0 0.28542891485545763 0.37864331188842132 0 0.28253103231276527 0.37343292465635641 0 0.28542891485545763 0.37864331188842132 0 0.28992635340373901 0.38118723302171892 0 0.28972644843236017 0.37273591062096179 0 0.28933107714594419 0.38880585363697112 0 0.30418727168589821 0.3713529888789604 0 0.28542891485545763 0.37864331188842132 0 0.28515488814790457 0.38419658325545147 0 0.28992635340373901 0.38118723302171892 0 0.27980585198051883 0.38166390788761789 0 0.28542891485545763 0.37864331188842132 0 0.28515488814790457 0.38419658325545147 0 0.27980585198051883 0.38166390788761789 0 0.28515488814790457 0.38419658325545147 0 0.2814788691543697 0.38833253368652088 0 0.28515488814790457 0.38419658325545147 0 0.2814788691543697 0.38833253368652088 0 0.28672833029058897 0.38821902436569311 0 0.2814788691543697 0.38833253368652088 0 0.28672833029058897 0.38821902436569311 0 0.28401908286323452 0.39207964339470741 0 0.28672833029058897 0.38821902436569311 0 0.28401908286323452 0.39207964339470741 0 0.2869013901527524 0.39147098039977518 0 0.28672833029058897 0.38821902436569311 0 0.28933107714594419 0.38880585363697112 0 0.28672833029058897 0.38821902436569311 0 0.28764347236933802 0.38569662865509258 0 0.28933107714594419 0.38880585363697112 0 0.28672833029058897 0.38821902436569311 0 0.28933107714594419 0.38880585363697112 0 0.2869013901527524 0.39147098039977518 0 0.28515488814790457 0.38419658325545147 0 0.28672833029058897 0.38821902436569311 0 0.28764347236933802 0.38569662865509258 0 0.28515488814790457 0.38419658325545147 0 0.28764347236933802 0.38569662865509258 0 0.28992635340373901 0.38118723302171892 0 0.28764347236933802 0.38569662865509258 0 0.28933107714594419 0.38880585363697112 0 0.28992635340373901 0.38118723302171892 0 0.28992635340373901 0.38118723302171892 0 0.30418727168589821 0.3713529888789604 0 0.28972644843236017 0.37273591062096179 0 0.28041867356641231 0.39512619124517312 0 0.285662538360479 0.40382000241822968 0 0.28543646295754588 0.39742602837335711 0 0.29198924530019432 0.40627555182660929 0 0.285662538360479 0.40382000241822968 0 0.28833508481979209 0.40123655463242419 0 0.285662538360479 0.40382000241822968 0 0.28833508481979209 0.40123655463242419 0 0.28543646295754588 0.39742602837335711 0 0.28833508481979209 0.40123655463242419 0 0.28543646295754588 0.39742602837335711 0 0.28916317374644601 0.39744797037658119 0 0.28543646295754588 0.39742602837335711 0 0.28401908286323452 0.39207964339470741 0 0.28736123269241032 0.39420772438980711 0 0.28543646295754588 0.39742602837335711 0 0.28736123269241032 0.39420772438980711 0 0.28916317374644601 0.39744797037658119 0 0.28736123269241032 0.39420772438980711 0 0.29016129608280988 0.39477903901347322 0 0.28916317374644601 0.39744797037658119 0 0.28041867356641231 0.39512619124517312 0 0.28543646295754588 0.39742602837335711 0 0.28401908286323452 0.39207964339470741 0 0.28041867356641231 0.39512619124517312 0 0.2814788691543697 0.38833253368652088 0 0.28401908286323452 0.39207964339470741 0 0.28401908286323452 0.39207964339470741 0 0.2869013901527524 0.39147098039977518 0 0.28736123269241032 0.39420772438980711 0 0.28736123269241032 0.39420772438980711 0 0.28905403692248932 0.39240688126972217 0 0.29016129608280988 0.39477903901347322 0 0.2869013901527524 0.39147098039977518 0 0.28736123269241032 0.39420772438980711 0 0.28905403692248932 0.39240688126972217 0 0.28933107714594419 0.38880585363697112 0 0.2869013901527524 0.39147098039977518 0 0.28905403692248932 0.39240688126972217 0 0.28933107714594419 0.38880585363697112 0 0.29236976562871331 0.39315412049170961 0 0.29660495291689931 0.39606747150309612 0 0.28933107714594419 0.38880585363697112 0 0.28905403692248932 0.39240688126972217 0 0.29236976562871331 0.39315412049170961 0 0.28905403692248932 0.39240688126972217 0 0.29236976562871331 0.39315412049170961 0 0.29016129608280988 0.39477903901347322 0 0.29236976562871331 0.39315412049170961 0 0.29660495291689931 0.39606747150309612 0 0.29271372679738811 0.39658086075664511 0 0.29660495291689931 0.39606747150309612 0 0.29271372679738811 0.39658086075664511 0 0.29321575555729512 0.40006846477890629 0 0.29271372679738811 0.39658086075664511 0 0.28916317374644601 0.39744797037658119 0 0.29321575555729512 0.40006846477890629 0 0.29236976562871331 0.39315412049170961 0 0.29271372679738811 0.39658086075664511 0 0.29016129608280988 0.39477903901347322 0 0.29271372679738811 0.39658086075664511 0 0.29016129608280988 0.39477903901347322 0 0.28916317374644601 0.39744797037658119 0 0.29198924530019432 0.40627555182660929 0 0.29321575555729512 0.40006846477890629 0 0.30034380513644748 0.40270474179518101 0 0.28833508481979209 0.40123655463242419 0 0.28916317374644601 0.39744797037658119 0 0.29321575555729512 0.40006846477890629 0 0.29660495291689931 0.39606747150309612 0 0.29321575555729512 0.40006846477890629 0 0.30034380513644748 0.40270474179518101 0 0.29198924530019432 0.40627555182660929 0 0.28833508481979209 0.40123655463242419 0 0.29321575555729512 0.40006846477890629 0 0.29660495291689931 0.39606747150309612 0 0.30034380513644748 0.40270474179518101 0 0.31239998982595629 0.39400709446811771 0 0.28933107714594419 0.38880585363697112 0 0.29660495291689931 0.39606747150309612 0 0.31239998982595629 0.39400709446811771 0 0.28933107714594419 0.38880585363697112 0 0.31239998982595629 0.39400709446811771 0 0.30990688266911182 0.40801835394690628 0 0.30034380513644748 0.40270474179518101 0 0.31239998982595629 0.39400709446811771 0 0.28933107714594419 0.38880585363697112 0 0.31239998982595629 0.39400709446811771 0 0.30286202931574652 0.38426335433076209 0 0.28933107714594419 0.38880585363697112 0 0.30286202931574652 0.38426335433076209 0 0.30418727168589821 0.3713529888789604 0 0.31239998982595629 0.39400709446811771 0 0.30286202931574652 0.38426335433076209 0 0.31103933656858151 0.38157237728497528 0 0.31103933656858151 0.38157237728497528 0 0.31635129918207472 0.37351135016497272 0 0.30418727168589821 0.3713529888789604 0 0.30286202931574652 0.38426335433076209 0 0.31103933656858151 0.38157237728497528 0 0.30418727168589821 0.3713529888789604 0 0.31239998982595629 0.39400709446811771 0 0.31939609283323178 0.38472709858206378 0 0.33041375764587788 0.38842504977289549 0 0.31103933656858151 0.38157237728497528 0 0.31939609283323178 0.38472709858206378 0 0.31635129918207472 0.37351135016497272 0 0.31239998982595629 0.39400709446811771 0 0.31103933656858151 0.38157237728497528 0 0.31939609283323178 0.38472709858206378 0 0.31939609283323178 0.38472709858206378 0 0.33041375764587788 0.38842504977289549 0 0.31635129918207472 0.37351135016497272 0 0.33041375764587788 0.38842504977289549 0 0.33851596219275543 0.36910534307468712 0 0.33041375764587788 0.38842504977289549 0 0.34914239851362971 0.38579992350869308 0 0.33851596219275543 0.36910534307468712 0 0.33041375764587788 0.38842504977289549 0 0.33851596219275543 0.36910534307468712 0 0.31635129918207472 0.37351135016497272 0 0.33041375764587788 0.38842504977289549 0 0.33546890250596872 0.39920833529926331 0 0.34914239851362971 0.38579992350869308 0 0.31239998982595629 0.39400709446811771 0 0.33041375764587788 0.38842504977289549 0 0.33546890250596872 0.39920833529926331 0 0.31239998982595629 0.39400709446811771 0 0.33546890250596872 0.39920833529926331 0 0.31239998982595629 0.39400709446811771 0 0.33546890250596872 0.39920833529926331 0 0.32058790270739163 0.40477463068715658 0 0.30990688266911182 0.40801835394690628 0 0.31239998982595629 0.39400709446811771 0 0.32058790270739163 0.40477463068715658 0 0.30990688266911182 0.40801835394690628 0 0.32058790270739163 0.40477463068715658 0 0.32457583582852939 0.41786473903433952 0 0.33546890250596872 0.39920833529926331 0 0.32058790270739163 0.40477463068715658 0 0.32457583582852939 0.41786473903433952 0 0.30990688266911182 0.40801835394690628 0 0.30730414114933202 0.4181936070905331 0 0.32457583582852939 0.41786473903433952 0 0.32879007817259109 0.44260540225526651 0 0.30978087276732608 0.43472291549913078 0 0.32457583582852939 0.41786473903433952 0 0.30978087276732608 0.43472291549913078 0 0.30730414114933202 0.4181936070905331 0 0.32457583582852939 0.41786473903433952 0 0.32879007817259109 0.44260540225526651 0 0.32457583582852939 0.41786473903433952 0 0.34064698858970899 0.43000118044812868 0 0.32457583582852939 0.41786473903433952 0 0.34064698858970899 0.43000118044812868 0 0.34500935944254141 0.41550352215494413 0 0.33546890250596872 0.39920833529926331 0 0.32457583582852939 0.41786473903433952 0 0.34500935944254141 0.41550352215494413 0 0.33546890250596872 0.39920833529926331 0 0.34500935944254141 0.41550352215494413 0 0.35853781518598099 0.40440957613040879 0 0.34500935944254141 0.41550352215494413 0 0.36581725510251878 0.4260337798625804 0 0.35853781518598099 0.40440957613040879 0 0.34760903798901499 0.44672585270692949 0 0.34064698858970899 0.43000118044812868 0 0.36581725510251878 0.4260337798625804 0 0.34064698858970899 0.43000118044812868 0 0.34500935944254141 0.41550352215494413 0 0.36581725510251878 0.4260337798625804 0 0.36636443174205752 0.44880924381662812 0 0.36581725510251878 0.4260337798625804 0 0.3881511208933226 0.43053040075335303 0 0.35853781518598099 0.40440957613040879 0 0.38160672786599331 0.40961081696155438 0 0.35853781518598099 0.40440957613040879 0 0.38160672786599331 0.40961081696155438 0 0.37821791307384228 0.42215441111559598 0 0.36581725510251878 0.4260337798625804 0 0.35853781518598099 0.40440957613040879 0 0.37821791307384228 0.42215441111559598 0 0.36820531177321197 0.38922423401188322 0 0.35853781518598099 0.40440957613040879 0 0.38160672786599331 0.40961081696155438 0 0.36820531177321197 0.38922423401188322 0 0.36511454312596692 0.36381793869922868 0 0.38662507417448921 0.38248291475953039 0 0.36820531177321197 0.38922423401188322 0 0.34914239851362971 0.38579992350869308 0 0.36511454312596692 0.36381793869922868 0 0.33546890250596872 0.39920833529926331 0 0.35853781518598099 0.40440957613040879 0 0.33546890250596872 0.39920833529926331 0 0.34914239851362971 0.38579992350869308 0 0.35853781518598099 0.40440957613040879 0 0.36820531177321197 0.38922423401188322 0 0.34914239851362971 0.38579992350869308 0 0.35853781518598099 0.40440957613040879 0 0.34856283975615709 0.34514856357908791 0 0.36511454312596692 0.36381793869922868 0 0.33851596219275543 0.36910534307468712 0 0.34914239851362971 0.38579992350869308 0 0.36511454312596692 0.36381793869922868 0 0.33851596219275543 0.36910534307468712 0 0.36511454312596692 0.36381793869922868 0 0.33851596219275543 0.36910534307468712 0 0.34856283975615709 0.34514856357908791 0 0.36511454312596692 0.36381793869922868 0 0.36462351396194531 0.33779891589424532 0 0.36511454312596692 0.36381793869922868 0 0.36462351396194531 0.33779891589424532 0 0.37643470096558029 0.34987718482028618 0 0.36462351396194531 0.33779891589424532 0 0.35860971731956148 0.32119178408348958 0 0.38215669488957349 0.33566580933459039 0 0.35860971731956148 0.32119178408348958 0 0.38215669488957349 0.33566580933459039 0 0.36462351396194531 0.33779891589424532 0 0.38215669488957349 0.33566580933459039 0 0.37643470096558029 0.34987718482028618 0 0.37303941882830072 0.31523448777240992 0 0.35860971731956148 0.32119178408348958 0 0.38215669488957349 0.33566580933459039 0 0.35860971731956148 0.32119178408348958 0 0.33353276198415782 0.3057773011135978 0 0.35860971731956148 0.32119178408348958 0 0.34875585530576497 0.31899439460493167 0 0.33353276198415782 0.3057773011135978 0 0.35860971731956148 0.32119178408348958 0 0.34875585530576497 0.31899439460493167 0 0.34716056392325029 0.33090534276997569 0 0.34856283975615709 0.34514856357908791 0 0.35860971731956148 0.32119178408348958 0 0.34856283975615709 0.34514856357908791 0 0.36462351396194531 0.33779891589424532 0 0.35860971731956148 0.32119178408348958 0 0.34856283975615709 0.34514856357908791 0 0.35860971731956148 0.32119178408348958 0 0.34716056392325029 0.33090534276997569 0 0.34856283975615709 0.34514856357908791 0 0.34716056392325029 0.33090534276997569 0 0.33389966076580929 0.33644725936294129 0 0.34875585530576497 0.31899439460493167 0 0.34716056392325029 0.33090534276997569 0 0.33389966076580929 0.33644725936294129 0 0.34875585530576497 0.31899439460493167 0 0.33389966076580929 0.33644725936294129 0 0.32940798471419402 0.3209955230035404 0 0.34875585530576497 0.31899439460493167 0 0.33389966076580929 0.33644725936294129 0 0.34875585530576497 0.31899439460493167 0 0.32940798471419402 0.3209955230035404 0 0.33353276198415782 0.3057773011135978 0 0.32940798471419402 0.3209955230035404 0 0.31508693715755898 0.32133988756889359 0 0.31756706946460389 0.33759402516903669 0 0.32940798471419402 0.3209955230035404 0 0.31508693715755898 0.32133988756889359 0 0.31768562474088902 0.30933849063193469 0 0.33389966076580929 0.33644725936294129 0 0.31756706946460389 0.33759402516903669 0 0.31904346622585378 0.35390012412095079 0 0.33389966076580929 0.33644725936294129 0 0.32940798471419402 0.3209955230035404 0 0.31756706946460389 0.33759402516903669 0 0.33389966076580929 0.33644725936294129 0 0.31904346622585378 0.35390012412095079 0 0.31756706946460389 0.33759402516903669 0 0.31904346622585378 0.35390012412095079 0 0.30433932890094328 0.35401154302781918 0 0.33389966076580929 0.33644725936294129 0 0.31904346622585378 0.35390012412095079 0 0.33455266222902319 0.35205246932611228 0 0.34856283975615709 0.34514856357908791 0 0.33851596219275543 0.36910534307468712 0 0.34856283975615709 0.34514856357908791 0 0.33455266222902319 0.35205246932611228 0 0.33851596219275543 0.36910534307468712 0 0.31904346622585378 0.35390012412095079 0 0.33455266222902319 0.35205246932611228 0 0.33851596219275543 0.36910534307468712 0 0.34856283975615709 0.34514856357908791 0 0.33389966076580929 0.33644725936294129 0 0.33455266222902319 0.35205246932611228 0 0.31904346622585378 0.35390012412095079 0 0.31635129918207472 0.37351135016497272 0 0.30418727168589821 0.3713529888789604 0 0.33851596219275543 0.36910534307468712 0 0.31635129918207472 0.37351135016497272 0 0.31904346622585378 0.35390012412095079 0 0.33851596219275543 0.36910534307468712 0 0.31635129918207472 0.37351135016497272 0 0.31904346622585378 0.35390012412095079 0 0.30418727168589821 0.3713529888789604 0 0.30433932890094328 0.35401154302781918 0 0.30418727168589821 0.3713529888789604 0 0.30433932890094328 0.35401154302781918 0 0.29418847400122011 0.3630299620394466 0 0.31904346622585378 0.35390012412095079 0 0.30418727168589821 0.3713529888789604 0 0.30433932890094328 0.35401154302781918 0 0.29078286181638008 0.35311745511245168 0 0.29598963701797609 0.33441071112155069 0 0.29078286181638008 0.35311745511245168 0 0.27525079292245608 0.34458686255512949 0 0.29598963701797609 0.33441071112155069 0 0.29078286181638008 0.35311745511245168 0 0.28190645917051899 0.36393191255703972 0 0.27525079292245608 0.34458686255512949 0 0.30433932890094328 0.35401154302781918 0 0.29078286181638008 0.35311745511245168 0 0.29418847400122011 0.3630299620394466 0 0.30418727168589821 0.3713529888789604 0 0.28972644843236017 0.37273591062096179 0 0.29418847400122011 0.3630299620394466 0 0.28972644843236017 0.37273591062096179 0 0.29418847400122011 0.3630299620394466 0 0.28190645917051899 0.36393191255703972 0 0.29078286181638008 0.35311745511245168 0 0.29418847400122011 0.3630299620394466 0 0.28190645917051899 0.36393191255703972 0 0.28972644843236017 0.37273591062096179 0 0.28190645917051899 0.36393191255703972 0 0.28253103231276527 0.37343292465635641 0 0.28542891485545763 0.37864331188842132 0 0.28972644843236017 0.37273591062096179 0 0.28253103231276527 0.37343292465635641 0 0.27347973713902157 0.37651771951711072 0 0.28190645917051899 0.36393191255703972 0 0.28253103231276527 0.37343292465635641 0 0.27347973713902157 0.37651771951711072 0 0.26712820712238289 0.36102344927610491 0 0.25811486834001779 0.37126792942840298 0 0.27347973713902157 0.37651771951711072 0 0.28190645917051899 0.36393191255703972 0 0.26712820712238289 0.36102344927610491 0 0.28190645917051899 0.36393191255703972 0 0.26712820712238289 0.36102344927610491 0 0.27525079292245608 0.34458686255512949 0 0.26712820712238289 0.36102344927610491 0 0.27525079292245608 0.34458686255512949 0 0.26238680820536719 0.34931008550864939 0 0.2498024738269416 0.35536015624222739 0 0.26238680820536719 0.34931008550864939 0 0.25710497453668713 0.33647232278684081 0 0.2498024738269416 0.35536015624222739 0 0.26712820712238289 0.36102344927610491 0 0.26238680820536719 0.34931008550864939 0 0.2498024738269416 0.35536015624222739 0 0.26712820712238289 0.36102344927610491 0 0.25811486834001779 0.37126792942840298 0 0.24245383387187089 0.37214504599554488 0 0.2498024738269416 0.35536015624222739 0 0.25811486834001779 0.37126792942840298 0 0.2476904742205393 0.3234252158892445 0 0.26830165722032301 0.3221725647529341 0 0.25412084660844331 0.30948377448199033 0 0.2476904742205393 0.3234252158892445 0 0.25710497453668713 0.33647232278684081 0 0.26830165722032301 0.3221725647529341 0 0.27525079292245608 0.34458686255512949 0 0.26238680820536719 0.34931008550864939 0 0.25710497453668713 0.33647232278684081 0 0.27525079292245608 0.34458686255512949 0 0.25710497453668713 0.33647232278684081 0 0.26830165722032301 0.3221725647529341 0 0.27525079292245608 0.34458686255512949 0 0.26830165722032301 0.3221725647529341 0 0.29598963701797609 0.33441071112155069 0 0.29598963701797609 0.33441071112155069 0 0.30194463319978121 0.30821692332993211 0 0.28295535367451807 0.30897304157115663 0 0.26830165722032301 0.3221725647529341 0 0.29598963701797609 0.33441071112155069 0 0.28295535367451807 0.30897304157115663 0 0.29598963701797609 0.33441071112155069 0 0.28295535367451807 0.30897304157115663 0 0.31756706946460389 0.33759402516903669 0 0.30433932890094328 0.35401154302781918 0 0.29598963701797609 0.33441071112155069 0 0.31508693715755898 0.32133988756889359 0 0.31756706946460389 0.33759402516903669 0 0.29598963701797609 0.33441071112155069 0 0.31508693715755898 0.32133988756889359 0 0.29598963701797609 0.33441071112155069 0 0.30194463319978121 0.30821692332993211 0 0.31508693715755898 0.32133988756889359 0 0.30194463319978121 0.30821692332993211 0 0.31768562474088902 0.30933849063193469 0 0.30194463319978121 0.30821692332993211 0 0.30845580664875288 0.29036281814370779 0 0.31768562474088902 0.30933849063193469 0 0.30845580664875288 0.29036281814370779 0 0.28918843848990589 0.28694909508223693 0 0.30194463319978121 0.30821692332993211 0 0.30845580664875288 0.29036281814370779 0 0.28918843848990589 0.28694909508223693 0 0.30845580664875288 0.29036281814370779 0 0.28873885369968211 0.27824305992798137 0 0.28918843848990589 0.28694909508223693 0 0.26992107033105939 0.28353537202076279 0 0.28873885369968211 0.27824305992798137 0 0.30845580664875288 0.29036281814370779 0 0.28918843848990589 0.28694909508223693 0 0.28873885369968211 0.27824305992798137 0 0.30194463319978121 0.30821692332993211 0 0.28918843848990589 0.28694909508223693 0 0.28295535367451807 0.30897304157115663 0 0.26830165722032301 0.3221725647529341 0 0.28295535367451807 0.30897304157115663 0 0.26499952156164092 0.29785602486462692 0 0.28295535367451807 0.30897304157115663 0 0.26992107033105939 0.28353537202076279 0 0.28295535367451807 0.30897304157115663 0 0.26992107033105939 0.28353537202076279 0 0.26499952156164092 0.29785602486462692 0 0.28918843848990589 0.28694909508223693 0 0.26992107033105939 0.28353537202076279 0 0.28918843848990589 0.28694909508223693 0 0.28295535367451807 0.30897304157115663 0 0.26992107033105939 0.28353537202076279 0 0.26992107033105939 0.28353537202076279 0 0.26529767174433172 0.28271621487134069 0 0.26499952156164092 0.29785602486462692 0 0.26992107033105939 0.28353537202076279 0 0.26529767174433172 0.28271621487134069 0 0.2486573374751776 0.29929677771612212 0 0.25301159348787822 0.28878875444533147 0 0.26499952156164092 0.29785602486462692 0 0.26529767174433172 0.28271621487134069 0 0.25301159348787822 0.28878875444533147 0 0.26499952156164092 0.29785602486462692 0 0.26529767174433172 0.28271621487134069 0 0.25301159348787822 0.28878875444533147 0 0.25062153209682803 0.27383868758805202 0 0.2486573374751776 0.29929677771612212 0 0.25412084660844331 0.30948377448199033 0 0.26499952156164092 0.29785602486462692 0 0.26830165722032301 0.3221725647529341 0 0.25412084660844331 0.30948377448199033 0 0.26499952156164092 0.29785602486462692 0 0.26529767174433172 0.28271621487134069 0 0.25674229319332992 0.25781570880075683 0 0.25062153209682803 0.27383868758805202 0 0.26992107033105939 0.28353537202076279 0 0.26529767174433172 0.28271621487134069 0 0.25674229319332992 0.25781570880075683 0 0.26992107033105939 0.28353537202076279 0 0.25674229319332992 0.25781570880075683 0 0.26992107033105939 0.28353537202076279 0 0.25674229319332992 0.25781570880075683 0 0.27640496938221992 0.26483977935501068 0 0.26992107033105939 0.28353537202076279 0 0.27640496938221992 0.26483977935501068 0 0.28873885369968211 0.27824305992798137 0 0.25674229319332992 0.25781570880075683 0 0.27640496938221992 0.26483977935501068 0 0.27503382485623667 0.24990743960488171 0 0.27640496938221992 0.26483977935501068 0 0.28969520554158162 0.25361530847655173 0 0.27503382485623667 0.24990743960488171 0 0.27640496938221992 0.26483977935501068 0 0.28969520554158162 0.25361530847655173 0 0.29379562728223652 0.26594080286950877 0 0.28969520554158162 0.25361530847655173 0 0.29379562728223652 0.26594080286950877 0 0.30246165055933338 0.25689856379792242 0 0.27640496938221992 0.26483977935501068 0 0.28873885369968211 0.27824305992798137 0 0.29379562728223652 0.26594080286950877 0 0.28873885369968211 0.27824305992798137 0 0.29379562728223652 0.26594080286950877 0 0.30582684850133268 0.27229698494536869 0 0.30845580664875288 0.29036281814370779 0 0.28873885369968211 0.27824305992798137 0 0.30582684850133268 0.27229698494536869 0 0.30582684850133268 0.27229698494536869 0 0.30246165055933338 0.25689856379792242 0 0.31709834950094701 0.25617832786861672 0 0.28969520554158162 0.25361530847655173 0 0.30246165055933338 0.25689856379792242 0 0.30394283732888921 0.24305680199495941 0 0.29379562728223652 0.26594080286950877 0 0.30582684850133268 0.27229698494536869 0 0.30246165055933338 0.25689856379792242 0 0.30246165055933338 0.25689856379792242 0 0.31709834950094701 0.25617832786861672 0 0.30394283732888921 0.24305680199495941 0 0.31709834950094701 0.25617832786861672 0 0.32720433369626978 0.27496803002129611 0 0.33629414603184549 0.24948389160898929 0 0.32720433369626978 0.27496803002129611 0 0.352015654756409 0.26903340414610472 0 0.33629414603184549 0.24948389160898929 0 0.32720433369626978 0.27496803002129611 0 0.33781567536078638 0.29556469419018272 0 0.352015654756409 0.26903340414610472 0 0.30845580664875288 0.29036281814370779 0 0.30582684850133268 0.27229698494536869 0 0.32720433369626978 0.27496803002129611 0 0.30582684850133268 0.27229698494536869 0 0.31709834950094701 0.25617832786861672 0 0.32720433369626978 0.27496803002129611 0 0.30845580664875288 0.29036281814370779 0 0.32720433369626978 0.27496803002129611 0 0.33781567536078638 0.29556469419018272 0 0.30845580664875288 0.29036281814370779 0 0.33781567536078638 0.29556469419018272 0 0.30845580664875288 0.29036281814370779 0 0.33353276198415782 0.3057773011135978 0 0.32940798471419402 0.3209955230035404 0 0.31768562474088902 0.30933849063193469 0 0.33353276198415782 0.3057773011135978 0 0.30845580664875288 0.29036281814370779 0 0.31768562474088902 0.30933849063193469 0 0.33353276198415782 0.3057773011135978 0 0.30845580664875288 0.29036281814370779 0 0.33353276198415782 0.3057773011135978 0 0.33781567536078638 0.29556469419018272 0 0.33353276198415782 0.3057773011135978 0 0.33781567536078638 0.29556469419018272 0 0.35020241689794651 0.30676376270050232 0 0.33781567536078638 0.29556469419018272 0 0.35788682141891842 0.28855045109599159 0 0.352015654756409 0.26903340414610472 0 0.33781567536078638 0.29556469419018272 0 0.35788682141891842 0.28855045109599159 0 0.36717554407281999 0.30076657023665648 0 0.35860971731956148 0.32119178408348958 0 0.35020241689794651 0.30676376270050232 0 0.36717554407281999 0.30076657023665648 0 0.33781567536078638 0.29556469419018272 0 0.35020241689794651 0.30676376270050232 0 0.36717554407281999 0.30076657023665648 0 0.33781567536078638 0.29556469419018272 0 0.36717554407281999 0.30076657023665648 0 0.35860971731956148 0.32119178408348958 0 0.33353276198415782 0.3057773011135978 0 0.35020241689794651 0.30676376270050232 0 0.35860971731956148 0.32119178408348958 0 0.36717554407281999 0.30076657023665648 0 0.37303941882830072 0.31523448777240992 0 0.36717554407281999 0.30076657023665648 0 0.38351705662252522 0.30366190071409099 0 0.37303941882830072 0.31523448777240992 0 0.35860971731956148 0.32119178408348958 0 0.36717554407281999 0.30076657023665648 0 0.35788682141891842 0.28855045109599159 0 0.36497977407997001 0.28317044707562522 0 0.37311065849541969 0.28661428992807458 0 0.35788682141891842 0.28855045109599159 0 0.36497977407997001 0.28317044707562522 0 0.36385536763364518 0.27441219124965038 0 0.35788682141891842 0.28855045109599159 0 0.36717554407281999 0.30076657023665648 0 0.37311065849541969 0.28661428992807458 0 0.36717554407281999 0.30076657023665648 0 0.37311065849541969 0.28661428992807458 0 0.36717554407281999 0.30076657023665648 0 0.37311065849541969 0.28661428992807458 0 0.37872118271653848 0.29353963983186471 0 0.36497977407997001 0.28317044707562522 0 0.37311065849541969 0.28661428992807458 0 0.37077332902918531 0.27678794784728611 0 0.37311065849541969 0.28661428992807458 0 0.37077332902918531 0.27678794784728611 0 0.37904577291801611 0.27246200961949152 0 0.36385536763364518 0.27441219124965038 0 0.37039157618443708 0.26518835621852438 0 0.352015654756409 0.26903340414610472 0 0.36497977407997001 0.28317044707562522 0 0.37077332902918531 0.27678794784728611 0 0.36385536763364518 0.27441219124965038 0 0.37077332902918531 0.27678794784728611 0 0.36385536763364518 0.27441219124965038 0 0.37039157618443708 0.26518835621852438 0 0.37077332902918531 0.27678794784728611 0 0.37039157618443708 0.26518835621852438 0 0.37904577291801611 0.27246200961949152 0 0.37039157618443708 0.26518835621852438 0 0.3667343882300374 0.25345367499627008 0 0.352015654756409 0.26903340414610472 0 0.37039157618443708 0.26518835621852438 0 0.3667343882300374 0.25345367499627008 0 0.37982453712078251 0.25945495570527649 0 0.3667343882300374 0.25345367499627008 0 0.352015654756409 0.26903340414610472 0 0.35334076569371908 0.247514274483976 0 0.352015654756409 0.26903340414610472 0 0.33629414603184549 0.24948389160898929 0 0.35334076569371908 0.247514274483976 0 0.35788682141891842 0.28855045109599159 0 0.36385536763364518 0.27441219124965038 0 0.352015654756409 0.26903340414610472 0 0.3984053627520735 0.2761391217061181 0 0.40529807640253412 0.26112098510350612 0 0.41251929924330127 0.27821538901699011 0 0.3984053627520735 0.2761391217061181 0 0.40529807640253412 0.26112098510350612 0 0.39031199818487933 0.26773730246597832 0 0.3984053627520735 0.2761391217061181 0 0.38729170002700292 0.27655047616353801 0 0.39129288243360932 0.28371523807187321 0 0.3984053627520735 0.2761391217061181 0 0.39031199818487933 0.26773730246597832 0 0.38729170002700292 0.27655047616353801 0 0.3984053627520735 0.2761391217061181 0 0.40171573549839262 0.28910545112966479 0 0.41251929924330127 0.27821538901699011 0 0.40529807640253412 0.26112098510350612 0 0.3915052518867283 0.25530621538822312 0 0.39547701868722551 0.24088884175490591 0 0.40529807640253412 0.26112098510350612 0 0.3915052518867283 0.25530621538822312 0 0.39031199818487933 0.26773730246597832 0 0.3915052518867283 0.25530621538822312 0 0.37982453712078251 0.25945495570527649 0 0.39031199818487933 0.26773730246597832 0 0.3667343882300374 0.25345367499627008 0 0.37982453712078251 0.25945495570527649 0 0.38095823532059681 0.24258217554317121 0 0.3915052518867283 0.25530621538822312 0 0.37982453712078251 0.25945495570527649 0 0.38095823532059681 0.24258217554317121 0 0.37039157618443708 0.26518835621852438 0 0.37982453712078251 0.25945495570527649 0 0.37904577291801611 0.27246200961949152 0 0.37904577291801611 0.27246200961949152 0 0.39031199818487933 0.26773730246597832 0 0.38729170002700292 0.27655047616353801 0 0.37982453712078251 0.25945495570527649 0 0.37904577291801611 0.27246200961949152 0 0.39031199818487933 0.26773730246597832 0 0.38729170002700292 0.27655047616353801 0 0.37991557987054042 0.28225121512316032 0 0.39129288243360932 0.28371523807187321 0 0.37311065849541969 0.28661428992807458 0 0.37904577291801611 0.27246200961949152 0 0.37991557987054042 0.28225121512316032 0 0.37904577291801611 0.27246200961949152 0 0.38729170002700292 0.27655047616353801 0 0.37991557987054042 0.28225121512316032 0 0.37311065849541969 0.28661428992807458 0 0.37904577291801611 0.27246200961949152 0 0.37311065849541969 0.28661428992807458 0 0.37991557987054042 0.28225121512316032 0 0.37872118271653848 0.29353963983186471 0 0.37991557987054042 0.28225121512316032 0 0.37872118271653848 0.29353963983186471 0 0.3898870745213866 0.29440422315734149 0 0.37991557987054042 0.28225121512316032 0 0.3898870745213866 0.29440422315734149 0 0.37991557987054042 0.28225121512316032 0 0.3898870745213866 0.29440422315734149 0 0.39129288243360932 0.28371523807187321 0 0.36717554407281999 0.30076657023665648 0 0.37872118271653848 0.29353963983186471 0 0.38351705662252522 0.30366190071409099 0 0.38351705662252522 0.30366190071409099 0 0.39985856917223073 0.30655723119152428 0 0.38651333666677318 0.31686202462533641 0 0.36717554407281999 0.30076657023665648 0 0.38351705662252522 0.30366190071409099 0 0.37303941882830072 0.31523448777240992 0 0.38351705662252522 0.30366190071409099 0 0.38651333666677318 0.31686202462533641 0 0.37872118271653848 0.29353963983186471 0 0.3898870745213866 0.29440422315734149 0 0.38351705662252522 0.30366190071409099 0 0.38351705662252522 0.30366190071409099 0 0.39985856917223073 0.30655723119152428 0 0.3898870745213866 0.29440422315734149 0 0.38351705662252522 0.30366190071409099 0 0.39985856917223073 0.30655723119152428 0 0.3898870745213866 0.29440422315734149 0 0.39985856917223073 0.30655723119152428 0 0.39985856917223073 0.30655723119152428 0 0.40716557617501309 0.31546282838833511 0 0.39985856917223073 0.30655723119152428 0 0.40171573549839262 0.28910545112966479 0 0.4168390695961508 0.29303320600584087 0 0.3898870745213866 0.29440422315734149 0 0.39985856917223073 0.30655723119152428 0 0.40171573549839262 0.28910545112966479 0 0.3984053627520735 0.2761391217061181 0 0.39129288243360932 0.28371523807187321 0 0.40171573549839262 0.28910545112966479 0 0.3898870745213866 0.29440422315734149 0 0.39129288243360932 0.28371523807187321 0 0.40171573549839262 0.28910545112966479 0 0.4168390695961508 0.29303320600584087 0 0.43452022443526978 0.2810034883544148 0 0.41251929924330127 0.27821538901699011 0 0.40171573549839262 0.28910545112966479 0 0.4168390695961508 0.29303320600584087 0 0.41251929924330127 0.27821538901699011 0 0.39985856917223073 0.30655723119152428 0 0.42476245274484942 0.31096961180164301 0 0.40716557617501309 0.31546282838833511 0 0.39985856917223073 0.30655723119152428 0 0.4168390695961508 0.29303320600584087 0 0.42476245274484942 0.31096961180164301 0 0.39985856917223073 0.30655723119152428 0 0.42476245274484942 0.31096961180164301 0 0.42476245274484942 0.31096961180164301 0 0.4301844128894759 0.2970056434202003 0 0.44401290337450511 0.30605416878383063 0 0.42476245274484942 0.31096961180164301 0 0.44041121953226692 0.31374220407399589 0 0.42476245274484942 0.31096961180164301 0 0.44401290337450511 0.30605416878383063 0 0.44041121953226692 0.31374220407399589 0 0.42476245274484942 0.31096961180164301 0 0.44401290337450511 0.30605416878383063 0 0.4168390695961508 0.29303320600584087 0 0.42476245274484942 0.31096961180164301 0 0.4301844128894759 0.2970056434202003 0 0.4168390695961508 0.29303320600584087 0 0.4301844128894759 0.2970056434202003 0 0.43452022443526978 0.2810034883544148 0 0.4301844128894759 0.2970056434202003 0 0.43452022443526978 0.2810034883544148 0 0.44401290337450511 0.30605416878383063 0 0.42234731830589772 0.26760926798509849 0 0.43452022443526978 0.2810034883544148 0 0.41251929924330127 0.27821538901699011 0 0.42234731830589772 0.26760926798509849 0 0.43452022443526978 0.2810034883544148 0 0.4414163743974816 0.26372246769229007 0 0.40529807640253412 0.26112098510350612 0 0.42234731830589772 0.26760926798509849 0 0.41251929924330127 0.27821538901699011 0 0.40529807640253412 0.26112098510350612 0 0.42234731830589772 0.26760926798509849 0 0.42493863084263162 0.25206398068088692 0 0.42493863084263162 0.25206398068088692 0 0.4414163743974816 0.26372246769229007 0 0.44263850808419281 0.2464533929682087 0 0.42234731830589772 0.26760926798509849 0 0.42493863084263162 0.25206398068088692 0 0.4414163743974816 0.26372246769229007 0 0.4414163743974816 0.26372246769229007 0 0.46803140868643112 0.25478506118214472 0 0.44263850808419281 0.2464533929682087 0 0.43452022443526978 0.2810034883544148 0 0.4414163743974816 0.26372246769229007 0 0.45602215603046709 0.28041961498298712 0 0.45602215603046709 0.28041961498298712 0 0.46803140868643112 0.25478506118214472 0 0.45602215603046709 0.28041961498298712 0 0.46803140868643112 0.25478506118214472 0 0.47830921911271029 0.27730296597030413 0 0.4414163743974816 0.26372246769229007 0 0.45602215603046709 0.28041961498298712 0 0.46803140868643112 0.25478506118214472 0 0.46803140868643112 0.25478506118214472 0 0.48581798150208888 0.26109046748610681 0 0.48508737362871951 0.24612109100136781 0 0.46803140868643112 0.25478506118214472 0 0.47830921911271029 0.27730296597030413 0 0.48581798150208888 0.26109046748610681 0 0.47830921911271029 0.27730296597030413 0 0.5 0.27130824275736531 0 0.50000000000000089 0.29175832768952931 0 0.47830921911271029 0.27730296597030413 0 0.5 0.27130824275736531 0 0.48581798150208888 0.26109046748610681 0 0.5 0.27130824275736531 0 0.49708634542855618 0.25156806938198978 0 0.5 0.27130824275736531 0 0.5 0.25212007683424881 0 0.49708634542855618 0.25156806938198978 0 0.5 0.27130824275736531 0 0.49708634542855618 0.25156806938198978 0 0.48581798150208888 0.26109046748610681 0 0.49708634542855618 0.25156806938198978 0 0.48581798150208888 0.26109046748610681 0 0.48508737362871951 0.24612109100136781 0 0.48887206291021362 0.30991237839049429 0 0.49999999999999539 0.29946804251043208 0 0.47200645168725308 0.29890624823668083 0 0.48887206291021362 0.30991237839049429 0 0.49999999999999539 0.29946804251043208 0 0.50000000000000011 0.32429993009089181 0 0.48887206291021362 0.30991237839049429 0 0.49999999999999539 0.29946804251043208 0 0.50000000000000089 0.29175832768952931 0 0.47200645168725308 0.29890624823668083 0 0.49999999999999539 0.29946804251043208 0 0.50000000000000089 0.29175832768952931 0 0.47200645168725308 0.29890624823668083 0 0.45602215603046709 0.28041961498298712 0 0.47830921911271029 0.27730296597030413 0 0.47200645168725308 0.29890624823668083 0 0.47830921911271029 0.27730296597030413 0 0.50000000000000089 0.29175832768952931 0 0.47200645168725308 0.29890624823668083 0 0.48887206291021362 0.30991237839049429 0 0.47200645168725308 0.29890624823668083 0 0.47774412582043729 0.3203567142705625 0 0.47200645168725308 0.29890624823668083 0 0.4590776726763518 0.31704945917228128 0 0.47774412582043729 0.3203567142705625 0 0.47200645168725308 0.29890624823668083 0 0.44401290337450511 0.30605416878383063 0 0.47200645168725308 0.29890624823668083 0 0.44401290337450511 0.30605416878383063 0 0.4590776726763518 0.31704945917228128 0 0.45602215603046709 0.28041961498298712 0 0.47200645168725308 0.29890624823668083 0 0.44401290337450511 0.30605416878383063 0 0.43452022443526978 0.2810034883544148 0 0.45602215603046709 0.28041961498298712 0 0.44401290337450511 0.30605416878383063 0 0.45602215603046709 0.28041961498298712 0 0.44401290337450511 0.30605416878383063 0 0.44401290337450511 0.30605416878383063 0 0.44041121953226692 0.31374220407399589 0 0.4590776726763518 0.31704945917228128 0 0.44401290337450511 0.30605416878383063 0 0.44041121953226692 0.31374220407399589 0 0.44041121953226692 0.31374220407399589 0 0.44620958245784331 0.3299946305394183 0 0.4590776726763518 0.31704945917228128 0 0.44041121953226692 0.31374220407399589 0 0.4590776726763518 0.31704945917228128 0 0.50000000000000011 0.32429993009089181 0 0.48347957832028993 0.36403339598681211 0 0.5 0.3886048574377321 0 0.44041121953226692 0.31374220407399589 0 0.44620958245784331 0.3299946305394183 0 0.42781495491116062 0.34062977421425111 0 0.44620958245784331 0.3299946305394183 0 0.44334391884667512 0.34191648088550181 0 0.42781495491116062 0.34062977421425111 0 0.44620958245784331 0.3299946305394183 0 0.44334391884667512 0.34191648088550181 0 0.46040014632276738 0.33663523435106402 0 0.4590776726763518 0.31704945917228128 0 0.47774412582043729 0.3203567142705625 0 0.46040014632276738 0.33663523435106402 0 0.4590776726763518 0.31704945917228128 0 0.47774412582043729 0.3203567142705625 0 0.44620958245784331 0.3299946305394183 0 0.46040014632276738 0.33663523435106402 0 0.4590776726763518 0.31704945917228128 0 0.48887206291021362 0.30991237839049429 0 0.47774412582043729 0.3203567142705625 0 0.46040014632276738 0.33663523435106402 0 0.47774412582043729 0.3203567142705625 0 0.47896621607001327 0.34301734053334232 0 0.46040014632276738 0.33663523435106402 0 0.47896621607001327 0.34301734053334232 0 0.46759957263444651 0.34727993397300599 0 0.46040014632276738 0.33663523435106402 0 0.47774412582043729 0.3203567142705625 0 0.47774412582043729 0.3203567142705625 0 0.47896621607001327 0.34301734053334232 0 0.50000000000000011 0.32429993009089181 0 0.47774412582043729 0.3203567142705625 0 0.50000000000000011 0.32429993009089181 0 0.48887206291021362 0.30991237839049429 0 0.47774412582043729 0.3203567142705625 0 0.50000000000000011 0.32429993009089181 0 0.47896621607001327 0.34301734053334232 0 0.50000000000000011 0.32429993009089181 0 0.48347957832028993 0.36403339598681211 0 0.47896621607001327 0.34301734053334232 0 0.46973575813609059 0.35821758595139208 0 0.48347957832028993 0.36403339598681211 0 0.47896621607001327 0.34301734053334232 0 0.46973575813609059 0.35821758595139208 0 0.46759957263444651 0.34727993397300599 0 0.46973575813609059 0.35821758595139208 0 0.48347957832028993 0.36403339598681211 0 0.46943351952803469 0.37734625771157848 0 0.45340228137715533 0.36247747899092331 0 0.45332265528795329 0.38123105130785062 0 0.46943351952803469 0.37734625771157848 0 0.46973575813609059 0.35821758595139208 0 0.45340228137715533 0.36247747899092331 0 0.46943351952803469 0.37734625771157848 0 0.46040014632276738 0.33663523435106402 0 0.45911182783131238 0.3514764394858837 0 0.44305616682510113 0.35291375443156919 0 0.46973575813609059 0.35821758595139208 0 0.45340228137715533 0.36247747899092331 0 0.45911182783131238 0.3514764394858837 0 0.46040014632276738 0.33663523435106402 0 0.46759957263444651 0.34727993397300599 0 0.45911182783131238 0.3514764394858837 0 0.46973575813609059 0.35821758595139208 0 0.46759957263444651 0.34727993397300599 0 0.45911182783131238 0.3514764394858837 0 0.44334391884667512 0.34191648088550181 0 0.46040014632276738 0.33663523435106402 0 0.44305616682510113 0.35291375443156919 0 0.45340228137715533 0.36247747899092331 0 0.45911182783131238 0.3514764394858837 0 0.44305616682510113 0.35291375443156919 0 0.46040014632276738 0.33663523435106402 0 0.44305616682510113 0.35291375443156919 0 0.44334391884667512 0.34191648088550181 0 0.43770934083748442 0.35268880406547731 0 0.44305616682510113 0.35291375443156919 0 0.45340228137715533 0.36247747899092331 0 0.4421309590443932 0.3723315141425585 0 0.45332265528795329 0.38123105130785062 0 0.45340228137715533 0.36247747899092331 0 0.44107539864352102 0.36422875551928141 0 0.4421309590443932 0.3723315141425585 0 0.45340228137715533 0.36247747899092331 0 0.44305616682510113 0.35291375443156919 0 0.44107539864352102 0.36422875551928141 0 0.44305616682510113 0.35291375443156919 0 0.42571218732743482 0.36919227451207448 0 0.44305616682510113 0.35291375443156919 0 0.44107539864352102 0.36422875551928141 0 0.42571218732743482 0.36919227451207448 0 0.44107539864352102 0.36422875551928141 0 0.4421309590443932 0.3723315141425585 0 0.42571218732743482 0.36919227451207448 0 0.42571218732743482 0.36919227451207448 0 0.40752691986538547 0.36825233568605081 0 0.4183117049923899 0.35324312994831081 0 0.42571218732743482 0.36919227451207448 0 0.40752691986538547 0.36825233568605081 0 0.40836820782976829 0.38547079459257971 0 0.4183117049923899 0.35324312994831081 0 0.41652071867042439 0.34019729129831261 0 0.39782498379807851 0.34307930276140869 0 0.4183117049923899 0.35324312994831081 0 0.42238432357848371 0.34672348405224629 0 0.41652071867042439 0.34019729129831261 0 0.43770934083748442 0.35268880406547731 0 0.44305616682510113 0.35291375443156919 0 0.42571218732743482 0.36919227451207448 0 0.42571218732743482 0.36919227451207448 0 0.4183117049923899 0.35324312994831081 0 0.42733588668186218 0.35187178591534252 0 0.42238432357848371 0.34672348405224629 0 0.42733588668186218 0.35187178591534252 0 0.42781495491116062 0.34062977421425111 0 0.43770934083748442 0.35268880406547731 0 0.42571218732743482 0.36919227451207448 0 0.42733588668186218 0.35187178591534252 0 0.4183117049923899 0.35324312994831081 0 0.42238432357848371 0.34672348405224629 0 0.42733588668186218 0.35187178591534252 0 0.43770934083748442 0.35268880406547731 0 0.42781495491116062 0.34062977421425111 0 0.43770934083748442 0.35268880406547731 0 0.42733588668186218 0.35187178591534252 0 0.42781495491116062 0.34062977421425111 0 0.44334391884667512 0.34191648088550181 0 0.43770934083748442 0.35268880406547731 0 0.42781495491116062 0.34062977421425111 0 0.42781495491116062 0.34062977421425111 0 0.41749026554308699 0.32804630130129298 0 0.42238432357848371 0.34672348405224629 0 0.42781495491116062 0.34062977421425111 0 0.41652071867042439 0.34019729129831261 0 0.42476245274484942 0.31096961180164301 0 0.44041121953226692 0.31374220407399589 0 0.41749026554308699 0.32804630130129298 0 0.44041121953226692 0.31374220407399589 0 0.42781495491116062 0.34062977421425111 0 0.41749026554308699 0.32804630130129298 0 0.44041121953226692 0.31374220407399589 0 0.42781495491116062 0.34062977421425111 0 0.42476245274484942 0.31096961180164301 0 0.41749026554308699 0.32804630130129298 0 0.40716557617501309 0.31546282838833511 0 0.42476245274484942 0.31096961180164301 0 0.40716557617501309 0.31546282838833511 0 0.41749026554308699 0.32804630130129298 0 0.40716557617501309 0.31546282838833511 0 0.41749026554308699 0.32804630130129298 0 0.40716557617501309 0.31546282838833511 0 0.40472413156774423 0.32909916565557018 0 0.41652071867042439 0.34019729129831261 0 0.40472413156774423 0.32909916565557018 0 0.39782498379807851 0.34307930276140869 0 0.42781495491116062 0.34062977421425111 0 0.41749026554308699 0.32804630130129298 0 0.41652071867042439 0.34019729129831261 0 0.41749026554308699 0.32804630130129298 0 0.41652071867042439 0.34019729129831261 0 0.40472413156774423 0.32909916565557018 0 0.39356939965496052 0.32857197029209478 0 0.39782498379807851 0.34307930276140869 0 0.38215669488957349 0.33566580933459039 0 0.40472413156774423 0.32909916565557018 0 0.39356939965496052 0.32857197029209478 0 0.39782498379807851 0.34307930276140869 0 0.39985856917223073 0.30655723119152428 0 0.40716557617501309 0.31546282838833511 0 0.39662785135263301 0.31815354908356808 0 0.40716557617501309 0.31546282838833511 0 0.39662785135263301 0.31815354908356808 0 0.40716557617501309 0.31546282838833511 0 0.40472413156774423 0.32909916565557018 0 0.39662785135263301 0.31815354908356808 0 0.39356939965496052 0.32857197029209478 0 0.39662785135263301 0.31815354908356808 0 0.38651333666677318 0.31686202462533641 0 0.40472413156774423 0.32909916565557018 0 0.39356939965496052 0.32857197029209478 0 0.39662785135263301 0.31815354908356808 0 0.39985856917223073 0.30655723119152428 0 0.39662785135263301 0.31815354908356808 0 0.38651333666677318 0.31686202462533641 0 0.39356939965496052 0.32857197029209478 0 0.38651333666677318 0.31686202462533641 0 0.38215669488957349 0.33566580933459039 0 0.37303941882830072 0.31523448777240992 0 0.38651333666677318 0.31686202462533641 0 0.38215669488957349 0.33566580933459039 0 0.39782498379807851 0.34307930276140869 0 0.38215669488957349 0.33566580933459039 0 0.37643470096558029 0.34987718482028618 0 0.36511454312596692 0.36381793869922868 0 0.37643470096558029 0.34987718482028618 0 0.39171312405917841 0.35853053432376969 0 0.39782498379807851 0.34307930276140869 0 0.37643470096558029 0.34987718482028618 0 0.39171312405917841 0.35853053432376969 0 0.36511454312596692 0.36381793869922868 0 0.39171312405917841 0.35853053432376969 0 0.38662507417448921 0.38248291475953039 0 0.36511454312596692 0.36381793869922868 0 0.39171312405917841 0.35853053432376969 0 0.40752691986538547 0.36825233568605081 0 0.4183117049923899 0.35324312994831081 0 0.39171312405917841 0.35853053432376969 0 0.40752691986538547 0.36825233568605081 0 0.39171312405917841 0.35853053432376969 0 0.38662507417448921 0.38248291475953039 0 0.4183117049923899 0.35324312994831081 0 0.39171312405917841 0.35853053432376969 0 0.4183117049923899 0.35324312994831081 0 0.39782498379807851 0.34307930276140869 0 0.39171312405917841 0.35853053432376969 0 0.39625774794723129 0.40034452232138351 0 0.40993781004458762 0.41225155769007782 0 0.40836820782976829 0.38547079459257971 0 0.39625774794723129 0.40034452232138351 0 0.38662507417448921 0.38248291475953039 0 0.40836820782976829 0.38547079459257971 0 0.40752691986538547 0.36825233568605081 0 0.38662507417448921 0.38248291475953039 0 0.40836820782976829 0.38547079459257971 0 0.36820531177321197 0.38922423401188322 0 0.38662507417448921 0.38248291475953039 0 0.38160672786599331 0.40961081696155438 0 0.39625774794723129 0.40034452232138351 0 0.38662507417448921 0.38248291475953039 0 0.38160672786599331 0.40961081696155438 0 0.38160672786599331 0.40961081696155438 0 0.37821791307384228 0.42215441111559598 0 0.39083426396499538 0.41497834176839299 0 0.39625774794723129 0.40034452232138351 0 0.38160672786599331 0.40961081696155438 0 0.39083426396499538 0.41497834176839299 0 0.3881511208933226 0.43053040075335303 0 0.39934136499244027 0.43065828053516608 0 0.38298488644449358 0.43994609448713201 0 0.36581725510251878 0.4260337798625804 0 0.37821791307384228 0.42215441111559598 0 0.3881511208933226 0.43053040075335303 0 0.37821791307384228 0.42215441111559598 0 0.3881511208933226 0.43053040075335303 0 0.39083426396499538 0.41497834176839299 0 0.39934136499244027 0.43065828053516608 0 0.40623967586166859 0.439585796779837 0 0.38298488644449358 0.43994609448713201 0 0.3881511208933226 0.43053040075335303 0 0.39934136499244027 0.43065828053516608 0 0.40993781004458762 0.41225155769007782 0 0.39934136499244027 0.43065828053516608 0 0.40623967586166859 0.439585796779837 0 0.39625774794723129 0.40034452232138351 0 0.39083426396499538 0.41497834176839299 0 0.40993781004458762 0.41225155769007782 0 0.3881511208933226 0.43053040075335303 0 0.40993781004458762 0.41225155769007782 0 0.3881511208933226 0.43053040075335303 0 0.39083426396499538 0.41497834176839299 0 0.40993781004458762 0.41225155769007782 0 0.40993781004458762 0.41225155769007782 0 0.43018761239688053 0.42260455291456539 0 0.42439349850594271 0.40279155500913127 0 0.40993781004458762 0.41225155769007782 0 0.41401432603718558 0.42747918004254271 0 0.43018761239688053 0.42260455291456539 0 0.39934136499244027 0.43065828053516608 0 0.40993781004458762 0.41225155769007782 0 0.41401432603718558 0.42747918004254271 0 0.41401432603718558 0.42747918004254271 0 0.42696761746794942 0.43926464874861848 0 0.40623967586166859 0.439585796779837 0 0.39934136499244027 0.43065828053516608 0 0.41401432603718558 0.42747918004254271 0 0.40623967586166859 0.439585796779837 0 0.43018761239688053 0.42260455291456539 0 0.44769555907423009 0.43894350071740101 0 0.42696761746794942 0.43926464874861848 0 0.41401432603718558 0.42747918004254271 0 0.43018761239688053 0.42260455291456539 0 0.42696761746794942 0.43926464874861848 0 0.43018761239688053 0.42260455291456539 0 0.42439349850594271 0.40279155500913127 0 0.44123116958132019 0.40793798471580223 0 0.42439349850594271 0.40279155500913127 0 0.40836820782976829 0.38547079459257971 0 0.43423996151588451 0.38803097935026432 0 0.42439349850594271 0.40279155500913127 0 0.43423996151588451 0.38803097935026432 0 0.44123116958132019 0.40793798471580223 0 0.40993781004458762 0.41225155769007782 0 0.42439349850594271 0.40279155500913127 0 0.40836820782976829 0.38547079459257971 0 0.42571218732743482 0.36919227451207448 0 0.40836820782976829 0.38547079459257971 0 0.42571218732743482 0.36919227451207448 0 0.40836820782976829 0.38547079459257971 0 0.43423996151588451 0.38803097935026432 0 0.4421309590443932 0.3723315141425585 0 0.42571218732743482 0.36919227451207448 0 0.43423996151588451 0.38803097935026432 0 0.4421309590443932 0.3723315141425585 0 0.43423996151588451 0.38803097935026432 0 0.45332265528795329 0.38123105130785062 0 0.43423996151588451 0.38803097935026432 0 0.44747314056325238 0.39436088964867022 0 0.45332265528795329 0.38123105130785062 0 0.44747314056325238 0.39436088964867022 0 0.46109877586785158 0.4002435432207635 0 0.44123116958132019 0.40793798471580223 0 0.43423996151588451 0.38803097935026432 0 0.44747314056325238 0.39436088964867022 0 0.44123116958132019 0.40793798471580223 0 0.44747314056325238 0.39436088964867022 0 0.46109877586785158 0.4002435432207635 0 0.45332265528795329 0.38123105130785062 0 0.46109877586785158 0.4002435432207635 0 0.45332265528795329 0.38123105130785062 0 0.46943351952803469 0.37734625771157848 0 0.46109877586785158 0.4002435432207635 0 0.46943351952803469 0.37734625771157848 0 0.48138735953594552 0.39216917103704008 0 0.48347957832028993 0.36403339598681211 0 0.46943351952803469 0.37734625771157848 0 0.48138735953594552 0.39216917103704008 0 0.46109877586785158 0.4002435432207635 0 0.48138735953594552 0.39216917103704008 0 0.47411707661013541 0.41912687827778072 0 0.48138735953594552 0.39216917103704008 0 0.47411707661013541 0.41912687827778072 0 0.48138735953594552 0.39216917103704008 0 0.5 0.3886048574377321 0 0.47411707661013541 0.41912687827778072 0 0.48347957832028993 0.36403339598681211 0 0.48138735953594552 0.39216917103704008 0 0.5 0.3886048574377321 0 0.5 0.3886048574377321 0 0.5 0.43669924714742192 0 0.47411707661013541 0.41912687827778072 0 0.47411707661013541 0.41912687827778072 0 0.46882975136412969 0.43873191532006522 0 0.5 0.43669924714742192 0 0.47411707661013541 0.41912687827778072 0 0.46882975136412969 0.43873191532006522 0 0.45379228236848801 0.42124646875541599 0 0.44769555907423009 0.43894350071740101 0 0.46882975136412969 0.43873191532006522 0 0.47411707661013541 0.41912687827778072 0 0.45379228236848801 0.42124646875541599 0 0.46882975136412969 0.43873191532006522 0 0.46109877586785158 0.4002435432207635 0 0.47411707661013541 0.41912687827778072 0 0.45379228236848801 0.42124646875541599 0 0.43018761239688053 0.42260455291456539 0 0.45379228236848801 0.42124646875541599 0 0.44123116958132019 0.40793798471580223 0 0.46109877586785158 0.4002435432207635 0 0.45379228236848801 0.42124646875541599 0 0.44123116958132019 0.40793798471580223 0 0.43018761239688053 0.42260455291456539 0 0.45379228236848801 0.42124646875541599 0 0.44769555907423009 0.43894350071740101 0 0.5 0.43669924714742192 0 0.5 0.5 0 0.45957651075851508 0.4730422927592618 0 0.44769555907423009 0.43894350071740101 0 0.45203752004736819 0.45654986303502387 0 0.43627432539750127 0.45258939319141223 0 0.45203752004736819 0.45654986303502387 0 0.43669813827517312 0.47900391277071003 0 0.43627432539750127 0.45258939319141223 0 0.46684679368432519 0.44608458551852131 0 0.45957651075851508 0.4730422927592618 0 0.45203752004736819 0.45654986303502387 0 0.46684679368432519 0.44608458551852131 0 0.45957651075851508 0.4730422927592618 0 0.44769555907423009 0.43894350071740101 0 0.46882975136412969 0.43873191532006522 0 0.44769555907423009 0.43894350071740101 0 0.46684679368432519 0.44608458551852131 0 0.46882975136412969 0.43873191532006522 0 0.44769555907423009 0.43894350071740101 0 0.45203752004736819 0.45654986303502387 0 0.46684679368432519 0.44608458551852131 0 0.46684679368432519 0.44608458551852131 0 0.46882975136412969 0.43873191532006522 0 0.5 0.43669924714742192 0 0.46684679368432519 0.44608458551852131 0 0.46882975136412969 0.43873191532006522 0 0.5 0.43669924714742192 0 0.46684679368432519 0.44608458551852131 0 0.45957651075851508 0.4730422927592618 0 0.5 0.5 0 0.45957651075851508 0.4730422927592618 0 0.45230622783270452 0.50000000000000222 0 0.45957651075851508 0.4730422927592618 0 0.45230622783270452 0.50000000000000222 0 0.45957651075851508 0.4730422927592618 0 0.45230622783270452 0.50000000000000222 0 0.43669813827517312 0.47900391277071003 0 0.45203752004736819 0.45654986303502387 0 0.45957651075851508 0.4730422927592618 0 0.43669813827517312 0.47900391277071003 0 0.45230622783270452 0.50000000000000222 0 0.43669813827517312 0.47900391277071003 0 0.45230622783270452 0.50000000000000222 0 0.42273513538893182 0.5 0 0.43669813827517312 0.47900391277071003 0 0.42273513538893182 0.5 0 0.40903296273239931 0.4770752300692791 0 0.43669813827517312 0.47900391277071003 0 0.42273513538893182 0.5 0 0.40903296273239931 0.4770752300692791 0 0.39316404294515922 0.5 0 0.43669813827517312 0.47900391277071003 0 0.42146890706842027 0.45929485477527388 0 0.40903296273239931 0.4770752300692791 0 0.43669813827517312 0.47900391277071003 0 0.42146890706842027 0.45929485477527388 0 0.43669813827517312 0.47900391277071003 0 0.43627432539750127 0.45258939319141223 0 0.42146890706842027 0.45929485477527388 0 0.44769555907423009 0.43894350071740101 0 0.42696761746794942 0.43926464874861848 0 0.43627432539750127 0.45258939319141223 0 0.42696761746794942 0.43926464874861848 0 0.42146890706842027 0.45929485477527388 0 0.44769555907423009 0.43894350071740101 0 0.43627432539750127 0.45258939319141223 0 0.42696761746794942 0.43926464874861848 0 0.42696761746794942 0.43926464874861848 0 0.42146890706842027 0.45929485477527388 0 0.40623967586166859 0.439585796779837 0 0.42146890706842027 0.45929485477527388 0 0.40464657479524579 0.45851650472658501 0 0.40623967586166859 0.439585796779837 0 0.42146890706842027 0.45929485477527388 0 0.40623967586166859 0.439585796779837 0 0.42696761746794942 0.43926464874861848 0 0.40623967586166859 0.439585796779837 0 0.40903296273239931 0.4770752300692791 0 0.42146890706842027 0.45929485477527388 0 0.40464657479524579 0.45851650472658501 0 0.40903296273239931 0.4770752300692791 0 0.40464657479524579 0.45851650472658501 0 0.39240826278525881 0.46576133887266791 0 0.40464657479524579 0.45851650472658501 0 0.39240826278525881 0.46576133887266791 0 0.39408306552848171 0.45086530313586742 0 0.40623967586166859 0.439585796779837 0 0.38298488644449358 0.43994609448713201 0 0.40623967586166859 0.439585796779837 0 0.39408306552848171 0.45086530313586742 0 0.38298488644449358 0.43994609448713201 0 0.40464657479524579 0.45851650472658501 0 0.40623967586166859 0.439585796779837 0 0.39408306552848171 0.45086530313586742 0 0.39408306552848171 0.45086530313586742 0 0.38298488644449358 0.43994609448713201 0 0.3811742015566395 0.45562926842028312 0 0.36636443174205752 0.44880924381662812 0 0.3881511208933226 0.43053040075335303 0 0.36636443174205752 0.44880924381662812 0 0.38298488644449358 0.43994609448713201 0 0.3811742015566395 0.45562926842028312 0 0.36636443174205752 0.44880924381662812 0 0.3881511208933226 0.43053040075335303 0 0.38298488644449358 0.43994609448713201 0 0.37138926614346762 0.47343953077055462 0 0.39240826278525881 0.46576133887266791 0 0.3811742015566395 0.45562926842028312 0 0.39240826278525881 0.46576133887266791 0 0.39408306552848171 0.45086530313586742 0 0.3811742015566395 0.45562926842028312 0 0.37138926614346762 0.47343953077055462 0 0.39240826278525881 0.46576133887266791 0 0.38591749702153427 0.48325521994250031 0 0.3635929505013864 0.5 0 0.38591749702153427 0.48325521994250031 0 0.39316404294515922 0.5 0 0.40903296273239931 0.4770752300692791 0 0.38591749702153427 0.48325521994250031 0 0.39316404294515922 0.5 0 0.40903296273239931 0.4770752300692791 0 0.39240826278525881 0.46576133887266791 0 0.38591749702153427 0.48325521994250031 0 0.32622638635267559 0.074159271201844262 0 0.32069132252882648 0.092173584049835069 0 0.33808902562343279 0.099417362480411886 0 0.32622638635267559 0.074159271201844262 0 0.33808902562343279 0.099417362480411886 0 0.32622638635267559 0.074159271201844262 0 0.33808902562343279 0.099417362480411886 0 0.34757157905244301 0.087870326036721014 0 0.32622638635267559 0.074159271201844262 0 0.35011016524974742 0.070980856061443151 0 0.33549874801376922 0.057091403392637852 0 0.32622638635267559 0.074159271201844262 0 0.34757157905244301 0.087870326036721014 0 0.35011016524974742 0.070980856061443151 0 0.32622638635267559 0.074159271201844262 0 0.30462101888311049 0.080940967852755841 0 0.31096180380816141 0.064821990067938262 0 0.32622638635267559 0.074159271201844262 0 0.31436374708191839 0.048901179923276632 0 0.31096180380816141 0.064821990067938262 0 0.32622638635267559 0.074159271201844262 0 0.32069132252882648 0.092173584049835069 0 0.30462101888311049 0.080940967852755841 0 0.32069132252882648 0.092173584049835069 0 0.3133145302797099 0.10951530642775301 0 0.3287091370470786 0.1151082291622111 0 0.32069132252882648 0.092173584049835069 0 0.3133145302797099 0.10951530642775301 0 0.30462101888311049 0.080940967852755841 0 0.3133145302797099 0.10951530642775301 0 0.3287091370470786 0.1151082291622111 0 0.320074687745316 0.13173498492475491 0 0.3133145302797099 0.10951530642775301 0 0.320074687745316 0.13173498492475491 0 0.31547985983484739 0.12809546292699131 0 0.3133145302797099 0.10951530642775301 0 0.320074687745316 0.13173498492475491 0 0.3133145302797099 0.10951530642775301 0 0.3287091370470786 0.1151082291622111 0 0.3287091370470786 0.1151082291622111 0 0.33808902562343279 0.099417362480411886 0 0.34995166489419333 0.124675453758978 0 0.3287091370470786 0.1151082291622111 0 0.34995166489419333 0.124675453758978 0 0.33521036296599521 0.12903974231308141 0 0.32069132252882648 0.092173584049835069 0 0.3287091370470786 0.1151082291622111 0 0.33808902562343279 0.099417362480411886 0 0.33808902562343279 0.099417362480411886 0 0.34958750304622682 0.1028349195924442 0 0.34757157905244301 0.087870326036721014 0 0.34958750304622682 0.1028349195924442 0 0.34995166489419333 0.124675453758978 0 0.36126799824001232 0.097927777570670213 0 0.33808902562343279 0.099417362480411886 0 0.34958750304622682 0.1028349195924442 0 0.34995166489419333 0.124675453758978 0 0.34958750304622682 0.1028349195924442 0 0.36126799824001232 0.097927777570670213 0 0.34757157905244301 0.087870326036721014 0 0.33808902562343279 0.099417362480411886 0 0.34995166489419333 0.124675453758978 0 0.34995166489419333 0.124675453758978 0 0.36126799824001232 0.097927777570670213 0 0.34995166489419333 0.124675453758978 0 0.36126799824001232 0.097927777570670213 0 0.35986929120433447 0.12772614233421331 0 0.37090762131216942 0.1009397134064559 0 0.35986929120433447 0.12772614233421331 0 0.3758013789533543 0.1138604956643943 0 0.35986929120433447 0.12772614233421331 0 0.37335062942813679 0.12672392842364019 0 0.3758013789533543 0.1138604956643943 0 0.37090762131216942 0.1009397134064559 0 0.35986929120433447 0.12772614233421331 0 0.36126799824001232 0.097927777570670213 0 0.37090762131216942 0.1009397134064559 0 0.35986929120433447 0.12772614233421331 0 0.36126799824001232 0.097927777570670213 0 0.37258433158582632 0.071180101382360347 0 0.36126799824001232 0.097927777570670213 0 0.35976564987161808 0.081524488448149218 0 0.37258433158582632 0.071180101382360347 0 0.36126799824001232 0.097927777570670213 0 0.37090762131216942 0.1009397134064559 0 0.37258433158582632 0.071180101382360347 0 0.36126799824001232 0.097927777570670213 0 0.35976564987161808 0.081524488448149218 0 0.34757157905244301 0.087870326036721014 0 0.35976564987161808 0.081524488448149218 0 0.34757157905244301 0.087870326036721014 0 0.35011016524974742 0.070980856061443151 0 0.35976564987161808 0.081524488448149218 0 0.35011016524974742 0.070980856061443151 0 0.36106016914387412 0.072067692211055592 0 0.35011016524974742 0.070980856061443151 0 0.36178052986830489 0.06458532295226968 0 0.35371201126997681 0.055438901234466827 0 0.35011016524974742 0.070980856061443151 0 0.36178052986830489 0.06458532295226968 0 0.36106016914387412 0.072067692211055592 0 0.36178052986830489 0.06458532295226968 0 0.36106016914387412 0.072067692211055592 0 0.37258433158582632 0.071180101382360347 0 0.35976564987161808 0.081524488448149218 0 0.36106016914387412 0.072067692211055592 0 0.37258433158582632 0.071180101382360347 0 0.36178052986830489 0.06458532295226968 0 0.37258433158582632 0.071180101382360347 0 0.37143674944992022 0.057980209652502328 0 0.37143674944992022 0.057980209652502328 0 0.36748147141390969 0.051722989081328899 0 0.38390066493164021 0.044432425194050447 0 0.36178052986830489 0.06458532295226968 0 0.36748147141390969 0.051722989081328899 0 0.35371201126997681 0.055438901234466827 0 0.36178052986830489 0.06458532295226968 0 0.37143674944992022 0.057980209652502328 0 0.36748147141390969 0.051722989081328899 0 0.36748147141390969 0.051722989081328899 0 0.35989945868798973 0.042612133932212373 0 0.35371201126997681 0.055438901234466827 0 0.36748147141390969 0.051722989081328899 0 0.37173802307509402 0.041063158052647507 0 0.38390066493164021 0.044432425194050447 0 0.37173802307509402 0.041063158052647507 0 0.36768038635939482 0.030547237249543231 0 0.37730275797050988 0.0362208683635038 0 0.37173802307509402 0.041063158052647507 0 0.35989945868798973 0.042612133932212373 0 0.36768038635939482 0.030547237249543231 0 0.36748147141390969 0.051722989081328899 0 0.37173802307509402 0.041063158052647507 0 0.35989945868798973 0.042612133932212373 0 0.35989945868798973 0.042612133932212373 0 0.34957766718139061 0.03167731536296485 0 0.34750169438614048 0.045640701986909012 0 0.35989945868798973 0.042612133932212373 0 0.34957766718139061 0.03167731536296485 0 0.36768038635939482 0.030547237249543231 0 0.34957766718139061 0.03167731536296485 0 0.34750169438614048 0.045640701986909012 0 0.33601333964024072 0.042268189483438939 0 0.34750169438614048 0.045640701986909012 0 0.35371201126997681 0.055438901234466827 0 0.33549874801376922 0.057091403392637852 0 0.35011016524974742 0.070980856061443151 0 0.35371201126997681 0.055438901234466827 0 0.33549874801376922 0.057091403392637852 0 0.35989945868798973 0.042612133932212373 0 0.34750169438614048 0.045640701986909012 0 0.35371201126997681 0.055438901234466827 0 0.3597563791897308 0.0018133103492004501 0 0.37153690395508099 0.01629170074198116 0 0.37935437576721898 0.0017834357210366871 0 0.3597563791897308 0.0018133103492004501 0 0.37153690395508099 0.01629170074198116 0 0.35493776309049069 0.016925007675361141 0 0.37153690395508099 0.01629170074198116 0 0.36768038635939482 0.030547237249543231 0 0.35493776309049069 0.016925007675361141 0 0.37153690395508099 0.01629170074198116 0 0.36768038635939482 0.030547237249543231 0 0.38289048529716813 0.028237361467120119 0 0.34957766718139061 0.03167731536296485 0 0.36768038635939482 0.030547237249543231 0 0.35493776309049069 0.016925007675361141 0 0.34957766718139061 0.03167731536296485 0 0.35493776309049069 0.016925007675361141 0 0.34074657384679408 0.01753251188229232 0 0.3597563791897308 0.0018133103492004501 0 0.35493776309049069 0.016925007675361141 0 0.34641115475807138 0.0057691814534639096 0 0.35493776309049069 0.016925007675361141 0 0.34641115475807138 0.0057691814534639096 0 0.34074657384679408 0.01753251188229232 0 0.34641115475807138 0.0057691814534639096 0 0.34074657384679408 0.01753251188229232 0 0.32637205515816831 0.0054060553350579969 0 0.34074657384679408 0.01753251188229232 0 0.31988804534445858 0.021248136720623811 0 0.32637205515816831 0.0054060553350579969 0 0.34957766718139061 0.03167731536296485 0 0.33312484153798461 0.028030346751406351 0 0.34074657384679408 0.01753251188229232 0 0.33312484153798461 0.028030346751406351 0 0.34074657384679408 0.01753251188229232 0 0.31988804534445858 0.021248136720623811 0 0.31988804534445858 0.021248136720623811 0 0.32637205515816831 0.0054060553350579969 0 0.30250110781116307 0.023643088644708161 0 0.32637205515816831 0.0054060553350579969 0 0.30250110781116307 0.023643088644708161 0 0.32637205515816831 0.0054060553350579969 0 0.30312307274936412 0.01406956014008471 0 0.31466635431493811 -0.0083120406826240611 0 0.33549874801376922 0.057091403392637852 0 0.33601333964024072 0.042268189483438939 0 0.31436374708191839 0.048901179923276632 0 0.34750169438614048 0.045640701986909012 0 0.33549874801376922 0.057091403392637852 0 0.33601333964024072 0.042268189483438939 0 0.34957766718139061 0.03167731536296485 0 0.33312484153798461 0.028030346751406351 0 0.33601333964024072 0.042268189483438939 0 0.33312484153798461 0.028030346751406351 0 0.31988804534445858 0.021248136720623811 0 0.31436374708191839 0.048901179923276632 0 0.33312484153798461 0.028030346751406351 0 0.33601333964024072 0.042268189483438939 0 0.31436374708191839 0.048901179923276632 0 0.32622638635267559 0.074159271201844262 0 0.33549874801376922 0.057091403392637852 0 0.31436374708191839 0.048901179923276632 0 0.32622638635267559 0.074159271201844262 0 0.31436374708191839 0.048901179923276632 0 0.31436374708191839 0.048901179923276632 0 0.29592750748650981 0.052366629277759091 0 0.31096180380816141 0.064821990067938262 0 0.29592750748650981 0.052366629277759091 0 0.30250110781116307 0.023643088644708161 0 0.31436374708191839 0.048901179923276632 0 0.29592750748650981 0.052366629277759091 0 0.30250110781116307 0.023643088644708161 0 0.29592750748650981 0.052366629277759091 0 0.30250110781116307 0.023643088644708161 0 0.29716810982064529 0.027717416344383201 0 0.31436374708191839 0.048901179923276632 0 0.30250110781116307 0.023643088644708161 0 0.31988804534445858 0.021248136720623811 0 0.31436374708191839 0.048901179923276632 0 0.30250110781116307 0.023643088644708161 0 0.29126880612318751 0.037054138846395468 0 0.29592750748650981 0.052366629277759091 0 0.29716810982064529 0.027717416344383201 0 0.29126880612318751 0.037054138846395468 0 0.28193701501155372 0.055147817185180512 0 0.29126880612318751 0.037054138846395468 0 0.29592750748650981 0.052366629277759091 0 0.29126880612318751 0.037054138846395468 0 0.28193701501155372 0.055147817185180512 0 0.27711234018345099 0.04303597350140493 0 0.29126880612318751 0.037054138846395468 0 0.28193701501155372 0.055147817185180512 0 0.29592750748650981 0.052366629277759091 0 0.28193701501155372 0.055147817185180512 0 0.29592750748650981 0.052366629277759091 0 0.29145729095330031 0.076158532398486259 0 0.30312307274936412 0.01406956014008471 0 0.31466635431493811 -0.0083120406826240611 0 0.32637205515816831 0.0054060553350579969 0 0.30312307274936412 0.01406956014008471 0 0.30250110781116307 0.023643088644708161 0 0.30312307274936412 0.01406956014008471 0 0.3072150660094447 -0.007709319359657428 0 0.30312307274936412 0.01406956014008471 0 0.30044425181046858 0.019263603150228431 0 0.28829131966070071 -0.0066125836354222764 0 0.30312307274936412 0.01406956014008471 0 0.30166057766244497 0.021853420533405849 0 0.30250110781116307 0.023643088644708161 0 0.30044425181046858 0.019263603150228431 0 0.30166057766244497 0.021853420533405849 0 0.29716810982064529 0.027717416344383201 0 0.30044425181046858 0.019263603150228431 0 0.30166057766244497 0.021853420533405849 0 0.30166057766244497 0.021853420533405849 0 0.30250110781116307 0.023643088644708161 0 0.30312307274936412 0.01406956014008471 0 0.30044425181046858 0.019263603150228431 0 0.30166057766244497 0.021853420533405849 0 0.30312307274936412 0.01406956014008471 0 0.30044425181046858 0.019263603150228431 0 0.30312307274936412 0.01406956014008471 0 0.30166057766244497 0.021853420533405849 0 0.30166057766244497 0.021853420533405849 0 0.30250110781116307 0.023643088644708161 0 0.29716810982064529 0.027717416344383201 0 0.30250110781116307 0.023643088644708161 0 0.29716810982064529 0.027717416344383201 0 0.29126880612318751 0.037054138846395468 0 0.28307447064341351 0.01012052068978851 0 0.27162785083080898 0.03050284778708192 0 0.29126880612318751 0.037054138846395468 0 0.30044425181046858 0.019263603150228431 0 0.29716810982064529 0.027717416344383201 0 0.29126880612318751 0.037054138846395468 0 0.30044425181046858 0.019263603150228431 0 0.29126880612318751 0.037054138846395468 0 0.28307447064341351 0.01012052068978851 0 0.29126880612318751 0.037054138846395468 0 0.30044425181046858 0.019263603150228431 0 0.28307447064341351 0.01012052068978851 0 0.30044425181046858 0.019263603150228431 0 0.28829131966070071 -0.0066125836354222764 0 0.30044425181046858 0.019263603150228431 0 0.28307447064341351 0.01012052068978851 0 0.28829131966070071 -0.0066125836354222764 0 0.28307447064341351 0.01012052068978851 0 0.26551010073206821 -0.002818362008196715 0 0.28829131966070071 -0.0066125836354222764 0 0.28307447064341351 0.01012052068978851 0 0.2649708735952962 0.0140434302992923 0 0.26551010073206821 -0.002818362008196715 0 0.28307447064341351 0.01012052068978851 0 0.27162785083080898 0.03050284778708192 0 0.2649708735952962 0.0140434302992923 0 0.24683678386874991 0.011759387503803471 0 0.25222260686987391 0.030896380053868761 0 0.2649708735952962 0.0140434302992923 0 0.27162785083080898 0.03050284778708192 0 0.25222260686987391 0.030896380053868761 0 0.2649708735952962 0.0140434302992923 0 0.24683678386874991 0.011759387503803471 0 0.2649708735952962 0.0140434302992923 0 0.26551010073206821 -0.002818362008196715 0 0.28193701501155372 0.055147817185180512 0 0.27711234018345099 0.04303597350140493 0 0.26361568876825309 0.049439090186961403 0 0.28193701501155372 0.055147817185180512 0 0.26361568876825309 0.049439090186961403 0 0.27260522389991892 0.073241495523965139 0 0.27162785083080898 0.03050284778708192 0 0.27711234018345099 0.04303597350140493 0 0.26361568876825309 0.049439090186961403 0 0.29126880612318751 0.037054138846395468 0 0.27162785083080898 0.03050284778708192 0 0.27711234018345099 0.04303597350140493 0 0.2398240155596181 0.047967347758872132 0 0.25222260686987391 0.030896380053868761 0 0.26361568876825309 0.049439090186961403 0 0.27162785083080898 0.03050284778708192 0 0.25222260686987391 0.030896380053868761 0 0.26361568876825309 0.049439090186961403 0 0.2398240155596181 0.047967347758872132 0 0.26361568876825309 0.049439090186961403 0 0.25335968314542351 0.066303674114439173 0 0.26361568876825309 0.049439090186961403 0 0.25335968314542351 0.066303674114439173 0 0.27260522389991892 0.073241495523965139 0 0.25335968314542351 0.066303674114439173 0 0.26327343278828402 0.091335173862749586 0 0.27260522389991892 0.073241495523965139 0 0.243114688678367 0.084011420815061466 0 0.26327343278828402 0.091335173862749586 0 0.243114688678367 0.084011420815061466 0 0.25335968314542351 0.066303674114439173 0 0.26327343278828402 0.091335173862749586 0 0.26327343278828402 0.091335173862749586 0 0.27858075551539863 0.085171409326103648 0 0.28698707442009308 0.099950435519213898 0 0.27858075551539863 0.085171409326103648 0 0.27260522389991892 0.073241495523965139 0 0.29145729095330031 0.076158532398486259 0 0.26327343278828402 0.091335173862749586 0 0.27858075551539863 0.085171409326103648 0 0.27260522389991892 0.073241495523965139 0 0.26327343278828402 0.091335173862749586 0 0.27260522389991892 0.073241495523965139 0 0.28193701501155372 0.055147817185180512 0 0.27260522389991892 0.073241495523965139 0 0.29592750748650981 0.052366629277759091 0 0.29145729095330031 0.076158532398486259 0 0.28193701501155372 0.055147817185180512 0 0.27260522389991892 0.073241495523965139 0 0.29145729095330031 0.076158532398486259 0 0.29145729095330031 0.076158532398486259 0 0.30462101888311049 0.080940967852755841 0 0.28698707442009308 0.099950435519213898 0 0.27858075551539863 0.085171409326103648 0 0.29145729095330031 0.076158532398486259 0 0.28698707442009308 0.099950435519213898 0 0.29145729095330031 0.076158532398486259 0 0.28698707442009308 0.099950435519213898 0 0.29592750748650981 0.052366629277759091 0 0.30462101888311049 0.080940967852755841 0 0.29592750748650981 0.052366629277759091 0 0.29145729095330031 0.076158532398486259 0 0.30462101888311049 0.080940967852755841 0 0.29592750748650981 0.052366629277759091 0 0.30462101888311049 0.080940967852755841 0 0.31096180380816141 0.064821990067938262 0 0.3133145302797099 0.10951530642775301 0 0.30510507902871242 0.1205036357610791 0 0.31547985983484739 0.12809546292699131 0 0.3133145302797099 0.10951530642775301 0 0.30510507902871242 0.1205036357610791 0 0.29475264719526789 0.1150798989181334 0 0.30510507902871242 0.1205036357610791 0 0.29475264719526789 0.1150798989181334 0 0.29613337453139471 0.12585652229469629 0 0.3133145302797099 0.10951530642775301 0 0.28698707442009308 0.099950435519213898 0 0.29475264719526789 0.1150798989181334 0 0.3133145302797099 0.10951530642775301 0 0.28698707442009308 0.099950435519213898 0 0.3133145302797099 0.10951530642775301 0 0.30462101888311049 0.080940967852755841 0 0.28698707442009308 0.099950435519213898 0 0.3133145302797099 0.10951530642775301 0 0.30462101888311049 0.080940967852755841 0 0.28698707442009308 0.099950435519213898 0 0.28139520888276343 0.12971210861488261 0 0.28698707442009308 0.099950435519213898 0 0.29475264719526789 0.1150798989181334 0 0.28139520888276343 0.12971210861488261 0 0.29475264719526789 0.1150798989181334 0 0.29613337453139471 0.12585652229469629 0 0.28139520888276343 0.12971210861488261 0 0.28698707442009308 0.099950435519213898 0 0.26819511903530791 0.11825843462965489 0 0.28139520888276343 0.12971210861488261 0 0.26327343278828402 0.091335173862749586 0 0.28698707442009308 0.099950435519213898 0 0.28698707442009308 0.099950435519213898 0 0.26819511903530791 0.11825843462965489 0 0.26853342961138832 0.1039015105794584 0 0.26327343278828402 0.091335173862749586 0 0.28698707442009308 0.099950435519213898 0 0.26853342961138832 0.1039015105794584 0 0.24334447048378879 0.099290364181984087 0 0.26327343278828402 0.091335173862749586 0 0.25567809220186771 0.1060619983062154 0 0.26327343278828402 0.091335173862749586 0 0.25567809220186771 0.1060619983062154 0 0.26327343278828402 0.091335173862749586 0 0.26853342961138832 0.1039015105794584 0 0.25567809220186771 0.1060619983062154 0 0.24808275161545071 0.1207888227496809 0 0.26819511903530791 0.11825843462965489 0 0.26704066594490089 0.13569679056715189 0 0.24808275161545071 0.1207888227496809 0 0.26819511903530791 0.11825843462965489 0 0.25567809220186771 0.1060619983062154 0 0.26819511903530791 0.11825843462965489 0 0.26853342961138832 0.1039015105794584 0 0.25567809220186771 0.1060619983062154 0 0.24808275161545071 0.1207888227496809 0 0.25567809220186771 0.1060619983062154 0 0.24808275161545071 0.1207888227496809 0 0.26704066594490089 0.13569679056715189 0 0.25240810899499322 0.14204669382305679 0 0.24808275161545071 0.1207888227496809 0 0.26704066594490089 0.13569679056715189 0 0.26704066594490089 0.13569679056715189 0 0.28139520888276343 0.12971210861488261 0 0.28599858027435221 0.15060475838462159 0 0.26819511903530791 0.11825843462965489 0 0.26704066594490089 0.13569679056715189 0 0.28139520888276343 0.12971210861488261 0 0.26704066594490089 0.13569679056715189 0 0.28599858027435221 0.15060475838462159 0 0.26704066594490089 0.13569679056715189 0 0.26579471994747678 0.15181871719932771 0 0.28599858027435221 0.15060475838462159 0 0.2451536813182742 0.15765208325205629 0 0.26579471994747678 0.15181871719932771 0 0.25240810899499322 0.14204669382305679 0 0.26704066594490089 0.13569679056715189 0 0.26579471994747678 0.15181871719932771 0 0.25240810899499322 0.14204669382305679 0 0.2451536813182742 0.15765208325205629 0 0.26579471994747678 0.15181871719932771 0 0.25371488617394888 0.17028876903168511 0 0.26579471994747678 0.15181871719932771 0 0.25371488617394888 0.17028876903168511 0 0.26794283981505068 0.16784539747929481 0 0.24526457073502539 0.18633975808042899 0 0.25371488617394888 0.17028876903168511 0 0.26722351437062442 0.18768815274823661 0 0.25371488617394888 0.17028876903168511 0 0.26794283981505068 0.16784539747929481 0 0.26722351437062442 0.18768815274823661 0 0.28443996667087279 0.17458490631660609 0 0.26722351437062442 0.18768815274823661 0 0.28637822904211507 0.19306963110735739 0 0.26794283981505068 0.16784539747929481 0 0.28443996667087279 0.17458490631660609 0 0.26722351437062442 0.18768815274823661 0 0.26794283981505068 0.16784539747929481 0 0.28443996667087279 0.17458490631660609 0 0.28599858027435221 0.15060475838462159 0 0.26579471994747678 0.15181871719932771 0 0.26794283981505068 0.16784539747929481 0 0.28599858027435221 0.15060475838462159 0 0.28443996667087279 0.17458490631660609 0 0.29939753486472648 0.16531337436109969 0 0.28599858027435221 0.15060475838462159 0 0.28443996667087279 0.17458490631660609 0 0.2978414408592554 0.1821235274104511 0 0.29939753486472648 0.16531337436109969 0 0.28443996667087279 0.17458490631660609 0 0.2978414408592554 0.1821235274104511 0 0.28637822904211507 0.19306963110735739 0 0.2978414408592554 0.1821235274104511 0 0.31086644384944218 0.1787505566058484 0 0.29939753486472648 0.16531337436109969 0 0.2978414408592554 0.1821235274104511 0 0.31086644384944218 0.1787505566058484 0 0.31504563113159101 0.19533197701899399 0 0.29939753486472648 0.16531337436109969 0 0.31232062436916391 0.15369469378707151 0 0.31676755766795611 0.1679937809026418 0 0.31086644384944218 0.1787505566058484 0 0.29939753486472648 0.16531337436109969 0 0.31676755766795611 0.1679937809026418 0 0.29939753486472648 0.16531337436109969 0 0.31232062436916391 0.15369469378707151 0 0.30005304850764652 0.14994190982593339 0 0.31232062436916391 0.15369469378707151 0 0.30005304850764652 0.14994190982593339 0 0.30726623557960481 0.1416812795847846 0 0.30005304850764652 0.14994190982593339 0 0.30726623557960481 0.1416812795847846 0 0.29528226745038522 0.13841544301208961 0 0.31232062436916391 0.15369469378707151 0 0.30726623557960481 0.1416812795847846 0 0.31626773491610222 0.1426911503583487 0 0.30726623557960481 0.1416812795847846 0 0.31304799307130771 0.1355517643556359 0 0.31626773491610222 0.1426911503583487 0 0.30726623557960481 0.1416812795847846 0 0.30567353018436028 0.1308168028155148 0 0.31304799307130771 0.1355517643556359 0 0.30510507902871242 0.1205036357610791 0 0.30567353018436028 0.1308168028155148 0 0.31547985983484739 0.12809546292699131 0 0.30567353018436028 0.1308168028155148 0 0.31547985983484739 0.12809546292699131 0 0.31304799307130771 0.1355517643556359 0 0.30510507902871242 0.1205036357610791 0 0.30567353018436028 0.1308168028155148 0 0.29613337453139471 0.12585652229469629 0 0.30567353018436028 0.1308168028155148 0 0.29528226745038522 0.13841544301208961 0 0.29613337453139471 0.12585652229469629 0 0.30726623557960481 0.1416812795847846 0 0.30567353018436028 0.1308168028155148 0 0.29528226745038522 0.13841544301208961 0 0.29528226745038522 0.13841544301208961 0 0.28139520888276343 0.12971210861488261 0 0.28599858027435221 0.15060475838462159 0 0.29528226745038522 0.13841544301208961 0 0.29613337453139471 0.12585652229469629 0 0.28139520888276343 0.12971210861488261 0 0.29939753486472648 0.16531337436109969 0 0.30005304850764652 0.14994190982593339 0 0.28599858027435221 0.15060475838462159 0 0.30005304850764652 0.14994190982593339 0 0.29528226745038522 0.13841544301208961 0 0.28599858027435221 0.15060475838462159 0 0.25674229319332992 0.25781570880075683 0 0.27503382485623667 0.24990743960488171 0 0.26600627655941211 0.23379240370828039 0 0.27503382485623667 0.24990743960488171 0 0.26600627655941211 0.23379240370828039 0 0.28500278547763119 0.23665916780289881 0 0.2435635160555997 0.23209604558075109 0 0.25674229319332992 0.25781570880075683 0 0.26600627655941211 0.23379240370828039 0 0.2435635160555997 0.23209604558075109 0 0.25674229319332992 0.25781570880075683 0 0.2435635160555997 0.23209604558075109 0 0.26600627655941211 0.23379240370828039 0 0.25472824108373948 0.2097414374489398 0 0.26600627655941211 0.23379240370828039 0 0.27893149601001521 0.21399962302733089 0 0.28500278547763119 0.23665916780289881 0 0.26600627655941211 0.23379240370828039 0 0.27893149601001521 0.21399962302733089 0 0.25472824108373948 0.2097414374489398 0 0.27893149601001521 0.21399962302733089 0 0.25472824108373948 0.2097414374489398 0 0.26722351437062442 0.18768815274823661 0 0.24526457073502539 0.18633975808042899 0 0.25472824108373948 0.2097414374489398 0 0.26722351437062442 0.18768815274823661 0 0.27893149601001521 0.21399962302733089 0 0.26722351437062442 0.18768815274823661 0 0.28637822904211507 0.19306963110735739 0 0.2978414408592554 0.1821235274104511 0 0.28637822904211507 0.19306963110735739 0 0.29973940570158197 0.205222753217011 0 0.2978414408592554 0.1821235274104511 0 0.29973940570158197 0.205222753217011 0 0.31504563113159101 0.19533197701899399 0 0.29973940570158197 0.205222753217011 0 0.31290875880029928 0.2256205742329499 0 0.32239446169774377 0.21211348967940929 0 0.29973940570158197 0.205222753217011 0 0.32239446169774377 0.21211348967940929 0 0.31504563113159101 0.19533197701899399 0 0.27893149601001521 0.21399962302733089 0 0.29973940570158197 0.205222753217011 0 0.29640707256965282 0.22558343000538911 0 0.27893149601001521 0.21399962302733089 0 0.28637822904211507 0.19306963110735739 0 0.29973940570158197 0.205222753217011 0 0.27893149601001521 0.21399962302733089 0 0.29640707256965282 0.22558343000538911 0 0.28500278547763119 0.23665916780289881 0 0.29640707256965282 0.22558343000538911 0 0.30394283732888921 0.24305680199495941 0 0.31290875880029928 0.2256205742329499 0 0.29973940570158197 0.205222753217011 0 0.29640707256965282 0.22558343000538911 0 0.31290875880029928 0.2256205742329499 0 0.29640707256965282 0.22558343000538911 0 0.30394283732888921 0.24305680199495941 0 0.28500278547763119 0.23665916780289881 0 0.28969520554158162 0.25361530847655173 0 0.27503382485623667 0.24990743960488171 0 0.28500278547763119 0.23665916780289881 0 0.28969520554158162 0.25361530847655173 0 0.30394283732888921 0.24305680199495941 0 0.28500278547763119 0.23665916780289881 0 0.33629414603184549 0.24948389160898929 0 0.33129195690231278 0.22835455328725579 0 0.34909567940226011 0.22995570899655171 0 0.33629414603184549 0.24948389160898929 0 0.32130779791332592 0.24062773906726029 0 0.33129195690231278 0.22835455328725579 0 0.30394283732888921 0.24305680199495941 0 0.32130779791332592 0.24062773906726029 0 0.31290875880029928 0.2256205742329499 0 0.31709834950094701 0.25617832786861672 0 0.30394283732888921 0.24305680199495941 0 0.32130779791332592 0.24062773906726029 0 0.31709834950094701 0.25617832786861672 0 0.33629414603184549 0.24948389160898929 0 0.32130779791332592 0.24062773906726029 0 0.31290875880029928 0.2256205742329499 0 0.33129195690231278 0.22835455328725579 0 0.32239446169774377 0.21211348967940929 0 0.32130779791332592 0.24062773906726029 0 0.31290875880029928 0.2256205742329499 0 0.33129195690231278 0.22835455328725579 0 0.33129195690231278 0.22835455328725579 0 0.34006524791650727 0.21529068858697911 0 0.34909567940226011 0.22995570899655171 0 0.33328050838927009 0.20328492595581771 0 0.34006524791650727 0.21529068858697911 0 0.34903494543350089 0.20002692325504251 0 0.33129195690231278 0.22835455328725579 0 0.34006524791650727 0.21529068858697911 0 0.32239446169774377 0.21211348967940929 0 0.33328050838927009 0.20328492595581771 0 0.34006524791650727 0.21529068858697911 0 0.32239446169774377 0.21211348967940929 0 0.33328050838927009 0.20328492595581771 0 0.32239446169774377 0.21211348967940929 0 0.31504563113159101 0.19533197701899399 0 0.33328050838927009 0.20328492595581771 0 0.31504563113159101 0.19533197701899399 0 0.32528005472368221 0.18299012333605541 0 0.33328050838927009 0.20328492595581771 0 0.33937263332435591 0.1898905966969078 0 0.32528005472368221 0.18299012333605541 0 0.33328050838927009 0.20328492595581771 0 0.33937263332435591 0.1898905966969078 0 0.34903494543350089 0.20002692325504251 0 0.33937263332435591 0.1898905966969078 0 0.34903494543350089 0.20002692325504251 0 0.34881266970217722 0.18466241505196851 0 0.34903494543350089 0.20002692325504251 0 0.3603948063245111 0.19815815947839921 0 0.36016479522088002 0.2079936282661943 0 0.34903494543350089 0.20002692325504251 0 0.3603948063245111 0.19815815947839921 0 0.36159909009626162 0.1863812991959794 0 0.34903494543350089 0.20002692325504251 0 0.34881266970217722 0.18466241505196851 0 0.36159909009626162 0.1863812991959794 0 0.37446602789923339 0.19763778043006411 0 0.3603948063245111 0.19815815947839921 0 0.36159909009626162 0.1863812991959794 0 0.37446602789923339 0.19763778043006411 0 0.36159909009626162 0.1863812991959794 0 0.37672406052392782 0.18806868598641299 0 0.37446602789923339 0.19763778043006411 0 0.36758723645368879 0.2029460661551406 0 0.3603948063245111 0.19815815947839921 0 0.36758723645368879 0.2029460661551406 0 0.3603948063245111 0.19815815947839921 0 0.36016479522088002 0.2079936282661943 0 0.36758723645368879 0.2029460661551406 0 0.36016479522088002 0.2079936282661943 0 0.37112162558992529 0.2119735159506482 0 0.37446602789923339 0.19763778043006411 0 0.36758723645368879 0.2029460661551406 0 0.37112162558992529 0.2119735159506482 0 0.36016479522088002 0.2079936282661943 0 0.37112162558992529 0.2119735159506482 0 0.36174044772896519 0.2208806399942583 0 0.36016479522088002 0.2079936282661943 0 0.35187533926266468 0.2142717139127778 0 0.36174044772896519 0.2208806399942583 0 0.34903494543350089 0.20002692325504251 0 0.36016479522088002 0.2079936282661943 0 0.35187533926266468 0.2142717139127778 0 0.34006524791650727 0.21529068858697911 0 0.34903494543350089 0.20002692325504251 0 0.35187533926266468 0.2142717139127778 0 0.35187533926266468 0.2142717139127778 0 0.34909567940226011 0.22995570899655171 0 0.36174044772896519 0.2208806399942583 0 0.34006524791650727 0.21529068858697911 0 0.35187533926266468 0.2142717139127778 0 0.34909567940226011 0.22995570899655171 0 0.34909567940226011 0.22995570899655171 0 0.36174044772896519 0.2208806399942583 0 0.3641636952073839 0.23646907163545799 0 0.37112162558992529 0.2119735159506482 0 0.36174044772896519 0.2208806399942583 0 0.37576975201945312 0.22484982145902371 0 0.36174044772896519 0.2208806399942583 0 0.3641636952073839 0.23646907163545799 0 0.37576975201945312 0.22484982145902371 0 0.3641636952073839 0.23646907163545799 0 0.38095823532059681 0.24258217554317121 0 0.37576975201945312 0.22484982145902371 0 0.3667343882300374 0.25345367499627008 0 0.3641636952073839 0.23646907163545799 0 0.35334076569371908 0.247514274483976 0 0.3667343882300374 0.25345367499627008 0 0.3641636952073839 0.23646907163545799 0 0.38095823532059681 0.24258217554317121 0 0.34909567940226011 0.22995570899655171 0 0.3641636952073839 0.23646907163545799 0 0.35334076569371908 0.247514274483976 0 0.33629414603184549 0.24948389160898929 0 0.34909567940226011 0.22995570899655171 0 0.35334076569371908 0.247514274483976 0 0.34021545166880252 0.14768830347761819 0 0.32065429850058152 0.1336400832454567 0 0.32402903235446939 0.14190870508797329 0 0.34021545166880252 0.14768830347761819 0 0.32439995354353429 0.14906739481153461 0 0.33274775319624228 0.1653392134068368 0 0.34021545166880252 0.14768830347761819 0 0.32402903235446939 0.14190870508797329 0 0.32439995354353429 0.14906739481153461 0 0.34021545166880252 0.14768830347761819 0 0.33274775319624228 0.1653392134068368 0 0.34883096109650008 0.15451257126197079 0 0.34021545166880252 0.14768830347761819 0 0.33521036296599521 0.12903974231308141 0 0.320074687745316 0.13173498492475491 0 0.34995166489419333 0.124675453758978 0 0.34021545166880252 0.14768830347761819 0 0.33521036296599521 0.12903974231308141 0 0.34021545166880252 0.14768830347761819 0 0.320074687745316 0.13173498492475491 0 0.3287091370470786 0.1151082291622111 0 0.33521036296599521 0.12903974231308141 0 0.320074687745316 0.13173498492475491 0 0.34021545166880252 0.14768830347761819 0 0.32065429850058152 0.1336400832454567 0 0.320074687745316 0.13173498492475491 0 0.32065429850058152 0.1336400832454567 0 0.31860772314332653 0.13645659354690839 0 0.32402903235446939 0.14190870508797329 0 0.32065429850058152 0.1336400832454567 0 0.320074687745316 0.13173498492475491 0 0.320074687745316 0.13173498492475491 0 0.31547985983484739 0.12809546292699131 0 0.320074687745316 0.13173498492475491 0 0.31547985983484739 0.12809546292699131 0 0.31304799307130771 0.1355517643556359 0 0.31860772314332653 0.13645659354690839 0 0.31626773491610222 0.1426911503583487 0 0.32402903235446939 0.14190870508797329 0 0.320074687745316 0.13173498492475491 0 0.31860772314332653 0.13645659354690839 0 0.31304799307130771 0.1355517643556359 0 0.32065429850058152 0.1336400832454567 0 0.320074687745316 0.13173498492475491 0 0.31860772314332653 0.13645659354690839 0 0.31860772314332653 0.13645659354690839 0 0.31304799307130771 0.1355517643556359 0 0.31626773491610222 0.1426911503583487 0 0.31626773491610222 0.1426911503583487 0 0.32402903235446939 0.14190870508797329 0 0.32439995354353429 0.14906739481153461 0 0.31232062436916391 0.15369469378707151 0 0.32439995354353429 0.14906739481153461 0 0.32155897219422408 0.1590237707270212 0 0.31232062436916391 0.15369469378707151 0 0.31626773491610222 0.1426911503583487 0 0.32439995354353429 0.14906739481153461 0 0.32439995354353429 0.14906739481153461 0 0.32155897219422408 0.1590237707270212 0 0.33274775319624228 0.1653392134068368 0 0.31232062436916391 0.15369469378707151 0 0.31676755766795611 0.1679937809026418 0 0.32155897219422408 0.1590237707270212 0 0.31676755766795611 0.1679937809026418 0 0.32155897219422408 0.1590237707270212 0 0.33274775319624228 0.1653392134068368 0 0.31676755766795611 0.1679937809026418 0 0.32528005472368221 0.18299012333605541 0 0.33274775319624228 0.1653392134068368 0 0.31086644384944218 0.1787505566058484 0 0.31504563113159101 0.19533197701899399 0 0.32528005472368221 0.18299012333605541 0 0.31086644384944218 0.1787505566058484 0 0.31676755766795611 0.1679937809026418 0 0.32528005472368221 0.18299012333605541 0 0.32528005472368221 0.18299012333605541 0 0.34047822460742538 0.1747819399192885 0 0.33274775319624228 0.1653392134068368 0 0.32528005472368221 0.18299012333605541 0 0.33274775319624228 0.1653392134068368 0 0.33937263332435591 0.1898905966969078 0 0.32528005472368221 0.18299012333605541 0 0.34047822460742538 0.1747819399192885 0 0.33937263332435591 0.1898905966969078 0 0.34047822460742538 0.1747819399192885 0 0.34881266970217722 0.18466241505196851 0 0.34047822460742538 0.1747819399192885 0 0.33274775319624228 0.1653392134068368 0 0.34883096109650008 0.15451257126197079 0 0.34021545166880252 0.14768830347761819 0 0.33274775319624228 0.1653392134068368 0 0.34047822460742538 0.1747819399192885 0 0.35357845504934238 0.17223131619262461 0 0.34883096109650008 0.15451257126197079 0 0.34047822460742538 0.1747819399192885 0 0.34883096109650008 0.15451257126197079 0 0.36815465231886019 0.16981869385287929 0 0.34883096109650008 0.15451257126197079 0 0.35357845504934238 0.17223131619262461 0 0.36815465231886019 0.16981869385287929 0 0.34883096109650008 0.15451257126197079 0 0.34047822460742538 0.1747819399192885 0 0.34881266970217722 0.18466241505196851 0 0.35357845504934238 0.17223131619262461 0 0.34881266970217722 0.18466241505196851 0 0.35357845504934238 0.17223131619262461 0 0.36159909009626162 0.1863812991959794 0 0.35357845504934238 0.17223131619262461 0 0.36159909009626162 0.1863812991959794 0 0.36815465231886019 0.16981869385287929 0 0.36159909009626162 0.1863812991959794 0 0.36815465231886019 0.16981869385287929 0 0.37672406052392782 0.18806868598641299 0 0.36815465231886019 0.16981869385287929 0 0.36847151619733631 0.1553283987829176 0 0.34883096109650008 0.15451257126197079 0 0.36815465231886019 0.16981869385287929 0 0.36847151619733631 0.1553283987829176 0 0.38500226402645688 0.162671184577422 0 0.36847151619733631 0.1553283987829176 0 0.36400825472357989 0.1438729436417118 0 0.34883096109650008 0.15451257126197079 0 0.36400825472357989 0.1438729436417118 0 0.37059106781015361 0.1357577314326924 0 0.37636144882128331 0.1457666005806055 0 0.36847151619733631 0.1553283987829176 0 0.36400825472357989 0.1438729436417118 0 0.37636144882128331 0.1457666005806055 0 0.34883096109650008 0.15451257126197079 0 0.35614307192023043 0.1367684618741998 0 0.34021545166880252 0.14768830347761819 0 0.34883096109650008 0.15451257126197079 0 0.35614307192023043 0.1367684618741998 0 0.36400825472357989 0.1438729436417118 0 0.34883096109650008 0.15451257126197079 0 0.35614307192023043 0.1367684618741998 0 0.34021545166880252 0.14768830347761819 0 0.34883096109650008 0.15451257126197079 0 0.34995166489419333 0.124675453758978 0 0.34021545166880252 0.14768830347761819 0 0.34995166489419333 0.124675453758978 0 0.34021545166880252 0.14768830347761819 0 0.35614307192023043 0.1367684618741998 0 0.35614307192023043 0.1367684618741998 0 0.35986929120433447 0.12772614233421331 0 0.34995166489419333 0.124675453758978 0 0.35614307192023043 0.1367684618741998 0 0.35986929120433447 0.12772614233421331 0 0.34995166489419333 0.124675453758978 0 0.35614307192023043 0.1367684618741998 0 0.36400825472357989 0.1438729436417118 0 0.35986929120433447 0.12772614233421331 0 0.37059106781015361 0.1357577314326924 0 0.36400825472357989 0.1438729436417118 0 0.35614307192023043 0.1367684618741998 0 0.35986929120433447 0.12772614233421331 0 0.35986929120433447 0.12772614233421331 0 0.37059106781015361 0.1357577314326924 0 0.37335062942813679 0.12672392842364019 0 0.37059106781015361 0.1357577314326924 0 0.37335062942813679 0.12672392842364019 0 0.37931578202781913 0.13407755070441069 0 0.37335062942813679 0.12672392842364019 0 0.37931578202781913 0.13407755070441069 0 0.38409826692070931 0.1220429913097083 0 0.37931578202781913 0.13407755070441069 0 0.39207763146758318 0.13885351881764579 0 0.37636144882128331 0.1457666005806055 0 0.37931578202781913 0.13407755070441069 0 0.39207763146758318 0.13885351881764579 0 0.38409826692070931 0.1220429913097083 0 0.37059106781015361 0.1357577314326924 0 0.37931578202781913 0.13407755070441069 0 0.37636144882128331 0.1457666005806055 0 0.3963688887951593 0.126335582669382 0 0.39207763146758318 0.13885351881764579 0 0.38409826692070931 0.1220429913097083 0 0.39207763146758318 0.13885351881764579 0 0.40702081205114682 0.13054234589104649 0 0.4116660256008684 0.14513905367210411 0 0.3963688887951593 0.126335582669382 0 0.39207763146758318 0.13885351881764579 0 0.40702081205114682 0.13054234589104649 0 0.39207763146758318 0.13885351881764579 0 0.38500226402645688 0.162671184577422 0 0.40293591991916983 0.1569930060353345 0 0.39207763146758318 0.13885351881764579 0 0.40293591991916983 0.1569930060353345 0 0.4116660256008684 0.14513905367210411 0 0.36847151619733631 0.1553283987829176 0 0.37636144882128331 0.1457666005806055 0 0.38500226402645688 0.162671184577422 0 0.39207763146758318 0.13885351881764579 0 0.37636144882128331 0.1457666005806055 0 0.38500226402645688 0.162671184577422 0 0.36815465231886019 0.16981869385287929 0 0.38747834354121968 0.1851248164437882 0 0.37672406052392782 0.18806868598641299 0 0.36815465231886019 0.16981869385287929 0 0.38500226402645688 0.162671184577422 0 0.38747834354121968 0.1851248164437882 0 0.36815465231886019 0.16981869385287929 0 0.38747834354121968 0.1851248164437882 0 0.38747834354121968 0.1851248164437882 0 0.37672406052392782 0.18806868598641299 0 0.38747834354121968 0.1851248164437882 0 0.41064287528589227 0.17878377452005201 0 0.38500226402645688 0.162671184577422 0 0.38747834354121968 0.1851248164437882 0 0.41064287528589227 0.17878377452005201 0 0.38747834354121968 0.1851248164437882 0 0.41064287528589227 0.17878377452005201 0 0.39451500759420632 0.19069849496031649 0 0.38500226402645688 0.162671184577422 0 0.40293591991916983 0.1569930060353345 0 0.41064287528589227 0.17878377452005201 0 0.40293591991916983 0.1569930060353345 0 0.41854425687870911 0.16276365453435909 0 0.41064287528589227 0.17878377452005201 0 0.41854425687870911 0.16276365453435909 0 0.41064287528589227 0.17878377452005201 0 0.43380740703056542 0.1724427325963177 0 0.41064287528589227 0.17878377452005201 0 0.43380740703056542 0.1724427325963177 0 0.43380740703056542 0.1724427325963177 0 0.42780023998921118 0.19597970995498051 0 0.44785308938554141 0.18307901965628931 0 0.41064287528589227 0.17878377452005201 0 0.43380740703056542 0.1724427325963177 0 0.42780023998921118 0.19597970995498051 0 0.41854425687870911 0.16276365453435909 0 0.43353445656443512 0.15828847371930249 0 0.42559113668118598 0.14863405470212129 0 0.41854425687870911 0.16276365453435909 0 0.43380740703056542 0.1724427325963177 0 0.43353445656443512 0.15828847371930249 0 0.43353445656443512 0.15828847371930249 0 0.42559113668118598 0.14863405470212129 0 0.43892700524100869 0.14262638405875189 0 0.42559113668118598 0.14863405470212129 0 0.42255868138207803 0.13436026776727489 0 0.43892700524100869 0.14262638405875189 0 0.42255868138207803 0.13436026776727489 0 0.43892700524100869 0.14262638405875189 0 0.43634453743769058 0.1195499220794666 0 0.42255868138207803 0.13436026776727489 0 0.40702081205114682 0.13054234589104649 0 0.41727705546174931 0.1203629447111757 0 0.42255868138207803 0.13436026776727489 0 0.40702081205114682 0.13054234589104649 0 0.4116660256008684 0.14513905367210411 0 0.41854425687870911 0.16276365453435909 0 0.42559113668118598 0.14863405470212129 0 0.4116660256008684 0.14513905367210411 0 0.40293591991916983 0.1569930060353345 0 0.41854425687870911 0.16276365453435909 0 0.4116660256008684 0.14513905367210411 0 0.42559113668118598 0.14863405470212129 0 0.42255868138207803 0.13436026776727489 0 0.4116660256008684 0.14513905367210411 0 0.40529807640253412 0.26112098510350612 0 0.39547701868722551 0.24088884175490591 0 0.41247125522340877 0.2360944941366078 0 0.39547701868722551 0.24088884175490591 0 0.38095823532059681 0.24258217554317121 0 0.39335856877866032 0.22567837160172849 0 0.3915052518867283 0.25530621538822312 0 0.39547701868722551 0.24088884175490591 0 0.38095823532059681 0.24258217554317121 0 0.37576975201945312 0.22484982145902371 0 0.39335856877866032 0.22567837160172849 0 0.38288097496152412 0.2107698001192603 0 0.38095823532059681 0.24258217554317121 0 0.37576975201945312 0.22484982145902371 0 0.39335856877866032 0.22567837160172849 0 0.39547701868722551 0.24088884175490591 0 0.39335856877866032 0.22567837160172849 0 0.41247125522340877 0.2360944941366078 0 0.39335856877866032 0.22567837160172849 0 0.40737529240719911 0.2153836643359599 0 0.41247125522340877 0.2360944941366078 0 0.39335856877866032 0.22567837160172849 0 0.39673660556765072 0.2052359662441775 0 0.38288097496152412 0.2107698001192603 0 0.39335856877866032 0.22567837160172849 0 0.39673660556765072 0.2052359662441775 0 0.40737529240719911 0.2153836643359599 0 0.39673660556765072 0.2052359662441775 0 0.40847992944703748 0.1967604676041689 0 0.40737529240719911 0.2153836643359599 0 0.37112162558992529 0.2119735159506482 0 0.37576975201945312 0.22484982145902371 0 0.38288097496152412 0.2107698001192603 0 0.37446602789923339 0.19763778043006411 0 0.37112162558992529 0.2119735159506482 0 0.38288097496152412 0.2107698001192603 0 0.39673660556765072 0.2052359662441775 0 0.38288097496152412 0.2107698001192603 0 0.385727772858034 0.1961002650428979 0 0.37446602789923339 0.19763778043006411 0 0.38288097496152412 0.2107698001192603 0 0.385727772858034 0.1961002650428979 0 0.37446602789923339 0.19763778043006411 0 0.385727772858034 0.1961002650428979 0 0.37672406052392782 0.18806868598641299 0 0.38747834354121968 0.1851248164437882 0 0.385727772858034 0.1961002650428979 0 0.39451500759420632 0.19069849496031649 0 0.38747834354121968 0.1851248164437882 0 0.385727772858034 0.1961002650428979 0 0.37672406052392782 0.18806868598641299 0 0.38747834354121968 0.1851248164437882 0 0.39451500759420632 0.19069849496031649 0 0.41064287528589227 0.17878377452005201 0 0.39451500759420632 0.19069849496031649 0 0.40847992944703748 0.1967604676041689 0 0.39673660556765072 0.2052359662441775 0 0.385727772858034 0.1961002650428979 0 0.39451500759420632 0.19069849496031649 0 0.39673660556765072 0.2052359662441775 0 0.39451500759420632 0.19069849496031649 0 0.40847992944703748 0.1967604676041689 0 0.41064287528589227 0.17878377452005201 0 0.40847992944703748 0.1967604676041689 0 0.42780023998921118 0.19597970995498051 0 0.40847992944703748 0.1967604676041689 0 0.42780023998921118 0.19597970995498051 0 0.40737529240719911 0.2153836643359599 0 0.42780023998921118 0.19597970995498051 0 0.40737529240719911 0.2153836643359599 0 0.43159708205226349 0.2199726120177401 0 0.40737529240719911 0.2153836643359599 0 0.43159708205226349 0.2199726120177401 0 0.40737529240719911 0.2153836643359599 0 0.43159708205226349 0.2199726120177401 0 0.41247125522340877 0.2360944941366078 0 0.43159708205226349 0.2199726120177401 0 0.42954249996024668 0.23628276470928711 0 0.41247125522340877 0.2360944941366078 0 0.42493863084263162 0.25206398068088692 0 0.42954249996024668 0.23628276470928711 0 0.41247125522340877 0.2360944941366078 0 0.42493863084263162 0.25206398068088692 0 0.42954249996024668 0.23628276470928711 0 0.44263850808419281 0.2464533929682087 0 0.40529807640253412 0.26112098510350612 0 0.42493863084263162 0.25206398068088692 0 0.41247125522340877 0.2360944941366078 0 0.46803140868643112 0.25478506118214472 0 0.4558188716973281 0.2245615596995203 0 0.48004066134239248 0.22915050738130119 0 0.46803140868643112 0.25478506118214472 0 0.44263850808419281 0.2464533929682087 0 0.4558188716973281 0.2245615596995203 0 0.42954249996024668 0.23628276470928711 0 0.44263850808419281 0.2464533929682087 0 0.4558188716973281 0.2245615596995203 0 0.43159708205226349 0.2199726120177401 0 0.42954249996024668 0.23628276470928711 0 0.4558188716973281 0.2245615596995203 0 0.43159708205226349 0.2199726120177401 0 0.4558188716973281 0.2245615596995203 0 0.4558188716973281 0.2245615596995203 0 0.48004066134239248 0.22915050738130119 0 0.4558188716973281 0.2245615596995203 0 0.45374508391515678 0.20066042712209251 0 0.47059664722838229 0.21277946784176011 0 0.43159708205226349 0.2199726120177401 0 0.4558188716973281 0.2245615596995203 0 0.45374508391515678 0.20066042712209251 0 0.42780023998921118 0.19597970995498051 0 0.43159708205226349 0.2199726120177401 0 0.45374508391515678 0.20066042712209251 0 0.42780023998921118 0.19597970995498051 0 0.45374508391515678 0.20066042712209251 0 0.44785308938554141 0.18307901965628931 0 0.45374508391515678 0.20066042712209251 0 0.44785308938554141 0.18307901965628931 0 0.46694077721753552 0.1802105379354722 0 0.45374508391515678 0.20066042712209251 0 0.47722310018256447 0.19507945486332021 0 0.46694077721753552 0.1802105379354722 0 0.45374508391515678 0.20066042712209251 0 0.47722310018256447 0.19507945486332021 0 0.47059664722838229 0.21277946784176011 0 0.45374508391515678 0.20066042712209251 0 0.46694077721753552 0.1802105379354722 0 0.49055597904131831 0.20732447031151849 0 0.49999999999999761 0.18654596276016891 0 0.47722310018256447 0.19507945486332021 0 0.49055597904131831 0.20732447031151849 0 0.49999999999999761 0.18654596276016891 0 0.5 0.20973893683565051 0 0.49055597904131831 0.20732447031151849 0 0.49999999999999761 0.18654596276016891 0 0.5 0.20973893683565051 0 0.49055597904131831 0.20732447031151849 0 0.49417269085711341 0.23182789600661399 0 0.49055597904131831 0.20732447031151849 0 0.48004066134239248 0.22915050738130119 0 0.47722310018256447 0.19507945486332021 0 0.49055597904131831 0.20732447031151849 0 0.47059664722838229 0.21277946784176011 0 0.49055597904131831 0.20732447031151849 0 0.47059664722838229 0.21277946784176011 0 0.48004066134239248 0.22915050738130119 0 0.4558188716973281 0.2245615596995203 0 0.47059664722838229 0.21277946784176011 0 0.48004066134239248 0.22915050738130119 0 0.49055597904131831 0.20732447031151849 0 0.48004066134239248 0.22915050738130119 0 0.49417269085711341 0.23182789600661399 0 0.49055597904131831 0.20732447031151849 0 0.49417269085711341 0.23182789600661399 0 0.5 0.20973893683565051 0 0.49999999999999928 0.23293191091113211 0 0.49417269085711341 0.23182789600661399 0 0.49999999999999928 0.23293191091113211 0 0.49417269085711341 0.23182789600661399 0 0.48004066134239248 0.22915050738130119 0 0.49417269085711341 0.23182789600661399 0 0.49708634542855618 0.25156806938198978 0 0.49417269085711341 0.23182789600661399 0 0.49708634542855618 0.25156806938198978 0 0.49999999999999928 0.23293191091113211 0 0.49417269085711341 0.23182789600661399 0 0.5 0.25212007683424881 0 0.49708634542855618 0.25156806938198978 0 0.49999999999999928 0.23293191091113211 0 0.49708634542855618 0.25156806938198978 0 0.49417269085711341 0.23182789600661399 0 0.48508737362871951 0.24612109100136781 0 0.48004066134239248 0.22915050738130119 0 0.49417269085711341 0.23182789600661399 0 0.48508737362871951 0.24612109100136781 0 0.46803140868643112 0.25478506118214472 0 0.48004066134239248 0.22915050738130119 0 0.46803140868643112 0.25478506118214472 0 0.48004066134239248 0.22915050738130119 0 0.48508737362871951 0.24612109100136781 0 0.46329668849639227 0.1530477317172764 0 0.45688020840354648 0.13312280327535311 0 0.44764285277679677 0.16080295188971669 0 0.46329668849639227 0.1530477317172764 0 0.45688020840354648 0.13312280327535311 0 0.4741674208774489 0.14269988440029721 0 0.45688020840354648 0.13312280327535311 0 0.43892700524100869 0.14262638405875189 0 0.43634453743769058 0.1195499220794666 0 0.45688020840354648 0.13312280327535311 0 0.44764285277679677 0.16080295188971669 0 0.43353445656443512 0.15828847371930249 0 0.43892700524100869 0.14262638405875189 0 0.44764285277679677 0.16080295188971669 0 0.45688020840354648 0.13312280327535311 0 0.43892700524100869 0.14262638405875189 0 0.44764285277679677 0.16080295188971669 0 0.43380740703056542 0.1724427325963177 0 0.44764285277679677 0.16080295188971669 0 0.45697193877523851 0.16610169067258329 0 0.43380740703056542 0.1724427325963177 0 0.43353445656443512 0.15828847371930249 0 0.44764285277679677 0.16080295188971669 0 0.43380740703056542 0.1724427325963177 0 0.45697193877523851 0.16610169067258329 0 0.43380740703056542 0.1724427325963177 0 0.44785308938554141 0.18307901965628931 0 0.45697193877523851 0.16610169067258329 0 0.44785308938554141 0.18307901965628931 0 0.46694077721753552 0.1802105379354722 0 0.45697193877523851 0.16610169067258329 0 0.46329668849639227 0.1530477317172764 0 0.45697193877523851 0.16610169067258329 0 0.48013647051991221 0.15976064874885071 0 0.46694077721753552 0.1802105379354722 0 0.45697193877523851 0.16610169067258329 0 0.48013647051991221 0.15976064874885071 0 0.46329668849639227 0.1530477317172764 0 0.44764285277679677 0.16080295188971669 0 0.45697193877523851 0.16610169067258329 0 0.45697193877523851 0.16610169067258329 0 0.48013647051991221 0.15976064874885071 0 0.46694077721753552 0.1802105379354722 0 0.48013647051991221 0.15976064874885071 0 0.47722310018256447 0.19507945486332021 0 0.46694077721753552 0.1802105379354722 0 0.48452502144286302 0.1784684014677233 0 0.46694077721753552 0.1802105379354722 0 0.48013647051991221 0.15976064874885071 0 0.48452502144286302 0.1784684014677233 0 0.47722310018256447 0.19507945486332021 0 0.48452502144286302 0.1784684014677233 0 0.49999999999999761 0.18654596276016891 0 0.48452502144286302 0.1784684014677233 0 0.49999999999999761 0.18654596276016891 0 0.5 0.17043459176160539 0 0.48013647051991221 0.15976064874885071 0 0.48452502144286302 0.1784684014677233 0 0.5 0.17043459176160539 0 0.48013647051991221 0.15976064874885071 0 0.5 0.17043459176160539 0 0.50000000000000211 0.15432322076304189 0 0.48013647051991221 0.15976064874885071 0 0.50000000000000211 0.15432322076304189 0 0.48013647051991221 0.15976064874885071 0 0.50000000000000211 0.15432322076304189 0 0.49006823525995752 0.1443689990865448 0 0.50000000000000211 0.15432322076304189 0 0.49006823525995752 0.1443689990865448 0 0.50000000000000044 0.12897734942423739 0 0.48013647051991221 0.15976064874885071 0 0.49006823525995752 0.1443689990865448 0 0.46329668849639227 0.1530477317172764 0 0.48013647051991221 0.15976064874885071 0 0.4741674208774489 0.14269988440029721 0 0.48013647051991221 0.15976064874885071 0 0.49006823525995752 0.1443689990865448 0 0.4741674208774489 0.14269988440029721 0 0.49006823525995752 0.1443689990865448 0 0.4741674208774489 0.14269988440029721 0 0.48045550170743639 0.1231992391734629 0 0.45688020840354648 0.13312280327535311 0 0.4741674208774489 0.14269988440029721 0 0.48045550170743639 0.1231992391734629 0 0.49006823525995752 0.1443689990865448 0 0.50000000000000044 0.12897734942423739 0 0.48045550170743639 0.1231992391734629 0 0.49006823525995752 0.1443689990865448 0 0.50000000000000044 0.12897734942423739 0 0.50000000000000044 0.12897734942423739 0 0.5 0.10274226190856239 0 0.48045550170743639 0.1231992391734629 0 0.5 0.10274226190856239 0 0.48237285062872282 0.095485922713505478 0 0.48045550170743639 0.1231992391734629 0 0.48237285062872282 0.095485922713505478 0 0.48045550170743639 0.1231992391734629 0 0.46611756403029619 0.1054426546609895 0 0.5 0.076507174392887234 0 0.47535491965704602 0.077762506046625851 0 0.48422639700076581 0.062818988881172474 0 0.5 0.076507174392887234 0 0.48422639700076581 0.062818988881172474 0 0.5 0.050272086877212192 0 0.5 0.10274226190856239 0 0.48237285062872282 0.095485922713505478 0 0.5 0.076507174392887234 0 0.48237285062872282 0.095485922713505478 0 0.5 0.076507174392887234 0 0.47535491965704602 0.077762506046625851 0 0.47535491965704602 0.077762506046625851 0 0.46611756403029619 0.1054426546609895 0 0.48237285062872282 0.095485922713505478 0 0.47535491965704602 0.077762506046625851 0 0.46611756403029619 0.1054426546609895 0 0.47535491965704602 0.077762506046625851 0 0.48422639700076581 0.062818988881172474 0 0.45943250043896872 0.064290925709272334 0 0.47535491965704602 0.077762506046625851 0 0.45943250043896872 0.064290925709272334 0 0.44987601474635691 0.085133956814422596 0 0.47535491965704602 0.077762506046625851 0 0.44987601474635691 0.085133956814422596 0 0.46611756403029619 0.1054426546609895 0 0.44987601474635691 0.085133956814422596 0 0.42753116830459109 0.086527658597363083 0 0.43596408174073648 0.071699349842537147 0 0.44987601474635691 0.085133956814422596 0 0.43961033724311349 0.100022581062241 0 0.42753116830459109 0.086527658597363083 0 0.45943250043896872 0.064290925709272334 0 0.44987601474635691 0.085133956814422596 0 0.43596408174073648 0.071699349842537147 0 0.45688020840354648 0.13312280327535311 0 0.46611756403029619 0.1054426546609895 0 0.45688020840354648 0.13312280327535311 0 0.48045550170743639 0.1231992391734629 0 0.46611756403029619 0.1054426546609895 0 0.46611756403029619 0.1054426546609895 0 0.43961033724311349 0.100022581062241 0 0.43634453743769058 0.1195499220794666 0 0.44987601474635691 0.085133956814422596 0 0.46611756403029619 0.1054426546609895 0 0.43961033724311349 0.100022581062241 0 0.45688020840354648 0.13312280327535311 0 0.46611756403029619 0.1054426546609895 0 0.43634453743769058 0.1195499220794666 0 0.42255868138207803 0.13436026776727489 0 0.43634453743769058 0.1195499220794666 0 0.41727705546174931 0.1203629447111757 0 0.43634453743769058 0.1195499220794666 0 0.41727705546174931 0.1203629447111757 0 0.4181824016966329 0.103458713158963 0 0.41727705546174931 0.1203629447111757 0 0.4181824016966329 0.103458713158963 0 0.40227884474119779 0.1139034746591272 0 0.40702081205114682 0.13054234589104649 0 0.41727705546174931 0.1203629447111757 0 0.40227884474119779 0.1139034746591272 0 0.4181824016966329 0.103458713158963 0 0.40227884474119779 0.1139034746591272 0 0.3988307745514742 0.097738487594870083 0 0.4181824016966329 0.103458713158963 0 0.41015039142426313 0.085580550641072783 0 0.3988307745514742 0.097738487594870083 0 0.43961033724311349 0.100022581062241 0 0.43634453743769058 0.1195499220794666 0 0.4181824016966329 0.103458713158963 0 0.43961033724311349 0.100022581062241 0 0.4181824016966329 0.103458713158963 0 0.42753116830459109 0.086527658597363083 0 0.42753116830459109 0.086527658597363083 0 0.43596408174073648 0.071699349842537147 0 0.42049991287082611 0.074725978929471831 0 0.43596408174073648 0.071699349842537147 0 0.42049991287082611 0.074725978929471831 0 0.42216093548346312 0.060933816940111803 0 0.42049991287082611 0.074725978929471831 0 0.40669298740107662 0.068888518626274348 0 0.41015039142426313 0.085580550641072783 0 0.42049991287082611 0.074725978929471831 0 0.40669298740107662 0.068888518626274348 0 0.42216093548346312 0.060933816940111803 0 0.42753116830459109 0.086527658597363083 0 0.42049991287082611 0.074725978929471831 0 0.41015039142426313 0.085580550641072783 0 0.4181824016966329 0.103458713158963 0 0.42753116830459109 0.086527658597363083 0 0.41015039142426313 0.085580550641072783 0 0.41015039142426313 0.085580550641072783 0 0.39469020844383729 0.083230581475899956 0 0.3988307745514742 0.097738487594870083 0 0.40669298740107662 0.068888518626274348 0 0.41015039142426313 0.085580550641072783 0 0.39469020844383729 0.083230581475899956 0 0.39469020844383729 0.083230581475899956 0 0.38851684113287871 0.098051232156813398 0 0.3988307745514742 0.097738487594870083 0 0.40669298740107662 0.068888518626274348 0 0.39423803954561282 0.06841195159838305 0 0.40039359145175801 0.059604723321952588 0 0.40669298740107662 0.068888518626274348 0 0.39469020844383729 0.083230581475899956 0 0.39423803954561282 0.06841195159838305 0 0.37258433158582632 0.071180101382360347 0 0.3819459514200042 0.074153284478698567 0 0.38390066493164021 0.044432425194050447 0 0.39423803954561282 0.06841195159838305 0 0.3819459514200042 0.074153284478698567 0 0.39298428152783899 0.047366855550941209 0 0.39469020844383729 0.083230581475899956 0 0.39423803954561282 0.06841195159838305 0 0.3819459514200042 0.074153284478698567 0 0.37090762131216942 0.1009397134064559 0 0.3819459514200042 0.074153284478698567 0 0.37090762131216942 0.1009397134064559 0 0.3819459514200042 0.074153284478698567 0 0.38309463766486829 0.09094186765605311 0 0.39469020844383729 0.083230581475899956 0 0.3819459514200042 0.074153284478698567 0 0.38309463766486829 0.09094186765605311 0 0.37090762131216942 0.1009397134064559 0 0.37258433158582632 0.071180101382360347 0 0.3819459514200042 0.074153284478698567 0 0.39469020844383729 0.083230581475899956 0 0.38309463766486829 0.09094186765605311 0 0.38851684113287871 0.098051232156813398 0 0.37090762131216942 0.1009397134064559 0 0.38309463766486829 0.09094186765605311 0 0.38084658811081579 0.1014850618750841 0 0.38309463766486829 0.09094186765605311 0 0.38084658811081579 0.1014850618750841 0 0.38851684113287871 0.098051232156813398 0 0.38084658811081579 0.1014850618750841 0 0.38851684113287871 0.098051232156813398 0 0.38803309572184441 0.1074289771719668 0 0.37090762131216942 0.1009397134064559 0 0.38084658811081579 0.1014850618750841 0 0.3758013789533543 0.1138604956643943 0 0.38084658811081579 0.1014850618750841 0 0.38803309572184441 0.1074289771719668 0 0.3758013789533543 0.1138604956643943 0 0.38803309572184441 0.1074289771719668 0 0.3758013789533543 0.1138604956643943 0 0.38409826692070931 0.1220429913097083 0 0.37335062942813679 0.12672392842364019 0 0.3758013789533543 0.1138604956643943 0 0.38409826692070931 0.1220429913097083 0 0.38803309572184441 0.1074289771719668 0 0.38409826692070931 0.1220429913097083 0 0.40227884474119779 0.1139034746591272 0 0.3963688887951593 0.126335582669382 0 0.38409826692070931 0.1220429913097083 0 0.40227884474119779 0.1139034746591272 0 0.3963688887951593 0.126335582669382 0 0.40702081205114682 0.13054234589104649 0 0.40227884474119779 0.1139034746591272 0 0.38803309572184441 0.1074289771719668 0 0.40227884474119779 0.1139034746591272 0 0.3988307745514742 0.097738487594870083 0 0.38851684113287871 0.098051232156813398 0 0.38803309572184441 0.1074289771719668 0 0.3988307745514742 0.097738487594870083 0 0.39521699827745499 0.017684749005740821 0 0.40188839452374647 0.03997346628719177 0 0.40892878778349889 0.031429983155315658 0 0.39521699827745499 0.017684749005740821 0 0.40892878778349889 0.031429983155315658 0 0.39521699827745499 0.017684749005740821 0 0.37935437576721898 0.0017834357210366871 0 0.40588673964794708 -0.0075346200663563914 0 0.39521699827745499 0.017684749005740821 0 0.417386808036734 0.0093776739953230562 0 0.40588673964794708 -0.0075346200663563914 0 0.39521699827745499 0.017684749005740821 0 0.40588673964794708 -0.0075346200663563914 0 0.37153690395508099 0.01629170074198116 0 0.39521699827745499 0.017684749005740821 0 0.37935437576721898 0.0017834357210366871 0 0.39521699827745499 0.017684749005740821 0 0.37935437576721898 0.0017834357210366871 0 0.39521699827745499 0.017684749005740821 0 0.38289048529716813 0.028237361467120119 0 0.38390066493164021 0.044432425194050447 0 0.37153690395508099 0.01629170074198116 0 0.39521699827745499 0.017684749005740821 0 0.38289048529716813 0.028237361467120119 0 0.39521699827745499 0.017684749005740821 0 0.38390066493164021 0.044432425194050447 0 0.36768038635939482 0.030547237249543231 0 0.38289048529716813 0.028237361467120119 0 0.37730275797050988 0.0362208683635038 0 0.38289048529716813 0.028237361467120119 0 0.37730275797050988 0.0362208683635038 0 0.38390066493164021 0.044432425194050447 0 0.37173802307509402 0.041063158052647507 0 0.37730275797050988 0.0362208683635038 0 0.38390066493164021 0.044432425194050447 0 0.3819459514200042 0.074153284478698567 0 0.38390066493164021 0.044432425194050447 0 0.39298428152783899 0.047366855550941209 0 0.3819459514200042 0.074153284478698567 0 0.39298428152783899 0.047366855550941209 0 0.37258433158582632 0.071180101382360347 0 0.38390066493164021 0.044432425194050447 0 0.37258433158582632 0.071180101382360347 0 0.37143674944992022 0.057980209652502328 0 0.38390066493164021 0.044432425194050447 0 0.39423803954561282 0.06841195159838305 0 0.39298428152783899 0.047366855550941209 0 0.40039359145175801 0.059604723321952588 0 0.39298428152783899 0.047366855550941209 0 0.40039359145175801 0.059604723321952588 0 0.40765905733250329 0.053751567512211718 0 0.39298428152783899 0.047366855550941209 0 0.40188839452374647 0.03997346628719177 0 0.40765905733250329 0.053751567512211718 0 0.40669298740107662 0.068888518626274348 0 0.40039359145175801 0.059604723321952588 0 0.40765905733250329 0.053751567512211718 0 0.38390066493164021 0.044432425194050447 0 0.39298428152783899 0.047366855550941209 0 0.40188839452374647 0.03997346628719177 0 0.39521699827745499 0.017684749005740821 0 0.38390066493164021 0.044432425194050447 0 0.40188839452374647 0.03997346628719177 0 0.40188839452374647 0.03997346628719177 0 0.40892878778349889 0.031429983155315658 0 0.42264057728954268 0.045175217304890783 0 0.40892878778349889 0.031429983155315658 0 0.42264057728954268 0.045175217304890783 0 0.43066196712127619 0.03505629742164456 0 0.40188839452374647 0.03997346628719177 0 0.40765905733250329 0.053751567512211718 0 0.42264057728954268 0.045175217304890783 0 0.40892878778349889 0.031429983155315658 0 0.42264057728954268 0.045175217304890783 0 0.40765905733250329 0.053751567512211718 0 0.42216093548346312 0.060933816940111803 0 0.42264057728954268 0.045175217304890783 0 0.40669298740107662 0.068888518626274348 0 0.40765905733250329 0.053751567512211718 0 0.42216093548346312 0.060933816940111803 0 0.42216093548346312 0.060933816940111803 0 0.42264057728954268 0.045175217304890783 0 0.4396642513404791 0.049403181014407251 0 0.43596408174073648 0.071699349842537147 0 0.42216093548346312 0.060933816940111803 0 0.4396642513404791 0.049403181014407251 0 0.42264057728954268 0.045175217304890783 0 0.43066196712127619 0.03505629742164456 0 0.4396642513404791 0.049403181014407251 0 0.43066196712127619 0.03505629742164456 0 0.42940605227015738 0.02125701613947768 0 0.44412485306051469 0.030203976007709191 0 0.42940605227015738 0.02125701613947768 0 0.43797703974049768 0.01071791565146071 0 0.44412485306051469 0.030203976007709191 0 0.40892878778349889 0.031429983155315658 0 0.43066196712127619 0.03505629742164456 0 0.42940605227015738 0.02125701613947768 0 0.39521699827745499 0.017684749005740821 0 0.40892878778349889 0.031429983155315658 0 0.417386808036734 0.0093776739953230562 0 0.40892878778349889 0.031429983155315658 0 0.42940605227015738 0.02125701613947768 0 0.417386808036734 0.0093776739953230562 0 0.42940605227015738 0.02125701613947768 0 0.417386808036734 0.0093776739953230562 0 0.43797703974049768 0.01071791565146071 0 0.417386808036734 0.0093776739953230562 0 0.41937758257554658 -0.0041794656863655931 0 0.42890459665496178 -0.00053893992362197848 0 0.417386808036734 0.0093776739953230562 0 0.43797703974049768 0.01071791565146071 0 0.42890459665496178 -0.00053893992362197848 0 0.43797703974049768 0.01071791565146071 0 0.44283824067598537 -0.003633377472082372 0 0.42890459665496178 -0.00053893992362197848 0 0.45106022168231619 0.0138391781922306 0 0.44283824067598537 -0.003633377472082372 0 0.45719980641642299 -0.00043223940852063459 0 0.45106022168231619 0.0138391781922306 0 0.43797703974049768 0.01071791565146071 0 0.44283824067598537 -0.003633377472082372 0 0.45106022168231619 0.0138391781922306 0 0.43797703974049768 0.01071791565146071 0 0.44412485306051469 0.030203976007709191 0 0.45106022168231619 0.0138391781922306 0 0.44412485306051469 0.030203976007709191 0 0.45983941674560302 0.027473022190733411 0 0.45983941674560302 0.027473022190733411 0 0.46571315561509963 0.01283443470861005 0 0.47689128774164191 0.02493571561048372 0 0.45106022168231619 0.0138391781922306 0 0.45983941674560302 0.027473022190733411 0 0.46571315561509963 0.01283443470861005 0 0.46571315561509963 0.01283443470861005 0 0.47008623465099619 0.00018929750482334581 0 0.45719980641642299 -0.00043223940852063459 0 0.45106022168231619 0.0138391781922306 0 0.46571315561509963 0.01283443470861005 0 0.45719980641642299 -0.00043223940852063459 0 0.45943250043896872 0.064290925709272334 0 0.4396642513404791 0.049403181014407251 0 0.45690141669685508 0.047311097653324877 0 0.45943250043896872 0.064290925709272334 0 0.43596408174073648 0.071699349842537147 0 0.4396642513404791 0.049403181014407251 0 0.43066196712127619 0.03505629742164456 0 0.44412485306051469 0.030203976007709191 0 0.4396642513404791 0.049403181014407251 0 0.44412485306051469 0.030203976007709191 0 0.4396642513404791 0.049403181014407251 0 0.45690141669685508 0.047311097653324877 0 0.44412485306051469 0.030203976007709191 0 0.45983941674560302 0.027473022190733411 0 0.45690141669685508 0.047311097653324877 0 0.45983941674560302 0.027473022190733411 0 0.45690141669685508 0.047311097653324877 0 0.47604645860103112 0.045128717910182803 0 0.45943250043896872 0.064290925709272334 0 0.45690141669685508 0.047311097653324877 0 0.47604645860103112 0.045128717910182803 0 0.48422639700076581 0.062818988881172474 0 0.45943250043896872 0.064290925709272334 0 0.47604645860103112 0.045128717910182803 0 0.45983941674560302 0.027473022190733411 0 0.47604645860103112 0.045128717910182803 0 0.47689128774164191 0.02493571561048372 0 0.47604645860103112 0.045128717910182803 0 0.4875159131620912 0.033192911306639747 0 0.47689128774164191 0.02493571561048372 0 0.4875159131620912 0.033192911306639747 0 0.5 0.050272086877212192 0 0.5 0.02403699936153714 0 0.47604645860103112 0.045128717910182803 0 0.4875159131620912 0.033192911306639747 0 0.5 0.050272086877212192 0 0.48422639700076581 0.062818988881172474 0 0.47604645860103112 0.045128717910182803 0 0.5 0.050272086877212192 0 0.47988825193385459 0.011553845764419051 0 0.48197098039998332 6.1446678653979958e-06 0 0.47008623465099619 0.00018929750482334581 0 0.46571315561509963 0.01283443470861005 0 0.47988825193385459 0.011553845764419051 0 0.47008623465099619 0.00018929750482334581 0 0.46571315561509963 0.01283443470861005 0 0.47988825193385459 0.011553845764419051 0 0.47689128774164191 0.02493571561048372 0 0.4875159131620912 0.033192911306639747 0 0.47689128774164191 0.02493571561048372 0 0.4873831070697156 0.020091897654041849 0 0.47988825193385459 0.011553845764419051 0 0.47689128774164191 0.02493571561048372 0 0.4873831070697156 0.020091897654041849 0 0.4873831070697156 0.020091897654041849 0 0.5 0.02403699936153714 0 0.49262008251098999 0.0067400162271295666 0 0.4875159131620912 0.033192911306639747 0 0.4873831070697156 0.020091897654041849 0 0.5 0.02403699936153714 0 0.5 0.02403699936153714 0 0.49262008251098999 0.0067400162271295666 0 0.5 -0.0021980881541378561 0 0.47988825193385459 0.011553845764419051 0 0.4873831070697156 0.020091897654041849 0 0.49262008251098999 0.0067400162271295666 0 0.47988825193385459 0.011553845764419051 0 0.48197098039998332 6.1446678653979958e-06 0 0.49262008251098999 0.0067400162271295666 0 0.49262008251098999 0.0067400162271295666 0 0.5 -0.0021980881541378561 0 0.49131858152504498 -0.010678809641920729 0 0.48197098039998332 6.1446678653979958e-06 0 0.49262008251098999 0.0067400162271295666 0 0.49131858152504498 -0.010678809641920729 0 0.49262008251098999 0.0067400162271295666 0 0.49131858152504498 -0.010678809641920729 0 0.5 -0.0021980881541378561 0 0.49131858152504498 -0.010678809641920729 0 0.50000000000000155 -0.028433175669812839 0 0.49131858152504498 -0.010678809641920729 0 0.47690213769492013 -0.0091746034812110241 0 0.485453567624618 -0.01899862289752282 0 0.48197098039998332 6.1446678653979958e-06 0 0.49131858152504498 -0.010678809641920729 0 0.47690213769492013 -0.0091746034812110241 0 0.47690213769492013 -0.0091746034812110241 0 0.47507076562332767 -0.018566384496552311 0 0.485453567624618 -0.01899862289752282 0 0.47690213769492013 -0.0091746034812110241 0 0.47507076562332767 -0.018566384496552311 0 0.46408554110054739 -0.011750583991940761 0 0.48197098039998332 6.1446678653979958e-06 0 0.47008623465099619 0.00018929750482334581 0 0.47690213769492013 -0.0091746034812110241 0 0.47008623465099619 0.00018929750482334581 0 0.47690213769492013 -0.0091746034812110241 0 0.46408554110054739 -0.011750583991940761 0 0.47507076562332767 -0.018566384496552311 0 0.4900170805390982 -0.028097635510970841 0 0.45995940204792318 -0.027087354074277811 0 0.4900170805390982 -0.028097635510970841 0 0.47659914796332292 -0.034461098052259449 0 0.45995940204792318 -0.027087354074277811 0 0.4900170805390982 -0.028097635510970841 0 0.45995940204792318 -0.027087354074277811 0 0.47507076562332767 -0.018566384496552311 0 0.4900170805390982 -0.028097635510970841 0 0.485453567624618 -0.01899862289752282 0 0.49131858152504498 -0.010678809641920729 0 0.4900170805390982 -0.028097635510970841 0 0.485453567624618 -0.01899862289752282 0 0.49131858152504498 -0.010678809641920729 0 0.4900170805390982 -0.028097635510970841 0 0.50000000000000155 -0.028433175669812839 0 0.49131858152504498 -0.010678809641920729 0 0.4900170805390982 -0.028097635510970841 0 0.4900170805390982 -0.028097635510970841 0 0.50000000000000155 -0.028433175669812839 0 0.4900170805390982 -0.028097635510970841 0 0.4880464189036679 -0.054472269295454609 0 0.4900170805390982 -0.028097635510970841 0 0.50000000000000155 -0.028433175669812839 0 0.5 -0.044213099971446179 0 0.4900170805390982 -0.028097635510970841 0 0.5 -0.044213099971446179 0 0.4880464189036679 -0.054472269295454609 0 0.4900170805390982 -0.028097635510970841 0 0.4880464189036679 -0.054472269295454609 0 0.47969740010759349 -0.050616279470708077 0 0.5 -0.044213099971446179 0 0.49999999999999939 -0.059993024273079558 0 0.4880464189036679 -0.054472269295454609 0 0.49999999999999939 -0.059993024273079558 0 0.4880464189036679 -0.054472269295454609 0 0.4880464189036679 -0.054472269295454609 0 0.47969740010759349 -0.050616279470708077 0 0.48280517252699051 -0.066821102352996931 0 0.47969740010759349 -0.050616279470708077 0 0.47316629307607122 -0.060648550001592687 0 0.48280517252699051 -0.066821102352996931 0 0.47969740010759349 -0.050616279470708077 0 0.48280517252699051 -0.066821102352996931 0 0.4880464189036679 -0.054472269295454609 0 0.47969740010759349 -0.050616279470708077 0 0.47969740010759349 -0.050616279470708077 0 0.47316629307607122 -0.060648550001592687 0 0.46616203118149518 -0.05382361562529641 0 0.4900170805390982 -0.028097635510970841 0 0.47969740010759349 -0.050616279470708077 0 0.47659914796332292 -0.034461098052259449 0 0.47969740010759349 -0.050616279470708077 0 0.47659914796332292 -0.034461098052259449 0 0.47969740010759349 -0.050616279470708077 0 0.45971080753593718 -0.041385482478866913 0 0.47969740010759349 -0.050616279470708077 0 0.47659914796332292 -0.034461098052259449 0 0.45971080753593718 -0.041385482478866913 0 0.47659914796332292 -0.034461098052259449 0 0.45971080753593718 -0.041385482478866913 0 0.45995940204792318 -0.027087354074277811 0 0.45971080753593718 -0.041385482478866913 0 0.43972421496428132 -0.032154685487025228 0 0.45995940204792318 -0.027087354074277811 0 0.47969740010759349 -0.050616279470708077 0 0.45971080753593718 -0.041385482478866913 0 0.46616203118149518 -0.05382361562529641 0 0.45539747019827359 -0.054353739001609842 0 0.46172264753675479 -0.064597742208831466 0 0.44561574073223331 -0.066416688777919369 0 0.47316629307607122 -0.060648550001592687 0 0.46616203118149518 -0.05382361562529641 0 0.46172264753675479 -0.064597742208831466 0 0.46616203118149518 -0.05382361562529641 0 0.45539747019827359 -0.054353739001609842 0 0.46172264753675479 -0.064597742208831466 0 0.45971080753593718 -0.041385482478866913 0 0.46616203118149518 -0.05382361562529641 0 0.45539747019827359 -0.054353739001609842 0 0.45971080753593718 -0.041385482478866913 0 0.45539747019827359 -0.054353739001609842 0 0.4428309961755249 -0.049507349435999271 0 0.45539747019827359 -0.054353739001609842 0 0.4428309961755249 -0.049507349435999271 0 0.44561574073223331 -0.066416688777919369 0 0.4428309961755249 -0.049507349435999271 0 0.44561574073223331 -0.066416688777919369 0 0.42722622238893299 -0.057973358210550219 0 0.4428309961755249 -0.049507349435999271 0 0.43972421496428132 -0.032154685487025228 0 0.43073376650610579 -0.041662475657769517 0 0.45971080753593718 -0.041385482478866913 0 0.43972421496428132 -0.032154685487025228 0 0.45971080753593718 -0.041385482478866913 0 0.4428309961755249 -0.049507349435999271 0 0.43972421496428132 -0.032154685487025228 0 0.43972421496428132 -0.032154685487025228 0 0.45995940204792318 -0.027087354074277811 0 0.42990172355674838 -0.02607707263758487 0 0.44243399464777827 -0.016709921550320112 0 0.45110224446471597 -0.01291468614277746 0 0.45995940204792318 -0.027087354074277811 0 0.44243399464777827 -0.016709921550320112 0 0.45995940204792318 -0.027087354074277811 0 0.42990172355674838 -0.02607707263758487 0 0.45995940204792318 -0.027087354074277811 0 0.42990172355674838 -0.02607707263758487 0 0.44243399464777827 -0.016709921550320112 0 0.44283824067598537 -0.003633377472082372 0 0.42821901154536912 -0.013542915272651069 0 0.44283824067598537 -0.003633377472082372 0 0.45110224446471597 -0.01291468614277746 0 0.45719980641642299 -0.00043223940852063459 0 0.44243399464777827 -0.016709921550320112 0 0.44283824067598537 -0.003633377472082372 0 0.45110224446471597 -0.01291468614277746 0 0.45110224446471597 -0.01291468614277746 0 0.45719980641642299 -0.00043223940852063459 0 0.46408554110054739 -0.011750583991940761 0 0.47008623465099619 0.00018929750482334581 0 0.45719980641642299 -0.00043223940852063459 0 0.46408554110054739 -0.011750583991940761 0 0.47507076562332767 -0.018566384496552311 0 0.46408554110054739 -0.011750583991940761 0 0.45995940204792318 -0.027087354074277811 0 0.45110224446471597 -0.01291468614277746 0 0.46408554110054739 -0.011750583991940761 0 0.45995940204792318 -0.027087354074277811 0 0.46795968230274643 -0.1167073898190603 0 0.46204322165313078 -0.1308685292825949 0 0.479388625814124 -0.12616148355817011 0 0.48123389066896971 -0.11131348358147471 0 0.46795968230274643 -0.1167073898190603 0 0.479388625814124 -0.12616148355817011 0 0.5 -0.11673538704895479 0 0.4933708278968385 -0.12191348068646821 0 0.49138528775611379 -0.13369042680796669 0 0.4933708278968385 -0.12191348068646821 0 0.48964188642161249 -0.1024697029608771 0 0.5 -0.11673538704895479 0 0.4933708278968385 -0.12191348068646821 0 0.48964188642161249 -0.1024697029608771 0 0.48123389066896971 -0.11131348358147471 0 0.4933708278968385 -0.12191348068646821 0 0.48964188642161249 -0.1024697029608771 0 0.48123389066896971 -0.11131348358147471 0 0.4933708278968385 -0.12191348068646821 0 0.479388625814124 -0.12616148355817011 0 0.48964188642161249 -0.1024697029608771 0 0.4815626626429908 -0.095955286195218412 0 0.48565937275213372 -0.086419645212914412 0 0.5 -0.11673538704895479 0 0.48964188642161249 -0.1024697029608771 0 0.5 -0.088364205661017159 0 0.48123389066896971 -0.11131348358147471 0 0.47150257472371232 -0.098234941212199292 0 0.46795968230274643 -0.1167073898190603 0 0.4815626626429908 -0.095955286195218412 0 0.47150257472371232 -0.098234941212199292 0 0.47862298702473632 -0.089064538531884813 0 0.48123389066896971 -0.11131348358147471 0 0.4815626626429908 -0.095955286195218412 0 0.47150257472371232 -0.098234941212199292 0 0.48123389066896971 -0.11131348358147471 0 0.48964188642161249 -0.1024697029608771 0 0.4815626626429908 -0.095955286195218412 0 0.47150257472371232 -0.098234941212199292 0 0.47258542902809209 -0.083736452218264437 0 0.47862298702473632 -0.089064538531884813 0 0.47258542902809209 -0.083736452218264437 0 0.48591294494638598 -0.083025925235286124 0 0.47257809558295361 -0.073595295981542685 0 0.47258542902809209 -0.083736452218264437 0 0.47862298702473632 -0.089064538531884813 0 0.48591294494638598 -0.083025925235286124 0 0.4815626626429908 -0.095955286195218412 0 0.47862298702473632 -0.089064538531884813 0 0.48565937275213372 -0.086419645212914412 0 0.47862298702473632 -0.089064538531884813 0 0.48565937275213372 -0.086419645212914412 0 0.48591294494638598 -0.083025925235286124 0 0.48964188642161249 -0.1024697029608771 0 0.5 -0.088364205661017159 0 0.48591294494638598 -0.083025925235286124 0 0.48964188642161249 -0.1024697029608771 0 0.48591294494638598 -0.083025925235286124 0 0.48964188642161249 -0.1024697029608771 0 0.48565937275213372 -0.086419645212914412 0 0.48591294494638598 -0.083025925235286124 0 0.48565937275213372 -0.086419645212914412 0 0.48591294494638598 -0.083025925235286124 0 0.4880464189036679 -0.054472269295454609 0 0.48591294494638598 -0.083025925235286124 0 0.4880464189036679 -0.054472269295454609 0 0.48591294494638598 -0.083025925235286124 0 0.48280517252699051 -0.066821102352996931 0 0.49999999999999939 -0.059993024273079558 0 0.4880464189036679 -0.054472269295454609 0 0.48591294494638598 -0.083025925235286124 0 0.49999999999999939 -0.059993024273079558 0 0.5 -0.088364205661017159 0 0.48591294494638598 -0.083025925235286124 0 0.48591294494638598 -0.083025925235286124 0 0.48280517252699051 -0.066821102352996931 0 0.48591294494638598 -0.083025925235286124 0 0.48280517252699051 -0.066821102352996931 0 0.47257809558295361 -0.073595295981542685 0 0.47316629307607122 -0.060648550001592687 0 0.48280517252699051 -0.066821102352996931 0 0.47257809558295361 -0.073595295981542685 0 0.47316629307607122 -0.060648550001592687 0 0.47257809558295361 -0.073595295981542685 0 0.46172264753675479 -0.064597742208831466 0 0.47257809558295361 -0.073595295981542685 0 0.46172264753675479 -0.064597742208831466 0 0.45927608638342632 -0.0827420038722846 0 0.46172264753675479 -0.064597742208831466 0 0.44561574073223331 -0.066416688777919369 0 0.45927608638342632 -0.0827420038722846 0 0.44561574073223331 -0.066416688777919369 0 0.45927608638342632 -0.0827420038722846 0 0.4303537534173173 -0.083631010780197593 0 0.45927608638342632 -0.0827420038722846 0 0.4423327918001308 -0.1023638965480918 0 0.4303537534173173 -0.083631010780197593 0 0.47258542902809209 -0.083736452218264437 0 0.47257809558295361 -0.073595295981542685 0 0.45927608638342632 -0.0827420038722846 0 0.47150257472371232 -0.098234941212199292 0 0.47258542902809209 -0.083736452218264437 0 0.45927608638342632 -0.0827420038722846 0 0.47150257472371232 -0.098234941212199292 0 0.45880087309900819 -0.1048392260601691 0 0.46795968230274643 -0.1167073898190603 0 0.45927608638342632 -0.0827420038722846 0 0.45880087309900819 -0.1048392260601691 0 0.4423327918001308 -0.1023638965480918 0 0.47150257472371232 -0.098234941212199292 0 0.45927608638342632 -0.0827420038722846 0 0.45880087309900819 -0.1048392260601691 0 0.45880087309900819 -0.1048392260601691 0 0.4423327918001308 -0.1023638965480918 0 0.450670867287502 -0.1182239354478858 0 0.450670867287502 -0.1182239354478858 0 0.4342442768840668 -0.1179042360572342 0 0.43721580927791781 -0.1350344527553512 0 0.4423327918001308 -0.1023638965480918 0 0.450670867287502 -0.1182239354478858 0 0.4342442768840668 -0.1179042360572342 0 0.45880087309900819 -0.1048392260601691 0 0.450670867287502 -0.1182239354478858 0 0.46795968230274643 -0.1167073898190603 0 0.450670867287502 -0.1182239354478858 0 0.46795968230274643 -0.1167073898190603 0 0.46204322165313078 -0.1308685292825949 0 0.41763019435124998 -0.1206557512100787 0 0.40211903147969891 -0.1063383633242978 0 0.40315717850713217 -0.1250207652859732 0 0.41763019435124998 -0.1206557512100787 0 0.42119588237113942 -0.1023806203968041 0 0.40211903147969891 -0.1063383633242978 0 0.41763019435124998 -0.1206557512100787 0 0.4342442768840668 -0.1179042360572342 0 0.42119588237113942 -0.1023806203968041 0 0.41763019435124998 -0.1206557512100787 0 0.4342442768840668 -0.1179042360572342 0 0.43721580927791781 -0.1350344527553512 0 0.4423327918001308 -0.1023638965480918 0 0.42119588237113942 -0.1023806203968041 0 0.4303537534173173 -0.083631010780197593 0 0.4423327918001308 -0.1023638965480918 0 0.4342442768840668 -0.1179042360572342 0 0.42119588237113942 -0.1023806203968041 0 0.42119588237113942 -0.1023806203968041 0 0.40523260967746172 -0.089715805182620456 0 0.40211903147969891 -0.1063383633242978 0 0.42119588237113942 -0.1023806203968041 0 0.4303537534173173 -0.083631010780197593 0 0.40523260967746172 -0.089715805182620456 0 0.4303537534173173 -0.083631010780197593 0 0.41419191219747098 -0.072870360065941026 0 0.40523260967746172 -0.089715805182620456 0 0.4303537534173173 -0.083631010780197593 0 0.41419191219747098 -0.072870360065941026 0 0.42722622238893299 -0.057973358210550219 0 0.44561574073223331 -0.066416688777919369 0 0.4303537534173173 -0.083631010780197593 0 0.42722622238893299 -0.057973358210550219 0 0.41419191219747098 -0.072870360065941026 0 0.39668539737840541 -0.072231922647281746 0 0.40906487591965263 -0.055822049730268927 0 0.39668539737840541 -0.072231922647281746 0 0.37752392610822172 -0.076362466609876667 0 0.38278709897404289 -0.061547333989650677 0 0.37752392610822172 -0.076362466609876667 0 0.38278709897404289 -0.061547333989650677 0 0.36631958178036778 -0.066880114204011409 0 0.39668539737840541 -0.072231922647281746 0 0.37752392610822172 -0.076362466609876667 0 0.39030733193134298 -0.093436149081565029 0 0.37752392610822172 -0.076362466609876667 0 0.39030733193134298 -0.093436149081565029 0 0.37549924204530938 -0.097590425518224055 0 0.37752392610822172 -0.076362466609876667 0 0.37549924204530938 -0.097590425518224055 0 0.41419191219747098 -0.072870360065941026 0 0.39668539737840541 -0.072231922647281746 0 0.40523260967746172 -0.089715805182620456 0 0.39668539737840541 -0.072231922647281746 0 0.39030733193134298 -0.093436149081565029 0 0.40523260967746172 -0.089715805182620456 0 0.39030733193134298 -0.093436149081565029 0 0.40523260967746172 -0.089715805182620456 0 0.40211903147969891 -0.1063383633242978 0 0.39030733193134298 -0.093436149081565029 0 0.40211903147969891 -0.1063383633242978 0 0.39162547536392239 -0.10746370732413039 0 0.37549924204530938 -0.097590425518224055 0 0.38270629520846922 -0.10538521729641059 0 0.37697667654897721 -0.11432232332569579 0 0.39030733193134298 -0.093436149081565029 0 0.37549924204530938 -0.097590425518224055 0 0.38270629520846922 -0.10538521729641059 0 0.39030733193134298 -0.093436149081565029 0 0.39162547536392239 -0.10746370732413039 0 0.38270629520846922 -0.10538521729641059 0 0.39162547536392239 -0.10746370732413039 0 0.38270629520846922 -0.10538521729641059 0 0.38750752642824432 -0.1148535103282165 0 0.38270629520846922 -0.10538521729641059 0 0.38750752642824432 -0.1148535103282165 0 0.37697667654897721 -0.11432232332569579 0 0.38750752642824432 -0.1148535103282165 0 0.37697667654897721 -0.11432232332569579 0 0.37382079859698292 -0.12300829506131759 0 0.38750752642824432 -0.1148535103282165 0 0.37382079859698292 -0.12300829506131759 0 0.38750752642824432 -0.1148535103282165 0 0.37382079859698292 -0.12300829506131759 0 0.38559191724468961 -0.12679046736267011 0 0.38750752642824432 -0.1148535103282165 0 0.39396849925603022 -0.1193750252539349 0 0.38559191724468961 -0.12679046736267011 0 0.40211903147969891 -0.1063383633242978 0 0.39396849925603022 -0.1193750252539349 0 0.40315717850713217 -0.1250207652859732 0 0.40211903147969891 -0.1063383633242978 0 0.39162547536392239 -0.10746370732413039 0 0.39396849925603022 -0.1193750252539349 0 0.39162547536392239 -0.10746370732413039 0 0.38750752642824432 -0.1148535103282165 0 0.39396849925603022 -0.1193750252539349 0 0.41655648101844012 -0.032753989138453267 0 0.40588673964794708 -0.0075346200663563914 0 0.41973762239262519 -0.02292388849518354 0 0.41655648101844012 -0.032753989138453267 0 0.40588673964794708 -0.0075346200663563914 0 0.41655648101844012 -0.032753989138453267 0 0.40130416689942222 -0.021108371106094231 0 0.40588673964794708 -0.0075346200663563914 0 0.41973762239262519 -0.02292388849518354 0 0.42668802122036309 -0.032373759694607887 0 0.41655648101844012 -0.032753989138453267 0 0.41655648101844012 -0.032753989138453267 0 0.40130416689942222 -0.021108371106094231 0 0.40432805881315781 -0.031237119901113681 0 0.417386808036734 0.0093776739953230562 0 0.41937758257554658 -0.0041794656863655931 0 0.40588673964794708 -0.0075346200663563914 0 0.41973762239262519 -0.02292388849518354 0 0.41937758257554658 -0.0041794656863655931 0 0.40588673964794708 -0.0075346200663563914 0 0.41973762239262519 -0.02292388849518354 0 0.41937758257554658 -0.0041794656863655931 0 0.42821901154536912 -0.013542915272651069 0 0.41937758257554658 -0.0041794656863655931 0 0.42821901154536912 -0.013542915272651069 0 0.42890459665496178 -0.00053893992362197848 0 0.44283824067598537 -0.003633377472082372 0 0.42821901154536912 -0.013542915272651069 0 0.42890459665496178 -0.00053893992362197848 0 0.43972421496428132 -0.032154685487025228 0 0.41973762239262519 -0.02292388849518354 0 0.42668802122036309 -0.032373759694607887 0 0.43972421496428132 -0.032154685487025228 0 0.41973762239262519 -0.02292388849518354 0 0.43972421496428132 -0.032154685487025228 0 0.41973762239262519 -0.02292388849518354 0 0.42990172355674838 -0.02607707263758487 0 0.44243399464777827 -0.016709921550320112 0 0.42821901154536912 -0.013542915272651069 0 0.42990172355674838 -0.02607707263758487 0 0.41973762239262519 -0.02292388849518354 0 0.42821901154536912 -0.013542915272651069 0 0.42990172355674838 -0.02607707263758487 0 0.42722622238893299 -0.057973358210550219 0 0.41655648101844012 -0.032753989138453267 0 0.43073376650610579 -0.041662475657769517 0 0.42722622238893299 -0.057973358210550219 0 0.41655648101844012 -0.032753989138453267 0 0.43972421496428132 -0.032154685487025228 0 0.43073376650610579 -0.041662475657769517 0 0.42668802122036309 -0.032373759694607887 0 0.43073376650610579 -0.041662475657769517 0 0.42668802122036309 -0.032373759694607887 0 0.41655648101844012 -0.032753989138453267 0 0.4428309961755249 -0.049507349435999271 0 0.43073376650610579 -0.041662475657769517 0 0.42722622238893299 -0.057973358210550219 0 0.41419191219747098 -0.072870360065941026 0 0.42722622238893299 -0.057973358210550219 0 0.40906487591965263 -0.055822049730268927 0 0.42722622238893299 -0.057973358210550219 0 0.40906487591965263 -0.055822049730268927 0 0.41655648101844012 -0.032753989138453267 0 0.40906487591965263 -0.055822049730268927 0 0.41655648101844012 -0.032753989138453267 0 0.4022774121604572 -0.041402278669731021 0 0.41655648101844012 -0.032753989138453267 0 0.4022774121604572 -0.041402278669731021 0 0.40432805881315781 -0.031237119901113681 0 0.4022774121604572 -0.041402278669731021 0 0.39452501080750302 -0.052306959197886201 0 0.3847408332696165 -0.041282556495419953 0 0.4022774121604572 -0.041402278669731021 0 0.39466073553119391 -0.030851012940111021 0 0.40432805881315781 -0.031237119901113681 0 0.4022774121604572 -0.041402278669731021 0 0.3847408332696165 -0.041282556495419953 0 0.39466073553119391 -0.030851012940111021 0 0.39668539737840541 -0.072231922647281746 0 0.40906487591965263 -0.055822049730268927 0 0.39452501080750302 -0.052306959197886201 0 0.39668539737840541 -0.072231922647281746 0 0.39452501080750302 -0.052306959197886201 0 0.38278709897404289 -0.061547333989650677 0 0.40906487591965263 -0.055822049730268927 0 0.4022774121604572 -0.041402278669731021 0 0.39452501080750302 -0.052306959197886201 0 0.39452501080750302 -0.052306959197886201 0 0.38278709897404289 -0.061547333989650677 0 0.3847408332696165 -0.041282556495419953 0 0.38278709897404289 -0.061547333989650677 0 0.3847408332696165 -0.041282556495419953 0 0.36894936657637928 -0.048559567936694449 0 0.3847408332696165 -0.041282556495419953 0 0.37411394985217761 -0.031068011284242761 0 0.36894936657637928 -0.048559567936694449 0 0.3847408332696165 -0.041282556495419953 0 0.39466073553119391 -0.030851012940111021 0 0.37411394985217761 -0.031068011284242761 0 0.38644274242710941 -0.016887138421086089 0 0.39466073553119391 -0.030851012940111021 0 0.37411394985217761 -0.031068011284242761 0 0.38644274242710941 -0.016887138421086089 0 0.39466073553119391 -0.030851012940111021 0 0.40130416689942222 -0.021108371106094231 0 0.39466073553119391 -0.030851012940111021 0 0.40130416689942222 -0.021108371106094231 0 0.40432805881315781 -0.031237119901113681 0 0.38644274242710941 -0.016887138421086089 0 0.40130416689942222 -0.021108371106094231 0 0.40588673964794708 -0.0075346200663563914 0 0.37935437576721898 0.0017834357210366871 0 0.38644274242710941 -0.016887138421086089 0 0.40588673964794708 -0.0075346200663563914 0 0.37935437576721898 0.0017834357210366871 0 0.38644274242710941 -0.016887138421086089 0 0.3634917532569828 -0.014117877563667291 0 0.37935437576721898 0.0017834357210366871 0 0.3634917532569828 -0.014117877563667291 0 0.3597563791897308 0.0018133103492004501 0 0.37935437576721898 0.0017834357210366871 0 0.3634917532569828 -0.014117877563667291 0 0.37411394985217761 -0.031068011284242761 0 0.35024300250517282 -0.01283097797459235 0 0.38644274242710941 -0.016887138421086089 0 0.3634917532569828 -0.014117877563667291 0 0.37411394985217761 -0.031068011284242761 0 0.3634917532569828 -0.014117877563667291 0 0.37411394985217761 -0.031068011284242761 0 0.35024300250517282 -0.01283097797459235 0 0.37411394985217761 -0.031068011284242761 0 0.35024300250517282 -0.01283097797459235 0 0.3503288266865841 -0.036142358055027239 0 0.35024300250517282 -0.01283097797459235 0 0.3395890877745909 -0.023471501415688541 0 0.3503288266865841 -0.036142358055027239 0 0.3597563791897308 0.0018133103492004501 0 0.3634917532569828 -0.014117877563667291 0 0.35024300250517282 -0.01283097797459235 0 0.3597563791897308 0.0018133103492004501 0 0.34641115475807138 0.0057691814534639096 0 0.35024300250517282 -0.01283097797459235 0 0.32637205515816831 0.0054060553350579969 0 0.35024300250517282 -0.01283097797459235 0 0.34641115475807138 0.0057691814534639096 0 0.32637205515816831 0.0054060553350579969 0 0.35024300250517282 -0.01283097797459235 0 0.32637205515816831 0.0054060553350579969 0 0.35024300250517282 -0.01283097797459235 0 0.33157488602609497 -0.01421902812780172 0 0.35024300250517282 -0.01283097797459235 0 0.33157488602609497 -0.01421902812780172 0 0.3395890877745909 -0.023471501415688541 0 0.33157488602609497 -0.01421902812780172 0 0.3395890877745909 -0.023471501415688541 0 0.32620963588051172 -0.03069364150533287 0 0.3395890877745909 -0.023471501415688541 0 0.32620963588051172 -0.03069364150533287 0 0.3503288266865841 -0.036142358055027239 0 0.33157488602609497 -0.01421902812780172 0 0.32620963588051172 -0.03069364150533287 0 0.31466635431493811 -0.0083120406826240611 0 0.32620963588051172 -0.03069364150533287 0 0.31267737272612328 -0.023073951876764531 0 0.31466635431493811 -0.0083120406826240611 0 0.32620963588051172 -0.03069364150533287 0 0.31466635431493811 -0.0083120406826240611 0 0.31267737272612328 -0.023073951876764531 0 0.31827127982883369 -0.032063360512569757 0 0.31130705926952562 -0.029488198859399531 0 0.32620963588051172 -0.03069364150533287 0 0.31267737272612328 -0.023073951876764531 0 0.31827127982883369 -0.032063360512569757 0 0.32637205515816831 0.0054060553350579969 0 0.33157488602609497 -0.01421902812780172 0 0.31466635431493811 -0.0083120406826240611 0 0.31703792776206369 -0.059989689549852301 0 0.31961392554707968 -0.04848837579871533 0 0.31371139561421901 -0.042284835657113912 0 0.31703792776206369 -0.059989689549852301 0 0.31371139561421901 -0.042284835657113912 0 0.30793232063720333 -0.045284881717135163 0 0.31703792776206369 -0.059989689549852301 0 0.31371139561421901 -0.042284835657113912 0 0.32110028577193922 -0.056524928594911532 0 0.32773762281720659 -0.046646897156934319 0 0.32868717116166302 -0.057644014508220758 0 0.32110028577193922 -0.056524928594911532 0 0.31961392554707968 -0.04848837579871533 0 0.32773762281720659 -0.046646897156934319 0 0.32110028577193922 -0.056524928594911532 0 0.31703792776206369 -0.059989689549852301 0 0.32501600693490529 -0.065575738050368149 0 0.32110028577193922 -0.056524928594911532 0 0.32868717116166302 -0.057644014508220758 0 0.32501600693490529 -0.065575738050368149 0 0.32110028577193922 -0.056524928594911532 0 0.31703792776206369 -0.059989689549852301 0 0.31961392554707968 -0.04848837579871533 0 0.32110028577193922 -0.056524928594911532 0 0.31703792776206369 -0.059989689549852301 0 0.32620963588051172 -0.03069364150533287 0 0.32235254475713448 -0.03858536070225075 0 0.32773762281720659 -0.046646897156934319 0 0.31371139561421901 -0.042284835657113912 0 0.3177376746931061 -0.040194704842888597 0 0.31371139561421901 -0.042284835657113912 0 0.3177376746931061 -0.040194704842888597 0 0.31834245827612229 -0.043770427609520733 0 0.3177376746931061 -0.040194704842888597 0 0.31834245827612229 -0.043770427609520733 0 0.32180651056601423 -0.043328199493528202 0 0.31961392554707968 -0.04848837579871533 0 0.31371139561421901 -0.042284835657113912 0 0.31834245827612229 -0.043770427609520733 0 0.31961392554707968 -0.04848837579871533 0 0.31834245827612229 -0.043770427609520733 0 0.32180651056601423 -0.043328199493528202 0 0.31371139561421901 -0.042284835657113912 0 0.3177376746931061 -0.040194704842888597 0 0.31130705926952562 -0.029488198859399531 0 0.3177376746931061 -0.040194704842888597 0 0.31827127982883369 -0.032063360512569757 0 0.32235254475713448 -0.03858536070225075 0 0.31371139561421901 -0.042284835657113912 0 0.31130705926952562 -0.029488198859399531 0 0.3177376746931061 -0.040194704842888597 0 0.31827127982883369 -0.032063360512569757 0 0.31130705926952562 -0.029488198859399531 0 0.32620963588051172 -0.03069364150533287 0 0.31827127982883369 -0.032063360512569757 0 0.32235254475713448 -0.03858536070225075 0 0.32235254475713448 -0.03858536070225075 0 0.32773762281720659 -0.046646897156934319 0 0.32180651056601423 -0.043328199493528202 0 0.31961392554707968 -0.04848837579871533 0 0.32773762281720659 -0.046646897156934319 0 0.32180651056601423 -0.043328199493528202 0 0.3177376746931061 -0.040194704842888597 0 0.32235254475713448 -0.03858536070225075 0 0.32180651056601423 -0.043328199493528202 0 0.32620963588051172 -0.03069364150533287 0 0.33775291744608521 -0.053075242328041589 0 0.32620963588051172 -0.03069364150533287 0 0.32773762281720659 -0.046646897156934319 0 0.33775291744608521 -0.053075242328041589 0 0.32620963588051172 -0.03069364150533287 0 0.33775291744608521 -0.053075242328041589 0 0.3503288266865841 -0.036142358055027239 0 0.32773762281720659 -0.046646897156934319 0 0.33775291744608521 -0.053075242328041589 0 0.32868717116166302 -0.057644014508220758 0 0.33775291744608521 -0.053075242328041589 0 0.32868717116166302 -0.057644014508220758 0 0.33182902283817861 -0.066397266410848213 0 0.33775291744608521 -0.053075242328041589 0 0.35399729620378068 -0.056275819990368528 0 0.3503288266865841 -0.036142358055027239 0 0.33775291744608521 -0.053075242328041589 0 0.35399729620378068 -0.056275819990368528 0 0.3492961990116587 -0.075456843150750352 0 0.35399729620378068 -0.056275819990368528 0 0.3503288266865841 -0.036142358055027239 0 0.36894936657637928 -0.048559567936694449 0 0.37411394985217761 -0.031068011284242761 0 0.3503288266865841 -0.036142358055027239 0 0.36894936657637928 -0.048559567936694449 0 0.35399729620378068 -0.056275819990368528 0 0.36894936657637928 -0.048559567936694449 0 0.36631958178036778 -0.066880114204011409 0 0.38278709897404289 -0.061547333989650677 0 0.36894936657637928 -0.048559567936694449 0 0.36631958178036778 -0.066880114204011409 0 0.37752392610822172 -0.076362466609876667 0 0.36631958178036778 -0.066880114204011409 0 0.36536360380812372 -0.083078653546727874 0 0.36631958178036778 -0.066880114204011409 0 0.36536360380812372 -0.083078653546727874 0 0.3492961990116587 -0.075456843150750352 0 0.37752392610822172 -0.076362466609876667 0 0.37549924204530938 -0.097590425518224055 0 0.36536360380812372 -0.083078653546727874 0 0.37549924204530938 -0.097590425518224055 0 0.36536360380812372 -0.083078653546727874 0 0.36083948057723231 -0.097838443973459213 0 0.34807754401515489 -0.092444136986842104 0 0.3492961990116587 -0.075456843150750352 0 0.36083948057723231 -0.097838443973459213 0 0.36536360380812372 -0.083078653546727874 0 0.3492961990116587 -0.075456843150750352 0 0.36083948057723231 -0.097838443973459213 0 0.3492961990116587 -0.075456843150750352 0 0.36083948057723231 -0.097838443973459213 0 0.34807754401515489 -0.092444136986842104 0 0.3492961990116587 -0.075456843150750352 0 0.33848270169113048 -0.079370215601770169 0 0.35399729620378068 -0.056275819990368528 0 0.36631958178036778 -0.066880114204011409 0 0.3492961990116587 -0.075456843150750352 0 0.37238276214280952 -0.1202200447961662 0 0.36079293792189771 -0.11623095456181121 0 0.36083948057723231 -0.097838443973459213 0 0.37549924204530938 -0.097590425518224055 0 0.37697667654897721 -0.11432232332569579 0 0.37238276214280952 -0.1202200447961662 0 0.36079293792189771 -0.11623095456181121 0 0.35539835740838338 -0.1253017398118545 0 0.36708467456578647 -0.12702179208463271 0 0.37238276214280952 -0.1202200447961662 0 0.36079293792189771 -0.11623095456181121 0 0.36708467456578647 -0.12702179208463271 0 0.37697667654897721 -0.11432232332569579 0 0.37382079859698292 -0.12300829506131759 0 0.37238276214280952 -0.1202200447961662 0 0.37238276214280952 -0.1202200447961662 0 0.36708467456578647 -0.12702179208463271 0 0.37382079859698292 -0.12300829506131759 0 0.37238276214280952 -0.1202200447961662 0 0.36708467456578647 -0.12702179208463271 0 0.37382079859698292 -0.12300829506131759 0 0.37238276214280952 -0.1202200447961662 0 0.37697667654897721 -0.11432232332569579 0 0.37238276214280952 -0.1202200447961662 0 0.37238276214280952 -0.1202200447961662 0 0.36083948057723231 -0.097838443973459213 0 0.37549924204530938 -0.097590425518224055 0 0.37238276214280952 -0.1202200447961662 0 0.36083948057723231 -0.097838443973459213 0 0.37549924204530938 -0.097590425518224055 0 0.37238276214280952 -0.1202200447961662 0 0.36079293792189771 -0.11623095456181121 0 0.36083948057723231 -0.097838443973459213 0 0.35223595315996897 -0.1073997300621532 0 0.34807754401515489 -0.092444136986842104 0 0.36083948057723231 -0.097838443973459213 0 0.35223595315996897 -0.1073997300621532 0 0.34807754401515489 -0.092444136986842104 0 0.35223595315996897 -0.1073997300621532 0 0.33763271757814711 -0.1014410230136977 0 0.35223595315996897 -0.1073997300621532 0 0.34377751568529819 -0.11358246064858241 0 0.33763271757814711 -0.1014410230136977 0 0.36079293792189771 -0.11623095456181121 0 0.35223595315996897 -0.1073997300621532 0 0.35134767517009519 -0.1187462493860186 0 0.35223595315996897 -0.1073997300621532 0 0.34377751568529819 -0.11358246064858241 0 0.35134767517009519 -0.1187462493860186 0 0.35134767517009519 -0.1187462493860186 0 0.34454142793642728 -0.12101200713148549 0 0.34625778742515201 -0.12820748806571561 0 0.35134767517009519 -0.1187462493860186 0 0.35539835740838338 -0.1253017398118545 0 0.34625778742515201 -0.12820748806571561 0 0.34377751568529819 -0.11358246064858241 0 0.35134767517009519 -0.1187462493860186 0 0.34454142793642728 -0.12101200713148549 0 0.36079293792189771 -0.11623095456181121 0 0.35134767517009519 -0.1187462493860186 0 0.35539835740838338 -0.1253017398118545 0 0.33678273346516358 -0.1235118304256253 0 0.33763271757814711 -0.1014410230136977 0 0.33578459770778257 -0.1178055720975011 0 0.33678273346516358 -0.1235118304256253 0 0.33763271757814711 -0.1014410230136977 0 0.34377751568529819 -0.11358246064858241 0 0.33678273346516358 -0.1235118304256253 0 0.33763271757814711 -0.1014410230136977 0 0.33578459770778257 -0.1178055720975011 0 0.32870692572008292 -0.1225199295892932 0 0.32194630411017761 -0.116861499671204 0 0.33578459770778257 -0.1178055720975011 0 0.32870692572008292 -0.1225199295892932 0 0.33678273346516358 -0.1235118304256253 0 0.34454142793642728 -0.12101200713148549 0 0.33678273346516358 -0.1235118304256253 0 0.34625778742515201 -0.12820748806571561 0 0.34377751568529819 -0.11358246064858241 0 0.34454142793642728 -0.12101200713148549 0 0.33678273346516358 -0.1235118304256253 0 0.33578459770778257 -0.1178055720975011 0 0.32860090690335458 -0.1042034123147917 0 0.33763271757814711 -0.1014410230136977 0 0.33763271757814711 -0.1014410230136977 0 0.32361731650484632 -0.095007272791978084 0 0.32872999299094913 -0.084983218396845889 0 0.32860090690335458 -0.1042034123147917 0 0.33763271757814711 -0.1014410230136977 0 0.32361731650484632 -0.095007272791978084 0 0.33578459770778257 -0.1178055720975011 0 0.32860090690335458 -0.1042034123147917 0 0.31736899582264239 -0.1025597813559898 0 0.32860090690335458 -0.1042034123147917 0 0.32361731650484632 -0.095007272791978084 0 0.31736899582264239 -0.1025597813559898 0 0.32361731650484632 -0.095007272791978084 0 0.31736899582264239 -0.1025597813559898 0 0.31246589014179349 -0.087028398154133643 0 0.33578459770778257 -0.1178055720975011 0 0.31736899582264239 -0.1025597813559898 0 0.32194630411017761 -0.116861499671204 0 0.33578459770778257 -0.1178055720975011 0 0.31736899582264239 -0.1025597813559898 0 0.31736899582264239 -0.1025597813559898 0 0.32194630411017761 -0.116861499671204 0 0.30956019103790822 -0.1138844469367243 0 0.32194630411017761 -0.116861499671204 0 0.31465036980217281 -0.12434864011112851 0 0.32235694425880768 -0.12752567326658451 0 0.32194630411017761 -0.116861499671204 0 0.31465036980217281 -0.12434864011112851 0 0.30956019103790822 -0.1138844469367243 0 0.32870692572008292 -0.1225199295892932 0 0.32194630411017761 -0.116861499671204 0 0.32235694425880768 -0.12752567326658451 0 0.33775291744608521 -0.053075242328041589 0 0.3492961990116587 -0.075456843150750352 0 0.33182902283817861 -0.066397266410848213 0 0.33775291744608521 -0.053075242328041589 0 0.3492961990116587 -0.075456843150750352 0 0.3492961990116587 -0.075456843150750352 0 0.33182902283817861 -0.066397266410848213 0 0.33848270169113048 -0.079370215601770169 0 0.32958197071229239 -0.075393953680878673 0 0.33182902283817861 -0.066397266410848213 0 0.33848270169113048 -0.079370215601770169 0 0.32958197071229239 -0.075393953680878673 0 0.33182902283817861 -0.066397266410848213 0 0.32501600693490529 -0.065575738050368149 0 0.32868717116166302 -0.057644014508220758 0 0.33182902283817861 -0.066397266410848213 0 0.32501600693490529 -0.065575738050368149 0 0.33763271757814711 -0.1014410230136977 0 0.33848270169113048 -0.079370215601770169 0 0.32872999299094913 -0.084983218396845889 0 0.33763271757814711 -0.1014410230136977 0 0.33848270169113048 -0.079370215601770169 0 0.34807754401515489 -0.092444136986842104 0 0.33763271757814711 -0.1014410230136977 0 0.33848270169113048 -0.079370215601770169 0 0.32958197071229239 -0.075393953680878673 0 0.33848270169113048 -0.079370215601770169 0 0.32872999299094913 -0.084983218396845889 0 0.32361731650484632 -0.095007272791978084 0 0.32872999299094913 -0.084983218396845889 0 0.32032762213345312 -0.077498481170915581 0 0.32958197071229239 -0.075393953680878673 0 0.32872999299094913 -0.084983218396845889 0 0.32032762213345312 -0.077498481170915581 0 0.32361731650484632 -0.095007272791978084 0 0.32032762213345312 -0.077498481170915581 0 0.31246589014179349 -0.087028398154133643 0 0.32361731650484632 -0.095007272791978084 0 0.32032762213345312 -0.077498481170915581 0 0.31703792776206369 -0.059989689549852301 0 0.32032762213345312 -0.077498481170915581 0 0.30206212231052493 -0.072762464837306001 0 0.31703792776206369 -0.059989689549852301 0 0.32032762213345312 -0.077498481170915581 0 0.32501600693490529 -0.065575738050368149 0 0.31703792776206369 -0.059989689549852301 0 0.32032762213345312 -0.077498481170915581 0 0.32958197071229239 -0.075393953680878673 0 0.32032762213345312 -0.077498481170915581 0 0.32501600693490529 -0.065575738050368149 0 0.31703792776206369 -0.059989689549852301 0 0.30206212231052493 -0.072762464837306001 0 0.30206212231052493 -0.072762464837306001 0 0.2918732303865062 -0.081452510083600438 0 0.31736899582264239 -0.1025597813559898 0 0.31246589014179349 -0.087028398154133643 0 0.29895339393750192 -0.087313990614479003 0 0.32032762213345312 -0.077498481170915581 0 0.30206212231052493 -0.072762464837306001 0 0.31246589014179349 -0.087028398154133643 0 0.30206212231052493 -0.072762464837306001 0 0.29895339393750192 -0.087313990614479003 0 0.30206212231052493 -0.072762464837306001 0 0.31246589014179349 -0.087028398154133643 0 0.29895339393750192 -0.087313990614479003 0 0.30206212231052493 -0.072762464837306001 0 0.29895339393750192 -0.087313990614479003 0 0.2918732303865062 -0.081452510083600438 0 0.2918732303865062 -0.081452510083600438 0 0.28999045198328072 -0.092335949015971322 0 0.27566265744216101 -0.095278411212527725 0 0.2918732303865062 -0.081452510083600438 0 0.27566265744216101 -0.095278411212527725 0 0.29895339393750192 -0.087313990614479003 0 0.2918732303865062 -0.081452510083600438 0 0.29895339393750192 -0.087313990614479003 0 0.2918732303865062 -0.081452510083600438 0 0.28999045198328072 -0.092335949015971322 0 0.30206212231052493 -0.072762464837306001 0 0.28941114947791269 -0.068247621553731805 0 0.28957200895157231 -0.054816126934128503 0 0.2918732303865062 -0.081452510083600438 0 0.27121169726594008 -0.064347372151119547 0 0.2918732303865062 -0.081452510083600438 0 0.28941114947791269 -0.068247621553731805 0 0.27121169726594008 -0.064347372151119547 0 0.30206212231052493 -0.072762464837306001 0 0.2918732303865062 -0.081452510083600438 0 0.28941114947791269 -0.068247621553731805 0 0.30956019103790822 -0.1138844469367243 0 0.29472796973241999 -0.1070926144959695 0 0.30427239881837681 -0.12542171103814109 0 0.31465036980217281 -0.12434864011112851 0 0.30956019103790822 -0.1138844469367243 0 0.30427239881837681 -0.12542171103814109 0 0.31736899582264239 -0.1025597813559898 0 0.29895339393750192 -0.087313990614479003 0 0.31736899582264239 -0.1025597813559898 0 0.29895339393750192 -0.087313990614479003 0 0.30515263763261802 -0.1027127083507906 0 0.29895339393750192 -0.087313990614479003 0 0.30515263763261802 -0.1027127083507906 0 0.29472796973241999 -0.1070926144959695 0 0.30956019103790822 -0.1138844469367243 0 0.30515263763261802 -0.1027127083507906 0 0.29472796973241999 -0.1070926144959695 0 0.31736899582264239 -0.1025597813559898 0 0.30956019103790822 -0.1138844469367243 0 0.30515263763261802 -0.1027127083507906 0 0.29895339393750192 -0.087313990614479003 0 0.28999045198328072 -0.092335949015971322 0 0.29472796973241999 -0.1070926144959695 0 0.29895339393750192 -0.087313990614479003 0 0.29472796973241999 -0.1070926144959695 0 0.28999045198328072 -0.092335949015971322 0 0.28667858952443531 -0.099757478989872875 0 0.29472796973241999 -0.1070926144959695 0 0.28999045198328072 -0.092335949015971322 0 0.28667858952443531 -0.099757478989872875 0 0.27566265744216101 -0.095278411212527725 0 0.28667858952443531 -0.099757478989872875 0 0.28571677358664521 -0.11025429378044869 0 0.27566265744216101 -0.095278411212527725 0 0.28667858952443531 -0.099757478989872875 0 0.29472796973241999 -0.1070926144959695 0 0.28571677358664521 -0.11025429378044869 0 0.27789459767294372 -0.1236820405587717 0 0.2797956002438387 -0.1108929097088911 0 0.29050254552734162 -0.1268712383774607 0 0.29472796973241999 -0.1070926144959695 0 0.28571677358664521 -0.11025429378044869 0 0.29050254552734162 -0.1268712383774607 0 0.29472796973241999 -0.1070926144959695 0 0.29050254552734162 -0.1268712383774607 0 0.30427239881837681 -0.12542171103814109 0 0.28571677358664521 -0.11025429378044869 0 0.2797956002438387 -0.1108929097088911 0 0.29050254552734162 -0.1268712383774607 0 0.2797956002438387 -0.1108929097088911 0 0.29050254552734162 -0.1268712383774607 0 0.29472796973241999 -0.1070926144959695 0 0.29050254552734162 -0.1268712383774607 0 0.27789459767294372 -0.1236820405587717 0 0.26918952028613591 -0.1161249156824522 0 0.26811979715534262 -0.13065984817790871 0 0.27789459767294372 -0.1236820405587717 0 0.2797956002438387 -0.1108929097088911 0 0.26918952028613591 -0.1161249156824522 0 0.26918952028613591 -0.1161249156824522 0 0.27566265744216101 -0.095278411212527725 0 0.25952857979713628 -0.1090390699561984 0 0.27566265744216101 -0.095278411212527725 0 0.25952857979713628 -0.1090390699561984 0 0.2797956002438387 -0.1108929097088911 0 0.26918952028613591 -0.1161249156824522 0 0.27566265744216101 -0.095278411212527725 0 0.28571677358664521 -0.11025429378044869 0 0.2797956002438387 -0.1108929097088911 0 0.27566265744216101 -0.095278411212527725 0 0.28571677358664521 -0.11025429378044869 0 0.27566265744216101 -0.095278411212527725 0 0.27566265744216101 -0.095278411212527725 0 0.25952857979713628 -0.1090390699561984 0 0.24771348206734081 -0.093011461863686695 0 0.25952857979713628 -0.1090390699561984 0 0.25731749019477168 -0.12594871318621209 0 0.24339450215211089 -0.1227997286998682 0 0.25952857979713628 -0.1090390699561984 0 0.24339450215211089 -0.1227997286998682 0 0.26918952028613591 -0.1161249156824522 0 0.25952857979713628 -0.1090390699561984 0 0.25731749019477168 -0.12594871318621209 0 0.26918952028613591 -0.1161249156824522 0 0.25731749019477168 -0.12594871318621209 0 0.26811979715534262 -0.13065984817790871 0 0.2918732303865062 -0.081452510083600438 0 0.27121169726594008 -0.064347372151119547 0 0.27528631600214731 -0.078659855458645581 0 0.27121169726594008 -0.064347372151119547 0 0.27528631600214731 -0.078659855458645581 0 0.25911341479341748 -0.070627859047226349 0 0.27566265744216101 -0.095278411212527725 0 0.25911341479341748 -0.070627859047226349 0 0.27566265744216101 -0.095278411212527725 0 0.27528631600214731 -0.078659855458645581 0 0.25911341479341748 -0.070627859047226349 0 0.2918732303865062 -0.081452510083600438 0 0.27566265744216101 -0.095278411212527725 0 0.27528631600214731 -0.078659855458645581 0 0.27566265744216101 -0.095278411212527725 0 0.25911341479341748 -0.070627859047226349 0 0.24771348206734081 -0.093011461863686695 0 0.25911341479341748 -0.070627859047226349 0 0.24771348206734081 -0.093011461863686695 0 0.25911341479341748 -0.070627859047226349 0 0.24865985591140999 -0.07605453343057085 0 0.24771348206734081 -0.093011461863686695 0 0.25911341479341748 -0.070627859047226349 0 0.24865985591140999 -0.07605453343057085 0 0.25911341479341748 -0.070627859047226349 0 0.25097550182825579 -0.067858360500835699 0 0.24865985591140999 -0.07605453343057085 0 0.27121169726594008 -0.064347372151119547 0 0.25911341479341748 -0.070627859047226349 0 0.26398545536117279 -0.058364957206727443 0 0.27121169726594008 -0.064347372151119547 0 0.25911341479341748 -0.070627859047226349 0 0.25911341479341748 -0.070627859047226349 0 0.26398545536117279 -0.058364957206727443 0 0.25911341479341748 -0.070627859047226349 0 0.25097550182825579 -0.067858360500835699 0 0.25011840933587692 -0.057229550981744648 0 0.25911341479341748 -0.070627859047226349 0 0.25011840933587692 -0.057229550981744648 0 0.26398545536117279 -0.058364957206727443 0 0.24192092630024439 -0.040098315965731553 0 0.25911341479341748 -0.070627859047226349 0 0.25011840933587692 -0.057229550981744648 0 0.26398545536117279 -0.058364957206727443 0 0.25011840933587692 -0.057229550981744648 0 0.26398545536117279 -0.058364957206727443 0 0.24192092630024439 -0.040098315965731553 0 0.27121169726594008 -0.064347372151119547 0 0.26398545536117279 -0.058364957206727443 0 0.28957200895157231 -0.054816126934128503 0 0.26398545536117279 -0.058364957206727443 0 0.27613838751093822 -0.03248877042107555 0 0.28957200895157231 -0.054816126934128503 0 0.27121169726594008 -0.064347372151119547 0 0.28957200895157231 -0.054816126934128503 0 0.27121169726594008 -0.064347372151119547 0 0.26398545536117279 -0.058364957206727443 0 0.26398545536117279 -0.058364957206727443 0 0.27613838751093822 -0.03248877042107555 0 0.26398545536117279 -0.058364957206727443 0 0.27613838751093822 -0.03248877042107555 0 0.26162422404882868 -0.035350330703332447 0 0.26398545536117279 -0.058364957206727443 0 0.25375313424769591 -0.039650162925027828 0 0.24192092630024439 -0.040098315965731553 0 0.26398545536117279 -0.058364957206727443 0 0.26162422404882868 -0.035350330703332447 0 0.25375313424769591 -0.039650162925027828 0 0.26162422404882868 -0.035350330703332447 0 0.25375313424769591 -0.039650162925027828 0 0.25178175771781741 -0.028332578758821132 0 0.25178175771781741 -0.028332578758821132 0 0.26462077412580809 -0.01996201495963534 0 0.24437885508449611 -0.014169464230963959 0 0.26162422404882868 -0.035350330703332447 0 0.25178175771781741 -0.028332578758821132 0 0.26462077412580809 -0.01996201495963534 0 0.26462077412580809 -0.01996201495963534 0 0.26551010073206821 -0.002818362008196715 0 0.24437885508449611 -0.014169464230963959 0 0.24683678386874991 0.011759387503803471 0 0.26551010073206821 -0.002818362008196715 0 0.24437885508449611 -0.014169464230963959 0 0.26462077412580809 -0.01996201495963534 0 0.26551010073206821 -0.002818362008196715 0 0.28829131966070071 -0.0066125836354222764 0 0.27613838751093822 -0.03248877042107555 0 0.26462077412580809 -0.01996201495963534 0 0.28829131966070071 -0.0066125836354222764 0 0.27613838751093822 -0.03248877042107555 0 0.26162422404882868 -0.035350330703332447 0 0.26462077412580809 -0.01996201495963534 0 0.27613838751093822 -0.03248877042107555 0 0.29510575377019949 -0.02276801052700856 0 0.29347087893149493 -0.037392288578006722 0 0.27613838751093822 -0.03248877042107555 0 0.28829131966070071 -0.0066125836354222764 0 0.27613838751093822 -0.03248877042107555 0 0.29510575377019949 -0.02276801052700856 0 0.28829131966070071 -0.0066125836354222764 0 0.29510575377019949 -0.02276801052700856 0 0.28829131966070071 -0.0066125836354222764 0 0.3072150660094447 -0.007709319359657428 0 0.30312307274936412 0.01406956014008471 0 0.31466635431493811 -0.0083120406826240611 0 0.3072150660094447 -0.007709319359657428 0 0.30312307274936412 0.01406956014008471 0 0.28829131966070071 -0.0066125836354222764 0 0.3072150660094447 -0.007709319359657428 0 0.31267737272612328 -0.023073951876764531 0 0.31466635431493811 -0.0083120406826240611 0 0.3072150660094447 -0.007709319359657428 0 0.29510575377019949 -0.02276801052700856 0 0.31130705926952562 -0.029488198859399531 0 0.29347087893149493 -0.037392288578006722 0 0.29510575377019949 -0.02276801052700856 0 0.3072150660094447 -0.007709319359657428 0 0.31130705926952562 -0.029488198859399531 0 0.31267737272612328 -0.023073951876764531 0 0.3072150660094447 -0.007709319359657428 0 0.31130705926952562 -0.029488198859399531 0 0.3072150660094447 -0.007709319359657428 0 0.31130705926952562 -0.029488198859399531 0 0.31267737272612328 -0.023073951876764531 0 0.31130705926952562 -0.029488198859399531 0 0.31130705926952562 -0.029488198859399531 0 0.30793232063720333 -0.045284881717135163 0 0.30793232063720333 -0.045284881717135163 0 0.28957200895157231 -0.054816126934128503 0 0.29347087893149493 -0.037392288578006722 0 0.31130705926952562 -0.029488198859399531 0 0.30793232063720333 -0.045284881717135163 0 0.29347087893149493 -0.037392288578006722 0 0.31371139561421901 -0.042284835657113912 0 0.31130705926952562 -0.029488198859399531 0 0.30793232063720333 -0.045284881717135163 0 0.31371139561421901 -0.042284835657113912 0 0.30793232063720333 -0.045284881717135163 0 0.30793232063720333 -0.045284881717135163 0 0.28957200895157231 -0.054816126934128503 0 0.30206212231052493 -0.072762464837306001 0 0.30793232063720333 -0.045284881717135163 0 0.30206212231052493 -0.072762464837306001 0 0.30793232063720333 -0.045284881717135163 0 0.28957200895157231 -0.054816126934128503 0 0.31703792776206369 -0.059989689549852301 0 0.30206212231052493 -0.072762464837306001 0 0.30793232063720333 -0.045284881717135163 0 0.28941114947791269 -0.068247621553731805 0 0.27121169726594008 -0.064347372151119547 0 0.28957200895157231 -0.054816126934128503 0 0.27613838751093822 -0.03248877042107555 0 0.28957200895157231 -0.054816126934128503 0 0.29347087893149493 -0.037392288578006722 0 0.2901895543718942 -0.20331358251174389 0 0.28882855761837217 -0.21822828656883059 0 0.27276318420427342 -0.21171587410284631 0 0.2901895543718942 -0.20331358251174389 0 0.28882855761837217 -0.21822828656883059 0 0.30257728722900651 -0.20641095801939141 0 0.2901895543718942 -0.20331358251174389 0 0.2864673315485971 -0.18857269096870971 0 0.27276318420427342 -0.21171587410284631 0 0.2901895543718942 -0.20331358251174389 0 0.2864673315485971 -0.18857269096870971 0 0.30031141125922212 -0.19164010289894151 0 0.2901895543718942 -0.20331358251174389 0 0.30031141125922212 -0.19164010289894151 0 0.30257728722900651 -0.20641095801939141 0 0.30257728722900651 -0.20641095801939141 0 0.31873946476964099 -0.20927867747335119 0 0.31580565348166872 -0.19285440386061531 0 0.30031141125922212 -0.19164010289894151 0 0.31492602693197308 -0.18223776800018221 0 0.31580565348166872 -0.19285440386061531 0 0.30031141125922212 -0.19164010289894151 0 0.30257728722900651 -0.20641095801939141 0 0.31580565348166872 -0.19285440386061531 0 0.30257728722900651 -0.20641095801939141 0 0.30328234079198207 -0.2277988607956889 0 0.31873946476964099 -0.20927867747335119 0 0.30328234079198207 -0.2277988607956889 0 0.31873946476964099 -0.20927867747335119 0 0.28882855761837217 -0.21822828656883059 0 0.30257728722900651 -0.20641095801939141 0 0.30328234079198207 -0.2277988607956889 0 0.30328234079198207 -0.2277988607956889 0 0.31977706647397991 -0.2285397872168615 0 0.31130958313709772 -0.25056939357745778 0 0.30328234079198207 -0.2277988607956889 0 0.28782521681432333 -0.2463190441180266 0 0.31130958313709772 -0.25056939357745778 0 0.30328234079198207 -0.2277988607956889 0 0.28782521681432333 -0.2463190441180266 0 0.28882855761837217 -0.21822828656883059 0 0.28782521681432333 -0.2463190441180266 0 0.27519627496391352 -0.2287856402620693 0 0.28882855761837217 -0.21822828656883059 0 0.30328234079198207 -0.2277988607956889 0 0.28782521681432333 -0.2463190441180266 0 0.27519627496391352 -0.2287856402620693 0 0.25905903685994958 -0.2348590572369828 0 0.27276318420427342 -0.21171587410284631 0 0.25905903685994958 -0.2348590572369828 0 0.27276318420427342 -0.21171587410284631 0 0.28882855761837217 -0.21822828656883059 0 0.27519627496391352 -0.2287856402620693 0 0.27276318420427342 -0.21171587410284631 0 0.28782521681432333 -0.2463190441180266 0 0.27519627496391352 -0.2287856402620693 0 0.2630291194435031 -0.25044460028586613 0 0.27519627496391352 -0.2287856402620693 0 0.25905903685994958 -0.2348590572369828 0 0.2630291194435031 -0.25044460028586613 0 0.25905903685994958 -0.2348590572369828 0 0.2630291194435031 -0.25044460028586613 0 0.24535488951562551 -0.25800224037111918 0 0.25905903685994958 -0.2348590572369828 0 0.24535488951562551 -0.25800224037111918 0 0.25905903685994958 -0.2348590572369828 0 0.25377173369077372 -0.2124540150332884 0 0.27276318420427342 -0.21171587410284631 0 0.25905903685994958 -0.2348590572369828 0 0.25377173369077372 -0.2124540150332884 0 0.246779265349475 -0.2239407451329273 0 0.25377173369077372 -0.2124540150332884 0 0.27276318420427342 -0.21171587410284631 0 0.26428846876708367 -0.19263317335286001 0 0.2864673315485971 -0.18857269096870971 0 0.27276318420427342 -0.21171587410284631 0 0.2864673315485971 -0.18857269096870971 0 0.27276318420427342 -0.21171587410284631 0 0.26428846876708367 -0.19263317335286001 0 0.26428846876708367 -0.19263317335286001 0 0.26138513676447039 -0.18815136968462029 0 0.23675620859229421 -0.20398690512122819 0 0.25377173369077372 -0.2124540150332884 0 0.26428846876708367 -0.19263317335286001 0 0.23675620859229421 -0.20398690512122819 0 0.26428846876708367 -0.19263317335286001 0 0.23675620859229421 -0.20398690512122819 0 0.26138513676447039 -0.18815136968462029 0 0.25281650411849421 -0.1846040055569744 0 0.24663725417394089 -0.1905812705241178 0 0.25281650411849421 -0.1846040055569744 0 0.25262994893466689 -0.17791068797942161 0 0.2449674821271535 -0.18293464922919139 0 0.26138513676447039 -0.18815136968462029 0 0.25281650411849421 -0.1846040055569744 0 0.25808188072313482 -0.1824945048360759 0 0.25281650411849421 -0.1846040055569744 0 0.25808188072313482 -0.1824945048360759 0 0.25262994893466689 -0.17791068797942161 0 0.25808188072313482 -0.1824945048360759 0 0.26082609047061939 -0.17826782134071259 0 0.26717344057860842 -0.17920306991830409 0 0.26138513676447039 -0.18815136968462029 0 0.25808188072313482 -0.1824945048360759 0 0.26717344057860842 -0.17920306991830409 0 0.26082609047061939 -0.17826782134071259 0 0.26406130906314701 -0.17038826627577469 0 0.26956002999817108 -0.1747858194820994 0 0.26082609047061939 -0.17826782134071259 0 0.25822198686113851 -0.1734069945338598 0 0.26406130906314701 -0.17038826627577469 0 0.26082609047061939 -0.17826782134071259 0 0.25822198686113851 -0.1734069945338598 0 0.25262994893466689 -0.17791068797942161 0 0.25808188072313482 -0.1824945048360759 0 0.26082609047061939 -0.17826782134071259 0 0.25262994893466689 -0.17791068797942161 0 0.25262994893466689 -0.17791068797942161 0 0.25449806329141439 -0.1681487817390932 0 0.24506882269397101 -0.17532202276439099 0 0.25822198686113851 -0.1734069945338598 0 0.25262994893466689 -0.17791068797942161 0 0.25449806329141439 -0.1681487817390932 0 0.25449806329141439 -0.1681487817390932 0 0.25185696020268089 -0.1592535805797782 0 0.2444564780514048 -0.167140705308327 0 0.25449806329141439 -0.1681487817390932 0 0.25185696020268089 -0.1592535805797782 0 0.2614702897089588 -0.16060263255398119 0 0.25185696020268089 -0.1592535805797782 0 0.2614702897089588 -0.16060263255398119 0 0.26082237698736882 -0.150721273683947 0 0.25822198686113851 -0.1734069945338598 0 0.25449806329141439 -0.1681487817390932 0 0.26406130906314701 -0.17038826627577469 0 0.2614702897089588 -0.16060263255398119 0 0.26406130906314701 -0.17038826627577469 0 0.26976732331432768 -0.16347745048805831 0 0.25449806329141439 -0.1681487817390932 0 0.2614702897089588 -0.16060263255398119 0 0.26406130906314701 -0.17038826627577469 0 0.26406130906314701 -0.17038826627577469 0 0.27414696219302009 -0.16941853592734629 0 0.26956002999817108 -0.1747858194820994 0 0.26406130906314701 -0.17038826627577469 0 0.26976732331432768 -0.16347745048805831 0 0.27414696219302009 -0.16941853592734629 0 0.26976732331432768 -0.16347745048805831 0 0.27414696219302009 -0.16941853592734629 0 0.27565641393144391 -0.16504644016991521 0 0.2614702897089588 -0.16060263255398119 0 0.26976732331432768 -0.16347745048805831 0 0.27127545728058938 -0.15396110787429421 0 0.26976732331432768 -0.16347745048805831 0 0.27690664545715421 -0.15970524482509951 0 0.27127545728058938 -0.15396110787429421 0 0.26976732331432768 -0.16347745048805831 0 0.27690664545715421 -0.15970524482509951 0 0.27565641393144391 -0.16504644016991521 0 0.27690664545715421 -0.15970524482509951 0 0.27565641393144391 -0.16504644016991521 0 0.28180472476127372 -0.16758452943915661 0 0.27414696219302009 -0.16941853592734629 0 0.28601406493664638 -0.17231583424801261 0 0.28180472476127372 -0.16758452943915661 0 0.27414696219302009 -0.16941853592734629 0 0.27565641393144391 -0.16504644016991521 0 0.28180472476127372 -0.16758452943915661 0 0.27414696219302009 -0.16941853592734629 0 0.26956002999817108 -0.1747858194820994 0 0.28601406493664638 -0.17231583424801261 0 0.26428846876708367 -0.19263317335286001 0 0.29182072894187339 -0.18127944158449191 0 0.26956002999817108 -0.1747858194820994 0 0.26717344057860842 -0.17920306991830409 0 0.28601406493664638 -0.17231583424801261 0 0.26138513676447039 -0.18815136968462029 0 0.28601406493664638 -0.17231583424801261 0 0.26428846876708367 -0.19263317335286001 0 0.29182072894187339 -0.18127944158449191 0 0.28601406493664638 -0.17231583424801261 0 0.2864673315485971 -0.18857269096870971 0 0.26428846876708367 -0.19263317335286001 0 0.29182072894187339 -0.18127944158449191 0 0.26138513676447039 -0.18815136968462029 0 0.26717344057860842 -0.17920306991830409 0 0.28601406493664638 -0.17231583424801261 0 0.26428846876708367 -0.19263317335286001 0 0.26138513676447039 -0.18815136968462029 0 0.28601406493664638 -0.17231583424801261 0 0.26082609047061939 -0.17826782134071259 0 0.26956002999817108 -0.1747858194820994 0 0.26717344057860842 -0.17920306991830409 0 0.25731749019477168 -0.12594871318621209 0 0.25840274825081178 -0.13947585341175081 0 0.26811979715534262 -0.13065984817790871 0 0.25731749019477168 -0.12594871318621209 0 0.25840274825081178 -0.13947585341175081 0 0.24526979352709261 -0.13759286318909431 0 0.25840274825081178 -0.13947585341175081 0 0.26082237698736882 -0.150721273683947 0 0.2724122683822201 -0.1423401572430712 0 0.25840274825081178 -0.13947585341175081 0 0.26082237698736882 -0.150721273683947 0 0.2495687825012961 -0.14881593215434519 0 0.25840274825081178 -0.13947585341175081 0 0.24526979352709261 -0.13759286318909431 0 0.2495687825012961 -0.14881593215434519 0 0.25185696020268089 -0.1592535805797782 0 0.26082237698736882 -0.150721273683947 0 0.2495687825012961 -0.14881593215434519 0 0.2614702897089588 -0.16060263255398119 0 0.26082237698736882 -0.150721273683947 0 0.27127545728058938 -0.15396110787429421 0 0.26082237698736882 -0.150721273683947 0 0.27127545728058938 -0.15396110787429421 0 0.2724122683822201 -0.1423401572430712 0 0.27690664545715421 -0.15970524482509951 0 0.27127545728058938 -0.15396110787429421 0 0.28615363514430608 -0.14722788390830829 0 0.2724122683822201 -0.1423401572430712 0 0.27901656877643027 -0.134156233653104 0 0.28615363514430608 -0.14722788390830829 0 0.27127545728058938 -0.15396110787429421 0 0.2724122683822201 -0.1423401572430712 0 0.28615363514430608 -0.14722788390830829 0 0.25840274825081178 -0.13947585341175081 0 0.2724122683822201 -0.1423401572430712 0 0.26811979715534262 -0.13065984817790871 0 0.2724122683822201 -0.1423401572430712 0 0.27901656877643027 -0.134156233653104 0 0.26811979715534262 -0.13065984817790871 0 0.27789459767294372 -0.1236820405587717 0 0.27901656877643027 -0.134156233653104 0 0.26811979715534262 -0.13065984817790871 0 0.29050254552734162 -0.1268712383774607 0 0.28615363514430608 -0.14722788390830829 0 0.3014642783353978 -0.14322979489814 0 0.29050254552734162 -0.1268712383774607 0 0.28615363514430608 -0.14722788390830829 0 0.29050254552734162 -0.1268712383774607 0 0.3014642783353978 -0.14322979489814 0 0.27901656877643027 -0.134156233653104 0 0.29050254552734162 -0.1268712383774607 0 0.28615363514430608 -0.14722788390830829 0 0.27789459767294372 -0.1236820405587717 0 0.27901656877643027 -0.134156233653104 0 0.29050254552734162 -0.1268712383774607 0 0.28615363514430608 -0.14722788390830829 0 0.29974744506395989 -0.154341337973496 0 0.3014642783353978 -0.14322979489814 0 0.28615363514430608 -0.14722788390830829 0 0.29974744506395989 -0.154341337973496 0 0.29460164558867619 -0.16100540250895509 0 0.31188588133795148 -0.14717196384583939 0 0.3014642783353978 -0.14322979489814 0 0.31242601114345242 -0.15958835141882041 0 0.29974744506395989 -0.154341337973496 0 0.3014642783353978 -0.14322979489814 0 0.31242601114345242 -0.15958835141882041 0 0.3014642783353978 -0.14322979489814 0 0.31242601114345242 -0.15958835141882041 0 0.31188588133795148 -0.14717196384583939 0 0.3014642783353978 -0.14322979489814 0 0.31472903847502348 -0.13710353140942441 0 0.3014642783353978 -0.14322979489814 0 0.30427239881837681 -0.12542171103814109 0 0.31472903847502348 -0.13710353140942441 0 0.29050254552734162 -0.1268712383774607 0 0.3014642783353978 -0.14322979489814 0 0.30427239881837681 -0.12542171103814109 0 0.31465036980217281 -0.12434864011112851 0 0.30427239881837681 -0.12542171103814109 0 0.31472903847502348 -0.13710353140942441 0 0.29182072894187339 -0.18127944158449191 0 0.28601406493664638 -0.17231583424801261 0 0.29645020237942271 -0.1709592677514096 0 0.2864673315485971 -0.18857269096870971 0 0.30031141125922212 -0.19164010289894151 0 0.29182072894187339 -0.18127944158449191 0 0.28615363514430608 -0.14722788390830829 0 0.28180472476127372 -0.16758452943915661 0 0.27690664545715421 -0.15970524482509951 0 0.28615363514430608 -0.14722788390830829 0 0.28180472476127372 -0.16758452943915661 0 0.28601406493664638 -0.17231583424801261 0 0.28180472476127372 -0.16758452943915661 0 0.28900485456206498 -0.16381858357116841 0 0.28615363514430608 -0.14722788390830829 0 0.28180472476127372 -0.16758452943915661 0 0.28900485456206498 -0.16381858357116841 0 0.28615363514430608 -0.14722788390830829 0 0.28900485456206498 -0.16381858357116841 0 0.29460164558867619 -0.16100540250895509 0 0.28900485456206498 -0.16381858357116841 0 0.29460164558867619 -0.16100540250895509 0 0.29645020237942271 -0.1709592677514096 0 0.28601406493664638 -0.17231583424801261 0 0.28900485456206498 -0.16381858357116841 0 0.29645020237942271 -0.1709592677514096 0 0.29645020237942271 -0.1709592677514096 0 0.30336575277739569 -0.1649866071240757 0 0.31935298911666288 -0.16992570981612401 0 0.30336575277739569 -0.1649866071240757 0 0.31242601114345242 -0.15958835141882041 0 0.31935298911666288 -0.16992570981612401 0 0.29460164558867619 -0.16100540250895509 0 0.29645020237942271 -0.1709592677514096 0 0.30336575277739569 -0.1649866071240757 0 0.29974744506395989 -0.154341337973496 0 0.29460164558867619 -0.16100540250895509 0 0.30336575277739569 -0.1649866071240757 0 0.30336575277739569 -0.1649866071240757 0 0.31242601114345242 -0.15958835141882041 0 0.29974744506395989 -0.154341337973496 0 0.30336575277739569 -0.1649866071240757 0 0.31242601114345242 -0.15958835141882041 0 0.29182072894187339 -0.18127944158449191 0 0.31492602693197308 -0.18223776800018221 0 0.31935298911666288 -0.16992570981612401 0 0.29182072894187339 -0.18127944158449191 0 0.29645020237942271 -0.1709592677514096 0 0.31935298911666288 -0.16992570981612401 0 0.30031141125922212 -0.19164010289894151 0 0.29182072894187339 -0.18127944158449191 0 0.31492602693197308 -0.18223776800018221 0 0.29182072894187339 -0.18127944158449191 0 0.31935298911666288 -0.16992570981612401 0 0.31492602693197308 -0.18223776800018221 0 0.32543503730700107 -0.18049208738863859 0 0.31580565348166872 -0.19285440386061531 0 0.32543503730700107 -0.18049208738863859 0 0.31580565348166872 -0.19285440386061531 0 0.32543503730700107 -0.18049208738863859 0 0.32278117042989612 -0.17504169820570381 0 0.33506442113233381 -0.16812977091666209 0 0.31492602693197308 -0.18223776800018221 0 0.32543503730700107 -0.18049208738863859 0 0.32278117042989612 -0.17504169820570381 0 0.32278117042989612 -0.17504169820570381 0 0.31935298911666288 -0.16992570981612401 0 0.31492602693197308 -0.18223776800018221 0 0.32278117042989612 -0.17504169820570381 0 0.31935298911666288 -0.16992570981612401 0 0.31935298911666288 -0.16992570981612401 0 0.3254907552331423 -0.16047896798754049 0 0.33524768687153139 -0.16337106687354189 0 0.31935298911666288 -0.16992570981612401 0 0.33524768687153139 -0.16337106687354189 0 0.32278117042989612 -0.17504169820570381 0 0.31935298911666288 -0.16992570981612401 0 0.33506442113233381 -0.16812977091666209 0 0.31242601114345242 -0.15958835141882041 0 0.31935298911666288 -0.16992570981612401 0 0.31242601114345242 -0.15958835141882041 0 0.31935298911666288 -0.16992570981612401 0 0.3254907552331423 -0.16047896798754049 0 0.31242601114345242 -0.15958835141882041 0 0.3254907552331423 -0.16047896798754049 0 0.32655953527369658 -0.15116735786776639 0 0.31935298911666288 -0.16992570981612401 0 0.33506442113233381 -0.16812977091666209 0 0.33524768687153139 -0.16337106687354189 0 0.33506442113233381 -0.16812977091666209 0 0.33524768687153139 -0.16337106687354189 0 0.3254907552331423 -0.16047896798754049 0 0.33524768687153139 -0.16337106687354189 0 0.3356080830871897 -0.15401296788525901 0 0.33524768687153139 -0.16337106687354189 0 0.3356080830871897 -0.15401296788525901 0 0.34043847896555829 -0.16123049211771581 0 0.3356080830871897 -0.15401296788525901 0 0.34400381059896368 -0.15665327733645951 0 0.33524768687153139 -0.16337106687354189 0 0.34043847896555829 -0.16123049211771581 0 0.3356080830871897 -0.15401296788525901 0 0.33524768687153139 -0.16337106687354189 0 0.34043847896555829 -0.16123049211771581 0 0.34226577709029582 -0.16047695235609069 0 0.34043847896555829 -0.16123049211771581 0 0.34283934347723538 -0.16542603964217459 0 0.34226577709029582 -0.16047695235609069 0 0.34043847896555829 -0.16123049211771581 0 0.34226577709029582 -0.16047695235609069 0 0.34043847896555829 -0.16123049211771581 0 0.34400381059896368 -0.15665327733645951 0 0.34043847896555829 -0.16123049211771581 0 0.34400381059896368 -0.15665327733645951 0 0.33506442113233381 -0.16812977091666209 0 0.34283934347723538 -0.16542603964217459 0 0.34613879547604931 -0.17194612786331739 0 0.33506442113233381 -0.16812977091666209 0 0.34043847896555829 -0.16123049211771581 0 0.33506442113233381 -0.16812977091666209 0 0.34043847896555829 -0.16123049211771581 0 0.34283934347723538 -0.16542603964217459 0 0.33506442113233381 -0.16812977091666209 0 0.33524768687153139 -0.16337106687354189 0 0.34043847896555829 -0.16123049211771581 0 0.33506442113233381 -0.16812977091666209 0 0.33419658874730002 -0.19075849415101331 0 0.32543503730700107 -0.18049208738863859 0 0.33506442113233381 -0.16812977091666209 0 0.33419658874730002 -0.19075849415101331 0 0.33506442113233381 -0.16812977091666209 0 0.34643535054657948 -0.1837828614192841 0 0.33419658874730002 -0.19075849415101331 0 0.33506442113233381 -0.16812977091666209 0 0.34643535054657948 -0.1837828614192841 0 0.34613879547604931 -0.17194612786331739 0 0.32543503730700107 -0.18049208738863859 0 0.33506442113233381 -0.16812977091666209 0 0.32870692572008292 -0.1225199295892932 0 0.32235694425880768 -0.12752567326658451 0 0.32889988846692919 -0.1295198064734436 0 0.32235694425880768 -0.12752567326658451 0 0.32520913897846082 -0.13480063234501341 0 0.32889988846692919 -0.1295198064734436 0 0.31465036980217281 -0.12434864011112851 0 0.32235694425880768 -0.12752567326658451 0 0.31472903847502348 -0.13710353140942441 0 0.31472903847502348 -0.13710353140942441 0 0.32520913897846082 -0.13480063234501341 0 0.32503032543995281 -0.14268986351485391 0 0.32520913897846082 -0.13480063234501341 0 0.32503032543995281 -0.14268986351485391 0 0.33037096714053821 -0.1352209541192986 0 0.32235694425880768 -0.12752567326658451 0 0.31472903847502348 -0.13710353140942441 0 0.32520913897846082 -0.13480063234501341 0 0.32503032543995281 -0.14268986351485391 0 0.31892419739793221 -0.14876617765697281 0 0.32655953527369658 -0.15116735786776639 0 0.31472903847502348 -0.13710353140942441 0 0.32503032543995281 -0.14268986351485391 0 0.31892419739793221 -0.14876617765697281 0 0.31188588133795148 -0.14717196384583939 0 0.31472903847502348 -0.13710353140942441 0 0.31892419739793221 -0.14876617765697281 0 0.31188588133795148 -0.14717196384583939 0 0.31242601114345242 -0.15958835141882041 0 0.31892419739793221 -0.14876617765697281 0 0.31242601114345242 -0.15958835141882041 0 0.31892419739793221 -0.14876617765697281 0 0.32655953527369658 -0.15116735786776639 0 0.31242601114345242 -0.15958835141882041 0 0.32655953527369658 -0.15116735786776639 0 0.31892419739793221 -0.14876617765697281 0 0.32655953527369658 -0.15116735786776639 0 0.3356080830871897 -0.15401296788525901 0 0.33593274935218242 -0.1455826378375531 0 0.32655953527369658 -0.15116735786776639 0 0.3356080830871897 -0.15401296788525901 0 0.3254907552331423 -0.16047896798754049 0 0.32655953527369658 -0.15116735786776639 0 0.3356080830871897 -0.15401296788525901 0 0.32655953527369658 -0.15116735786776639 0 0.3356080830871897 -0.15401296788525901 0 0.33593274935218242 -0.1455826378375531 0 0.3356080830871897 -0.15401296788525901 0 0.34032497089855718 -0.15061240195343989 0 0.34400381059896368 -0.15665327733645951 0 0.3356080830871897 -0.15401296788525901 0 0.34400381059896368 -0.15665327733645951 0 0.3356080830871897 -0.15401296788525901 0 0.34032497089855718 -0.15061240195343989 0 0.33593274935218242 -0.1455826378375531 0 0.34032497089855718 -0.15061240195343989 0 0.34575524055589563 -0.14620072475448859 0 0.34400381059896368 -0.15665327733645951 0 0.33593274935218242 -0.1455826378375531 0 0.35150871195898548 -0.13630221496109449 0 0.34032497089855718 -0.15061240195343989 0 0.33593274935218242 -0.1455826378375531 0 0.34575524055589563 -0.14620072475448859 0 0.32503032543995281 -0.14268986351485391 0 0.32655953527369658 -0.15116735786776639 0 0.33593274935218242 -0.1455826378375531 0 0.32503032543995281 -0.14268986351485391 0 0.33593274935218242 -0.1455826378375531 0 0.33037096714053821 -0.1352209541192986 0 0.32655953527369658 -0.15116735786776639 0 0.33593274935218242 -0.1455826378375531 0 0.33678273346516358 -0.1235118304256253 0 0.33593274935218242 -0.1455826378375531 0 0.33678273346516358 -0.1235118304256253 0 0.33593274935218242 -0.1455826378375531 0 0.34625778742515201 -0.12820748806571561 0 0.33678273346516358 -0.1235118304256253 0 0.33593274935218242 -0.1455826378375531 0 0.33037096714053821 -0.1352209541192986 0 0.32520913897846082 -0.13480063234501341 0 0.33037096714053821 -0.1352209541192986 0 0.32889988846692919 -0.1295198064734436 0 0.32870692572008292 -0.1225199295892932 0 0.33678273346516358 -0.1235118304256253 0 0.32889988846692919 -0.1295198064734436 0 0.33678273346516358 -0.1235118304256253 0 0.33037096714053821 -0.1352209541192986 0 0.32889988846692919 -0.1295198064734436 0 0.33593274935218242 -0.1455826378375531 0 0.34625778742515201 -0.12820748806571561 0 0.35150871195898548 -0.13630221496109449 0 0.35539835740838338 -0.1253017398118545 0 0.35150871195898548 -0.13630221496109449 0 0.36708467456578647 -0.12702179208463271 0 0.35150871195898548 -0.13630221496109449 0 0.36708467456578647 -0.12702179208463271 0 0.35539835740838338 -0.1253017398118545 0 0.34625778742515201 -0.12820748806571561 0 0.35150871195898548 -0.13630221496109449 0 0.35150871195898548 -0.13630221496109449 0 0.35554424258237499 -0.141837534710546 0 0.36708467456578647 -0.12702179208463271 0 0.35554424258237499 -0.141837534710546 0 0.35993306101029388 -0.15176374222978839 0 0.34400381059896368 -0.15665327733645951 0 0.35554424258237499 -0.141837534710546 0 0.34575524055589563 -0.14620072475448859 0 0.34400381059896368 -0.15665327733645951 0 0.35150871195898548 -0.13630221496109449 0 0.35554424258237499 -0.141837534710546 0 0.34575524055589563 -0.14620072475448859 0 0.33593274935218242 -0.1455826378375531 0 0.35150871195898548 -0.13630221496109449 0 0.34575524055589563 -0.14620072475448859 0 0.35554424258237499 -0.141837534710546 0 0.34400381059896368 -0.15665327733645951 0 0.37107139429655589 -0.1440145426359126 0 0.369112796563281 -0.16454961423623601 0 0.35993306101029388 -0.15176374222978839 0 0.37107139429655589 -0.1440145426359126 0 0.369112796563281 -0.16454961423623601 0 0.37107139429655589 -0.1440145426359126 0 0.369112796563281 -0.16454961423623601 0 0.38449027771083388 -0.1513894572635473 0 0.35554424258237499 -0.141837534710546 0 0.35993306101029388 -0.15176374222978839 0 0.37107139429655589 -0.1440145426359126 0 0.35554424258237499 -0.141837534710546 0 0.37107139429655589 -0.1440145426359126 0 0.36708467456578647 -0.12702179208463271 0 0.37382079859698292 -0.12300829506131759 0 0.37107139429655589 -0.1440145426359126 0 0.36708467456578647 -0.12702179208463271 0 0.37382079859698292 -0.12300829506131759 0 0.37107139429655589 -0.1440145426359126 0 0.35554424258237499 -0.141837534710546 0 0.36708467456578647 -0.12702179208463271 0 0.37382079859698292 -0.12300829506131759 0 0.36708467456578647 -0.12702179208463271 0 0.35252840384419198 -0.17682087194012161 0 0.3643817257236725 -0.17964747199310571 0 0.35985819990234869 -0.1736343803544094 0 0.35252840384419198 -0.17682087194012161 0 0.35357262566992131 -0.1714593717658299 0 0.35985819990234869 -0.1736343803544094 0 0.35252840384419198 -0.17682087194012161 0 0.35738599051751219 -0.1844459726890082 0 0.3643817257236725 -0.17964747199310571 0 0.35252840384419198 -0.17682087194012161 0 0.35738599051751219 -0.1844459726890082 0 0.34643535054657948 -0.1837828614192841 0 0.35738599051751219 -0.1844459726890082 0 0.34643535054657948 -0.1837828614192841 0 0.35543422383456658 -0.19367586292689859 0 0.35252840384419198 -0.17682087194012161 0 0.34643535054657948 -0.1837828614192841 0 0.34613879547604931 -0.17194612786331739 0 0.35252840384419198 -0.17682087194012161 0 0.34613879547604931 -0.17194612786331739 0 0.35357262566992131 -0.1714593717658299 0 0.34283934347723538 -0.16542603964217459 0 0.34613879547604931 -0.17194612786331739 0 0.35124409037095128 -0.16565880333920399 0 0.35124409037095128 -0.16565880333920399 0 0.34400381059896368 -0.15665327733645951 0 0.369112796563281 -0.16454961423623601 0 0.34400381059896368 -0.15665327733645951 0 0.369112796563281 -0.16454961423623601 0 0.35993306101029388 -0.15176374222978839 0 0.34400381059896368 -0.15665327733645951 0 0.369112796563281 -0.16454961423623601 0 0.34613879547604931 -0.17194612786331739 0 0.35124409037095128 -0.16565880333920399 0 0.35357262566992131 -0.1714593717658299 0 0.34226577709029582 -0.16047695235609069 0 0.34283934347723538 -0.16542603964217459 0 0.35124409037095128 -0.16565880333920399 0 0.34226577709029582 -0.16047695235609069 0 0.35124409037095128 -0.16565880333920399 0 0.34400381059896368 -0.15665327733645951 0 0.35124409037095128 -0.16565880333920399 0 0.35357262566992131 -0.1714593717658299 0 0.36077548372091278 -0.16910024017432079 0 0.35357262566992131 -0.1714593717658299 0 0.36077548372091278 -0.16910024017432079 0 0.35985819990234869 -0.1736343803544094 0 0.35124409037095128 -0.16565880333920399 0 0.36077548372091278 -0.16910024017432079 0 0.369112796563281 -0.16454961423623601 0 0.36077548372091278 -0.16910024017432079 0 0.36880444767001841 -0.1677825223997961 0 0.369112796563281 -0.16454961423623601 0 0.36077548372091278 -0.16910024017432079 0 0.36880444767001841 -0.1677825223997961 0 0.36578026250481049 -0.173412012732475 0 0.36880444767001841 -0.1677825223997961 0 0.369112796563281 -0.16454961423623601 0 0.37783562985430869 -0.17813517192987749 0 0.36880444767001841 -0.1677825223997961 0 0.369112796563281 -0.16454961423623601 0 0.36578026250481049 -0.173412012732475 0 0.3643817257236725 -0.17964747199310571 0 0.37783562985430869 -0.17813517192987749 0 0.36880444767001841 -0.1677825223997961 0 0.36578026250481049 -0.173412012732475 0 0.37783562985430869 -0.17813517192987749 0 0.36578026250481049 -0.173412012732475 0 0.3643817257236725 -0.17964747199310571 0 0.35985819990234869 -0.1736343803544094 0 0.36077548372091278 -0.16910024017432079 0 0.36578026250481049 -0.173412012732475 0 0.35985819990234869 -0.1736343803544094 0 0.35738599051751219 -0.1844459726890082 0 0.3643817257236725 -0.17964747199310571 0 0.36893165078149193 -0.18989291967535391 0 0.3643817257236725 -0.17964747199310571 0 0.36893165078149193 -0.18989291967535391 0 0.37783562985430869 -0.17813517192987749 0 0.36893165078149193 -0.18989291967535391 0 0.37483845569549662 -0.20015268616075091 0 0.3657623024653317 -0.2040446567179072 0 0.36893165078149193 -0.18989291967535391 0 0.3657623024653317 -0.2040446567179072 0 0.35543422383456658 -0.19367586292689859 0 0.35738599051751219 -0.1844459726890082 0 0.36893165078149193 -0.18989291967535391 0 0.35543422383456658 -0.19367586292689859 0 0.3657623024653317 -0.2040446567179072 0 0.36280280065729381 -0.21967971020389321 0 0.37778245495640073 -0.21206951894293699 0 0.3657623024653317 -0.2040446567179072 0 0.35475939032894438 -0.20746729608702949 0 0.36280280065729381 -0.21967971020389321 0 0.37483845569549662 -0.20015268616075091 0 0.3657623024653317 -0.2040446567179072 0 0.37778245495640073 -0.21206951894293699 0 0.35475939032894438 -0.20746729608702949 0 0.34723868458834722 -0.21510816959655321 0 0.36280280065729381 -0.21967971020389321 0 0.35475939032894438 -0.20746729608702949 0 0.34723868458834722 -0.21510816959655321 0 0.34468973134557329 -0.20149799170282909 0 0.34643535054657948 -0.1837828614192841 0 0.35543422383456658 -0.19367586292689859 0 0.34468973134557329 -0.20149799170282909 0 0.35475939032894438 -0.20746729608702949 0 0.35543422383456658 -0.19367586292689859 0 0.34468973134557329 -0.20149799170282909 0 0.3657623024653317 -0.2040446567179072 0 0.35475939032894438 -0.20746729608702949 0 0.35543422383456658 -0.19367586292689859 0 0.33419658874730002 -0.19075849415101331 0 0.33324896659885062 -0.2152701194968035 0 0.34643535054657948 -0.1837828614192841 0 0.34468973134557329 -0.20149799170282909 0 0.33419658874730002 -0.19075849415101331 0 0.34468973134557329 -0.20149799170282909 0 0.33419658874730002 -0.19075849415101331 0 0.33324896659885062 -0.2152701194968035 0 0.34723868458834722 -0.21510816959655321 0 0.34468973134557329 -0.20149799170282909 0 0.33324896659885062 -0.2152701194968035 0 0.33419658874730002 -0.19075849415101331 0 0.33324896659885062 -0.2152701194968035 0 0.31873946476964099 -0.20927867747335119 0 0.33324896659885062 -0.2152701194968035 0 0.31873946476964099 -0.20927867747335119 0 0.31977706647397991 -0.2285397872168615 0 0.33419658874730002 -0.19075849415101331 0 0.31873946476964099 -0.20927867747335119 0 0.32354418607640267 -0.19334591571840459 0 0.33419658874730002 -0.19075849415101331 0 0.31873946476964099 -0.20927867747335119 0 0.31873946476964099 -0.20927867747335119 0 0.31580565348166872 -0.19285440386061531 0 0.32354418607640267 -0.19334591571840459 0 0.32543503730700107 -0.18049208738863859 0 0.31580565348166872 -0.19285440386061531 0 0.32354418607640267 -0.19334591571840459 0 0.32543503730700107 -0.18049208738863859 0 0.33419658874730002 -0.19075849415101331 0 0.32354418607640267 -0.19334591571840459 0 0.31977706647397991 -0.2285397872168615 0 0.3323049770723282 -0.23978188474100631 0 0.31130958313709772 -0.25056939357745778 0 0.30328234079198207 -0.2277988607956889 0 0.31873946476964099 -0.20927867747335119 0 0.31977706647397991 -0.2285397872168615 0 0.33324896659885062 -0.2152701194968035 0 0.3323049770723282 -0.23978188474100631 0 0.33324896659885062 -0.2152701194968035 0 0.3323049770723282 -0.23978188474100631 0 0.34877133345724137 -0.22904610794855679 0 0.33324896659885062 -0.2152701194968035 0 0.31977706647397991 -0.2285397872168615 0 0.3323049770723282 -0.23978188474100631 0 0.34723868458834722 -0.21510816959655321 0 0.33324896659885062 -0.2152701194968035 0 0.34877133345724137 -0.22904610794855679 0 0.34877133345724137 -0.22904610794855679 0 0.36383672416982049 -0.239543100794231 0 0.35119519218137091 -0.25472703687189518 0 0.3323049770723282 -0.23978188474100631 0 0.34877133345724137 -0.22904610794855679 0 0.35119519218137091 -0.25472703687189518 0 0.34877133345724137 -0.22904610794855679 0 0.36280280065729381 -0.21967971020389321 0 0.36383672416982049 -0.239543100794231 0 0.34723868458834722 -0.21510816959655321 0 0.34877133345724137 -0.22904610794855679 0 0.36280280065729381 -0.21967971020389321 0 0.36280280065729381 -0.21967971020389321 0 0.36383672416982049 -0.239543100794231 0 0.38552853978680329 -0.23411395840607141 0 0.36383672416982049 -0.239543100794231 0 0.38552853978680329 -0.23411395840607141 0 0.37160661397007527 -0.25728229464628938 0 0.38552853978680329 -0.23411395840607141 0 0.40831398977196481 -0.23193358687236509 0 0.40575943788666191 -0.2522363255071054 0 0.38552853978680329 -0.23411395840607141 0 0.38939612718232092 -0.26171010596770672 0 0.40575943788666191 -0.2522363255071054 0 0.38552853978680329 -0.23411395840607141 0 0.39610167325245299 -0.21698599754363429 0 0.40831398977196481 -0.23193358687236509 0 0.38552853978680329 -0.23411395840607141 0 0.37778245495640073 -0.21206951894293699 0 0.39610167325245299 -0.21698599754363429 0 0.36280280065729381 -0.21967971020389321 0 0.38552853978680329 -0.23411395840607141 0 0.37778245495640073 -0.21206951894293699 0 0.37778245495640073 -0.21206951894293699 0 0.3868774145787619 -0.19460364930680579 0 0.39610167325245299 -0.21698599754363429 0 0.36893165078149193 -0.18989291967535391 0 0.37483845569549662 -0.20015268616075091 0 0.3868774145787619 -0.19460364930680579 0 0.37483845569549662 -0.20015268616075091 0 0.37778245495640073 -0.21206951894293699 0 0.3868774145787619 -0.19460364930680579 0 0.36893165078149193 -0.18989291967535391 0 0.3868774145787619 -0.19460364930680579 0 0.37783562985430869 -0.17813517192987749 0 0.3868774145787619 -0.19460364930680579 0 0.40600796018096458 -0.20045726280631471 0 0.40407324328191702 -0.18363171021115809 0 0.3868774145787619 -0.19460364930680579 0 0.40600796018096458 -0.20045726280631471 0 0.39610167325245299 -0.21698599754363429 0 0.42298493465848103 -0.21508298250216121 0 0.42601326526888822 -0.18221255862061439 0 0.44923940859228201 -0.2017350409111954 0 0.40600796018096458 -0.20045726280631471 0 0.39610167325245299 -0.21698599754363429 0 0.42298493465848103 -0.21508298250216121 0 0.40600796018096458 -0.20045726280631471 0 0.42298493465848103 -0.21508298250216121 0 0.42601326526888822 -0.18221255862061439 0 0.40600796018096458 -0.20045726280631471 0 0.40407324328191702 -0.18363171021115809 0 0.42601326526888822 -0.18221255862061439 0 0.42298493465848103 -0.21508298250216121 0 0.42544900547299258 -0.24128181063483539 0 0.44482500421578192 -0.22859256339271339 0 0.42544900547299258 -0.24128181063483539 0 0.40831398977196481 -0.23193358687236509 0 0.40575943788666191 -0.2522363255071054 0 0.42298493465848103 -0.21508298250216121 0 0.42544900547299258 -0.24128181063483539 0 0.40831398977196481 -0.23193358687236509 0 0.39610167325245299 -0.21698599754363429 0 0.42298493465848103 -0.21508298250216121 0 0.40831398977196481 -0.23193358687236509 0 0.39396849925603022 -0.1193750252539349 0 0.40315717850713217 -0.1250207652859732 0 0.3930505202545807 -0.1368182022302081 0 0.39396849925603022 -0.1193750252539349 0 0.3930505202545807 -0.1368182022302081 0 0.38559191724468961 -0.12679046736267011 0 0.40315717850713217 -0.1250207652859732 0 0.3930505202545807 -0.1368182022302081 0 0.41128950049943908 -0.13812861153297529 0 0.3930505202545807 -0.1368182022302081 0 0.38559191724468961 -0.12679046736267011 0 0.38021733862191293 -0.13433058066903 0 0.37382079859698292 -0.12300829506131759 0 0.37107139429655589 -0.1440145426359126 0 0.38021733862191293 -0.13433058066903 0 0.37382079859698292 -0.12300829506131759 0 0.38559191724468961 -0.12679046736267011 0 0.38021733862191293 -0.13433058066903 0 0.3930505202545807 -0.1368182022302081 0 0.38021733862191293 -0.13433058066903 0 0.38449027771083388 -0.1513894572635473 0 0.37107139429655589 -0.1440145426359126 0 0.38021733862191293 -0.13433058066903 0 0.38449027771083388 -0.1513894572635473 0 0.3930505202545807 -0.1368182022302081 0 0.38449027771083388 -0.1513894572635473 0 0.400815937451587 -0.15404205637858909 0 0.3930505202545807 -0.1368182022302081 0 0.400815937451587 -0.15404205637858909 0 0.41128950049943908 -0.13812861153297529 0 0.400815937451587 -0.15404205637858909 0 0.39253671157357828 -0.17191602579486789 0 0.40893086480739183 -0.16896905452718761 0 0.38449027771083388 -0.1513894572635473 0 0.400815937451587 -0.15404205637858909 0 0.39253671157357828 -0.17191602579486789 0 0.369112796563281 -0.16454961423623601 0 0.37783562985430869 -0.17813517192987749 0 0.39253671157357828 -0.17191602579486789 0 0.369112796563281 -0.16454961423623601 0 0.38449027771083388 -0.1513894572635473 0 0.39253671157357828 -0.17191602579486789 0 0.369112796563281 -0.16454961423623601 0 0.39253671157357828 -0.17191602579486789 0 0.3868774145787619 -0.19460364930680579 0 0.37783562985430869 -0.17813517192987749 0 0.39253671157357828 -0.17191602579486789 0 0.3868774145787619 -0.19460364930680579 0 0.40407324328191702 -0.18363171021115809 0 0.39253671157357828 -0.17191602579486789 0 0.40407324328191702 -0.18363171021115809 0 0.39253671157357828 -0.17191602579486789 0 0.40893086480739183 -0.16896905452718761 0 0.40407324328191702 -0.18363171021115809 0 0.42601326526888822 -0.18221255862061439 0 0.40893086480739183 -0.16896905452718761 0 0.42601326526888822 -0.18221255862061439 0 0.42136080128485248 -0.15379787397217601 0 0.44098874779445463 -0.15900429485330969 0 0.42601326526888822 -0.18221255862061439 0 0.40893086480739183 -0.16896905452718761 0 0.42136080128485248 -0.15379787397217601 0 0.400815937451587 -0.15404205637858909 0 0.40893086480739183 -0.16896905452718761 0 0.42136080128485248 -0.15379787397217601 0 0.400815937451587 -0.15404205637858909 0 0.42136080128485248 -0.15379787397217601 0 0.41128950049943908 -0.13812861153297529 0 0.42136080128485248 -0.15379787397217601 0 0.43721580927791781 -0.1350344527553512 0 0.41128950049943908 -0.13812861153297529 0 0.42136080128485248 -0.15379787397217601 0 0.43721580927791781 -0.1350344527553512 0 0.44098874779445463 -0.15900429485330969 0 0.41763019435124998 -0.1206557512100787 0 0.43721580927791781 -0.1350344527553512 0 0.41128950049943908 -0.13812861153297529 0 0.41763019435124998 -0.1206557512100787 0 0.40315717850713217 -0.1250207652859732 0 0.41128950049943908 -0.13812861153297529 0 0.46204322165313078 -0.1308685292825949 0 0.45806821734528219 -0.14801999594815929 0 0.47895612789121228 -0.1410639181669428 0 0.450670867287502 -0.1182239354478858 0 0.43721580927791781 -0.1350344527553512 0 0.46204322165313078 -0.1308685292825949 0 0.43721580927791781 -0.1350344527553512 0 0.46204322165313078 -0.1308685292825949 0 0.45806821734528219 -0.14801999594815929 0 0.43721580927791781 -0.1350344527553512 0 0.45806821734528219 -0.14801999594815929 0 0.44098874779445463 -0.15900429485330969 0 0.45806821734528219 -0.14801999594815929 0 0.4536538129687821 -0.17487751842967739 0 0.45806821734528219 -0.14801999594815929 0 0.4536538129687821 -0.17487751842967739 0 0.47870626092543761 -0.16128887498354441 0 0.45806821734528219 -0.14801999594815929 0 0.44098874779445463 -0.15900429485330969 0 0.4536538129687821 -0.17487751842967739 0 0.42601326526888822 -0.18221255862061439 0 0.4536538129687821 -0.17487751842967739 0 0.44923940859228201 -0.2017350409111954 0 0.42601326526888822 -0.18221255862061439 0 0.44098874779445463 -0.15900429485330969 0 0.4536538129687821 -0.17487751842967739 0 0.4536538129687821 -0.17487751842967739 0 0.47870626092543761 -0.16128887498354441 0 0.47699309385324251 -0.18801848652910891 0 0.5 -0.17347774982483011 0 0.47870626092543761 -0.16128887498354441 0 0.47699309385324251 -0.18801848652910891 0 0.5 -0.17347774982483011 0 0.47870626092543761 -0.16128887498354441 0 0.5 -0.1451065684368924 0 0.45806821734528219 -0.14801999594815929 0 0.47870626092543761 -0.16128887498354441 0 0.47895612789121228 -0.1410639181669428 0 0.47870626092543761 -0.16128887498354441 0 0.47895612789121228 -0.1410639181669428 0 0.5 -0.1451065684368924 0 0.47895612789121228 -0.1410639181669428 0 0.5 -0.1451065684368924 0 0.49138528775611379 -0.13369042680796669 0 0.5 -0.11673538704895479 0 0.5 -0.1451065684368924 0 0.49138528775611379 -0.13369042680796669 0 0.4933708278968385 -0.12191348068646821 0 0.49138528775611379 -0.13369042680796669 0 0.479388625814124 -0.12616148355817011 0 0.46204322165313078 -0.1308685292825949 0 0.47895612789121228 -0.1410639181669428 0 0.479388625814124 -0.12616148355817011 0 0.47895612789121228 -0.1410639181669428 0 0.49138528775611379 -0.13369042680796669 0 0.479388625814124 -0.12616148355817011 0 0.44482500421578192 -0.22859256339271339 0 0.47381640413083609 -0.21589238913299241 0 0.47184091812371037 -0.24493920015146309 0 0.44482500421578192 -0.22859256339271339 0 0.47184091812371037 -0.24493920015146309 0 0.4432494936185542 -0.25200837490365152 0 0.42544900547299258 -0.24128181063483539 0 0.44482500421578192 -0.22859256339271339 0 0.4432494936185542 -0.25200837490365152 0 0.44482500421578192 -0.22859256339271339 0 0.44923940859228201 -0.2017350409111954 0 0.42298493465848103 -0.21508298250216121 0 0.44482500421578192 -0.22859256339271339 0 0.44923940859228201 -0.2017350409111954 0 0.4536538129687821 -0.17487751842967739 0 0.44923940859228201 -0.2017350409111954 0 0.4536538129687821 -0.17487751842967739 0 0.44923940859228201 -0.2017350409111954 0 0.47699309385324251 -0.18801848652910891 0 0.44923940859228201 -0.2017350409111954 0 0.47381640413083609 -0.21589238913299241 0 0.47699309385324251 -0.18801848652910891 0 0.44482500421578192 -0.22859256339271339 0 0.44923940859228201 -0.2017350409111954 0 0.47381640413083609 -0.21589238913299241 0 0.47381640413083609 -0.21589238913299241 0 0.47699309385324251 -0.18801848652910891 0 0.5 -0.20184893121276781 0 0.5 -0.17347774982483011 0 0.47699309385324251 -0.18801848652910891 0 0.5 -0.20184893121276781 0 0.47381640413083609 -0.21589238913299241 0 0.5 -0.20184893121276781 0 0.5 -0.2302201126007056 0 0.47381640413083609 -0.21589238913299241 0 0.5 -0.2302201126007056 0 0.47184091812371037 -0.24493920015146309 0 0.5 -0.2302201126007056 0 0.47184091812371037 -0.24493920015146309 0 0.5 -0.25859129398864328 0 0.5 -0.25859129398864328 0 0.48124087584846897 -0.27277688468261219 0 0.5 -0.28696247537658098 0 0.47184091812371037 -0.24493920015146309 0 0.48124087584846897 -0.27277688468261219 0 0.45784373156705321 -0.27038745760819233 0 0.47184091812371037 -0.24493920015146309 0 0.5 -0.25859129398864328 0 0.48124087584846897 -0.27277688468261219 0 0.47184091812371037 -0.24493920015146309 0 0.45784373156705321 -0.27038745760819233 0 0.4432494936185542 -0.25200837490365152 0 0.45784373156705321 -0.27038745760819233 0 0.44478325626944959 -0.29010264472121838 0 0.42756117268651228 -0.26783703063101633 0 0.45784373156705321 -0.27038745760819233 0 0.4432494936185542 -0.25200837490365152 0 0.42756117268651228 -0.26783703063101633 0 0.44478325626944959 -0.29010264472121838 0 0.47080718694568419 -0.30129102592255042 0 0.44358240297116769 -0.31269733527637361 0 0.45784373156705321 -0.27038745760819233 0 0.44478325626944959 -0.29010264472121838 0 0.47080718694568419 -0.30129102592255042 0 0.48124087584846897 -0.27277688468261219 0 0.47080718694568419 -0.30129102592255042 0 0.5 -0.28696247537658098 0 0.48124087584846897 -0.27277688468261219 0 0.45784373156705321 -0.27038745760819233 0 0.47080718694568419 -0.30129102592255042 0 0.47080718694568419 -0.30129102592255042 0 0.5 -0.28696247537658098 0 0.5 -0.31533365676451869 0 0.5 -0.31533365676451869 0 0.5 -0.34370483815245662 0 0.48156395904615329 -0.33103354588743328 0 0.5 -0.34370483815245662 0 0.48156395904615329 -0.33103354588743328 0 0.48460412026473709 -0.35539024613477821 0 0.47080718694568419 -0.30129102592255042 0 0.48156395904615329 -0.33103354588743328 0 0.45663554296253323 -0.33212953090935943 0 0.47080718694568419 -0.30129102592255042 0 0.5 -0.31533365676451869 0 0.48156395904615329 -0.33103354588743328 0 0.49999999999999928 -0.37207601954039432 0 0.47387654033766469 -0.37170898997170121 0 0.49999999999999839 -0.37534123931652119 0 0.49999999999999928 -0.37207601954039432 0 0.48460412026473709 -0.35539024613477821 0 0.47387654033766469 -0.37170898997170121 0 0.49999999999999928 -0.37207601954039432 0 0.47387654033766469 -0.37170898997170121 0 0.5 -0.34370483815245662 0 0.49999999999999928 -0.37207601954039432 0 0.48460412026473709 -0.35539024613477821 0 0.48156395904615329 -0.33103354588743328 0 0.48460412026473709 -0.35539024613477821 0 0.46194916477911341 -0.3541975962014251 0 0.48460412026473709 -0.35539024613477821 0 0.47387654033766469 -0.37170898997170121 0 0.46194916477911341 -0.3541975962014251 0 0.47387654033766469 -0.37170898997170121 0 0.46194916477911341 -0.3541975962014251 0 0.44775308067532987 -0.37134196040300821 0 0.47387654033766469 -0.37170898997170121 0 0.44775308067532987 -0.37134196040300821 0 0.46194916477911341 -0.3541975962014251 0 0.44230347745903392 -0.35290605625178922 0 0.45663554296253323 -0.33212953090935943 0 0.46194916477911341 -0.3541975962014251 0 0.44230347745903392 -0.35290605625178922 0 0.44775308067532987 -0.37134196040300821 0 0.47080718694568419 -0.30129102592255042 0 0.45663554296253323 -0.33212953090935943 0 0.44358240297116769 -0.31269733527637361 0 0.48156395904615329 -0.33103354588743328 0 0.46194916477911341 -0.3541975962014251 0 0.45663554296253323 -0.33212953090935943 0 0.44230347745903392 -0.35290605625178922 0 0.45663554296253323 -0.33212953090935943 0 0.42583899099025468 -0.33688290629391271 0 0.45663554296253323 -0.33212953090935943 0 0.44358240297116769 -0.31269733527637361 0 0.42583899099025468 -0.33688290629391271 0 0.44358240297116769 -0.31269733527637361 0 0.42482053068179543 -0.31525897966157568 0 0.42583899099025468 -0.33688290629391271 0 0.42583899099025468 -0.33688290629391271 0 0.4057389415889287 -0.31315530290805688 0 0.39397138921398178 -0.33422475336609092 0 0.42583899099025468 -0.33688290629391271 0 0.40160369177390981 -0.3558872700793117 0 0.39397138921398178 -0.33422475336609092 0 0.42482053068179543 -0.31525897966157568 0 0.42583899099025468 -0.33688290629391271 0 0.4057389415889287 -0.31315530290805688 0 0.44230347745903392 -0.35290605625178922 0 0.42583899099025468 -0.33688290629391271 0 0.42162962101299528 -0.37097493083431521 0 0.42583899099025468 -0.33688290629391271 0 0.42162962101299528 -0.37097493083431521 0 0.40160369177390981 -0.3558872700793117 0 0.44230347745903392 -0.35290605625178922 0 0.44775308067532987 -0.37134196040300821 0 0.42162962101299528 -0.37097493083431521 0 0.44775308067532987 -0.37134196040300821 0 0.42162962101299528 -0.37097493083431521 0 0.42162962101299528 -0.37097493083431521 0 0.40160369177390981 -0.3558872700793117 0 0.39527869923462461 -0.37813522940353689 0 0.40160369177390981 -0.3558872700793117 0 0.37974820972394602 -0.36480795982435338 0 0.39527869923462461 -0.37813522940353689 0 0.40160369177390981 -0.3558872700793117 0 0.38604308100317419 -0.34977330741507978 0 0.39397138921398178 -0.33422475336609092 0 0.38604308100317419 -0.34977330741507978 0 0.37974820972394602 -0.36480795982435338 0 0.36965450220587109 -0.34371382883804519 0 0.40160369177390981 -0.3558872700793117 0 0.38604308100317419 -0.34977330741507978 0 0.37974820972394602 -0.36480795982435338 0 0.37974820972394602 -0.36480795982435338 0 0.39527869923462461 -0.37813522940353689 0 0.37649507247036829 -0.38108531291235598 0 0.4057389415889287 -0.31315530290805688 0 0.39397138921398178 -0.33422475336609092 0 0.37364207147767992 -0.31566781997505239 0 0.39397138921398178 -0.33422475336609092 0 0.37364207147767992 -0.31566781997505239 0 0.36965450220587109 -0.34371382883804519 0 0.38604308100317419 -0.34977330741507978 0 0.39397138921398178 -0.33422475336609092 0 0.36965450220587109 -0.34371382883804519 0 0.4057389415889287 -0.31315530290805688 0 0.38729580112930939 -0.29837529987122458 0 0.40489034629622611 -0.28079358387866588 0 0.4057389415889287 -0.31315530290805688 0 0.38729580112930939 -0.29837529987122458 0 0.37364207147767992 -0.31566781997505239 0 0.38729580112930939 -0.29837529987122458 0 0.36952656589214089 -0.28851202286124072 0 0.37364207147767992 -0.31566781997505239 0 0.38729580112930939 -0.29837529987122458 0 0.38336824327608082 -0.27840136229180468 0 0.40489034629622611 -0.28079358387866588 0 0.38729580112930939 -0.29837529987122458 0 0.38336824327608082 -0.27840136229180468 0 0.36952656589214089 -0.28851202286124072 0 0.38336824327608082 -0.27840136229180468 0 0.38939612718232092 -0.26171010596770672 0 0.37160661397007527 -0.25728229464628938 0 0.38552853978680329 -0.23411395840607141 0 0.38939612718232092 -0.26171010596770672 0 0.37160661397007527 -0.25728229464628938 0 0.38939612718232092 -0.26171010596770672 0 0.40575943788666191 -0.2522363255071054 0 0.40489034629622611 -0.28079358387866588 0 0.38336824327608082 -0.27840136229180468 0 0.38939612718232092 -0.26171010596770672 0 0.40489034629622611 -0.28079358387866588 0 0.40575943788666191 -0.2522363255071054 0 0.40489034629622611 -0.28079358387866588 0 0.42756117268651228 -0.26783703063101633 0 0.42544900547299258 -0.24128181063483539 0 0.40575943788666191 -0.2522363255071054 0 0.42756117268651228 -0.26783703063101633 0 0.42544900547299258 -0.24128181063483539 0 0.4432494936185542 -0.25200837490365152 0 0.42756117268651228 -0.26783703063101633 0 0.4057389415889287 -0.31315530290805688 0 0.40489034629622611 -0.28079358387866588 0 0.4241217871768303 -0.29830037416795963 0 0.44478325626944959 -0.29010264472121838 0 0.42756117268651228 -0.26783703063101633 0 0.4241217871768303 -0.29830037416795963 0 0.44358240297116769 -0.31269733527637361 0 0.42482053068179543 -0.31525897966157568 0 0.4241217871768303 -0.29830037416795963 0 0.44478325626944959 -0.29010264472121838 0 0.44358240297116769 -0.31269733527637361 0 0.4241217871768303 -0.29830037416795963 0 0.42482053068179543 -0.31525897966157568 0 0.4057389415889287 -0.31315530290805688 0 0.4241217871768303 -0.29830037416795963 0 0.40489034629622611 -0.28079358387866588 0 0.42756117268651228 -0.26783703063101633 0 0.4241217871768303 -0.29830037416795963 0 0.5 -0.5 0 0.44575875053383718 -0.46638206661167131 0 0.41628329042538142 -0.47596144213788327 0 0.5 -0.5 0 0.47822136115828928 -0.463278994783203 0 0.5 -0.44579436492102492 0 0.5 -0.5 0 0.47822136115828928 -0.463278994783203 0 0.44575875053383718 -0.46638206661167131 0 0.47822136115828928 -0.463278994783203 0 0.5 -0.44579436492102492 0 0.46712669409932023 -0.44093954760011589 0 0.47822136115828928 -0.463278994783203 0 0.46712669409932023 -0.44093954760011589 0 0.44575875053383718 -0.46638206661167131 0 0.44575875053383718 -0.46638206661167131 0 0.44441494065186021 -0.43749549362448731 0 0.42805167532729432 -0.45237186683058078 0 0.46712669409932023 -0.44093954760011589 0 0.44575875053383718 -0.46638206661167131 0 0.44441494065186021 -0.43749549362448731 0 0.44441494065186021 -0.43749549362448731 0 0.45670116061281618 -0.42196374816417759 0 0.43663760722068279 -0.41374458825921923 0 0.45775840481378788 -0.40094347194498642 0 0.43663760722068279 -0.41374458825921923 0 0.45670116061281618 -0.42196374816417759 0 0.45775840481378788 -0.40094347194498642 0 0.43663760722068279 -0.41374458825921923 0 0.45670116061281618 -0.42196374816417759 0 0.47756815627842991 -0.41669563939207888 0 0.45775840481378788 -0.40094347194498642 0 0.46712669409932023 -0.44093954760011589 0 0.44441494065186021 -0.43749549362448731 0 0.45670116061281618 -0.42196374816417759 0 0.46712669409932023 -0.44093954760011589 0 0.45670116061281618 -0.42196374816417759 0 0.47756815627842991 -0.41669563939207888 0 0.5 -0.44579436492102492 0 0.47756815627842991 -0.41669563939207888 0 0.5 -0.40541727647389342 0 0.5 -0.44579436492102492 0 0.46712669409932023 -0.44093954760011589 0 0.47756815627842991 -0.41669563939207888 0 0.47756815627842991 -0.41669563939207888 0 0.47887920240689291 -0.3881423556307535 0 0.45775840481378788 -0.40094347194498642 0 0.47756815627842991 -0.41669563939207888 0 0.5 -0.40541727647389342 0 0.47887920240689291 -0.3881423556307535 0 0.5 -0.40541727647389342 0 0.49999999999999839 -0.37534123931652119 0 0.47887920240689291 -0.3881423556307535 0 0.49999999999999839 -0.37534123931652119 0 0.47887920240689291 -0.3881423556307535 0 0.47387654033766469 -0.37170898997170121 0 0.49999999999999839 -0.37534123931652119 0 0.47887920240689291 -0.3881423556307535 0 0.47387654033766469 -0.37170898997170121 0 0.47887920240689291 -0.3881423556307535 0 0.45775840481378788 -0.40094347194498642 0 0.47387654033766469 -0.37170898997170121 0 0.44775308067532987 -0.37134196040300821 0 0.45775840481378788 -0.40094347194498642 0 0.47887920240689291 -0.3881423556307535 0 0.45775840481378788 -0.40094347194498642 0 0.45775840481378788 -0.40094347194498642 0 0.43996410788147111 -0.39007502673814842 0 0.43663760722068279 -0.41374458825921923 0 0.44775308067532987 -0.37134196040300821 0 0.45775840481378788 -0.40094347194498642 0 0.43996410788147111 -0.39007502673814842 0 0.42162962101299528 -0.37097493083431521 0 0.43996410788147111 -0.39007502673814842 0 0.42381707364012022 -0.39562406875606049 0 0.44775308067532987 -0.37134196040300821 0 0.42162962101299528 -0.37097493083431521 0 0.43996410788147111 -0.39007502673814842 0 0.43996410788147111 -0.39007502673814842 0 0.42381707364012022 -0.39562406875606049 0 0.43663760722068279 -0.41374458825921923 0 0.42381707364012022 -0.39562406875606049 0 0.40498798878823422 -0.39485402957812932 0 0.40893843562311999 -0.4118578598300186 0 0.42162962101299528 -0.37097493083431521 0 0.39527869923462461 -0.37813522940353689 0 0.40498798878823422 -0.39485402957812932 0 0.42162962101299528 -0.37097493083431521 0 0.42381707364012022 -0.39562406875606049 0 0.40498798878823422 -0.39485402957812932 0 0.39527869923462461 -0.37813522940353689 0 0.37649507247036829 -0.38108531291235598 0 0.3837648904206149 -0.39889542418543372 0 0.3837648904206149 -0.39889542418543372 0 0.40498798878823422 -0.39485402957812932 0 0.39331613902703932 -0.41318209728623118 0 0.39527869923462461 -0.37813522940353689 0 0.3837648904206149 -0.39889542418543372 0 0.40498798878823422 -0.39485402957812932 0 0.39331613902703932 -0.41318209728623118 0 0.40841038719391798 -0.42822859633907118 0 0.40893843562311999 -0.4118578598300186 0 0.40498798878823422 -0.39485402957812932 0 0.39331613902703932 -0.41318209728623118 0 0.40893843562311999 -0.4118578598300186 0 0.39331613902703932 -0.41318209728623118 0 0.38628483671970792 -0.43085507814865548 0 0.36940814796198862 -0.41178140455183337 0 0.3837648904206149 -0.39889542418543372 0 0.39331613902703932 -0.41318209728623118 0 0.36940814796198862 -0.41178140455183337 0 0.38628483671970792 -0.43085507814865548 0 0.37810440642401261 -0.44758900381936612 0 0.36529456863535009 -0.43293336316655529 0 0.38628483671970792 -0.43085507814865548 0 0.40841038719391798 -0.42822859633907118 0 0.40714015925919678 -0.4489809763333642 0 0.39331613902703932 -0.41318209728623118 0 0.38628483671970792 -0.43085507814865548 0 0.40841038719391798 -0.42822859633907118 0 0.40841038719391798 -0.42822859633907118 0 0.42241560741208822 -0.41826865613686459 0 0.42787932499270009 -0.4321567898817758 0 0.40841038719391798 -0.42822859633907118 0 0.42787932499270009 -0.4321567898817758 0 0.40714015925919678 -0.4489809763333642 0 0.42381707364012022 -0.39562406875606049 0 0.40893843562311999 -0.4118578598300186 0 0.42241560741208822 -0.41826865613686459 0 0.40841038719391798 -0.42822859633907118 0 0.40893843562311999 -0.4118578598300186 0 0.42241560741208822 -0.41826865613686459 0 0.42381707364012022 -0.39562406875606049 0 0.43663760722068279 -0.41374458825921923 0 0.42241560741208822 -0.41826865613686459 0 0.43663760722068279 -0.41374458825921923 0 0.42241560741208822 -0.41826865613686459 0 0.42787932499270009 -0.4321567898817758 0 0.44441494065186021 -0.43749549362448731 0 0.43663760722068279 -0.41374458825921923 0 0.42787932499270009 -0.4321567898817758 0 0.5 -0.5 0 0.38914554380320532 -0.5 0 0.41628329042538142 -0.47596144213788327 0 0.44441494065186021 -0.43749549362448731 0 0.42787932499270009 -0.4321567898817758 0 0.42805167532729432 -0.45237186683058078 0 0.44575875053383718 -0.46638206661167131 0 0.42805167532729432 -0.45237186683058078 0 0.41628329042538142 -0.47596144213788327 0 0.42805167532729432 -0.45237186683058078 0 0.40714015925919678 -0.4489809763333642 0 0.41628329042538142 -0.47596144213788327 0 0.42787932499270009 -0.4321567898817758 0 0.40714015925919678 -0.4489809763333642 0 0.42787932499270009 -0.4321567898817758 0 0.42805167532729432 -0.45237186683058078 0 0.40714015925919678 -0.4489809763333642 0 0.38628483671970792 -0.43085507814865548 0 0.40714015925919678 -0.4489809763333642 0 0.37810440642401261 -0.44758900381936612 0 0.37810440642401261 -0.44758900381936612 0 0.38640099352569351 -0.46580516278495249 0 0.36129464038229842 -0.45370986062579782 0 0.40714015925919678 -0.4489809763333642 0 0.37810440642401261 -0.44758900381936612 0 0.38640099352569351 -0.46580516278495249 0 0.40714015925919678 -0.4489809763333642 0 0.38640099352569351 -0.46580516278495249 0 0.40714015925919678 -0.4489809763333642 0 0.38640099352569351 -0.46580516278495249 0 0.41628329042538142 -0.47596144213788327 0 0.38640099352569351 -0.46580516278495249 0 0.38914554380320532 -0.5 0 0.36566182779219031 -0.48262934923654088 0 0.38640099352569351 -0.46580516278495249 0 0.38914554380320532 -0.5 0 0.41628329042538142 -0.47596144213788327 0 0.38640099352569351 -0.46580516278495249 0 0.36566182779219031 -0.48262934923654088 0 0.38914554380320532 -0.5 0 0.36566182779219031 -0.48262934923654088 0 0.30507594768347568 -0.5 0 0.33077664121849198 -0.47561654896432709 0 0.36566182779219031 -0.48262934923654088 0 0.30507594768347568 -0.5 0 0.33077664121849198 -0.47561654896432709 0 0.30761894179121241 -0.46023071420404149 0 0.30507594768347568 -0.5 0 0.33077664121849198 -0.47561654896432709 0 0.36566182779219031 -0.48262934923654088 0 0.33951493243781422 -0.45786689998016028 0 0.36566182779219031 -0.48262934923654088 0 0.36129464038229842 -0.45370986062579782 0 0.33951493243781422 -0.45786689998016028 0 0.38640099352569351 -0.46580516278495249 0 0.36566182779219031 -0.48262934923654088 0 0.36129464038229842 -0.45370986062579782 0 0.37810440642401261 -0.44758900381936612 0 0.36129464038229842 -0.45370986062579782 0 0.36529456863535009 -0.43293336316655529 0 0.36129464038229842 -0.45370986062579782 0 0.34385630792370342 -0.43470694566239149 0 0.36529456863535009 -0.43293336316655529 0 0.36129464038229842 -0.45370986062579782 0 0.33951493243781422 -0.45786689998016028 0 0.34385630792370342 -0.43470694566239149 0 0.33951493243781422 -0.45786689998016028 0 0.32788123551898879 -0.44030798118786257 0 0.34385630792370342 -0.43470694566239149 0 0.33951493243781422 -0.45786689998016028 0 0.32788123551898879 -0.44030798118786257 0 0.30761894179121241 -0.46023071420404149 0 0.33077664121849198 -0.47561654896432709 0 0.33951493243781422 -0.45786689998016028 0 0.30761894179121241 -0.46023071420404149 0 0.32788123551898879 -0.44030798118786257 0 0.3039632731490764 -0.43538893488415631 0 0.30761894179121241 -0.46023071420404149 0 0.32788123551898879 -0.44030798118786257 0 0.3039632731490764 -0.43538893488415631 0 0.32594477692881652 -0.42531531535875539 0 0.31637230045690062 -0.41295597722573318 0 0.3039632731490764 -0.43538893488415631 0 0.32788123551898879 -0.44030798118786257 0 0.32594477692881652 -0.42531531535875539 0 0.3039632731490764 -0.43538893488415631 0 0.32594477692881652 -0.42531531535875539 0 0.31637230045690062 -0.41295597722573318 0 0.33711026011548439 -0.41250059801012401 0 0.32788123551898879 -0.44030798118786257 0 0.32594477692881652 -0.42531531535875539 0 0.34385630792370342 -0.43470694566239149 0 0.32594477692881652 -0.42531531535875539 0 0.33711026011548439 -0.41250059801012401 0 0.34385630792370342 -0.43470694566239149 0 0.33711026011548439 -0.41250059801012401 0 0.34385630792370342 -0.43470694566239149 0 0.35281907240039001 -0.41895788619128771 0 0.34385630792370342 -0.43470694566239149 0 0.36529456863535009 -0.43293336316655529 0 0.35281907240039001 -0.41895788619128771 0 0.38628483671970792 -0.43085507814865548 0 0.36529456863535009 -0.43293336316655529 0 0.36940814796198862 -0.41178140455183337 0 0.36529456863535009 -0.43293336316655529 0 0.36940814796198862 -0.41178140455183337 0 0.35281907240039001 -0.41895788619128771 0 0.36940814796198862 -0.41178140455183337 0 0.35281907240039001 -0.41895788619128771 0 0.35089905260795118 -0.40437503568066913 0 0.33711026011548439 -0.41250059801012401 0 0.35281907240039001 -0.41895788619128771 0 0.35089905260795118 -0.40437503568066913 0 0.35089905260795118 -0.40437503568066913 0 0.36008852501892702 -0.39073019297914302 0 0.33659014192445108 -0.3920480352445721 0 0.3837648904206149 -0.39889542418543372 0 0.36940814796198862 -0.41178140455183337 0 0.36008852501892702 -0.39073019297914302 0 0.36940814796198862 -0.41178140455183337 0 0.35089905260795118 -0.40437503568066913 0 0.36008852501892702 -0.39073019297914302 0 0.37649507247036829 -0.38108531291235598 0 0.36008852501892702 -0.39073019297914302 0 0.36256346586118882 -0.3678544655304779 0 0.37649507247036829 -0.38108531291235598 0 0.3837648904206149 -0.39889542418543372 0 0.36008852501892702 -0.39073019297914302 0 0.36008852501892702 -0.39073019297914302 0 0.34304584715478731 -0.3750295859395143 0 0.36256346586118882 -0.3678544655304779 0 0.36008852501892702 -0.39073019297914302 0 0.34304584715478731 -0.3750295859395143 0 0.33659014192445108 -0.3920480352445721 0 0.33659014192445108 -0.3920480352445721 0 0.32282708692952439 -0.37525917737126491 0 0.34304584715478731 -0.3750295859395143 0 0.33659014192445108 -0.3920480352445721 0 0.32282708692952439 -0.37525917737126491 0 0.31637230045690062 -0.41295597722573318 0 0.33711026011548439 -0.41250059801012401 0 0.33659014192445108 -0.3920480352445721 0 0.33711026011548439 -0.41250059801012401 0 0.35089905260795118 -0.40437503568066913 0 0.33659014192445108 -0.3920480352445721 0 0.31637230045690062 -0.41295597722573318 0 0.33659014192445108 -0.3920480352445721 0 0.3129882355377871 -0.39284136650537488 0 0.33659014192445108 -0.3920480352445721 0 0.3129882355377871 -0.39284136650537488 0 0.32282708692952439 -0.37525917737126491 0 0.3129882355377871 -0.39284136650537488 0 0.32282708692952439 -0.37525917737126491 0 0.30122169906422303 -0.3774748631057584 0 0.3129882355377871 -0.39284136650537488 0 0.30122169906422303 -0.3774748631057584 0 0.29337936619384758 -0.39647940671355919 0 0.30122169906422303 -0.3774748631057584 0 0.29337936619384758 -0.39647940671355919 0 0.31637230045690062 -0.41295597722573318 0 0.3129882355377871 -0.39284136650537488 0 0.30090311459430552 -0.40897273122417499 0 0.3129882355377871 -0.39284136650537488 0 0.29337936619384758 -0.39647940671355919 0 0.30090311459430552 -0.40897273122417499 0 0.29337936619384758 -0.39647940671355919 0 0.28553703332347219 -0.41548395032135998 0 0.29337936619384758 -0.39647940671355919 0 0.27972747780199558 -0.38192949984108698 0 0.27599721611410288 -0.39375606477620467 0 0.29337936619384758 -0.39647940671355919 0 0.27779310814470443 -0.40536371506706392 0 0.28553703332347219 -0.41548395032135998 0 0.29337936619384758 -0.39647940671355919 0 0.27599721611410288 -0.39375606477620467 0 0.27779310814470443 -0.40536371506706392 0 0.30122169906422303 -0.3774748631057584 0 0.27972747780199558 -0.38192949984108698 0 0.2839482385131743 -0.3656361676507342 0 0.30122169906422303 -0.3774748631057584 0 0.29337936619384758 -0.39647940671355919 0 0.27972747780199558 -0.38192949984108698 0 0.27972747780199558 -0.38192949984108698 0 0.26615109629193312 -0.38537188759376351 0 0.26356631056480728 -0.37044284660746002 0 0.27972747780199558 -0.38192949984108698 0 0.26615109629193312 -0.38537188759376351 0 0.27599721611410288 -0.39375606477620467 0 0.26615109629193312 -0.38537188759376351 0 0.25164130808136398 -0.37945175127548469 0 0.26293503213803399 -0.39963581466554959 0 0.25164130808136398 -0.37945175127548469 0 0.26293503213803399 -0.39963581466554959 0 0.26615109629193312 -0.38537188759376351 0 0.25164130808136398 -0.37945175127548469 0 0.26356631056480728 -0.37044284660746002 0 0.25164130808136398 -0.37945175127548469 0 0.25388432824530771 -0.40250129677611379 0 0.26293503213803399 -0.39963581466554959 0 0.25164130808136398 -0.37945175127548469 0 0.25388432824530771 -0.40250129677611379 0 0.25388432824530771 -0.40250129677611379 0 0.26293503213803399 -0.39963581466554959 0 0.26023076878896451 -0.40708408350330849 0 0.26293503213803399 -0.39963581466554959 0 0.27599721611410288 -0.39375606477620467 0 0.27779310814470443 -0.40536371506706392 0 0.26615109629193312 -0.38537188759376351 0 0.26293503213803399 -0.39963581466554959 0 0.27599721611410288 -0.39375606477620467 0 0.26293503213803399 -0.39963581466554959 0 0.27779310814470443 -0.40536371506706392 0 0.2742287561947036 -0.41981987805561483 0 0.26293503213803399 -0.39963581466554959 0 0.2742287561947036 -0.41981987805561483 0 0.26425833481995492 -0.41350404573655702 0 0.26293503213803399 -0.39963581466554959 0 0.2742287561947036 -0.41981987805561483 0 0.27779310814470443 -0.40536371506706392 0 0.2742287561947036 -0.41981987805561483 0 0.28553703332347219 -0.41548395032135998 0 0.2742287561947036 -0.41981987805561483 0 0.26760966607679942 -0.42138875433758233 0 0.26425833481995492 -0.41350404573655702 0 0.25406741122191862 -0.42512718886302492 0 0.24852243941664359 -0.40738679496750541 0 0.26023076878896451 -0.40708408350330849 0 0.26425833481995492 -0.41350404573655702 0 0.26041869413378738 -0.41551811216120221 0 0.25388432824530771 -0.40250129677611379 0 0.25612734840925172 -0.42555084227674289 0 0.25388432824530771 -0.40250129677611379 0 0.25612734840925172 -0.42555084227674289 0 0.24852243941664359 -0.40738679496750541 0 0.25388432824530771 -0.40250129677611379 0 0.26023076878896451 -0.40708408350330849 0 0.26041869413378738 -0.41551811216120221 0 0.26293503213803399 -0.39963581466554959 0 0.26023076878896451 -0.40708408350330849 0 0.26425833481995492 -0.41350404573655702 0 0.25406741122191862 -0.42512718886302492 0 0.25612734840925172 -0.42555084227674289 0 0.24852243941664359 -0.40738679496750541 0 0.25388432824530771 -0.40250129677611379 0 0.26041869413378738 -0.41551811216120221 0 0.25612734840925172 -0.42555084227674289 0 0.26760966607679942 -0.42138875433758233 0 0.26425833481995492 -0.41350404573655702 0 0.26041869413378738 -0.41551811216120221 0 0.26041869413378738 -0.41551811216120221 0 0.25612734840925172 -0.42555084227674289 0 0.26447904461567162 -0.42339843945493039 0 0.26760966607679942 -0.42138875433758233 0 0.26041869413378738 -0.41551811216120221 0 0.26447904461567162 -0.42339843945493039 0 0.25677306377738962 -0.4337835614766451 0 0.25406741122191862 -0.42512718886302492 0 0.24826280892824909 -0.43277588873161588 0 0.25677306377738962 -0.4337835614766451 0 0.25406741122191862 -0.42512718886302492 0 0.25612734840925172 -0.42555084227674289 0 0.25677306377738962 -0.4337835614766451 0 0.25612734840925172 -0.42555084227674289 0 0.25677306377738962 -0.4337835614766451 0 0.25406741122191862 -0.42512718886302492 0 0.25406741122191862 -0.42512718886302492 0 0.24632822158227871 -0.42353552183044979 0 0.25406741122191862 -0.42512718886302492 0 0.25612734840925172 -0.42555084227674289 0 0.25677306377738962 -0.4337835614766451 0 0.25612734840925172 -0.42555084227674289 0 0.26698713909508098 -0.4375268332509179 0 0.25612734840925172 -0.42555084227674289 0 0.28004531077916389 -0.43046988858044999 0 0.26698713909508098 -0.4375268332509179 0 0.25612734840925172 -0.42555084227674289 0 0.28004531077916389 -0.43046988858044999 0 0.25612734840925172 -0.42555084227674289 0 0.26447904461567162 -0.42339843945493039 0 0.28004531077916389 -0.43046988858044999 0 0.26760966607679942 -0.42138875433758233 0 0.26447904461567162 -0.42339843945493039 0 0.28004531077916389 -0.43046988858044999 0 0.2742287561947036 -0.41981987805561483 0 0.28004531077916389 -0.43046988858044999 0 0.28553703332347219 -0.41548395032135998 0 0.2742287561947036 -0.41981987805561483 0 0.26760966607679942 -0.42138875433758233 0 0.28004531077916389 -0.43046988858044999 0 0.28004531077916389 -0.43046988858044999 0 0.29713208385037437 -0.42154411502756478 0 0.3039632731490764 -0.43538893488415631 0 0.28004531077916389 -0.43046988858044999 0 0.3039632731490764 -0.43538893488415631 0 0.29044758899681949 -0.44049859500365662 0 0.28004531077916389 -0.43046988858044999 0 0.3039632731490764 -0.43538893488415631 0 0.28004531077916389 -0.43046988858044999 0 0.28553703332347219 -0.41548395032135998 0 0.29713208385037437 -0.42154411502756478 0 0.29337936619384758 -0.39647940671355919 0 0.28553703332347219 -0.41548395032135998 0 0.30090311459430552 -0.40897273122417499 0 0.28553703332347219 -0.41548395032135998 0 0.29713208385037437 -0.42154411502756478 0 0.30090311459430552 -0.40897273122417499 0 0.31637230045690062 -0.41295597722573318 0 0.29713208385037437 -0.42154411502756478 0 0.30090311459430552 -0.40897273122417499 0 0.31637230045690062 -0.41295597722573318 0 0.29713208385037437 -0.42154411502756478 0 0.3039632731490764 -0.43538893488415631 0 0.3039632731490764 -0.43538893488415631 0 0.30761894179121241 -0.46023071420404149 0 0.29044758899681949 -0.44049859500365662 0 0.30761894179121241 -0.46023071420404149 0 0.28114773692165129 -0.45155730632190649 0 0.28745911217466691 -0.47307204944506542 0 0.28004531077916389 -0.43046988858044999 0 0.29044758899681949 -0.44049859500365662 0 0.28114773692165129 -0.45155730632190649 0 0.30761894179121241 -0.46023071420404149 0 0.29044758899681949 -0.44049859500365662 0 0.28114773692165129 -0.45155730632190649 0 0.28004531077916389 -0.43046988858044999 0 0.28114773692165129 -0.45155730632190649 0 0.26698713909508098 -0.4375268332509179 0 0.28114773692165129 -0.45155730632190649 0 0.26698713909508098 -0.4375268332509179 0 0.26069138865547331 -0.44631971660762237 0 0.26069138865547331 -0.44631971660762237 0 0.24984189626145989 -0.46002901486873138 0 0.24698723727761279 -0.44164003299261589 0 0.25677306377738962 -0.4337835614766451 0 0.26698713909508098 -0.4375268332509179 0 0.26069138865547331 -0.44631971660762237 0 0.25677306377738962 -0.4337835614766451 0 0.26069138865547331 -0.44631971660762237 0 0.25677306377738962 -0.4337835614766451 0 0.26069138865547331 -0.44631971660762237 0 0.24826280892824909 -0.43277588873161588 0 0.26069138865547331 -0.44631971660762237 0 0.24698723727761279 -0.44164003299261589 0 0.24826280892824909 -0.43277588873161588 0 0.26069138865547331 -0.44631971660762237 0 0.26731536608902817 -0.46751224435221972 0 0.26069138865547331 -0.44631971660762237 0 0.26731536608902817 -0.46751224435221972 0 0.24984189626145989 -0.46002901486873138 0 0.28114773692165129 -0.45155730632190649 0 0.26069138865547331 -0.44631971660762237 0 0.26731536608902817 -0.46751224435221972 0 0.28114773692165129 -0.45155730632190649 0 0.26731536608902817 -0.46751224435221972 0 0.28745911217466691 -0.47307204944506542 0 0.26731536608902817 -0.46751224435221972 0 0.27393934352258309 -0.48870477209681712 0 0.27393934352258309 -0.48870477209681712 0 0.30507594768347568 -0.5 0 0.24377228260446079 -0.5 0 0.26731536608902817 -0.46751224435221972 0 0.27393934352258309 -0.48870477209681712 0 0.28745911217466691 -0.47307204944506542 0 0.26731536608902817 -0.46751224435221972 0 0.25395798473348558 -0.48062958627472502 0 0.24984189626145989 -0.46002901486873138 0 0.26731536608902817 -0.46751224435221972 0 0.25395798473348558 -0.48062958627472502 0 0.27393934352258309 -0.48870477209681712 0 0.25395798473348558 -0.48062958627472502 0 0.27393934352258309 -0.48870477209681712 0 0.24377228260446079 -0.5 0 0.27393934352258309 -0.48870477209681712 0 0.28745911217466691 -0.47307204944506542 0 0.30507594768347568 -0.5 0 0.30761894179121241 -0.46023071420404149 0 0.28745911217466691 -0.47307204944506542 0 0.30507594768347568 -0.5 0 0.33041699801928343 -0.28880541522941222 0 0.34746159688660372 -0.27971577863276792 0 0.3514068633313136 -0.29771562723108719 0 0.33041699801928343 -0.28880541522941222 0 0.33522638811174399 -0.3055620628804559 0 0.3207276906311437 -0.30081147976960992 0 0.33041699801928343 -0.28880541522941222 0 0.33522638811174399 -0.3055620628804559 0 0.3514068633313136 -0.29771562723108719 0 0.33522638811174399 -0.3055620628804559 0 0.3207276906311437 -0.30081147976960992 0 0.32329785406830119 -0.31851438762974038 0 0.3207276906311437 -0.30081147976960992 0 0.32329785406830119 -0.31851438762974038 0 0.30235393165510333 -0.30341418122739489 0 0.33041699801928343 -0.28880541522941222 0 0.31816216510812378 -0.27308823958575901 0 0.31234328130128658 -0.28776135188104579 0 0.33041699801928343 -0.28880541522941222 0 0.3207276906311437 -0.30081147976960992 0 0.31234328130128658 -0.28776135188104579 0 0.33041699801928343 -0.28880541522941222 0 0.31816216510812378 -0.27308823958575901 0 0.33136098754580579 -0.26429364998520932 0 0.3323049770723282 -0.23978188474100631 0 0.33136098754580579 -0.26429364998520932 0 0.31130958313709772 -0.25056939357745778 0 0.31816216510812378 -0.27308823958575901 0 0.33136098754580579 -0.26429364998520932 0 0.31130958313709772 -0.25056939357745778 0 0.3323049770723282 -0.23978188474100631 0 0.33136098754580579 -0.26429364998520932 0 0.3323049770723282 -0.23978188474100631 0 0.33136098754580579 -0.26429364998520932 0 0.35119519218137091 -0.25472703687189518 0 0.33136098754580579 -0.26429364998520932 0 0.34746159688660372 -0.27971577863276792 0 0.35119519218137091 -0.25472703687189518 0 0.33041699801928343 -0.28880541522941222 0 0.33136098754580579 -0.26429364998520932 0 0.33041699801928343 -0.28880541522941222 0 0.33136098754580579 -0.26429364998520932 0 0.34746159688660372 -0.27971577863276792 0 0.34746159688660372 -0.27971577863276792 0 0.35119519218137091 -0.25472703687189518 0 0.36430910137080852 -0.27228374500455521 0 0.35119519218137091 -0.25472703687189518 0 0.37160661397007527 -0.25728229464628938 0 0.36430910137080852 -0.27228374500455521 0 0.36383672416982049 -0.239543100794231 0 0.35119519218137091 -0.25472703687189518 0 0.37160661397007527 -0.25728229464628938 0 0.34746159688660372 -0.27971577863276792 0 0.36430910137080852 -0.27228374500455521 0 0.36952656589214089 -0.28851202286124072 0 0.38336824327608082 -0.27840136229180468 0 0.37160661397007527 -0.25728229464628938 0 0.36430910137080852 -0.27228374500455521 0 0.38336824327608082 -0.27840136229180468 0 0.36430910137080852 -0.27228374500455521 0 0.36952656589214089 -0.28851202286124072 0 0.34746159688660372 -0.27971577863276792 0 0.36952656589214089 -0.28851202286124072 0 0.3514068633313136 -0.29771562723108719 0 0.33522638811174399 -0.3055620628804559 0 0.3514068633313136 -0.29771562723108719 0 0.34861985793913819 -0.32348694680056278 0 0.3514068633313136 -0.29771562723108719 0 0.34861985793913819 -0.32348694680056278 0 0.3514068633313136 -0.29771562723108719 0 0.37364207147767992 -0.31566781997505239 0 0.34861985793913819 -0.32348694680056278 0 0.36952656589214089 -0.28851202286124072 0 0.3514068633313136 -0.29771562723108719 0 0.37364207147767992 -0.31566781997505239 0 0.37364207147767992 -0.31566781997505239 0 0.36965450220587109 -0.34371382883804519 0 0.34861985793913819 -0.32348694680056278 0 0.34861985793913819 -0.32348694680056278 0 0.34583285254696272 -0.34925826637003859 0 0.36965450220587109 -0.34371382883804519 0 0.34861985793913819 -0.32348694680056278 0 0.34583285254696272 -0.34925826637003859 0 0.37974820972394602 -0.36480795982435338 0 0.37649507247036829 -0.38108531291235598 0 0.36256346586118882 -0.3678544655304779 0 0.37974820972394602 -0.36480795982435338 0 0.36965450220587109 -0.34371382883804519 0 0.36256346586118882 -0.3678544655304779 0 0.36965450220587109 -0.34371382883804519 0 0.36256346586118882 -0.3678544655304779 0 0.34583285254696272 -0.34925826637003859 0 0.34304584715478731 -0.3750295859395143 0 0.34583285254696272 -0.34925826637003859 0 0.34304584715478731 -0.3750295859395143 0 0.36256346586118882 -0.3678544655304779 0 0.34583285254696272 -0.34925826637003859 0 0.34304584715478731 -0.3750295859395143 0 0.34583285254696272 -0.34925826637003859 0 0.32790975794667032 -0.35570558001734393 0 0.34304584715478731 -0.3750295859395143 0 0.32282708692952439 -0.37525917737126491 0 0.32790975794667032 -0.35570558001734393 0 0.34583285254696272 -0.34925826637003859 0 0.32790975794667032 -0.35570558001734393 0 0.33269317248742708 -0.33516069994114372 0 0.32790975794667032 -0.35570558001734393 0 0.33269317248742708 -0.33516069994114372 0 0.31649816212422371 -0.34045498481247172 0 0.32790975794667032 -0.35570558001734393 0 0.31649816212422371 -0.34045498481247172 0 0.30906403193459792 -0.35847031949795738 0 0.31649816212422371 -0.34045498481247172 0 0.30906403193459792 -0.35847031949795738 0 0.32282708692952439 -0.37525917737126491 0 0.30906403193459792 -0.35847031949795738 0 0.32282708692952439 -0.37525917737126491 0 0.32790975794667032 -0.35570558001734393 0 0.30906403193459792 -0.35847031949795738 0 0.33522638811174399 -0.3055620628804559 0 0.34861985793913819 -0.32348694680056278 0 0.32329785406830119 -0.31851438762974038 0 0.34861985793913819 -0.32348694680056278 0 0.33269317248742708 -0.33516069994114372 0 0.32329785406830119 -0.31851438762974038 0 0.34861985793913819 -0.32348694680056278 0 0.34583285254696272 -0.34925826637003859 0 0.33269317248742708 -0.33516069994114372 0 0.33269317248742708 -0.33516069994114372 0 0.31649816212422371 -0.34045498481247172 0 0.32329785406830119 -0.31851438762974038 0 0.31649816212422371 -0.34045498481247172 0 0.32329785406830119 -0.31851438762974038 0 0.30493984225419912 -0.32371215345573567 0 0.32329785406830119 -0.31851438762974038 0 0.30493984225419912 -0.32371215345573567 0 0.30235393165510333 -0.30341418122739489 0 0.31649816212422371 -0.34045498481247172 0 0.30493984225419912 -0.32371215345573567 0 0.29260830069814109 -0.33839680144313261 0 0.29260830069814109 -0.33839680144313261 0 0.27615256946168459 -0.31832328338830762 0 0.30493984225419912 -0.32371215345573567 0 0.27615256946168459 -0.31832328338830762 0 0.30235393165510333 -0.30341418122739489 0 0.30493984225419912 -0.32371215345573567 0 0.29260830069814109 -0.33839680144313261 0 0.27615256946168459 -0.31832328338830762 0 0.30122169906422303 -0.3774748631057584 0 0.30906403193459792 -0.35847031949795738 0 0.30122169906422303 -0.3774748631057584 0 0.30906403193459792 -0.35847031949795738 0 0.29351886917605979 -0.35487445890684671 0 0.32282708692952439 -0.37525917737126491 0 0.30122169906422303 -0.3774748631057584 0 0.30906403193459792 -0.35847031949795738 0 0.29260830069814109 -0.33839680144313261 0 0.30906403193459792 -0.35847031949795738 0 0.29351886917605979 -0.35487445890684671 0 0.31649816212422371 -0.34045498481247172 0 0.29260830069814109 -0.33839680144313261 0 0.30906403193459792 -0.35847031949795738 0 0.29260830069814109 -0.33839680144313261 0 0.30906403193459792 -0.35847031949795738 0 0.29260830069814109 -0.33839680144313261 0 0.29351886917605979 -0.35487445890684671 0 0.27139222728463452 -0.34835235459829628 0 0.29351886917605979 -0.35487445890684671 0 0.2839482385131743 -0.3656361676507342 0 0.27139222728463452 -0.34835235459829628 0 0.30122169906422303 -0.3774748631057584 0 0.29351886917605979 -0.35487445890684671 0 0.2839482385131743 -0.3656361676507342 0 0.2839482385131743 -0.3656361676507342 0 0.26678998884523442 -0.35726657439811788 0 0.26356631056480728 -0.37044284660746002 0 0.27972747780199558 -0.38192949984108698 0 0.2839482385131743 -0.3656361676507342 0 0.26356631056480728 -0.37044284660746002 0 0.2839482385131743 -0.3656361676507342 0 0.27139222728463452 -0.34835235459829628 0 0.26678998884523442 -0.35726657439811788 0 0.26356631056480728 -0.37044284660746002 0 0.24994724354984299 -0.36204334000573268 0 0.24825317901832189 -0.34463492873598067 0 0.26356631056480728 -0.37044284660746002 0 0.24825317901832189 -0.34463492873598067 0 0.27139222728463452 -0.34835235459829628 0 0.26678998884523442 -0.35726657439811788 0 0.24825317901832189 -0.34463492873598067 0 0.26678998884523442 -0.35726657439811788 0 0.26356631056480728 -0.37044284660746002 0 0.24825317901832189 -0.34463492873598067 0 0.25164130808136398 -0.37945175127548469 0 0.26356631056480728 -0.37044284660746002 0 0.24994724354984299 -0.36204334000573268 0 0.25164130808136398 -0.37945175127548469 0 0.24994724354984299 -0.36204334000573268 0 0.27615256946168459 -0.31832328338830762 0 0.26223021941922831 -0.33150810135384379 0 0.26081449790637012 -0.30341611196356177 0 0.29260830069814109 -0.33839680144313261 0 0.27615256946168459 -0.31832328338830762 0 0.26223021941922831 -0.33150810135384379 0 0.29260830069814109 -0.33839680144313261 0 0.27139222728463452 -0.34835235459829628 0 0.26223021941922831 -0.33150810135384379 0 0.26223021941922831 -0.33150810135384379 0 0.24539645135615551 -0.31527885102857489 0 0.24825317901832189 -0.34463492873598067 0 0.27139222728463452 -0.34835235459829628 0 0.26223021941922831 -0.33150810135384379 0 0.24825317901832189 -0.34463492873598067 0 0.26223021941922831 -0.33150810135384379 0 0.26081449790637012 -0.30341611196356177 0 0.24539645135615551 -0.31527885102857489 0 0.2551976753809066 -0.28541221886239898 0 0.26635916183417507 -0.29159588295253608 0 0.27373102336475369 -0.28129731474192909 0 0.26081449790637012 -0.30341611196356177 0 0.2551976753809066 -0.28541221886239898 0 0.2425397236939886 -0.28592277332116928 0 0.26081449790637012 -0.30341611196356177 0 0.2551976753809066 -0.28541221886239898 0 0.26635916183417507 -0.29159588295253608 0 0.26635916183417507 -0.29159588295253608 0 0.27857647064696728 -0.29573568220283741 0 0.27373102336475369 -0.28129731474192909 0 0.26081449790637012 -0.30341611196356177 0 0.26635916183417507 -0.29159588295253608 0 0.27857647064696728 -0.29573568220283741 0 0.27615256946168459 -0.31832328338830762 0 0.26081449790637012 -0.30341611196356177 0 0.27857647064696728 -0.29573568220283741 0 0.27615256946168459 -0.31832328338830762 0 0.27857647064696728 -0.29573568220283741 0 0.30235393165510333 -0.30341418122739489 0 0.27857647064696728 -0.29573568220283741 0 0.27373102336475369 -0.28129731474192909 0 0.29285152687820137 -0.28489493364506407 0 0.27857647064696728 -0.29573568220283741 0 0.29285152687820137 -0.28489493364506407 0 0.30235393165510333 -0.30341418122739489 0 0.29285152687820137 -0.28489493364506407 0 0.31234328130128658 -0.28776135188104579 0 0.30235393165510333 -0.30341418122739489 0 0.29285152687820137 -0.28489493364506407 0 0.31234328130128658 -0.28776135188104579 0 0.30261360525517711 -0.27249430539799768 0 0.3207276906311437 -0.30081147976960992 0 0.31234328130128658 -0.28776135188104579 0 0.30235393165510333 -0.30341418122739489 0 0.31816216510812378 -0.27308823958575901 0 0.31130958313709772 -0.25056939357745778 0 0.30261360525517711 -0.27249430539799768 0 0.31130958313709772 -0.25056939357745778 0 0.29821055381534523 -0.25810186372648058 0 0.30261360525517711 -0.27249430539799768 0 0.28782521681432333 -0.2463190441180266 0 0.31130958313709772 -0.25056939357745778 0 0.29821055381534523 -0.25810186372648058 0 0.31816216510812378 -0.27308823958575901 0 0.31234328130128658 -0.28776135188104579 0 0.30261360525517711 -0.27249430539799768 0 0.27373102336475369 -0.28129731474192909 0 0.29285152687820137 -0.28489493364506407 0 0.28749084904592059 -0.26866676641917958 0 0.29285152687820137 -0.28489493364506407 0 0.30261360525517711 -0.27249430539799768 0 0.28749084904592059 -0.26866676641917958 0 0.30261360525517711 -0.27249430539799768 0 0.28749084904592059 -0.26866676641917958 0 0.29821055381534523 -0.25810186372648058 0 0.30261360525517711 -0.27249430539799768 0 0.28749084904592059 -0.26866676641917958 0 0.28782521681432333 -0.2463190441180266 0 0.29821055381534523 -0.25810186372648058 0 0.28749084904592059 -0.26866676641917958 0 0.28782521681432333 -0.2463190441180266 0 0.28749084904592059 -0.26866676641917958 0 0.27236809283666358 -0.2648392274403637 0 0.28782521681432333 -0.2463190441180266 0 0.27236809283666358 -0.2648392274403637 0 0.28782521681432333 -0.2463190441180266 0 0.27236809283666358 -0.2648392274403637 0 0.2630291194435031 -0.25044460028586613 0 0.27373102336475369 -0.28129731474192909 0 0.28749084904592059 -0.26866676641917958 0 0.27236809283666358 -0.2648392274403637 0 0.2551976753809066 -0.28541221886239898 0 0.27373102336475369 -0.28129731474192909 0 0.27236809283666358 -0.2648392274403637 0 0.28749084904592059 -0.26866676641917958 0 0.27236809283666358 -0.2648392274403637 0 0.2551976753809066 -0.28541221886239898 0 0.25608154176962922 -0.2696225900972205 0 0.2486385272595322 -0.27669036990433621 0 0.2551976753809066 -0.28541221886239898 0 0.27236809283666358 -0.2648392274403637 0 0.2551976753809066 -0.28541221886239898 0 0.27236809283666358 -0.2648392274403637 0 0.25608154176962922 -0.2696225900972205 0 0.27236809283666358 -0.2648392274403637 0 0.24535488951562551 -0.25800224037111918 0 0.27236809283666358 -0.2648392274403637 0 0.2630291194435031 -0.25044460028586613 0 0.24535488951562551 -0.25800224037111918 0 0.27236809283666358 -0.2648392274403637 0 0.25608154176962922 -0.2696225900972205 0 0.24535488951562551 -0.25800224037111918 0 0.23968299603182361 -0.25656669561376361 0 0.2405833335860047 -0.26581867281603022 0 0.22778252798620349 -0.27224051126173687 0 0.24535488951562551 -0.25800224037111918 0 0.23968299603182361 -0.25656669561376361 0 0.23787219487653199 -0.23795868473077231 0 0.24535488951562551 -0.25800224037111918 0 0.23968299603182361 -0.25656669561376361 0 0.25608154176962922 -0.2696225900972205 0 0.24535488951562551 -0.25800224037111918 0 0.2405833335860047 -0.26581867281603022 0 0.24535488951562551 -0.25800224037111918 0 0.2405833335860047 -0.26581867281603022 0 0.23968299603182361 -0.25656669561376361 0 0.2405833335860047 -0.26581867281603022 0 0.24535488951562551 -0.25800224037111918 0 0.23968299603182361 -0.25656669561376361 0 0.2405833335860047 -0.26581867281603022 0 0.2405833335860047 -0.26581867281603022 0 0.2425397236939886 -0.28592277332116928 0 0.2405833335860047 -0.26581867281603022 0 0.22778252798620349 -0.27224051126173687 0 0.2425397236939886 -0.28592277332116928 0 0.2486385272595322 -0.27669036990433621 0 0.2405833335860047 -0.26581867281603022 0 0.2425397236939886 -0.28592277332116928 0 0.25608154176962922 -0.2696225900972205 0 0.2486385272595322 -0.27669036990433621 0 0.2405833335860047 -0.26581867281603022 0 0.22778252798620349 -0.27224051126173687 0 0.2130189153593777 -0.2852530198160681 0 0.2425397236939886 -0.28592277332116928 0 0.23968299603182361 -0.25656669561376361 0 0.22778252798620349 -0.27224051126173687 0 0.22477130385752811 -0.25279257651487019 0 0.22778252798620349 -0.27224051126173687 0 0.22477130385752811 -0.25279257651487019 0 0.21534130393854861 -0.26495272303694922 0 0.23968299603182361 -0.25656669561376361 0 0.22477130385752811 -0.25279257651487019 0 0.21534130393854861 -0.26495272303694922 0 0.2012741608063994 -0.2654590501760955 0 0.20985961168323311 -0.2490184574159747 0 0.22477130385752811 -0.25279257651487019 0 0.21534130393854861 -0.26495272303694922 0 0.20985961168323311 -0.2490184574159747 0 0.2012741608063994 -0.2654590501760955 0 0.20985961168323311 -0.2490184574159747 0 0.22477130385752811 -0.25279257651487019 0 0.20985961168323311 -0.2490184574159747 0 0.21534130393854861 -0.26495272303694922 0 0.2012741608063994 -0.2654590501760955 0 0.2130189153593777 -0.2852530198160681 0 0.22778252798620349 -0.27224051126173687 0 0.21534130393854861 -0.26495272303694922 0 0.2130189153593777 -0.2852530198160681 0 0.2012741608063994 -0.2654590501760955 0 0.2130189153593777 -0.2852530198160681 0 0.2012741608063994 -0.2654590501760955 0 0.1923160369848744 -0.28261328793918389 0 0.2130189153593777 -0.2852530198160681 0 0.2012741608063994 -0.2654590501760955 0 0.1923160369848744 -0.28261328793918389 0 0.176066551098497 -0.26803467943494241 0 0.2012741608063994 -0.2654590501760955 0 0.1923160369848744 -0.28261328793918389 0 0.19297233921846449 -0.25146761223444442 0 0.2012741608063994 -0.2654590501760955 0 0.176066551098497 -0.26803467943494241 0 0.19297233921846449 -0.25146761223444442 0 0.2012741608063994 -0.2654590501760955 0 0.20985961168323311 -0.2490184574159747 0 0.19297233921846449 -0.25146761223444442 0 0.2012741608063994 -0.2654590501760955 0 0.20348485684632889 -0.30459038569128888 0 0.19242895505377089 -0.32541398595593529 0 0.18070733905938921 -0.30484320664772802 0 0.1923160369848744 -0.28261328793918389 0 0.20348485684632889 -0.30459038569128888 0 0.18070733905938921 -0.30484320664772802 0 0.1923160369848744 -0.28261328793918389 0 0.2130189153593777 -0.2852530198160681 0 0.20348485684632889 -0.30459038569128888 0 0.2130189153593777 -0.2852530198160681 0 0.20348485684632889 -0.30459038569128888 0 0.22476366991235899 -0.30504698945603897 0 0.20348485684632889 -0.30459038569128888 0 0.22476366991235899 -0.30504698945603897 0 0.2140969368232721 -0.32155275760728619 0 0.2130189153593777 -0.2852530198160681 0 0.22476366991235899 -0.30504698945603897 0 0.2130189153593777 -0.2852530198160681 0 0.22476366991235899 -0.30504698945603897 0 0.2425397236939886 -0.28592277332116928 0 0.2551976753809066 -0.28541221886239898 0 0.2486385272595322 -0.27669036990433621 0 0.2425397236939886 -0.28592277332116928 0 0.26081449790637012 -0.30341611196356177 0 0.2425397236939886 -0.28592277332116928 0 0.24539645135615551 -0.31527885102857489 0 0.22476366991235899 -0.30504698945603897 0 0.2425397236939886 -0.28592277332116928 0 0.24539645135615551 -0.31527885102857489 0 0.2425397236939886 -0.28592277332116928 0 0.24539645135615551 -0.31527885102857489 0 0.22476366991235899 -0.30504698945603897 0 0.24539645135615551 -0.31527885102857489 0 0.23650842446534029 -0.32484095909601002 0 0.24539645135615551 -0.31527885102857489 0 0.23650842446534029 -0.32484095909601002 0 0.24825317901832189 -0.34463492873598067 0 0.23650842446534029 -0.32484095909601002 0 0.24825317901832189 -0.34463492873598067 0 0.24539645135615551 -0.31527885102857489 0 0.24825317901832189 -0.34463492873598067 0 0.23650842446534029 -0.32484095909601002 0 0.23613186833528821 -0.33989262776912088 0 0.24825317901832189 -0.34463492873598067 0 0.23650842446534029 -0.32484095909601002 0 0.23613186833528821 -0.33989262776912088 0 0.22296318207821039 -0.33960741211481438 0 0.23650842446534029 -0.32484095909601002 0 0.22296318207821039 -0.33960741211481438 0 0.2140969368232721 -0.32155275760728619 0 0.22476366991235899 -0.30504698945603897 0 0.23650842446534029 -0.32484095909601002 0 0.22476366991235899 -0.30504698945603897 0 0.23650842446534029 -0.32484095909601002 0 0.2140969368232721 -0.32155275760728619 0 0.25164130808136398 -0.37945175127548469 0 0.2442108522535982 -0.36617209341487461 0 0.24994724354984299 -0.36204334000573268 0 0.2362420984031546 -0.3701921637486687 0 0.2442108522535982 -0.36617209341487461 0 0.2419457141991587 -0.37725477192274681 0 0.2362420984031546 -0.3701921637486687 0 0.2419457141991587 -0.37725477192274681 0 0.23477755316317869 -0.37709210660031539 0 0.25164130808136398 -0.37945175127548469 0 0.2442108522535982 -0.36617209341487461 0 0.2419457141991587 -0.37725477192274681 0 0.25164130808136398 -0.37945175127548469 0 0.2442108522535982 -0.36617209341487461 0 0.2442108522535982 -0.36617209341487461 0 0.24994724354984299 -0.36204334000573268 0 0.23678039642583201 -0.35289243555426458 0 0.2442108522535982 -0.36617209341487461 0 0.23678039642583201 -0.35289243555426458 0 0.2368565761416031 -0.36339570153820711 0 0.23678039642583201 -0.35289243555426458 0 0.2301929574838277 -0.36432611343502053 0 0.2442108522535982 -0.36617209341487461 0 0.2368565761416031 -0.36339570153820711 0 0.23678039642583201 -0.35289243555426458 0 0.2362420984031546 -0.3701921637486687 0 0.2442108522535982 -0.36617209341487461 0 0.2368565761416031 -0.36339570153820711 0 0.2362420984031546 -0.3701921637486687 0 0.2368565761416031 -0.36339570153820711 0 0.2301929574838277 -0.36432611343502053 0 0.24994724354984299 -0.36204334000573268 0 0.24825317901832189 -0.34463492873598067 0 0.24994724354984299 -0.36204334000573268 0 0.23678039642583201 -0.35289243555426458 0 0.24825317901832189 -0.34463492873598067 0 0.23613186833528821 -0.33989262776912088 0 0.23678039642583201 -0.35289243555426458 0 0.24825317901832189 -0.34463492873598067 0 0.22296318207821039 -0.33960741211481438 0 0.23678039642583201 -0.35289243555426458 0 0.2211972320074711 -0.35689619455175042 0 0.23613186833528821 -0.33989262776912088 0 0.22296318207821039 -0.33960741211481438 0 0.23678039642583201 -0.35289243555426458 0 0.23678039642583201 -0.35289243555426458 0 0.2211972320074711 -0.35689619455175042 0 0.2301929574838277 -0.36432611343502053 0 0.2211972320074711 -0.35689619455175042 0 0.2301929574838277 -0.36432611343502053 0 0.2208918959026315 -0.36797316208537961 0 0.2208918959026315 -0.36797316208537961 0 0.22865732204298181 -0.37287718098154887 0 0.2214551049049491 -0.37704269854443001 0 0.2301929574838277 -0.36432611343502053 0 0.2208918959026315 -0.36797316208537961 0 0.22865732204298181 -0.37287718098154887 0 0.2362420984031546 -0.3701921637486687 0 0.2301929574838277 -0.36432611343502053 0 0.22865732204298181 -0.37287718098154887 0 0.2362420984031546 -0.3701921637486687 0 0.22865732204298181 -0.37287718098154887 0 0.23477755316317869 -0.37709210660031539 0 0.2083124884381696 -0.36597496774881072 0 0.21157236206234459 -0.37725563232011211 0 0.1968526323558738 -0.37791980076821169 0 0.2208918959026315 -0.36797316208537961 0 0.2214551049049491 -0.37704269854443001 0 0.21157236206234459 -0.37725563232011211 0 0.2208918959026315 -0.36797316208537961 0 0.2083124884381696 -0.36597496774881072 0 0.21157236206234459 -0.37725563232011211 0 0.2211972320074711 -0.35689619455175042 0 0.2208918959026315 -0.36797316208537961 0 0.2083124884381696 -0.36597496774881072 0 0.2083124884381696 -0.36597496774881072 0 0.20780997896113201 -0.35098630032288591 0 0.19486710870087839 -0.36196059992376861 0 0.22296318207821039 -0.33960741211481438 0 0.2211972320074711 -0.35689619455175042 0 0.20780997896113201 -0.35098630032288591 0 0.2211972320074711 -0.35689619455175042 0 0.2083124884381696 -0.36597496774881072 0 0.20780997896113201 -0.35098630032288591 0 0.1940763330415072 -0.34521193586297749 0 0.19486710870087839 -0.36196059992376861 0 0.18316060607636719 -0.3567885273751798 0 0.20780997896113201 -0.35098630032288591 0 0.1940763330415072 -0.34521193586297749 0 0.19486710870087839 -0.36196059992376861 0 0.20780997896113201 -0.35098630032288591 0 0.1940763330415072 -0.34521193586297749 0 0.20685294568399221 -0.33634060113340009 0 0.2083124884381696 -0.36597496774881072 0 0.19486710870087839 -0.36196059992376861 0 0.1968526323558738 -0.37791980076821169 0 0.19486710870087839 -0.36196059992376861 0 0.18048938837462211 -0.37327873181807469 0 0.1968526323558738 -0.37791980076821169 0 0.20348485684632889 -0.30459038569128888 0 0.2140969368232721 -0.32155275760728619 0 0.19242895505377089 -0.32541398595593529 0 0.2140969368232721 -0.32155275760728619 0 0.20685294568399221 -0.33634060113340009 0 0.19242895505377089 -0.32541398595593529 0 0.22296318207821039 -0.33960741211481438 0 0.20780997896113201 -0.35098630032288591 0 0.20685294568399221 -0.33634060113340009 0 0.22296318207821039 -0.33960741211481438 0 0.2140969368232721 -0.32155275760728619 0 0.20685294568399221 -0.33634060113340009 0 0.1940763330415072 -0.34521193586297749 0 0.19242895505377089 -0.32541398595593529 0 0.1778823185411145 -0.34443528425697473 0 0.1940763330415072 -0.34521193586297749 0 0.20685294568399221 -0.33634060113340009 0 0.19242895505377089 -0.32541398595593529 0 0.19242895505377089 -0.32541398595593529 0 0.16909864113390449 -0.32707312535627242 0 0.18070733905938921 -0.30484320664772802 0 0.16909864113390449 -0.32707312535627242 0 0.18070733905938921 -0.30484320664772802 0 0.19242895505377089 -0.32541398595593529 0 0.16909864113390449 -0.32707312535627242 0 0.1778823185411145 -0.34443528425697473 0 0.16909864113390449 -0.32707312535627242 0 0.1778823185411145 -0.34443528425697473 0 0.15748994320841991 -0.34930304406481683 0 0.16909864113390449 -0.32707312535627242 0 0.15748994320841991 -0.34930304406481683 0 0.14499818636076231 -0.33065394679766158 0 0.16909864113390449 -0.32707312535627242 0 0.15748994320841991 -0.34930304406481683 0 0.16909864113390449 -0.32707312535627242 0 0.14499818636076231 -0.33065394679766158 0 0.1567573049331282 -0.31012321739617749 0 0.16909864113390449 -0.32707312535627242 0 0.18070733905938921 -0.30484320664772802 0 0.1567573049331282 -0.31012321739617749 0 0.17192417855469991 -0.36038325592558101 0 0.18048938837462211 -0.37327873181807469 0 0.18316060607636719 -0.3567885273751798 0 0.19486710870087839 -0.36196059992376861 0 0.18048938837462211 -0.37327873181807469 0 0.18316060607636719 -0.3567885273751798 0 0.1940763330415072 -0.34521193586297749 0 0.1778823185411145 -0.34443528425697473 0 0.18316060607636719 -0.3567885273751798 0 0.17192417855469991 -0.36038325592558101 0 0.1778823185411145 -0.34443528425697473 0 0.18316060607636719 -0.3567885273751798 0 0.17192417855469991 -0.36038325592558101 0 0.1778823185411145 -0.34443528425697473 0 0.15748994320841991 -0.34930304406481683 0 0.17192417855469991 -0.36038325592558101 0 0.15748994320841991 -0.34930304406481683 0 0.1623681282169413 -0.37323503011068909 0 0.17192417855469991 -0.36038325592558101 0 0.18048938837462211 -0.37327873181807469 0 0.1623681282169413 -0.37323503011068909 0 0.15748994320841991 -0.34930304406481683 0 0.1623681282169413 -0.37323503011068909 0 0.1458812452829352 -0.37153296277336118 0 0.15748994320841991 -0.34930304406481683 0 0.1458812452829352 -0.37153296277336118 0 0.15748994320841991 -0.34930304406481683 0 0.1458812452829352 -0.37153296277336118 0 0.12914143619693519 -0.34880269456551172 0 0.1458812452829352 -0.37153296277336118 0 0.12914143619693519 -0.34880269456551172 0 0.1170572681968771 -0.36752770301305471 0 0.1458812452829352 -0.37153296277336118 0 0.12308532481231339 -0.38329660890999029 0 0.1170572681968771 -0.36752770301305471 0 0.14499818636076231 -0.33065394679766158 0 0.13285072161803119 -0.3126038655029908 0 0.1567573049331282 -0.31012321739617749 0 0.15748994320841991 -0.34930304406481683 0 0.12914143619693519 -0.34880269456551172 0 0.14499818636076231 -0.33065394679766158 0 0.12914143619693519 -0.34880269456551172 0 0.14499818636076231 -0.33065394679766158 0 0.1251920375030795 -0.32861408620246468 0 0.14499818636076231 -0.33065394679766158 0 0.1251920375030795 -0.32861408620246468 0 0.13285072161803119 -0.3126038655029908 0 0.13285072161803119 -0.3126038655029908 0 0.13600517251636909 -0.29116004475647778 0 0.1188410324676098 -0.29837103342623611 0 0.13285072161803119 -0.3126038655029908 0 0.13600517251636909 -0.29116004475647778 0 0.1567573049331282 -0.31012321739617749 0 0.13600517251636909 -0.29116004475647778 0 0.13898640559612321 -0.26684945314413078 0 0.1568323995259957 -0.28915652190360153 0 0.13600517251636909 -0.29116004475647778 0 0.1567573049331282 -0.31012321739617749 0 0.1568323995259957 -0.28915652190360153 0 0.13898640559612321 -0.26684945314413078 0 0.1181557459801281 -0.28024283535755828 0 0.13600517251636909 -0.29116004475647778 0 0.13898640559612321 -0.26684945314413078 0 0.1181557459801281 -0.28024283535755828 0 0.13898640559612321 -0.26684945314413078 0 0.11962490723542719 -0.25785197881650451 0 0.1181557459801281 -0.28024283535755828 0 0.13898640559612321 -0.26684945314413078 0 0.13731392064016351 -0.25181983948864062 0 0.11962490723542719 -0.25785197881650451 0 0.13731392064016351 -0.25181983948864062 0 0.11962490723542719 -0.25785197881650451 0 0.1240225730844019 -0.24156982424738241 0 0.13898640559612321 -0.26684945314413078 0 0.1584569147175906 -0.27131734726130741 0 0.159817065212118 -0.25345607093070283 0 0.13898640559612321 -0.26684945314413078 0 0.159817065212118 -0.25345607093070283 0 0.13898640559612321 -0.26684945314413078 0 0.13731392064016351 -0.25181983948864062 0 0.159817065212118 -0.25345607093070283 0 0.13898640559612321 -0.26684945314413078 0 0.1584569147175906 -0.27131734726130741 0 0.1568323995259957 -0.28915652190360153 0 0.1584569147175906 -0.27131734726130741 0 0.176066551098497 -0.26803467943494241 0 0.1745984448410618 -0.28601628450921168 0 0.159817065212118 -0.25345607093070283 0 0.176066551098497 -0.26803467943494241 0 0.1584569147175906 -0.27131734726130741 0 0.159817065212118 -0.25345607093070283 0 0.176066551098497 -0.26803467943494241 0 0.159817065212118 -0.25345607093070283 0 0.176066551098497 -0.26803467943494241 0 0.18467051763053249 -0.2374761742927915 0 0.19297233921846449 -0.25146761223444442 0 0.176066551098497 -0.26803467943494241 0 0.18467051763053249 -0.2374761742927915 0 0.1923160369848744 -0.28261328793918389 0 0.176066551098497 -0.26803467943494241 0 0.1745984448410618 -0.28601628450921168 0 0.1923160369848744 -0.28261328793918389 0 0.176066551098497 -0.26803467943494241 0 0.1923160369848744 -0.28261328793918389 0 0.18070733905938921 -0.30484320664772802 0 0.1923160369848744 -0.28261328793918389 0 0.1745984448410618 -0.28601628450921168 0 0.18070733905938921 -0.30484320664772802 0 0.18070733905938921 -0.30484320664772802 0 0.1567573049331282 -0.31012321739617749 0 0.1568323995259957 -0.28915652190360153 0 0.1584569147175906 -0.27131734726130741 0 0.1745984448410618 -0.28601628450921168 0 0.1568323995259957 -0.28915652190360153 0 0.1745984448410618 -0.28601628450921168 0 0.18070733905938921 -0.30484320664772802 0 0.1568323995259957 -0.28915652190360153 0 0.18845741924796211 -0.48361232452677771 0 0.24377228260446079 -0.5 0 0.16646091259651599 -0.50000000000000011 0 0.18845741924796211 -0.48361232452677771 0 0.21238249252208749 -0.47974540520833348 0 0.24377228260446079 -0.5 0 0.18845741924796211 -0.48361232452677771 0 0.21238249252208749 -0.47974540520833348 0 0.19431848823755901 -0.46228479101139258 0 0.21238249252208749 -0.47974540520833348 0 0.19431848823755901 -0.46228479101139258 0 0.21238249252208749 -0.47974540520833348 0 0.24377228260446079 -0.5 0 0.23629594397417689 -0.470656061751212 0 0.25395798473348558 -0.48062958627472502 0 0.23629594397417689 -0.470656061751212 0 0.24984189626145989 -0.46002901486873138 0 0.25395798473348558 -0.48062958627472502 0 0.24377228260446079 -0.5 0 0.23629594397417689 -0.470656061751212 0 0.21238249252208749 -0.47974540520833348 0 0.23629594397417689 -0.470656061751212 0 0.21683898253132969 -0.45694669425562218 0 0.23629594397417689 -0.470656061751212 0 0.23421801325604619 -0.45254531812032073 0 0.21683898253132969 -0.45694669425562218 0 0.23629594397417689 -0.470656061751212 0 0.24984189626145989 -0.46002901486873138 0 0.23421801325604619 -0.45254531812032073 0 0.24984189626145989 -0.46002901486873138 0 0.24698723727761279 -0.44164003299261589 0 0.23421801325604619 -0.45254531812032073 0 0.23421801325604619 -0.45254531812032073 0 0.21683898253132969 -0.45694669425562218 0 0.22112600623565151 -0.43345478673342208 0 0.24698723727761279 -0.44164003299261589 0 0.23421801325604619 -0.45254531812032073 0 0.22112600623565151 -0.43345478673342208 0 0.24698723727761279 -0.44164003299261589 0 0.22112600623565151 -0.43345478673342208 0 0.21683898253132969 -0.45694669425562218 0 0.2013860578369803 -0.44439306374039661 0 0.22112600623565151 -0.43345478673342208 0 0.21683898253132969 -0.45694669425562218 0 0.19431848823755901 -0.46228479101139258 0 0.2013860578369803 -0.44439306374039661 0 0.21238249252208749 -0.47974540520833348 0 0.21683898253132969 -0.45694669425562218 0 0.19431848823755901 -0.46228479101139258 0 0.2013860578369803 -0.44439306374039661 0 0.1952647751936902 -0.42526954047422821 0 0.17625448395303051 -0.44482417681445169 0 0.19431848823755901 -0.46228479101139258 0 0.2013860578369803 -0.44439306374039661 0 0.17625448395303051 -0.44482417681445169 0 0.1952647751936902 -0.42526954047422821 0 0.18848562692967219 -0.40920723833972661 0 0.2086984028517648 -0.41375268930587822 0 0.18848562692967219 -0.40920723833972661 0 0.2086984028517648 -0.41375268930587822 0 0.19856230734232311 -0.40068900374696848 0 0.2086984028517648 -0.41375268930587822 0 0.2240147067597088 -0.41872994116377649 0 0.22336366829847851 -0.4065062731477459 0 0.2086984028517648 -0.41375268930587822 0 0.22336366829847851 -0.4065062731477459 0 0.212815571935804 -0.39859556700538379 0 0.2013860578369803 -0.44439306374039661 0 0.1952647751936902 -0.42526954047422821 0 0.22112600623565151 -0.43345478673342208 0 0.2086984028517648 -0.41375268930587822 0 0.22112600623565151 -0.43345478673342208 0 0.2240147067597088 -0.41872994116377649 0 0.1952647751936902 -0.42526954047422821 0 0.22112600623565151 -0.43345478673342208 0 0.1952647751936902 -0.42526954047422821 0 0.2086984028517648 -0.41375268930587822 0 0.22112600623565151 -0.43345478673342208 0 0.24698723727761279 -0.44164003299261589 0 0.22112600623565151 -0.43345478673342208 0 0.23478345876431289 -0.42661878136970832 0 0.22112600623565151 -0.43345478673342208 0 0.23478345876431289 -0.42661878136970832 0 0.2240147067597088 -0.41872994116377649 0 0.23478345876431289 -0.42661878136970832 0 0.24632822158227871 -0.42353552183044979 0 0.24826280892824909 -0.43277588873161588 0 0.25406741122191862 -0.42512718886302492 0 0.24632822158227871 -0.42353552183044979 0 0.24826280892824909 -0.43277588873161588 0 0.24698723727761279 -0.44164003299261589 0 0.23478345876431289 -0.42661878136970832 0 0.24826280892824909 -0.43277588873161588 0 0.25406741122191862 -0.42512718886302492 0 0.24852243941664359 -0.40738679496750541 0 0.24354291200847769 -0.41493363248528259 0 0.24852243941664359 -0.40738679496750541 0 0.24354291200847769 -0.41493363248528259 0 0.2407123627805158 -0.40907983445175572 0 0.25406741122191862 -0.42512718886302492 0 0.24632822158227871 -0.42353552183044979 0 0.24354291200847769 -0.41493363248528259 0 0.23478345876431289 -0.42661878136970832 0 0.24632822158227871 -0.42353552183044979 0 0.24354291200847769 -0.41493363248528259 0 0.23478345876431289 -0.42661878136970832 0 0.24354291200847769 -0.41493363248528259 0 0.23349514182975309 -0.41283772718139372 0 0.2407123627805158 -0.40907983445175572 0 0.23349514182975309 -0.41283772718139372 0 0.23728895786718879 -0.401161183172841 0 0.24354291200847769 -0.41493363248528259 0 0.2407123627805158 -0.40907983445175572 0 0.23349514182975309 -0.41283772718139372 0 0.23349514182975309 -0.41283772718139372 0 0.22336366829847851 -0.4065062731477459 0 0.23728895786718879 -0.401161183172841 0 0.23349514182975309 -0.41283772718139372 0 0.2240147067597088 -0.41872994116377649 0 0.22336366829847851 -0.4065062731477459 0 0.23478345876431289 -0.42661878136970832 0 0.23349514182975309 -0.41283772718139372 0 0.2240147067597088 -0.41872994116377649 0 0.22336366829847851 -0.4065062731477459 0 0.22557030734323949 -0.39349850745998077 0 0.212815571935804 -0.39859556700538379 0 0.22557030734323949 -0.39349850745998077 0 0.23728895786718879 -0.401161183172841 0 0.23495914686390651 -0.38679540223307668 0 0.22336366829847851 -0.4065062731477459 0 0.22557030734323949 -0.39349850745998077 0 0.23728895786718879 -0.401161183172841 0 0.24852243941664359 -0.40738679496750541 0 0.23728895786718879 -0.401161183172841 0 0.2429774676113689 -0.38964640107198578 0 0.25388432824530771 -0.40250129677611379 0 0.24852243941664359 -0.40738679496750541 0 0.2429774676113689 -0.38964640107198578 0 0.24852243941664359 -0.40738679496750541 0 0.2429774676113689 -0.38964640107198578 0 0.24852243941664359 -0.40738679496750541 0 0.2407123627805158 -0.40907983445175572 0 0.23728895786718879 -0.401161183172841 0 0.23728895786718879 -0.401161183172841 0 0.2429774676113689 -0.38964640107198578 0 0.23495914686390651 -0.38679540223307668 0 0.25164130808136398 -0.37945175127548469 0 0.25388432824530771 -0.40250129677611379 0 0.2429774676113689 -0.38964640107198578 0 0.25164130808136398 -0.37945175127548469 0 0.2429774676113689 -0.38964640107198578 0 0.2419457141991587 -0.37725477192274681 0 0.2429774676113689 -0.38964640107198578 0 0.23495914686390651 -0.38679540223307668 0 0.2419457141991587 -0.37725477192274681 0 0.23495914686390651 -0.38679540223307668 0 0.2419457141991587 -0.37725477192274681 0 0.23477755316317869 -0.37709210660031539 0 0.22865732204298181 -0.37287718098154887 0 0.23477755316317869 -0.37709210660031539 0 0.2271948809993046 -0.38211944317059082 0 0.23495914686390651 -0.38679540223307668 0 0.23477755316317869 -0.37709210660031539 0 0.2271948809993046 -0.38211944317059082 0 0.22557030734323949 -0.39349850745998077 0 0.23495914686390651 -0.38679540223307668 0 0.2271948809993046 -0.38211944317059082 0 0.22557030734323949 -0.39349850745998077 0 0.2271948809993046 -0.38211944317059082 0 0.21758889306535131 -0.38610891881052922 0 0.2271948809993046 -0.38211944317059082 0 0.2214551049049491 -0.37704269854443001 0 0.21758889306535131 -0.38610891881052922 0 0.22865732204298181 -0.37287718098154887 0 0.2271948809993046 -0.38211944317059082 0 0.2214551049049491 -0.37704269854443001 0 0.2214551049049491 -0.37704269854443001 0 0.21157236206234459 -0.37725563232011211 0 0.21758889306535131 -0.38610891881052922 0 0.21157236206234459 -0.37725563232011211 0 0.20800984663420061 -0.38797177963991258 0 0.1968526323558738 -0.37791980076821169 0 0.21157236206234459 -0.37725563232011211 0 0.20800984663420061 -0.38797177963991258 0 0.21758889306535131 -0.38610891881052922 0 0.22557030734323949 -0.39349850745998077 0 0.21758889306535131 -0.38610891881052922 0 0.212815571935804 -0.39859556700538379 0 0.20800984663420061 -0.38797177963991258 0 0.21758889306535131 -0.38610891881052922 0 0.212815571935804 -0.39859556700538379 0 0.2086984028517648 -0.41375268930587822 0 0.212815571935804 -0.39859556700538379 0 0.19856230734232311 -0.40068900374696848 0 0.20800984663420061 -0.38797177963991258 0 0.212815571935804 -0.39859556700538379 0 0.19856230734232311 -0.40068900374696848 0 0.20800984663420061 -0.38797177963991258 0 0.19856230734232311 -0.40068900374696848 0 0.19722419678024791 -0.38913417201088391 0 0.18848562692967219 -0.40920723833972661 0 0.19856230734232311 -0.40068900374696848 0 0.18547200078859419 -0.38995610388844282 0 0.19856230734232311 -0.40068900374696848 0 0.19722419678024791 -0.38913417201088391 0 0.18547200078859419 -0.38995610388844282 0 0.1968526323558738 -0.37791980076821169 0 0.19722419678024791 -0.38913417201088391 0 0.18547200078859419 -0.38995610388844282 0 0.18048938837462211 -0.37327873181807469 0 0.1968526323558738 -0.37791980076821169 0 0.18547200078859419 -0.38995610388844282 0 0.20800984663420061 -0.38797177963991258 0 0.1968526323558738 -0.37791980076821169 0 0.19722419678024791 -0.38913417201088391 0 0.18048938837462211 -0.37327873181807469 0 0.18547200078859419 -0.38995610388844282 0 0.17001831144160781 -0.38897870426665981 0 0.18848562692967219 -0.40920723833972661 0 0.18547200078859419 -0.38995610388844282 0 0.17519795988853781 -0.40237848945734472 0 0.18547200078859419 -0.38995610388844282 0 0.17519795988853781 -0.40237848945734472 0 0.17001831144160781 -0.38897870426665981 0 0.17519795988853781 -0.40237848945734472 0 0.16197748161158121 -0.40002593217666932 0 0.17001831144160781 -0.38897870426665981 0 0.16197748161158121 -0.40002593217666932 0 0.15761662877972429 -0.38592686086430339 0 0.17001831144160781 -0.38897870426665981 0 0.18048938837462211 -0.37327873181807469 0 0.1623681282169413 -0.37323503011068909 0 0.17001831144160781 -0.38897870426665981 0 0.1623681282169413 -0.37323503011068909 0 0.15761662877972429 -0.38592686086430339 0 0.17001831144160781 -0.38897870426665981 0 0.1623681282169413 -0.37323503011068909 0 0.1458812452829352 -0.37153296277336118 0 0.15761662877972429 -0.38592686086430339 0 0.1458812452829352 -0.37153296277336118 0 0.13427254735745051 -0.39376288148190558 0 0.1478379773455559 -0.39586167499413738 0 0.1458812452829352 -0.37153296277336118 0 0.15761662877972429 -0.38592686086430339 0 0.1478379773455559 -0.39586167499413738 0 0.1458812452829352 -0.37153296277336118 0 0.13427254735745051 -0.39376288148190558 0 0.12308532481231339 -0.38329660890999029 0 0.1458812452829352 -0.37153296277336118 0 0.13427254735745051 -0.39376288148190558 0 0.1306910958102063 -0.40595109247113281 0 0.13427254735745051 -0.39376288148190558 0 0.1162993765944388 -0.39566554207991489 0 0.1306910958102063 -0.40595109247113281 0 0.13427254735745051 -0.39376288148190558 0 0.1435423131097672 -0.40889904795584042 0 0.13427254735745051 -0.39376288148190558 0 0.1478379773455559 -0.39586167499413738 0 0.1435423131097672 -0.40889904795584042 0 0.16197748161158121 -0.40002593217666932 0 0.15761662877972429 -0.38592686086430339 0 0.1478379773455559 -0.39586167499413738 0 0.1478379773455559 -0.39586167499413738 0 0.15569032905465821 -0.4054677373354203 0 0.1435423131097672 -0.40889904795584042 0 0.16197748161158121 -0.40002593217666932 0 0.1478379773455559 -0.39586167499413738 0 0.15569032905465821 -0.4054677373354203 0 0.15068655771164879 -0.41784881093995158 0 0.13992176493610819 -0.41892175753539479 0 0.1604240528189495 -0.42533728176818181 0 0.15569032905465821 -0.4054677373354203 0 0.1435423131097672 -0.40889904795584042 0 0.1694035441517287 -0.41708429421503429 0 0.15068655771164879 -0.41784881093995158 0 0.1435423131097672 -0.40889904795584042 0 0.15796582048471239 -0.41793090464954952 0 0.15068655771164879 -0.41784881093995158 0 0.1435423131097672 -0.40889904795584042 0 0.13992176493610819 -0.41892175753539479 0 0.1306910958102063 -0.40595109247113281 0 0.1435423131097672 -0.40889904795584042 0 0.13992176493610819 -0.41892175753539479 0 0.13992176493610819 -0.41892175753539479 0 0.1194194770532669 -0.41250623330260822 0 0.1306910958102063 -0.40595109247113281 0 0.13992176493610819 -0.41892175753539479 0 0.1194194770532669 -0.41250623330260822 0 0.13992176493610819 -0.41892175753539479 0 0.1201510209787737 -0.43065580698901412 0 0.1194194770532669 -0.41250623330260822 0 0.13992176493610819 -0.41892175753539479 0 0.13603063076821981 -0.44746681172832148 0 0.1201510209787737 -0.43065580698901412 0 0.15819047966850139 -0.42736356261751168 0 0.13603063076821981 -0.44746681172832148 0 0.13992176493610819 -0.41892175753539479 0 0.1604240528189495 -0.42533728176818181 0 0.13992176493610819 -0.41892175753539479 0 0.1604240528189495 -0.42533728176818181 0 0.15819047966850139 -0.42736356261751168 0 0.13992176493610819 -0.41892175753539479 0 0.15819047966850139 -0.42736356261751168 0 0.13603063076821981 -0.44746681172832148 0 0.16361042385895089 -0.42633435296036237 0 0.1757480834402636 -0.42749683284984957 0 0.17625448395303051 -0.44482417681445169 0 0.16361042385895089 -0.42633435296036237 0 0.15819047966850139 -0.42736356261751168 0 0.17625448395303051 -0.44482417681445169 0 0.15819047966850139 -0.42736356261751168 0 0.17625448395303051 -0.44482417681445169 0 0.16361042385895089 -0.42633435296036237 0 0.16577263463146799 -0.42048508836873921 0 0.1757480834402636 -0.42749683284984957 0 0.1604240528189495 -0.42533728176818181 0 0.16577263463146799 -0.42048508836873921 0 0.1604240528189495 -0.42533728176818181 0 0.16361042385895089 -0.42633435296036237 0 0.16577263463146799 -0.42048508836873921 0 0.1604240528189495 -0.42533728176818181 0 0.16361042385895089 -0.42633435296036237 0 0.15819047966850139 -0.42736356261751168 0 0.1604240528189495 -0.42533728176818181 0 0.16361042385895089 -0.42633435296036237 0 0.1604240528189495 -0.42533728176818181 0 0.15819047966850139 -0.42736356261751168 0 0.15068655771164879 -0.41784881093995158 0 0.1604240528189495 -0.42533728176818181 0 0.15796582048471239 -0.41793090464954952 0 0.16197748161158121 -0.40002593217666932 0 0.15569032905465821 -0.4054677373354203 0 0.1694035441517287 -0.41708429421503429 0 0.1435423131097672 -0.40889904795584042 0 0.15796582048471239 -0.41793090464954952 0 0.1694035441517287 -0.41708429421503429 0 0.1435423131097672 -0.40889904795584042 0 0.1694035441517287 -0.41708429421503429 0 0.17519795988853781 -0.40237848945734472 0 0.16197748161158121 -0.40002593217666932 0 0.1694035441517287 -0.41708429421503429 0 0.1604240528189495 -0.42533728176818181 0 0.15796582048471239 -0.41793090464954952 0 0.16577263463146799 -0.42048508836873921 0 0.15796582048471239 -0.41793090464954952 0 0.1694035441517287 -0.41708429421503429 0 0.16577263463146799 -0.42048508836873921 0 0.1694035441517287 -0.41708429421503429 0 0.16577263463146799 -0.42048508836873921 0 0.1757480834402636 -0.42749683284984957 0 0.1952647751936902 -0.42526954047422821 0 0.18848562692967219 -0.40920723833972661 0 0.1694035441517287 -0.41708429421503429 0 0.1952647751936902 -0.42526954047422821 0 0.1694035441517287 -0.41708429421503429 0 0.18848562692967219 -0.40920723833972661 0 0.17519795988853781 -0.40237848945734472 0 0.1694035441517287 -0.41708429421503429 0 0.1952647751936902 -0.42526954047422821 0 0.1757480834402636 -0.42749683284984957 0 0.17625448395303051 -0.44482417681445169 0 0.1952647751936902 -0.42526954047422821 0 0.1694035441517287 -0.41708429421503429 0 0.1757480834402636 -0.42749683284984957 0 0.19431848823755901 -0.46228479101139258 0 0.17625448395303051 -0.44482417681445169 0 0.19431848823755901 -0.46228479101139258 0 0.17625448395303051 -0.44482417681445169 0 0.1737664270626634 -0.4629534661375756 0 0.1737664270626634 -0.4629534661375756 0 0.1567299963319414 -0.46371413050258942 0 0.1635487863891717 -0.47803757394505197 0 0.1737664270626634 -0.4629534661375756 0 0.1567299963319414 -0.46371413050258942 0 0.15743578927372209 -0.44938292578045858 0 0.15819047966850139 -0.42736356261751168 0 0.17625448395303051 -0.44482417681445169 0 0.15743578927372209 -0.44938292578045858 0 0.17625448395303051 -0.44482417681445169 0 0.1737664270626634 -0.4629534661375756 0 0.15743578927372209 -0.44938292578045858 0 0.15743578927372209 -0.44938292578045858 0 0.13603063076821981 -0.44746681172832148 0 0.14061649142819471 -0.46136949884361828 0 0.15819047966850139 -0.42736356261751168 0 0.15743578927372209 -0.44938292578045858 0 0.13603063076821981 -0.44746681172832148 0 0.14061649142819471 -0.46136949884361828 0 0.13357969869631781 -0.47318682591853511 0 0.113870781867944 -0.46757006083913749 0 0.13603063076821981 -0.44746681172832148 0 0.14061649142819471 -0.46136949884361828 0 0.113870781867944 -0.46757006083913749 0 0.1567299963319414 -0.46371413050258942 0 0.15743578927372209 -0.44938292578045858 0 0.14061649142819471 -0.46136949884361828 0 0.1567299963319414 -0.46371413050258942 0 0.14061649142819471 -0.46136949884361828 0 0.14876612126197239 -0.47227074480738779 0 0.14876612126197239 -0.47227074480738779 0 0.13357969869631781 -0.47318682591853511 0 0.15002030564641691 -0.48659341295926761 0 0.13357969869631781 -0.47318682591853511 0 0.15002030564641691 -0.48659341295926761 0 0.14876612126197239 -0.47227074480738779 0 0.15002030564641691 -0.48659341295926761 0 0.1635487863891717 -0.47803757394505197 0 0.14061649142819471 -0.46136949884361828 0 0.14876612126197239 -0.47227074480738779 0 0.13357969869631781 -0.47318682591853511 0 0.13280305727602629 -0.48378503041957338 0 0.13357969869631781 -0.47318682591853511 0 0.113870781867944 -0.46757006083913749 0 0.13280305727602629 -0.48378503041957338 0 0.13357969869631781 -0.47318682591853511 0 0.15002030564641691 -0.48659341295926761 0 0.13280305727602629 -0.48378503041957338 0 0.1305203754946411 -0.5 0 0.1134738086081602 -0.48789703713673188 0 0.13280305727602629 -0.48378503041957338 0 0.1305203754946411 -0.5 0 0.1517353326841118 -0.50000000000000533 0 0.13280305727602629 -0.48378503041957338 0 0.1517353326841118 -0.50000000000000533 0 0.15002030564641691 -0.48659341295926761 0 0.1517353326841118 -0.50000000000000533 0 0.15002030564641691 -0.48659341295926761 0 0.16646091259651599 -0.50000000000000011 0 0.13280305727602629 -0.48378503041957338 0 0.1517353326841118 -0.50000000000000533 0 0.15002030564641691 -0.48659341295926761 0 0.16646091259651599 -0.50000000000000011 0 0.15002030564641691 -0.48659341295926761 0 0.16646091259651599 -0.50000000000000011 0 0.1635487863891717 -0.47803757394505197 0 0.1567299963319414 -0.46371413050258942 0 0.14876612126197239 -0.47227074480738779 0 0.1635487863891717 -0.47803757394505197 0 0.18845741924796211 -0.48361232452677771 0 0.1737664270626634 -0.4629534661375756 0 0.1635487863891717 -0.47803757394505197 0 0.18845741924796211 -0.48361232452677771 0 0.19431848823755901 -0.46228479101139258 0 0.1737664270626634 -0.4629534661375756 0 0.18845741924796211 -0.48361232452677771 0 0.16646091259651599 -0.50000000000000011 0 0.1635487863891717 -0.47803757394505197 0 0.078123199589619316 -0.50000000000000067 0 0.072239547924749792 -0.48404638969740021 0 0.056815297420688388 -0.49999999999999939 0 0.072239547924749792 -0.48404638969740021 0 0.066772452587478909 -0.46594868190325611 0 0.05810563866242989 -0.47815751042997678 0 0.072239547924749792 -0.48404638969740021 0 0.081570328181927304 -0.47339924935340738 0 0.066772452587478909 -0.46594868190325611 0 0.081570328181927304 -0.47339924935340738 0 0.090909517431635986 -0.48840034812761213 0 0.094982574878904491 -0.47164082183598233 0 0.090909517431635986 -0.48840034812761213 0 0.094982574878904491 -0.47164082183598233 0 0.072239547924749792 -0.48404638969740021 0 0.081570328181927304 -0.47339924935340738 0 0.090909517431635986 -0.48840034812761213 0 0.078123199589619316 -0.50000000000000067 0 0.072239547924749792 -0.48404638969740021 0 0.090909517431635986 -0.48840034812761213 0 0.078123199589619316 -0.50000000000000067 0 0.090909517431635986 -0.48840034812761213 0 0.088090461115699736 -0.49999999999999939 0 0.078123199589619316 -0.50000000000000067 0 0.090909517431635986 -0.48840034812761213 0 0.090909517431635986 -0.48840034812761213 0 0.088090461115699736 -0.49999999999999939 0 0.090909517431635986 -0.48840034812761213 0 0.088090461115699736 -0.49999999999999939 0 0.1022508249217343 -0.49080102171652551 0 0.088090461115699736 -0.49999999999999939 0 0.1022508249217343 -0.49080102171652551 0 0.1093054183051704 -0.5 0 0.1022508249217343 -0.49080102171652551 0 0.1093054183051704 -0.5 0 0.1134738086081602 -0.48789703713673188 0 0.1305203754946411 -0.5 0 0.1093054183051704 -0.5 0 0.1134738086081602 -0.48789703713673188 0 0.1134738086081602 -0.48789703713673188 0 0.1104147232935976 -0.4707053713177467 0 0.113870781867944 -0.46757006083913749 0 0.1134738086081602 -0.48789703713673188 0 0.1104147232935976 -0.4707053713177467 0 0.13280305727602629 -0.48378503041957338 0 0.1134738086081602 -0.48789703713673188 0 0.113870781867944 -0.46757006083913749 0 0.13280305727602629 -0.48378503041957338 0 0.113870781867944 -0.46757006083913749 0 0.1104147232935976 -0.4707053713177467 0 0.113870781867944 -0.46757006083913749 0 0.1022508249217343 -0.49080102171652551 0 0.1134738086081602 -0.48789703713673188 0 0.1104147232935976 -0.4707053713177467 0 0.090909517431635986 -0.48840034812761213 0 0.1104147232935976 -0.4707053713177467 0 0.090909517431635986 -0.48840034812761213 0 0.1104147232935976 -0.4707053713177467 0 0.094982574878904491 -0.47164082183598233 0 0.090909517431635986 -0.48840034812761213 0 0.1022508249217343 -0.49080102171652551 0 0.1104147232935976 -0.4707053713177467 0 0.094982574878904491 -0.47164082183598233 0 0.099055632326172122 -0.45488129554435253 0 0.10913510575140049 -0.46351408539417421 0 0.094982574878904491 -0.47164082183598233 0 0.099055632326172122 -0.45488129554435253 0 0.099055632326172122 -0.45488129554435253 0 0.10913510575140049 -0.46351408539417421 0 0.1104147232935976 -0.4707053713177467 0 0.094982574878904491 -0.47164082183598233 0 0.10913510575140049 -0.46351408539417421 0 0.1104147232935976 -0.4707053713177467 0 0.10913510575140049 -0.46351408539417421 0 0.113870781867944 -0.46757006083913749 0 0.13603063076821981 -0.44746681172832148 0 0.113870781867944 -0.46757006083913749 0 0.10913510575140049 -0.46351408539417421 0 0.113870781867944 -0.46757006083913749 0 0.11663506529130831 -0.44875871636711229 0 0.13603063076821981 -0.44746681172832148 0 0.113870781867944 -0.46757006083913749 0 0.11663506529130831 -0.44875871636711229 0 0.1104147232935976 -0.4707053713177467 0 0.10913510575140049 -0.46351408539417421 0 0.10913510575140049 -0.46351408539417421 0 0.113870781867944 -0.46757006083913749 0 0.11663506529130831 -0.44875871636711229 0 0.1039877870902068 -0.43458681688491269 0 0.1201510209787737 -0.43065580698901412 0 0.10913510575140049 -0.46351408539417421 0 0.11663506529130831 -0.44875871636711229 0 0.1039877870902068 -0.43458681688491269 0 0.13603063076821981 -0.44746681172832148 0 0.11663506529130831 -0.44875871636711229 0 0.1201510209787737 -0.43065580698901412 0 0.10913510575140049 -0.46351408539417421 0 0.1039877870902068 -0.43458681688491269 0 0.099055632326172122 -0.45488129554435253 0 0.10913510575140049 -0.46351408539417421 0 0.1039877870902068 -0.43458681688491269 0 0.099055632326172122 -0.45488129554435253 0 0.1039877870902068 -0.43458681688491269 0 0.099055632326172122 -0.45488129554435253 0 0.081678323454683691 -0.45852925851190512 0 0.078143632719493913 -0.43697074701389998 0 0.099055632326172122 -0.45488129554435253 0 0.078143632719493913 -0.43697074701389998 0 0.1039877870902068 -0.43458681688491269 0 0.099055632326172122 -0.45488129554435253 0 0.078143632719493913 -0.43697074701389998 0 0.094982574878904491 -0.47164082183598233 0 0.099055632326172122 -0.45488129554435253 0 0.081678323454683691 -0.45852925851190512 0 0.081570328181927304 -0.47339924935340738 0 0.094982574878904491 -0.47164082183598233 0 0.081678323454683691 -0.45852925851190512 0 0.081678323454683691 -0.45852925851190512 0 0.066772452587478909 -0.46594868190325611 0 0.067477823892306943 -0.45033203503517788 0 0.081570328181927304 -0.47339924935340738 0 0.081678323454683691 -0.45852925851190512 0 0.066772452587478909 -0.46594868190325611 0 0.081678323454683691 -0.45852925851190512 0 0.067477823892306943 -0.45033203503517788 0 0.078143632719493913 -0.43697074701389998 0 0.067477823892306943 -0.45033203503517788 0 0.078143632719493913 -0.43697074701389998 0 0.054837165972299942 -0.43915693777890402 0 0.078143632719493913 -0.43697074701389998 0 0.057231633112815511 -0.41906019848344772 0 0.054837165972299942 -0.43915693777890402 0 0.078143632719493913 -0.43697074701389998 0 0.057231633112815511 -0.41906019848344772 0 0.078004657439878292 -0.40956392731430308 0 0.068084707981811696 -0.39644268679285199 0 0.057231633112815511 -0.41906019848344772 0 0.078004657439878292 -0.40956392731430308 0 0.078143632719493913 -0.43697074701389998 0 0.057231633112815511 -0.41906019848344772 0 0.078004657439878292 -0.40956392731430308 0 0.087818034714298915 -0.41206547477089961 0 0.087244517495255247 -0.42322083577924169 0 0.078004657439878292 -0.40956392731430308 0 0.087818034714298915 -0.41206547477089961 0 0.09363456376859032 -0.40443768324793022 0 0.087818034714298915 -0.41206547477089961 0 0.094410380591618687 -0.4083703620916172 0 0.09363456376859032 -0.40443768324793022 0 0.087818034714298915 -0.41206547477089961 0 0.087244517495255247 -0.42322083577924169 0 0.094410380591618687 -0.4083703620916172 0 0.087244517495255247 -0.42322083577924169 0 0.078143632719493913 -0.43697074701389998 0 0.1039877870902068 -0.43458681688491269 0 0.078004657439878292 -0.40956392731430308 0 0.087244517495255247 -0.42322083577924169 0 0.078143632719493913 -0.43697074701389998 0 0.087244517495255247 -0.42322083577924169 0 0.1039877870902068 -0.43458681688491269 0 0.094410380591618687 -0.4083703620916172 0 0.1068396541220725 -0.42285215781870322 0 0.1039877870902068 -0.43458681688491269 0 0.1068396541220725 -0.42285215781870322 0 0.1039877870902068 -0.43458681688491269 0 0.1201510209787737 -0.43065580698901412 0 0.1068396541220725 -0.42285215781870322 0 0.1201510209787737 -0.43065580698901412 0 0.1194194770532669 -0.41250623330260822 0 0.1194194770532669 -0.41250623330260822 0 0.098917189170425662 -0.40609070906982131 0 0.1039877870902068 -0.43458681688491269 0 0.094410380591618687 -0.4083703620916172 0 0.098917189170425662 -0.40609070906982131 0 0.1039877870902068 -0.43458681688491269 0 0.098917189170425662 -0.40609070906982131 0 0.1068396541220725 -0.42285215781870322 0 0.1039877870902068 -0.43458681688491269 0 0.098917189170425662 -0.40609070906982131 0 0.1068396541220725 -0.42285215781870322 0 0.1194194770532669 -0.41250623330260822 0 0.098917189170425662 -0.40609070906982131 0 0.094410380591618687 -0.4083703620916172 0 0.09363456376859032 -0.40443768324793022 0 0.094410380591618687 -0.4083703620916172 0 0.098917189170425662 -0.40609070906982131 0 0.09363456376859032 -0.40443768324793022 0 0.1194194770532669 -0.41250623330260822 0 0.098917189170425662 -0.40609070906982131 0 0.10630532998160749 -0.39776232131065908 0 0.098917189170425662 -0.40609070906982131 0 0.096305115994319984 -0.39141119394659429 0 0.098917189170425662 -0.40609070906982131 0 0.09363456376859032 -0.40443768324793022 0 0.098917189170425662 -0.40609070906982131 0 0.096305115994319984 -0.39141119394659429 0 0.09363456376859032 -0.40443768324793022 0 0.098917189170425662 -0.40609070906982131 0 0.096305115994319984 -0.39141119394659429 0 0.10630532998160749 -0.39776232131065908 0 0.096305115994319984 -0.39141119394659429 0 0.10630532998160749 -0.39776232131065908 0 0.1056640788266128 -0.38335106792514012 0 0.13427254735745051 -0.39376288148190558 0 0.1162993765944388 -0.39566554207991489 0 0.12308532481231339 -0.38329660890999029 0 0.1306910958102063 -0.40595109247113281 0 0.1194194770532669 -0.41250623330260822 0 0.1162993765944388 -0.39566554207991489 0 0.1194194770532669 -0.41250623330260822 0 0.10630532998160749 -0.39776232131065908 0 0.1162993765944388 -0.39566554207991489 0 0.10630532998160749 -0.39776232131065908 0 0.1162993765944388 -0.39566554207991489 0 0.1056640788266128 -0.38335106792514012 0 0.1162993765944388 -0.39566554207991489 0 0.12308532481231339 -0.38329660890999029 0 0.1056640788266128 -0.38335106792514012 0 0.12308532481231339 -0.38329660890999029 0 0.1056640788266128 -0.38335106792514012 0 0.1170572681968771 -0.36752770301305471 0 0.1056640788266128 -0.38335106792514012 0 0.088888953394021322 -0.38038179664375732 0 0.099938557037337727 -0.36836638111956232 0 0.096305115994319984 -0.39141119394659429 0 0.1056640788266128 -0.38335106792514012 0 0.088888953394021322 -0.38038179664375732 0 0.088888953394021322 -0.38038179664375732 0 0.09363456376859032 -0.40443768324793022 0 0.068084707981811696 -0.39644268679285199 0 0.088888953394021322 -0.38038179664375732 0 0.09363456376859032 -0.40443768324793022 0 0.09363456376859032 -0.40443768324793022 0 0.068084707981811696 -0.39644268679285199 0 0.096305115994319984 -0.39141119394659429 0 0.088888953394021322 -0.38038179664375732 0 0.09363456376859032 -0.40443768324793022 0 0.078004657439878292 -0.40956392731430308 0 0.09363456376859032 -0.40443768324793022 0 0.068084707981811696 -0.39644268679285199 0 0.068084707981811696 -0.39644268679285199 0 0.072664872810032505 -0.37726933615625102 0 0.05826658944209321 -0.38025661808927508 0 0.088888953394021322 -0.38038179664375732 0 0.068084707981811696 -0.39644268679285199 0 0.072664872810032505 -0.37726933615625102 0 0.05826658944209321 -0.38025661808927508 0 0.042534852195032613 -0.38844769033777482 0 0.046062139043748652 -0.37394509555376221 0 0.068084707981811696 -0.39644268679285199 0 0.05826658944209321 -0.38025661808927508 0 0.042534852195032613 -0.38844769033777482 0 0.068084707981811696 -0.39644268679285199 0 0.052562187795706913 -0.40122575366427071 0 0.042534852195032613 -0.38844769033777482 0 0.068084707981811696 -0.39644268679285199 0 0.042534852195032613 -0.38844769033777482 0 0.068084707981811696 -0.39644268679285199 0 0.052562187795706913 -0.40122575366427071 0 0.057231633112815511 -0.41906019848344772 0 0.052562187795706913 -0.40122575366427071 0 0.036319633506137282 -0.40114964995299551 0 0.042534852195032613 -0.38844769033777482 0 0.036319633506137282 -0.40114964995299551 0 0.03146406524992746 -0.38804930709375518 0 0.042534852195032613 -0.38844769033777482 0 0.03146406524992746 -0.38804930709375518 0 0.042534852195032613 -0.38844769033777482 0 0.031594141399081253 -0.37936078666170697 0 0.042534852195032613 -0.38844769033777482 0 0.031594141399081253 -0.37936078666170697 0 0.046062139043748652 -0.37394509555376221 0 0.031594141399081253 -0.37936078666170697 0 0.015407633899458709 -0.38323910142254369 0 0.0217401304557302 -0.3714398288799583 0 0.03146406524992746 -0.38804930709375518 0 0.031594141399081253 -0.37936078666170697 0 0.015407633899458709 -0.38323910142254369 0 -0.0091041324141213614 -0.38303618426487851 0 0.01052129353145956 -0.39138744353964888 0 0.015407633899458709 -0.38323910142254369 0 0.0023036431624136882 -0.37201589625552062 0 -0.0091041324141213614 -0.38303618426487851 0 0.003469052552645202 -0.38272666565252927 0 0.01052129353145956 -0.39138744353964888 0 0.015407633899458709 -0.38323910142254369 0 0.003469052552645202 -0.38272666565252927 0 0.0049516242232669231 -0.37879227535988469 0 0.015407633899458709 -0.38323910142254369 0 0.003469052552645202 -0.38272666565252927 0 0.01052129353145956 -0.39138744353964888 0 0.015407633899458709 -0.38323910142254369 0 0.0054218755351465864 -0.37085003313816328 0 0.0023036431624136882 -0.37201589625552062 0 -0.0013738327214499069 -0.37718743810894501 0 0.003469052552645202 -0.38272666565252927 0 0.0049516242232669231 -0.37879227535988469 0 0.015407633899458709 -0.38323910142254369 0 0.0049516242232669231 -0.37879227535988469 0 0.0023036431624136882 -0.37201589625552062 0 -0.0013738327214499069 -0.37718743810894501 0 0.0049516242232669231 -0.37879227535988469 0 0.0023036431624136882 -0.37201589625552062 0 0.015407633899458709 -0.38323910142254369 0 0.01052129353145956 -0.39138744353964888 0 0.02084405547133247 -0.40404537757527031 0 0.01052129353145956 -0.39138744353964888 0 0.02084405547133247 -0.40404537757527031 0 0.0041565920089453659 -0.40677442097444511 0 -0.0052600663956949281 -0.39665458557681388 0 0.01052129353145956 -0.39138744353964888 0 0.0041565920089453659 -0.40677442097444511 0 0.036319633506137282 -0.40114964995299551 0 0.03146406524992746 -0.38804930709375518 0 0.015407633899458709 -0.38323910142254369 0 0.036319633506137282 -0.40114964995299551 0 0.015407633899458709 -0.38323910142254369 0 0.02084405547133247 -0.40404537757527031 0 0.015407633899458709 -0.38323910142254369 0 0.02084405547133247 -0.40404537757527031 0 0.036319633506137282 -0.40114964995299551 0 0.015407633899458709 -0.38323910142254369 0 0.036319633506137282 -0.40114964995299551 0 0.02084405547133247 -0.40404537757527031 0 0.030308354076944901 -0.41195673132065719 0 0.02084405547133247 -0.40404537757527031 0 0.01468486179448163 -0.41676807119196613 0 0.026280477043206709 -0.42485165372799671 0 0.02084405547133247 -0.40404537757527031 0 0.030308354076944901 -0.41195673132065719 0 0.026280477043206709 -0.42485165372799671 0 0.02084405547133247 -0.40404537757527031 0 0.026280477043206709 -0.42485165372799671 0 -0.0077384208787153784 -0.42454613935415131 0 0.01468486179448163 -0.41676807119196613 0 0.0041565920089453659 -0.40677442097444511 0 0.02084405547133247 -0.40404537757527031 0 0.01468486179448163 -0.41676807119196613 0 0.0041565920089453659 -0.40677442097444511 0 -0.0077384208787153784 -0.42454613935415131 0 0.01468486179448163 -0.41676807119196613 0 0.0061123916992451011 -0.43099409775433761 0 0.026280477043206709 -0.42485165372799671 0 0.031716898615080931 -0.44565792988072322 0 0.0061123916992451011 -0.43099409775433761 0 0.026280477043206709 -0.42485165372799671 0 0.01857422537298074 -0.44279539240896149 0 0.01468486179448163 -0.41676807119196613 0 0.0061123916992451011 -0.43099409775433761 0 0.026280477043206709 -0.42485165372799671 0 0.038922975506988172 -0.43263958266426611 0 0.037789250287103157 -0.41778024402636638 0 0.057231633112815511 -0.41906019848344772 0 0.026280477043206709 -0.42485165372799671 0 0.038922975506988172 -0.43263958266426611 0 0.031716898615080931 -0.44565792988072322 0 0.026280477043206709 -0.42485165372799671 0 0.038922975506988172 -0.43263958266426611 0 0.037789250287103157 -0.41778024402636638 0 0.036319633506137282 -0.40114964995299551 0 0.057231633112815511 -0.41906019848344772 0 0.036319633506137282 -0.40114964995299551 0 0.030308354076944901 -0.41195673132065719 0 0.037789250287103157 -0.41778024402636638 0 0.030308354076944901 -0.41195673132065719 0 0.026280477043206709 -0.42485165372799671 0 0.037789250287103157 -0.41778024402636638 0 0.036319633506137282 -0.40114964995299551 0 0.037789250287103157 -0.41778024402636638 0 0.057231633112815511 -0.41906019848344772 0 0.052562187795706913 -0.40122575366427071 0 0.036319633506137282 -0.40114964995299551 0 0.057231633112815511 -0.41906019848344772 0 0.038922975506988172 -0.43263958266426611 0 0.057231633112815511 -0.41906019848344772 0 0.054837165972299942 -0.43915693777890402 0 0.054837165972299942 -0.43915693777890402 0 0.053091777076123961 -0.45347985588809658 0 0.043424192081792011 -0.44513165453114423 0 0.067477823892306943 -0.45033203503517788 0 0.054837165972299942 -0.43915693777890402 0 0.053091777076123961 -0.45347985588809658 0 0.066772452587478909 -0.46594868190325611 0 0.047617807462244532 -0.46657270784288318 0 0.053091777076123961 -0.45347985588809658 0 0.066772452587478909 -0.46594868190325611 0 0.067477823892306943 -0.45033203503517788 0 0.053091777076123961 -0.45347985588809658 0 0.047617807462244532 -0.46657270784288318 0 0.053091777076123961 -0.45347985588809658 0 0.038552143238467042 -0.4547239664437307 0 0.047617807462244532 -0.46657270784288318 0 0.038552143238467042 -0.4547239664437307 0 0.028522029118836251 -0.46313841298176728 0 0.038552143238467042 -0.4547239664437307 0 0.031716898615080931 -0.44565792988072322 0 0.026485369490146491 -0.45001623054734119 0 0.038552143238467042 -0.4547239664437307 0 0.031716898615080931 -0.44565792988072322 0 0.043424192081792011 -0.44513165453114423 0 0.038922975506988172 -0.43263958266426611 0 0.054837165972299942 -0.43915693777890402 0 0.043424192081792011 -0.44513165453114423 0 0.053091777076123961 -0.45347985588809658 0 0.038552143238467042 -0.4547239664437307 0 0.043424192081792011 -0.44513165453114423 0 0.038922975506988172 -0.43263958266426611 0 0.031716898615080931 -0.44565792988072322 0 0.043424192081792011 -0.44513165453114423 0 0.026280477043206709 -0.42485165372799671 0 0.031716898615080931 -0.44565792988072322 0 0.01857422537298074 -0.44279539240896149 0 0.031716898615080931 -0.44565792988072322 0 0.026485369490146491 -0.45001623054734119 0 0.01857422537298074 -0.44279539240896149 0 0.026485369490146491 -0.45001623054734119 0 0.01857422537298074 -0.44279539240896149 0 0.017098210734057252 -0.4568876334559494 0 0.0061123916992451011 -0.43099409775433761 0 0.01857422537298074 -0.44279539240896149 0 0.0062368346562517631 -0.44763810525095771 0 -0.0060416623437871027 -0.44784308303042869 0 0.0061123916992451011 -0.43099409775433761 0 0.0062368346562517631 -0.44763810525095771 0 0.01857422537298074 -0.44279539240896149 0 0.0062368346562517631 -0.44763810525095771 0 0.017098210734057252 -0.4568876334559494 0 -0.0043557217703525178 -0.459051300468168 0 0.017098210734057252 -0.4568876334559494 0 -0.0043557217703525178 -0.459051300468168 0 0.0062368346562517631 -0.44763810525095771 0 0.017098210734057252 -0.4568876334559494 0 -0.0043557217703525178 -0.459051300468168 0 0.0068738434278103333 -0.46757890054221152 0 0.017098210734057252 -0.4568876334559494 0 0.0068738434278103333 -0.46757890054221152 0 0.018997287411073739 -0.46743266344419809 0 0.017098210734057252 -0.4568876334559494 0 0.038552143238467042 -0.4547239664437307 0 0.017098210734057252 -0.4568876334559494 0 0.028522029118836251 -0.46313841298176728 0 0.038552143238467042 -0.4547239664437307 0 0.017098210734057252 -0.4568876334559494 0 0.038552143238467042 -0.4547239664437307 0 0.026485369490146491 -0.45001623054734119 0 0.017098210734057252 -0.4568876334559494 0 0.018997287411073739 -0.46743266344419809 0 0.017098210734057252 -0.4568876334559494 0 0.028522029118836251 -0.46313841298176728 0 0.018997287411073739 -0.46743266344419809 0 0.028522029118836251 -0.46313841298176728 0 0.02852178327202641 -0.47778315312056208 0 0.02852178327202641 -0.47778315312056208 0 0.01478578510108931 -0.47669844308042741 0 0.0151243813884292 -0.48755220209633471 0 0.018997287411073739 -0.46743266344419809 0 0.02852178327202641 -0.47778315312056208 0 0.01478578510108931 -0.47669844308042741 0 0.0068738434278103333 -0.46757890054221152 0 0.01478578510108931 -0.47669844308042741 0 0.0028177711664636798 -0.48327941428068377 0 -0.0049689105650129184 -0.47133880685411028 0 0.0068738434278103333 -0.46757890054221152 0 0.0028177711664636798 -0.48327941428068377 0 0.0068738434278103333 -0.46757890054221152 0 0.018997287411073739 -0.46743266344419809 0 0.01478578510108931 -0.47669844308042741 0 0.01478578510108931 -0.47669844308042741 0 0.0028177711664636798 -0.48327941428068377 0 0.0151243813884292 -0.48755220209633471 0 0.00072594579481488619 -0.5 0 0.0151243813884292 -0.48755220209633471 0 0.028770621607751679 -0.5 0 0.0028177711664636798 -0.48327941428068377 0 0.00072594579481488619 -0.5 0 0.0151243813884292 -0.48755220209633471 0 0.02852178327202641 -0.47778315312056208 0 0.0151243813884292 -0.48755220209633471 0 0.028770621607751679 -0.5 0 0.02852178327202641 -0.47778315312056208 0 0.028770621607751679 -0.5 0 0.042668663269762472 -0.48156920649088331 0 0.028770621607751679 -0.5 0 0.042668663269762472 -0.48156920649088331 0 0.056815297420688388 -0.49999999999999939 0 0.028522029118836251 -0.46313841298176728 0 0.042668663269762472 -0.48156920649088331 0 0.047617807462244532 -0.46657270784288318 0 0.028522029118836251 -0.46313841298176728 0 0.042668663269762472 -0.48156920649088331 0 0.028522029118836251 -0.46313841298176728 0 0.02852178327202641 -0.47778315312056208 0 0.042668663269762472 -0.48156920649088331 0 0.066772452587478909 -0.46594868190325611 0 0.047617807462244532 -0.46657270784288318 0 0.05810563866242989 -0.47815751042997678 0 0.047617807462244532 -0.46657270784288318 0 0.042668663269762472 -0.48156920649088331 0 0.05810563866242989 -0.47815751042997678 0 0.072239547924749792 -0.48404638969740021 0 0.05810563866242989 -0.47815751042997678 0 0.056815297420688388 -0.49999999999999939 0 0.042668663269762472 -0.48156920649088331 0 0.05810563866242989 -0.47815751042997678 0 0.056815297420688388 -0.49999999999999939 0 0.042668663269762472 -0.48156920649088331 0 0.056815297420688388 -0.49999999999999939 0 0.083660611809292074 -0.30242199458585389 0 0.078022855521320239 -0.28545050175926628 0 0.089501883687327935 -0.27276720722881709 0 0.083660611809292074 -0.30242199458585389 0 0.089501883687327935 -0.27276720722881709 0 0.083660611809292074 -0.30242199458585389 0 0.074315101339398948 -0.29692093388620222 0 0.078022855521320239 -0.28545050175926628 0 0.083660611809292074 -0.30242199458585389 0 0.089501883687327935 -0.27276720722881709 0 0.097325086364133118 -0.29363621757098568 0 0.083660611809292074 -0.30242199458585389 0 0.097325086364133118 -0.29363621757098568 0 0.093317728551562715 -0.30861967769176107 0 0.083660611809292074 -0.30242199458585389 0 0.097325086364133118 -0.29363621757098568 0 0.074652122270321239 -0.30821413683123722 0 0.076494426748141803 -0.30702959978441902 0 0.092797917114210995 -0.32191365999370591 0 0.093317728551562715 -0.30861967769176107 0 0.083660611809292074 -0.30242199458585389 0 0.076494426748141803 -0.30702959978441902 0 0.083660611809292074 -0.30242199458585389 0 0.076494426748141803 -0.30702959978441902 0 0.083660611809292074 -0.30242199458585389 0 0.074315101339398948 -0.29692093388620222 0 0.076494426748141803 -0.30702959978441902 0 0.076494426748141803 -0.30702959978441902 0 0.064973865910205347 -0.2965120530931043 0 0.074652122270321239 -0.30821413683123722 0 0.076494426748141803 -0.30702959978441902 0 0.064973865910205347 -0.2965120530931043 0 0.074652122270321239 -0.30821413683123722 0 0.068224134059248445 -0.30557769840347948 0 0.058731155491080739 -0.30994190294027429 0 0.074315101339398948 -0.29692093388620222 0 0.076494426748141803 -0.30702959978441902 0 0.064973865910205347 -0.2965120530931043 0 0.074652122270321239 -0.30821413683123722 0 0.076494426748141803 -0.30702959978441902 0 0.074652122270321239 -0.30821413683123722 0 0.068224134059248445 -0.30557769840347948 0 0.064973865910205347 -0.2965120530931043 0 0.068224134059248445 -0.30557769840347948 0 0.064973865910205347 -0.2965120530931043 0 0.058731155491080739 -0.30994190294027429 0 0.074315101339398948 -0.29692093388620222 0 0.064973865910205347 -0.2965120530931043 0 0.065703148457610702 -0.28414483448354799 0 0.074315101339398948 -0.29692093388620222 0 0.078022855521320239 -0.28545050175926628 0 0.065703148457610702 -0.28414483448354799 0 0.078022855521320239 -0.28545050175926628 0 0.065703148457610702 -0.28414483448354799 0 0.065463220465099822 -0.25990592719758032 0 0.078022855521320239 -0.28545050175926628 0 0.065463220465099822 -0.25990592719758032 0 0.089501883687327935 -0.27276720722881709 0 0.089501883687327935 -0.27276720722881709 0 0.095777495595703685 -0.24378794672417869 0 0.065463220465099822 -0.25990592719758032 0 0.082920410740594266 -0.25617281580077073 0 0.089501883687327935 -0.27276720722881709 0 0.082920410740594266 -0.25617281580077073 0 0.089501883687327935 -0.27276720722881709 0 0.095777495595703685 -0.24378794672417869 0 0.089501883687327935 -0.27276720722881709 0 0.10275764700386079 -0.27752918889365591 0 0.1060478719838541 -0.26347049541726281 0 0.10275764700386079 -0.27752918889365591 0 0.1060478719838541 -0.26347049541726281 0 0.1181557459801281 -0.28024283535755828 0 0.1060478719838541 -0.26347049541726281 0 0.1124932849432754 -0.24497107402557769 0 0.095777495595703685 -0.24378794672417869 0 0.089501883687327935 -0.27276720722881709 0 0.1060478719838541 -0.26347049541726281 0 0.095777495595703685 -0.24378794672417869 0 0.1060478719838541 -0.26347049541726281 0 0.11962490723542719 -0.25785197881650451 0 0.1124932849432754 -0.24497107402557769 0 0.1060478719838541 -0.26347049541726281 0 0.11962490723542719 -0.25785197881650451 0 0.1181557459801281 -0.28024283535755828 0 0.13600517251636909 -0.29116004475647778 0 0.1181557459801281 -0.28024283535755828 0 0.1188410324676098 -0.29837103342623611 0 0.1181557459801281 -0.28024283535755828 0 0.097325086364133118 -0.29363621757098568 0 0.1188410324676098 -0.29837103342623611 0 0.089501883687327935 -0.27276720722881709 0 0.10275764700386079 -0.27752918889365591 0 0.097325086364133118 -0.29363621757098568 0 0.10275764700386079 -0.27752918889365591 0 0.1181557459801281 -0.28024283535755828 0 0.097325086364133118 -0.29363621757098568 0 0.1181557459801281 -0.28024283535755828 0 0.097325086364133118 -0.29363621757098568 0 0.093317728551562715 -0.30861967769176107 0 0.097325086364133118 -0.29363621757098568 0 0.1098684358593876 -0.31421220394316818 0 0.097325086364133118 -0.29363621757098568 0 0.1188410324676098 -0.29837103342623611 0 0.1098684358593876 -0.31421220394316818 0 0.13285072161803119 -0.3126038655029908 0 0.1188410324676098 -0.29837103342623611 0 0.1098684358593876 -0.31421220394316818 0 0.1251920375030795 -0.32861408620246468 0 0.1098684358593876 -0.31421220394316818 0 0.1091014074802814 -0.33679772020299142 0 0.1251920375030795 -0.32861408620246468 0 0.13285072161803119 -0.3126038655029908 0 0.1098684358593876 -0.31421220394316818 0 0.12914143619693519 -0.34880269456551172 0 0.1251920375030795 -0.32861408620246468 0 0.1091014074802814 -0.33679772020299142 0 0.093875908401711561 -0.34031054832959362 0 0.1091014074802814 -0.33679772020299142 0 0.092797917114210995 -0.32191365999370591 0 0.1091014074802814 -0.33679772020299142 0 0.092797917114210995 -0.32191365999370591 0 0.093317728551562715 -0.30861967769176107 0 0.1098684358593876 -0.31421220394316818 0 0.092797917114210995 -0.32191365999370591 0 0.1098684358593876 -0.31421220394316818 0 0.1091014074802814 -0.33679772020299142 0 0.092797917114210995 -0.32191365999370591 0 0.12914143619693519 -0.34880269456551172 0 0.1170572681968771 -0.36752770301305471 0 0.1039391417497226 -0.35424542797627562 0 0.12914143619693519 -0.34880269456551172 0 0.1091014074802814 -0.33679772020299142 0 0.1039391417497226 -0.35424542797627562 0 0.093875908401711561 -0.34031054832959362 0 0.1039391417497226 -0.35424542797627562 0 0.084143343019454725 -0.35632591003958403 0 0.093875908401711561 -0.34031054832959362 0 0.1091014074802814 -0.33679772020299142 0 0.1039391417497226 -0.35424542797627562 0 0.1170572681968771 -0.36752770301305471 0 0.1039391417497226 -0.35424542797627562 0 0.099938557037337727 -0.36836638111956232 0 0.1039391417497226 -0.35424542797627562 0 0.099938557037337727 -0.36836638111956232 0 0.084143343019454725 -0.35632591003958403 0 0.1056640788266128 -0.38335106792514012 0 0.1170572681968771 -0.36752770301305471 0 0.099938557037337727 -0.36836638111956232 0 0.088888953394021322 -0.38038179664375732 0 0.084143343019454725 -0.35632591003958403 0 0.088888953394021322 -0.38038179664375732 0 0.099938557037337727 -0.36836638111956232 0 0.084143343019454725 -0.35632591003958403 0 0.088888953394021322 -0.38038179664375732 0 0.072664872810032505 -0.37726933615625102 0 0.084143343019454725 -0.35632591003958403 0 0.084143343019454725 -0.35632591003958403 0 0.079397732644888114 -0.33227002343541062 0 0.084143343019454725 -0.35632591003958403 0 0.06430979787131455 -0.34572485239175982 0 0.079397732644888114 -0.33227002343541062 0 0.084143343019454725 -0.35632591003958403 0 0.06430979787131455 -0.34572485239175982 0 0.061986375179840611 -0.36517828160573568 0 0.072664872810032505 -0.37726933615625102 0 0.084143343019454725 -0.35632591003958403 0 0.061986375179840611 -0.36517828160573568 0 0.072664872810032505 -0.37726933615625102 0 0.05826658944209321 -0.38025661808927508 0 0.061986375179840611 -0.36517828160573568 0 0.093317728551562715 -0.30861967769176107 0 0.076494426748141803 -0.30702959978441902 0 0.092797917114210995 -0.32191365999370591 0 0.074652122270321239 -0.30821413683123722 0 0.092797917114210995 -0.32191365999370591 0 0.079397732644888114 -0.33227002343541062 0 0.076494426748141803 -0.30702959978441902 0 0.092797917114210995 -0.32191365999370591 0 0.093875908401711561 -0.34031054832959362 0 0.084143343019454725 -0.35632591003958403 0 0.079397732644888114 -0.33227002343541062 0 0.093875908401711561 -0.34031054832959362 0 0.092797917114210995 -0.32191365999370591 0 0.079397732644888114 -0.33227002343541062 0 0.06430979787131455 -0.34572485239175982 0 0.079397732644888114 -0.33227002343541062 0 0.051695990653927958 -0.32297412285894789 0 0.074652122270321239 -0.30821413683123722 0 0.079397732644888114 -0.33227002343541062 0 0.051695990653927958 -0.32297412285894789 0 0.074652122270321239 -0.30821413683123722 0 0.051695990653927958 -0.32297412285894789 0 0.074652122270321239 -0.30821413683123722 0 0.079397732644888114 -0.33227002343541062 0 0.074652122270321239 -0.30821413683123722 0 0.051695990653927958 -0.32297412285894789 0 0.058731155491080739 -0.30994190294027429 0 0.06430979787131455 -0.34572485239175982 0 0.051695990653927958 -0.32297412285894789 0 0.044325547858461323 -0.35187592401912049 0 0.051695990653927958 -0.32297412285894789 0 0.028739859037535009 -0.33773410888665922 0 0.051695990653927958 -0.32297412285894789 0 0.044325547858461323 -0.35187592401912049 0 0.028739859037535009 -0.33773410888665922 0 0.051695990653927958 -0.32297412285894789 0 0.02735893742788564 -0.31661993226134488 0 0.028739859037535009 -0.33773410888665922 0 0.051695990653927958 -0.32297412285894789 0 0.02735893742788564 -0.31661993226134488 0 0.045189465133006201 -0.30394566057187328 0 0.05826658944209321 -0.38025661808927508 0 0.061986375179840611 -0.36517828160573568 0 0.046062139043748652 -0.37394509555376221 0 0.061986375179840611 -0.36517828160573568 0 0.044325547858461323 -0.35187592401912049 0 0.046062139043748652 -0.37394509555376221 0 0.06430979787131455 -0.34572485239175982 0 0.061986375179840611 -0.36517828160573568 0 0.044325547858461323 -0.35187592401912049 0 0.044325547858461323 -0.35187592401912049 0 0.030914829698487641 -0.36576798409437222 0 0.022307374051206991 -0.3532691018702373 0 0.044325547858461323 -0.35187592401912049 0 0.022307374051206991 -0.3532691018702373 0 0.028739859037535009 -0.33773410888665922 0 0.044325547858461323 -0.35187592401912049 0 0.046062139043748652 -0.37394509555376221 0 0.030914829698487641 -0.36576798409437222 0 0.031594141399081253 -0.37936078666170697 0 0.046062139043748652 -0.37394509555376221 0 0.030914829698487641 -0.36576798409437222 0 0.015407633899458709 -0.38323910142254369 0 0.0217401304557302 -0.3714398288799583 0 0.01007673539171388 -0.36283668320904089 0 0.031594141399081253 -0.37936078666170697 0 0.0217401304557302 -0.3714398288799583 0 0.030914829698487641 -0.36576798409437222 0 0.0217401304557302 -0.3714398288799583 0 0.030914829698487641 -0.36576798409437222 0 0.0208567393590256 -0.36276227197293048 0 0.030914829698487641 -0.36576798409437222 0 0.0208567393590256 -0.36276227197293048 0 0.022307374051206991 -0.3532691018702373 0 0.0217401304557302 -0.3714398288799583 0 0.0208567393590256 -0.36276227197293048 0 0.01007673539171388 -0.36283668320904089 0 0.0208567393590256 -0.36276227197293048 0 0.022307374051206991 -0.3532691018702373 0 0.01007673539171388 -0.36283668320904089 0 0.005783727421145201 -0.35249409491437522 0 0.028739859037535009 -0.33773410888665922 0 0.022307374051206991 -0.3532691018702373 0 0.005783727421145201 -0.35249409491437522 0 0.028739859037535009 -0.33773410888665922 0 0.022307374051206991 -0.3532691018702373 0 0.005783727421145201 -0.35249409491437522 0 0.01007673539171388 -0.36283668320904089 0 0.005783727421145201 -0.35249409491437522 0 0.0061066593841971233 -0.33611247748115858 0 -0.0067310561763213013 -0.34456988467537958 0 0.005783727421145201 -0.35249409491437522 0 0.0061066593841971233 -0.33611247748115858 0 0.015407633899458709 -0.38323910142254369 0 0.01007673539171388 -0.36283668320904089 0 0.0054218755351465864 -0.37085003313816328 0 0.005783727421145201 -0.35249409491437522 0 0.0054218755351465864 -0.37085003313816328 0 0.0023036431624136882 -0.37201589625552062 0 -0.0064145476522704794 -0.37079448180321728 0 0.005783727421145201 -0.35249409491437522 0 0.0023036431624136882 -0.37201589625552062 0 0.005783727421145201 -0.35249409491437522 0 0.0054218755351465864 -0.37085003313816328 0 0.005783727421145201 -0.35249409491437522 0 0.01007673539171388 -0.36283668320904089 0 0.0054218755351465864 -0.37085003313816328 0 0.015407633899458709 -0.38323910142254369 0 0.01007673539171388 -0.36283668320904089 0 0.02735893742788564 -0.31661993226134488 0 0.018051567707066191 -0.32815395658241509 0 0.0064295913472382244 -0.31973086004794171 0 0.02735893742788564 -0.31661993226134488 0 0.028739859037535009 -0.33773410888665922 0 0.018051567707066191 -0.32815395658241509 0 0.028739859037535009 -0.33773410888665922 0 0.018051567707066191 -0.32815395658241509 0 0.0061066593841971233 -0.33611247748115858 0 0.005783727421145201 -0.35249409491437522 0 0.028739859037535009 -0.33773410888665922 0 0.0061066593841971233 -0.33611247748115858 0 -0.0032348283285651052 -0.33063069068097423 0 0.0061066593841971233 -0.33611247748115858 0 0.0046682575881438274 -0.32448871372640958 0 0.0061066593841971233 -0.33611247748115858 0 0.0064295913472382244 -0.31973086004794171 0 0.0061066593841971233 -0.33611247748115858 0 0.0046682575881438274 -0.32448871372640958 0 0.0064295913472382244 -0.31973086004794171 0 0.018051567707066191 -0.32815395658241509 0 0.0061066593841971233 -0.33611247748115858 0 0.0064295913472382244 -0.31973086004794171 0 -0.0010326814487084379 -0.3197639796436984 0 -0.0032348283285651052 -0.33063069068097423 0 0.0046682575881438274 -0.32448871372640958 0 -0.0010326814487084379 -0.3197639796436984 0 0.0046682575881438274 -0.32448871372640958 0 0.0064295913472382244 -0.31973086004794171 0 0.0046682575881438274 -0.32448871372640958 0 0.0064295913472382244 -0.31973086004794171 0 -0.0010326814487084379 -0.3197639796436984 0 0.0064295913472382244 -0.31973086004794171 0 0.00229542296049295 -0.31122964705265632 0 0.0064295913472382244 -0.31973086004794171 0 0.01350037750441265 -0.30063069475906018 0 0.0064295913472382244 -0.31973086004794171 0 0.00229542296049295 -0.31122964705265632 0 0.0067913771927171724 -0.3013782719128083 0 0.0064295913472382244 -0.31973086004794171 0 0.01350037750441265 -0.30063069475906018 0 0.0067913771927171724 -0.3013782719128083 0 0.0064295913472382244 -0.31973086004794171 0 0.0067913771927171724 -0.3013782719128083 0 0.00229542296049295 -0.31122964705265632 0 0.0010257972367942951 -0.30443570348051402 0 0.0067913771927171724 -0.3013782719128083 0 -0.0001018891203435732 -0.30094362704210798 0 0.0010257972367942951 -0.30443570348051402 0 0.0039235629823402007 -0.29959465834849702 0 -0.0021474977539600809 -0.29714664822596559 0 -0.0001018891203435732 -0.30094362704210798 0 0.0039235629823402007 -0.29959465834849702 0 0.0010257972367942951 -0.30443570348051402 0 0.0039235629823402007 -0.29959465834849702 0 0.0067913771927171724 -0.3013782719128083 0 -0.001934363279334723 -0.29061153365542308 0 0.0039235629823402007 -0.29959465834849702 0 0.0071531630381951464 -0.28302568377767501 0 0.0067913771927171724 -0.3013782719128083 0 0.0071531630381951464 -0.28302568377767501 0 0.01350037750441265 -0.30063069475906018 0 0.0067913771927171724 -0.3013782719128083 0 0.0071531630381951464 -0.28302568377767501 0 0.0039235629823402007 -0.29959465834849702 0 0.0067913771927171724 -0.3013782719128083 0 0.0071531630381951464 -0.28302568377767501 0 0.0039235629823402007 -0.29959465834849702 0 0.0071531630381951464 -0.28302568377767501 0 0.01350037750441265 -0.30063069475906018 0 0.0071531630381951464 -0.28302568377767501 0 0.020571163661587739 -0.28153052947017909 0 0.01350037750441265 -0.30063069475906018 0 0.020571163661587739 -0.28153052947017909 0 0.028661629949465531 -0.3007392474035171 0 0.01350037750441265 -0.30063069475906018 0 0.020571163661587739 -0.28153052947017909 0 0.020571163661587739 -0.28153052947017909 0 0.028661629949465531 -0.3007392474035171 0 0.03767080660006572 -0.28944667660689383 0 0.02735893742788564 -0.31661993226134488 0 0.01350037750441265 -0.30063069475906018 0 0.028661629949465531 -0.3007392474035171 0 0.02735893742788564 -0.31661993226134488 0 0.0064295913472382244 -0.31973086004794171 0 0.01350037750441265 -0.30063069475906018 0 0.028661629949465531 -0.3007392474035171 0 0.045189465133006201 -0.30394566057187328 0 0.03767080660006572 -0.28944667660689383 0 0.02735893742788564 -0.31661993226134488 0 0.028661629949465531 -0.3007392474035171 0 0.045189465133006201 -0.30394566057187328 0 0.045189465133006201 -0.30394566057187328 0 0.03767080660006572 -0.28944667660689383 0 0.053453305072269627 -0.28599450640178881 0 0.03767080660006572 -0.28944667660689383 0 0.053453305072269627 -0.28599450640178881 0 0.040547627445515828 -0.27421243529154299 0 0.020571163661587739 -0.28153052947017909 0 0.03767080660006572 -0.28944667660689383 0 0.040547627445515828 -0.27421243529154299 0 0.064973865910205347 -0.2965120530931043 0 0.045189465133006201 -0.30394566057187328 0 0.053453305072269627 -0.28599450640178881 0 0.045189465133006201 -0.30394566057187328 0 0.053453305072269627 -0.28599450640178881 0 0.064973865910205347 -0.2965120530931043 0 0.065703148457610702 -0.28414483448354799 0 0.053453305072269627 -0.28599450640178881 0 0.064973865910205347 -0.2965120530931043 0 0.053453305072269627 -0.28599450640178881 0 0.064973865910205347 -0.2965120530931043 0 0.045189465133006201 -0.30394566057187328 0 0.058731155491080739 -0.30994190294027429 0 0.051695990653927958 -0.32297412285894789 0 0.045189465133006201 -0.30394566057187328 0 0.058731155491080739 -0.30994190294027429 0 0.065463220465099822 -0.25990592719758032 0 0.044857189368968223 -0.25577862199652052 0 0.055784012513637522 -0.23938264054926239 0 0.065463220465099822 -0.25990592719758032 0 0.040547627445515828 -0.27421243529154299 0 0.044857189368968223 -0.25577862199652052 0 0.065463220465099822 -0.25990592719758032 0 0.053453305072269627 -0.28599450640178881 0 0.065703148457610702 -0.28414483448354799 0 0.065463220465099822 -0.25990592719758032 0 0.053453305072269627 -0.28599450640178881 0 0.065463220465099822 -0.25990592719758032 0 0.053453305072269627 -0.28599450640178881 0 0.040547627445515828 -0.27421243529154299 0 0.053453305072269627 -0.28599450640178881 0 0.040547627445515828 -0.27421243529154299 0 0.040547627445515828 -0.27421243529154299 0 0.027641949818761849 -0.2624303641812975 0 0.044857189368968223 -0.25577862199652052 0 0.027641949818761849 -0.2624303641812975 0 0.034849136601826383 -0.24296174276291929 0 0.040547627445515828 -0.27421243529154299 0 0.044857189368968223 -0.25577862199652052 0 0.027641949818761849 -0.2624303641812975 0 0.027641949818761849 -0.2624303641812975 0 0.013656296163676369 -0.24966234295427919 0 0.02292379620583633 -0.24087207586773859 0 0.027641949818761849 -0.2624303641812975 0 0.01040472960093463 -0.26634401336597691 0 0.013656296163676369 -0.24966234295427919 0 0.027641949818761849 -0.2624303641812975 0 0.034849136601826383 -0.24296174276291929 0 0.027641949818761849 -0.2624303641812975 0 0.013656296163676369 -0.24966234295427919 0 0.020571163661587739 -0.28153052947017909 0 0.027641949818761849 -0.2624303641812975 0 0.01040472960093463 -0.26634401336597691 0 0.020571163661587739 -0.28153052947017909 0 0.027641949818761849 -0.2624303641812975 0 0.020571163661587739 -0.28153052947017909 0 0.040547627445515828 -0.27421243529154299 0 0.027641949818761849 -0.2624303641812975 0 0.0071531630381951464 -0.28302568377767501 0 0.020571163661587739 -0.28153052947017909 0 0.01040472960093463 -0.26634401336597691 0 -0.0030813648392770988 -0.27223975344966711 0 0.0071531630381951464 -0.28302568377767501 0 0.0075336796531474334 -0.26372292552974141 0 0.0071531630381951464 -0.28302568377767501 0 0.01040472960093463 -0.26634401336597691 0 0.0075336796531474334 -0.26372292552974141 0 0.0071531630381951464 -0.28302568377767501 0 0.0075336796531474334 -0.26372292552974141 0 0.0071531630381951464 -0.28302568377767501 0 0.01040472960093463 -0.26634401336597691 0 0.0075336796531474334 -0.26372292552974141 0 0.0079141962681041587 -0.2444201672818079 0 -0.002950157048249026 -0.25282991239742242 0 0.0075336796531474334 -0.26372292552974141 0 0.0079141962681041587 -0.2444201672818079 0 0.01040472960093463 -0.26634401336597691 0 0.0075336796531474334 -0.26372292552974141 0 0.013656296163676369 -0.24966234295427919 0 0.01040472960093463 -0.26634401336597691 0 0.013656296163676369 -0.24966234295427919 0 0.0075336796531474334 -0.26372292552974141 0 0.0079141962681041587 -0.2444201672818079 0 0.013656296163676369 -0.24966234295427919 0 0.0079141962681041587 -0.2444201672818079 0 0.013656296163676369 -0.24966234295427919 0 0.017846516046671639 -0.22816505366557119 0 0.0079141962681041587 -0.2444201672818079 0 0.013656296163676369 -0.24966234295427919 0 0.0079141962681041587 -0.2444201672818079 0 0.008398731595078205 -0.21984077202877211 0 -0.01361953667112153 -0.22476122490802031 0 0.0079141962681041587 -0.2444201672818079 0 0.008398731595078205 -0.21984077202877211 0 0.0079141962681041587 -0.2444201672818079 0 0.008398731595078205 -0.21984077202877211 0 0.017846516046671639 -0.22816505366557119 0 0.017846516046671639 -0.22816505366557119 0 0.029228501795371571 -0.2307792357125317 0 0.02292379620583633 -0.24087207586773859 0 0.017846516046671639 -0.22816505366557119 0 0.028655747130830949 -0.2191149526461573 0 0.029228501795371571 -0.2307792357125317 0 0.013656296163676369 -0.24966234295427919 0 0.017846516046671639 -0.22816505366557119 0 0.013656296163676369 -0.24966234295427919 0 0.017846516046671639 -0.22816505366557119 0 0.02292379620583633 -0.24087207586773859 0 0.027641949818761849 -0.2624303641812975 0 0.02292379620583633 -0.24087207586773859 0 0.034849136601826383 -0.24296174276291929 0 0.029228501795371571 -0.2307792357125317 0 0.02292379620583633 -0.24087207586773859 0 0.034849136601826383 -0.24296174276291929 0 -0.0084393550421175672 -0.20623500431534419 0 0.008398731595078205 -0.21984077202877211 0 0.0088832669220569264 -0.19526137677573641 0 0.008398731595078205 -0.21984077202877211 0 0.0088832669220569264 -0.19526137677573641 0 0.008398731595078205 -0.21984077202877211 0 0.0088832669220569264 -0.19526137677573641 0 0.02203673592966893 -0.20666776437686349 0 0.017846516046671639 -0.22816505366557119 0 0.028655747130830949 -0.2191149526461573 0 0.02203673592966893 -0.20666776437686349 0 0.017846516046671639 -0.22816505366557119 0 0.02203673592966893 -0.20666776437686349 0 0.008398731595078205 -0.21984077202877211 0 0.017846516046671639 -0.22816505366557119 0 0.02203673592966893 -0.20666776437686349 0 0.028655747130830949 -0.2191149526461573 0 0.02203673592966893 -0.20666776437686349 0 0.036144406983969771 -0.20441905496486679 0 0.02203673592966893 -0.20666776437686349 0 0.036144406983969771 -0.20441905496486679 0 0.026891478923255479 -0.18588762566305539 0 0.0088832669220569264 -0.19526137677573641 0 0.02203673592966893 -0.20666776437686349 0 0.026891478923255479 -0.18588762566305539 0 0.036144406983969771 -0.20441905496486679 0 0.049263510167953488 -0.20402449992616209 0 0.047962646367219877 -0.18732636583242171 0 0.036144406983969771 -0.20441905496486679 0 0.047962646367219877 -0.18732636583242171 0 0.026891478923255479 -0.18588762566305539 0 0.036144406983969771 -0.20441905496486679 0 0.049263510167953488 -0.20402449992616209 0 0.042056323384889932 -0.22349312134454069 0 0.049263510167953488 -0.20402449992616209 0 0.042056323384889932 -0.22349312134454069 0 0.028655747130830949 -0.2191149526461573 0 0.036144406983969771 -0.20441905496486679 0 0.042056323384889932 -0.22349312134454069 0 0.049263510167953488 -0.20402449992616209 0 0.042056323384889932 -0.22349312134454069 0 0.066782780518705995 -0.21568791421344641 0 0.049263510167953488 -0.20402449992616209 0 0.062310454678753749 -0.19689069082332111 0 0.066782780518705995 -0.21568791421344641 0 0.049263510167953488 -0.20402449992616209 0 0.062310454678753749 -0.19689069082332111 0 0.047962646367219877 -0.18732636583242171 0 0.062310454678753749 -0.19689069082332111 0 0.064819247611320366 -0.18305360580882421 0 0.047962646367219877 -0.18732636583242171 0 0.044857189368968223 -0.25577862199652052 0 0.034849136601826383 -0.24296174276291929 0 0.055784012513637522 -0.23938264054926239 0 0.034849136601826383 -0.24296174276291929 0 0.042056323384889932 -0.22349312134454069 0 0.055784012513637522 -0.23938264054926239 0 0.029228501795371571 -0.2307792357125317 0 0.034849136601826383 -0.24296174276291929 0 0.042056323384889932 -0.22349312134454069 0 0.034849136601826383 -0.24296174276291929 0 0.042056323384889932 -0.22349312134454069 0 0.028655747130830949 -0.2191149526461573 0 0.029228501795371571 -0.2307792357125317 0 0.042056323384889932 -0.22349312134454069 0 0.042056323384889932 -0.22349312134454069 0 0.055784012513637522 -0.23938264054926239 0 0.066782780518705995 -0.21568791421344641 0 0.065463220465099822 -0.25990592719758032 0 0.055784012513637522 -0.23938264054926239 0 0.077473135857930198 -0.23381734799337189 0 0.065463220465099822 -0.25990592719758032 0 0.082920410740594266 -0.25617281580077073 0 0.077473135857930198 -0.23381734799337189 0 0.065463220465099822 -0.25990592719758032 0 0.077473135857930198 -0.23381734799337189 0 0.082920410740594266 -0.25617281580077073 0 0.077473135857930198 -0.23381734799337189 0 0.095777495595703685 -0.24378794672417869 0 0.077473135857930198 -0.23381734799337189 0 0.084395746174533576 -0.21435783156692939 0 0.095777495595703685 -0.24378794672417869 0 0.077473135857930198 -0.23381734799337189 0 0.066782780518705995 -0.21568791421344641 0 0.084395746174533576 -0.21435783156692939 0 0.055784012513637522 -0.23938264054926239 0 0.077473135857930198 -0.23381734799337189 0 0.066782780518705995 -0.21568791421344641 0 0.066782780518705995 -0.21568791421344641 0 0.07689061311860261 -0.197667209401758 0 0.084395746174533576 -0.21435783156692939 0 0.062310454678753749 -0.19689069082332111 0 0.066782780518705995 -0.21568791421344641 0 0.07689061311860261 -0.197667209401758 0 0.07689061311860261 -0.197667209401758 0 0.082847826651052753 -0.1836321500302722 0 0.064819247611320366 -0.18305360580882421 0 0.062310454678753749 -0.19689069082332111 0 0.07689061311860261 -0.197667209401758 0 0.064819247611320366 -0.18305360580882421 0 0.07689061311860261 -0.197667209401758 0 0.084395746174533576 -0.21435783156692939 0 0.09672263835785902 -0.19338201392691881 0 0.07689061311860261 -0.197667209401758 0 0.09672263835785902 -0.19338201392691881 0 0.082847826651052753 -0.1836321500302722 0 0.084395746174533576 -0.21435783156692939 0 0.10205310750407939 -0.21480868621954019 0 0.09672263835785902 -0.19338201392691881 0 0.10205310750407939 -0.21480868621954019 0 0.09672263835785902 -0.19338201392691881 0 0.1154810579546022 -0.20083619657384161 0 0.09672263835785902 -0.19338201392691881 0 0.1154810579546022 -0.20083619657384161 0 0.10751490216487471 -0.18085172415916881 0 0.1154810579546022 -0.20083619657384161 0 0.12333621654476271 -0.17570419481953409 0 0.128432065000397 -0.19005262783806029 0 0.1154810579546022 -0.20083619657384161 0 0.12333621654476271 -0.17570419481953409 0 0.10205310750407939 -0.21480868621954019 0 0.1153889853365523 -0.2141862736379406 0 0.11546648156162551 -0.2231316897043143 0 0.10205310750407939 -0.21480868621954019 0 0.1154810579546022 -0.20083619657384161 0 0.1153889853365523 -0.2141862736379406 0 0.1154810579546022 -0.20083619657384161 0 0.1153889853365523 -0.2141862736379406 0 0.12651812071581231 -0.2113111158799072 0 0.1153889853365523 -0.2141862736379406 0 0.1256140553719472 -0.22277003608547161 0 0.12651812071581231 -0.2113111158799072 0 0.1201575916464637 -0.23167459289555889 0 0.1240225730844019 -0.24156982424738241 0 0.1284202389333762 -0.22528766967826011 0 0.1153889853365523 -0.2141862736379406 0 0.11546648156162551 -0.2231316897043143 0 0.1256140553719472 -0.22277003608547161 0 0.11546648156162551 -0.2231316897043143 0 0.1201575916464637 -0.23167459289555889 0 0.1256140553719472 -0.22277003608547161 0 0.11546648156162551 -0.2231316897043143 0 0.1201575916464637 -0.23167459289555889 0 0.1093292701138019 -0.23147160605257919 0 0.1201575916464637 -0.23167459289555889 0 0.1256140553719472 -0.22277003608547161 0 0.1284202389333762 -0.22528766967826011 0 0.1201575916464637 -0.23167459289555889 0 0.1240225730844019 -0.24156982424738241 0 0.1124932849432754 -0.24497107402557769 0 0.11962490723542719 -0.25785197881650451 0 0.1240225730844019 -0.24156982424738241 0 0.1124932849432754 -0.24497107402557769 0 0.11962490723542719 -0.25785197881650451 0 0.1240225730844019 -0.24156982424738241 0 0.1201575916464637 -0.23167459289555889 0 0.1124932849432754 -0.24497107402557769 0 0.1093292701138019 -0.23147160605257919 0 0.1124932849432754 -0.24497107402557769 0 0.095777495595703685 -0.24378794672417869 0 0.1093292701138019 -0.23147160605257919 0 0.10205310750407939 -0.21480868621954019 0 0.11546648156162551 -0.2231316897043143 0 0.1093292701138019 -0.23147160605257919 0 0.10205310750407939 -0.21480868621954019 0 0.095777495595703685 -0.24378794672417869 0 0.1093292701138019 -0.23147160605257919 0 0.084395746174533576 -0.21435783156692939 0 0.10205310750407939 -0.21480868621954019 0 0.095777495595703685 -0.24378794672417869 0 0.10205310750407939 -0.21480868621954019 0 0.095777495595703685 -0.24378794672417869 0 0.098863237730602987 -0.1446743061909703 0 0.1121520981112708 -0.14402436599446891 0 0.1081879147734497 -0.1612174387438384 0 0.098863237730602987 -0.1446743061909703 0 0.1081879147734497 -0.1612174387438384 0 0.089638681678695167 -0.15756574765566181 0 0.098863237730602987 -0.1446743061909703 0 0.1013597258402647 -0.12789369715778459 0 0.088541584678916485 -0.1400083406532647 0 0.098863237730602987 -0.1446743061909703 0 0.1013597258402647 -0.12789369715778459 0 0.1121520981112708 -0.14402436599446891 0 0.1013597258402647 -0.12789369715778459 0 0.12065364634618821 -0.1315602422156881 0 0.1121520981112708 -0.14402436599446891 0 0.1013597258402647 -0.12789369715778459 0 0.12065364634618821 -0.1315602422156881 0 0.1146411448523986 -0.11949851538073041 0 0.1121520981112708 -0.14402436599446891 0 0.1081879147734497 -0.1612174387438384 0 0.1311913751349231 -0.15057219306522671 0 0.12065364634618821 -0.1315602422156881 0 0.1121520981112708 -0.14402436599446891 0 0.1311913751349231 -0.15057219306522671 0 0.12333621654476271 -0.17570419481953409 0 0.1081879147734497 -0.1612174387438384 0 0.1311913751349231 -0.15057219306522671 0 0.1154810579546022 -0.20083619657384161 0 0.12333621654476271 -0.17570419481953409 0 0.10751490216487471 -0.18085172415916881 0 0.12333621654476271 -0.17570419481953409 0 0.10751490216487471 -0.18085172415916881 0 0.1081879147734497 -0.1612174387438384 0 0.09672263835785902 -0.19338201392691881 0 0.09384668319369989 -0.1731187767317113 0 0.10751490216487471 -0.18085172415916881 0 0.09384668319369989 -0.1731187767317113 0 0.10751490216487471 -0.18085172415916881 0 0.1081879147734497 -0.1612174387438384 0 0.09384668319369989 -0.1731187767317113 0 0.1081879147734497 -0.1612174387438384 0 0.089638681678695167 -0.15756574765566181 0 0.09384668319369989 -0.1731187767317113 0 0.089638681678695167 -0.15756574765566181 0 0.076616816575486746 -0.16883598276197351 0 0.089638681678695167 -0.15756574765566181 0 0.078139262606951254 -0.1562876061372141 0 0.076616816575486746 -0.16883598276197351 0 0.09672263835785902 -0.19338201392691881 0 0.09384668319369989 -0.1731187767317113 0 0.082847826651052753 -0.1836321500302722 0 0.09384668319369989 -0.1731187767317113 0 0.082847826651052753 -0.1836321500302722 0 0.076616816575486746 -0.16883598276197351 0 0.064819247611320366 -0.18305360580882421 0 0.076616816575486746 -0.16883598276197351 0 0.056617043929410978 -0.1682717050907736 0 0.082847826651052753 -0.1836321500302722 0 0.064819247611320366 -0.18305360580882421 0 0.076616816575486746 -0.16883598276197351 0 0.076616816575486746 -0.16883598276197351 0 0.06781072117154166 -0.15903170302802769 0 0.056617043929410978 -0.1682717050907736 0 0.078139262606951254 -0.1562876061372141 0 0.076616816575486746 -0.16883598276197351 0 0.06781072117154166 -0.15903170302802769 0 0.06781072117154166 -0.15903170302802769 0 0.06991574128697664 -0.14594000155741821 0 0.056864175234279432 -0.14760186780425649 0 0.06991574128697664 -0.14594000155741821 0 0.064777109181208464 -0.13308665872878611 0 0.056864175234279432 -0.14760186780425649 0 0.06991574128697664 -0.14594000155741821 0 0.080089068370082298 -0.14669375351890779 0 0.077245963074394755 -0.1363123962872263 0 0.078139262606951254 -0.1562876061372141 0 0.06781072117154166 -0.15903170302802769 0 0.06991574128697664 -0.14594000155741821 0 0.078139262606951254 -0.1562876061372141 0 0.06991574128697664 -0.14594000155741821 0 0.080089068370082298 -0.14669375351890779 0 0.089638681678695167 -0.15756574765566181 0 0.078139262606951254 -0.1562876061372141 0 0.080089068370082298 -0.14669375351890779 0 0.098863237730602987 -0.1446743061909703 0 0.089638681678695167 -0.15756574765566181 0 0.088541584678916485 -0.1400083406532647 0 0.089638681678695167 -0.15756574765566181 0 0.080089068370082298 -0.14669375351890779 0 0.088541584678916485 -0.1400083406532647 0 0.080089068370082298 -0.14669375351890779 0 0.088541584678916485 -0.1400083406532647 0 0.077245963074394755 -0.1363123962872263 0 0.1013597258402647 -0.12789369715778459 0 0.088541584678916485 -0.1400083406532647 0 0.085188909666997381 -0.1285712659685313 0 0.1013597258402647 -0.12789369715778459 0 0.085188909666997381 -0.1285712659685313 0 0.087168253498346976 -0.11930395665730149 0 0.088541584678916485 -0.1400083406532647 0 0.085188909666997381 -0.1285712659685313 0 0.077245963074394755 -0.1363123962872263 0 0.085188909666997381 -0.1285712659685313 0 0.077245963074394755 -0.1363123962872263 0 0.07543673121532829 -0.12426649182123869 0 0.077245963074394755 -0.1363123962872263 0 0.064777109181208464 -0.13308665872878611 0 0.07543673121532829 -0.12426649182123869 0 0.06991574128697664 -0.14594000155741821 0 0.077245963074394755 -0.1363123962872263 0 0.064777109181208464 -0.13308665872878611 0 0.064777109181208464 -0.13308665872878611 0 0.07543673121532829 -0.12426649182123869 0 0.064486337582434647 -0.1205566771600914 0 0.064777109181208464 -0.13308665872878611 0 0.055208961320171258 -0.12603324645569641 0 0.064486337582434647 -0.1205566771600914 0 0.064777109181208464 -0.13308665872878611 0 0.055208961320171258 -0.12603324645569641 0 0.052320205063314168 -0.134882438102403 0 0.055208961320171258 -0.12603324645569641 0 0.052320205063314168 -0.134882438102403 0 0.042883632993233882 -0.12848722565939991 0 0.064777109181208464 -0.13308665872878611 0 0.052320205063314168 -0.134882438102403 0 0.056864175234279432 -0.14760186780425649 0 0.056864175234279432 -0.14760186780425649 0 0.042437107621251469 -0.14218886545286 0 0.04264824337664333 -0.1579361167601116 0 0.052320205063314168 -0.134882438102403 0 0.056864175234279432 -0.14760186780425649 0 0.042437107621251469 -0.14218886545286 0 0.042437107621251469 -0.14218886545286 0 0.04264824337664333 -0.1579361167601116 0 0.02909524137858328 -0.14885227569158721 0 0.042437107621251469 -0.14218886545286 0 0.03369858081853612 -0.1381145423739622 0 0.02909524137858328 -0.14885227569158721 0 0.032459073580023257 -0.12920812864379999 0 0.042883632993233882 -0.12848722565939991 0 0.034735594396696663 -0.1217255547580167 0 0.03369858081853612 -0.1381145423739622 0 0.032459073580023257 -0.12920812864379999 0 0.042883632993233882 -0.12848722565939991 0 0.042437107621251469 -0.14218886545286 0 0.03369858081853612 -0.1381145423739622 0 0.042883632993233882 -0.12848722565939991 0 0.052320205063314168 -0.134882438102403 0 0.042437107621251469 -0.14218886545286 0 0.042883632993233882 -0.12848722565939991 0 0.064819247611320366 -0.18305360580882421 0 0.047962646367219877 -0.18732636583242171 0 0.056617043929410978 -0.1682717050907736 0 0.047962646367219877 -0.18732636583242171 0 0.056617043929410978 -0.1682717050907736 0 0.040299839733950342 -0.1734378536900863 0 0.06781072117154166 -0.15903170302802769 0 0.056864175234279432 -0.14760186780425649 0 0.056617043929410978 -0.1682717050907736 0 0.056864175234279432 -0.14760186780425649 0 0.056617043929410978 -0.1682717050907736 0 0.04264824337664333 -0.1579361167601116 0 0.04264824337664333 -0.1579361167601116 0 0.026046846898800258 -0.164785525265294 0 0.02909524137858328 -0.14885227569158721 0 0.056617043929410978 -0.1682717050907736 0 0.04264824337664333 -0.1579361167601116 0 0.040299839733950342 -0.1734378536900863 0 0.04264824337664333 -0.1579361167601116 0 0.040299839733950342 -0.1734378536900863 0 0.026046846898800258 -0.164785525265294 0 0.047962646367219877 -0.18732636583242171 0 0.040299839733950342 -0.1734378536900863 0 0.026891478923255479 -0.18588762566305539 0 0.026891478923255479 -0.18588762566305539 0 0.026046846898800258 -0.164785525265294 0 0.009367802249035646 -0.1706819815227007 0 0.040299839733950342 -0.1734378536900863 0 0.026891478923255479 -0.18588762566305539 0 0.026046846898800258 -0.164785525265294 0 0.026046846898800258 -0.164785525265294 0 0.009367802249035646 -0.1706819815227007 0 0.0098523375760143639 -0.1461025862696651 0 -0.010182590445576289 -0.1584724389503685 0 0.009367802249035646 -0.1706819815227007 0 0.0098523375760143639 -0.1461025862696651 0 0.009367802249035646 -0.1706819815227007 0 0.0098523375760143639 -0.1461025862696651 0 -0.01297221461876409 -0.18517992099496211 0 0.0088832669220569264 -0.19526137677573641 0 0.009367802249035646 -0.1706819815227007 0 0.0088832669220569264 -0.19526137677573641 0 0.026891478923255479 -0.18588762566305539 0 0.009367802249035646 -0.1706819815227007 0 0.0088832669220569264 -0.19526137677573641 0 0.009367802249035646 -0.1706819815227007 0 0.017307116835141651 -0.12913854882852091 0 0.024203533343463271 -0.13624269285513679 0 0.0098523375760143639 -0.1461025862696651 0 0.017307116835141651 -0.12913854882852091 0 0.024203533343463271 -0.13624269285513679 0 0.025790351950985922 -0.1243526498520105 0 0.032459073580023257 -0.12920812864379999 0 0.025790351950985922 -0.1243526498520105 0 0.034735594396696663 -0.1217255547580167 0 0.032459073580023257 -0.12920812864379999 0 0.024203533343463271 -0.13624269285513679 0 0.025790351950985922 -0.1243526498520105 0 0.03369858081853612 -0.1381145423739622 0 0.032459073580023257 -0.12920812864379999 0 0.024203533343463271 -0.13624269285513679 0 0.03369858081853612 -0.1381145423739622 0 0.024203533343463271 -0.13624269285513679 0 0.02909524137858328 -0.14885227569158721 0 0.024203533343463271 -0.13624269285513679 0 0.02909524137858328 -0.14885227569158721 0 0.0098523375760143639 -0.1461025862696651 0 0.026046846898800258 -0.164785525265294 0 0.02909524137858328 -0.14885227569158721 0 0.0098523375760143639 -0.1461025862696651 0 0.017307116835141651 -0.12913854882852091 0 0.0098523375760143639 -0.1461025862696651 0 0.0070693487391517221 -0.1259227580274058 0 -0.00381057756564823 -0.13881115303130631 0 0.0098523375760143639 -0.1461025862696651 0 0.0070693487391517221 -0.1259227580274058 0 -0.0014550555111774201 -0.1139112530899648 0 0.0070693487391517221 -0.1259227580274058 0 0.01217686236301007 -0.113980352114349 0 0.0070693487391517221 -0.1259227580274058 0 0.01217686236301007 -0.113980352114349 0 0.02452503017698136 -0.11523276095141061 0 -0.0014550555111774201 -0.1139112530899648 0 0.01217686236301007 -0.113980352114349 0 0.01239313551715715 -0.1047298314053698 0 0.017307116835141651 -0.12913854882852091 0 0.0070693487391517221 -0.1259227580274058 0 0.02452503017698136 -0.11523276095141061 0 0.02718787609635177 -0.1152520817920389 0 0.02452503017698136 -0.11523276095141061 0 0.041980711614810887 -0.1045427638754151 0 0.017307116835141651 -0.12913854882852091 0 0.02452503017698136 -0.11523276095141061 0 0.025790351950985922 -0.1243526498520105 0 0.0070693487391517221 -0.1259227580274058 0 0.02452503017698136 -0.11523276095141061 0 0.022768934917989869 -0.10962142708663609 0 0.02452503017698136 -0.11523276095141061 0 0.041980711614810887 -0.1045427638754151 0 0.01217686236301007 -0.113980352114349 0 0.022768934917989869 -0.10962142708663609 0 0.01239313551715715 -0.1047298314053698 0 0.01217686236301007 -0.113980352114349 0 0.022768934917989869 -0.10962142708663609 0 0.02452503017698136 -0.11523276095141061 0 0.02718787609635177 -0.1152520817920389 0 0.02452503017698136 -0.11523276095141061 0 0.028445876139026958 -0.1201028550096149 0 0.02452503017698136 -0.11523276095141061 0 0.025790351950985922 -0.1243526498520105 0 0.028445876139026958 -0.1201028550096149 0 0.025790351950985922 -0.1243526498520105 0 0.028445876139026958 -0.1201028550096149 0 0.034735594396696663 -0.1217255547580167 0 0.02718787609635177 -0.1152520817920389 0 0.028445876139026958 -0.1201028550096149 0 0.034735594396696663 -0.1217255547580167 0 0.01239313551715715 -0.1047298314053698 0 0.01075992232450191 -0.087804584712857237 0 0.028729827809946769 -0.090346951513714024 0 0.01239313551715715 -0.1047298314053698 0 0.028729827809946769 -0.090346951513714024 0 0.041980711614810887 -0.1045427638754151 0 0.022768934917989869 -0.10962142708663609 0 0.01239313551715715 -0.1047298314053698 0 0.041980711614810887 -0.1045427638754151 0 0.01239313551715715 -0.1047298314053698 0 0.041980711614810887 -0.1045427638754151 0 -0.001063838671142459 -0.094957297204889449 0 0.01239313551715715 -0.1047298314053698 0 0.01075992232450191 -0.087804584712857237 0 -0.010213971945732019 -0.082377873766006179 0 0.01075992232450191 -0.087804584712857237 0 0.0080700504204770651 -0.071014827416368193 0 0.01075992232450191 -0.087804584712857237 0 0.0080700504204770651 -0.071014827416368193 0 0.02362426908826281 -0.07339669414353954 0 0.0080700504204770651 -0.071014827416368193 0 0.02362426908826281 -0.07339669414353954 0 0.01911986947673576 -0.053739045925905123 0 0.01075992232450191 -0.087804584712857237 0 0.02362426908826281 -0.07339669414353954 0 0.028729827809946769 -0.090346951513714024 0 0.02362426908826281 -0.07339669414353954 0 0.028729827809946769 -0.090346951513714024 0 0.038872845979995838 -0.077550008804654624 0 0.028729827809946769 -0.090346951513714024 0 0.045312406499026091 -0.089588030416863446 0 0.038872845979995838 -0.077550008804654624 0 0.045312406499026091 -0.089588030416863446 0 0.038872845979995838 -0.077550008804654624 0 0.053712759563257967 -0.079969297450031521 0 0.038872845979995838 -0.077550008804654624 0 0.051627607247174467 -0.067271951543365696 0 0.036193098517919513 -0.059924746487738108 0 0.02362426908826281 -0.07339669414353954 0 0.038872845979995838 -0.077550008804654624 0 0.036193098517919513 -0.059924746487738108 0 0.038872845979995838 -0.077550008804654624 0 0.051627607247174467 -0.067271951543365696 0 0.053712759563257967 -0.079969297450031521 0 0.051627607247174467 -0.067271951543365696 0 0.053712759563257967 -0.079969297450031521 0 0.062708280616264087 -0.072332284016741855 0 0.053712759563257967 -0.079969297450031521 0 0.06648705474655911 -0.080925641469345971 0 0.062708280616264087 -0.072332284016741855 0 0.051627607247174467 -0.067271951543365696 0 0.063684879442813314 -0.061647909170853582 0 0.062708280616264087 -0.072332284016741855 0 0.045312406499026091 -0.089588030416863446 0 0.053712759563257967 -0.079969297450031521 0 0.060878946730787697 -0.092969335542022274 0 0.053712759563257967 -0.079969297450031521 0 0.060878946730787697 -0.092969335542022274 0 0.06648705474655911 -0.080925641469345971 0 0.051577521780665152 -0.1131532326278015 0 0.041980711614810887 -0.1045427638754151 0 0.068749061142275386 -0.1043735209130801 0 0.045312406499026091 -0.089588030416863446 0 0.060878946730787697 -0.092969335542022274 0 0.041980711614810887 -0.1045427638754151 0 0.041980711614810887 -0.1045427638754151 0 0.068749061142275386 -0.1043735209130801 0 0.060878946730787697 -0.092969335542022274 0 0.041980711614810887 -0.1045427638754151 0 0.068749061142275386 -0.1043735209130801 0 0.060878946730787697 -0.092969335542022274 0 0.041980711614810887 -0.1045427638754151 0 0.055208961320171258 -0.12603324645569641 0 0.051577521780665152 -0.1131532326278015 0 0.064486337582434647 -0.1205566771600914 0 0.055208961320171258 -0.12603324645569641 0 0.042883632993233882 -0.12848722565939991 0 0.051577521780665152 -0.1131532326278015 0 0.042883632993233882 -0.12848722565939991 0 0.051577521780665152 -0.1131532326278015 0 0.034735594396696663 -0.1217255547580167 0 0.02718787609635177 -0.1152520817920389 0 0.051577521780665152 -0.1131532326278015 0 0.034735594396696663 -0.1217255547580167 0 0.02718787609635177 -0.1152520817920389 0 0.051577521780665152 -0.1131532326278015 0 0.041980711614810887 -0.1045427638754151 0 0.02452503017698136 -0.11523276095141061 0 0.041980711614810887 -0.1045427638754151 0 0.02718787609635177 -0.1152520817920389 0 0.051577521780665152 -0.1131532326278015 0 0.028729827809946769 -0.090346951513714024 0 0.045312406499026091 -0.089588030416863446 0 0.041980711614810887 -0.1045427638754151 0 0.027245216396481961 -0.0079549092662204637 0 0.022454487797408659 -0.01442247414419136 0 0.039881004700212483 -0.0081759591608999756 0 0.02856846585004898 0.0023008959674395871 0 0.023308490363071602 -0.0033786401451085081 0 0.033187153211320833 -0.004094398238834009 0 0.027245216396481961 -0.0079549092662204637 0 0.023308490363071602 -0.0033786401451085081 0 0.033187153211320833 -0.004094398238834009 0 0.027245216396481961 -0.0079549092662204637 0 0.022454487797408659 -0.01442247414419136 0 0.017111612329723119 -0.0080179477677116764 0 0.022454487797408659 -0.01442247414419136 0 0.017111612329723119 -0.0080179477677116764 0 0.01017072979538342 -0.016746828848781731 0 0.01521681077868578 0.0038680593231585629 0 0.017111612329723119 -0.0080179477677116764 0 0.023308490363071602 -0.0033786401451085081 0 0.027245216396481961 -0.0079549092662204637 0 0.017111612329723119 -0.0080179477677116764 0 0.023308490363071602 -0.0033786401451085081 0 -0.01210134886455932 0.0019878388550685811 0 0.01521681077868578 0.0038680593231585629 0 0.017111612329723119 -0.0080179477677116764 0 -0.01210134886455932 0.0019878388550685811 0 0.017111612329723119 -0.0080179477677116764 0 0.01017072979538342 -0.016746828848781731 0 0.017111612329723119 -0.0080179477677116764 0 0.01017072979538342 -0.016746828848781731 0 0.01017072979538342 -0.016746828848781731 0 0.01958920521724395 -0.024669394586792018 0 -0.0058690393437316642 -0.036918505388539302 0 0.01017072979538342 -0.016746828848781731 0 0.01017072979538342 -0.016746828848781731 0 0.01958920521724395 -0.024669394586792018 0 0.004820284750702987 -0.03667376296375658 0 -0.0058690393437316642 -0.036918505388539302 0 0.01017072979538342 -0.016746828848781731 0 0.004820284750702987 -0.03667376296375658 0 0.01958920521724395 -0.024669394586792018 0 0.004820284750702987 -0.03667376296375658 0 0.01958920521724395 -0.024669394586792018 0 0.03059825987435251 -0.01907510907739313 0 0.036452296840091103 -0.03885416929225078 0 0.022454487797408659 -0.01442247414419136 0 0.01958920521724395 -0.024669394586792018 0 0.039881004700212483 -0.0081759591608999756 0 0.01958920521724395 -0.024669394586792018 0 0.039881004700212483 -0.0081759591608999756 0 0.01958920521724395 -0.024669394586792018 0 0.03059825987435251 -0.01907510907739313 0 0.039881004700212483 -0.0081759591608999756 0 0.022454487797408659 -0.01442247414419136 0 0.01017072979538342 -0.016746828848781731 0 0.01958920521724395 -0.024669394586792018 0 0.01958920521724395 -0.024669394586792018 0 0.036452296840091103 -0.03885416929225078 0 0.01958920521724395 -0.024669394586792018 0 0.017920078917167171 -0.038773099167228188 0 0.036452296840091103 -0.03885416929225078 0 0.017920078917167171 -0.038773099167228188 0 0.01911986947673576 -0.053739045925905123 0 0.036452296840091103 -0.03885416929225078 0 0.01958920521724395 -0.024669394586792018 0 0.017920078917167171 -0.038773099167228188 0 0.004820284750702987 -0.03667376296375658 0 -0.0023445621031648492 -0.046493714565991447 0 0.004820284750702987 -0.03667376296375658 0 0.0091398752985678844 -0.046071877821293308 0 0.017920078917167171 -0.038773099167228188 0 0.0091398752985678844 -0.046071877821293308 0 0.01911986947673576 -0.053739045925905123 0 0.017920078917167171 -0.038773099167228188 0 0.004820284750702987 -0.03667376296375658 0 0.0091398752985678844 -0.046071877821293308 0 0.0091398752985678844 -0.046071877821293308 0 0.0010188698430845979 -0.055986475845041232 0 0.01911986947673576 -0.053739045925905123 0 0.0080700504204770651 -0.071014827416368193 0 0.0010188698430845979 -0.055986475845041232 0 0.01911986947673576 -0.053739045925905123 0 -0.0023445621031648492 -0.046493714565991447 0 0.0091398752985678844 -0.046071877821293308 0 0.0010188698430845979 -0.055986475845041232 0 0.02362426908826281 -0.07339669414353954 0 0.01911986947673576 -0.053739045925905123 0 0.036193098517919513 -0.059924746487738108 0 0.01911986947673576 -0.053739045925905123 0 0.036193098517919513 -0.059924746487738108 0 0.036452296840091103 -0.03885416929225078 0 0.036193098517919513 -0.059924746487738108 0 0.053315388462936417 -0.053038943997711793 0 0.036452296840091103 -0.03885416929225078 0 0.051627607247174467 -0.067271951543365696 0 0.036193098517919513 -0.059924746487738108 0 0.053315388462936417 -0.053038943997711793 0 0.051627607247174467 -0.067271951543365696 0 0.053315388462936417 -0.053038943997711793 0 0.063684879442813314 -0.061647909170853582 0 0.052179080093720853 -0.03566841272664744 0 0.058526685188744529 -0.025451900748473991 0 0.06851850105231122 -0.036631536356147763 0 0.053315388462936417 -0.053038943997711793 0 0.052179080093720853 -0.03566841272664744 0 0.06851850105231122 -0.036631536356147763 0 0.053315388462936417 -0.053038943997711793 0 0.052179080093720853 -0.03566841272664744 0 0.036452296840091103 -0.03885416929225078 0 0.052179080093720853 -0.03566841272664744 0 0.036452296840091103 -0.03885416929225078 0 0.044082528924520942 -0.02436551323865287 0 0.053315388462936417 -0.053038943997711793 0 0.036452296840091103 -0.03885416929225078 0 0.03059825987435251 -0.01907510907739313 0 0.036452296840091103 -0.03885416929225078 0 0.044082528924520942 -0.02436551323865287 0 0.03059825987435251 -0.01907510907739313 0 0.044082528924520942 -0.02436551323865287 0 0.045164119306279123 -0.0099209969693937056 0 0.052179080093720853 -0.03566841272664744 0 0.044082528924520942 -0.02436551323865287 0 0.058526685188744529 -0.025451900748473991 0 0.044082528924520942 -0.02436551323865287 0 0.051875828039438118 -0.015126323954479159 0 0.045164119306279123 -0.0099209969693937056 0 0.044082528924520942 -0.02436551323865287 0 0.058526685188744529 -0.025451900748473991 0 0.051875828039438118 -0.015126323954479159 0 0.058526685188744529 -0.025451900748473991 0 0.059729978738206742 -0.00076688486139602635 0 0.059729978738206742 -0.00076688486139602635 0 0.039881004700212483 -0.0081759591608999756 0 0.045164119306279123 -0.0099209969693937056 0 0.051875828039438118 -0.015126323954479159 0 0.059729978738206742 -0.00076688486139602635 0 0.045164119306279123 -0.0099209969693937056 0 0.06017280418318121 0.0083174762649921123 0 0.059729978738206742 -0.00076688486139602635 0 0.039881004700212483 -0.0081759591608999756 0 0.058526685188744529 -0.025451900748473991 0 0.051875828039438118 -0.015126323954479159 0 0.059729978738206742 -0.00076688486139602635 0 0.059729978738206742 -0.00076688486139602635 0 0.045164119306279123 -0.0099209969693937056 0 0.037800010054661062 0.0012988040134497959 0 0.047552578143709771 0.003114911076836369 0 0.039881004700212483 -0.0081759591608999756 0 0.03059825987435251 -0.01907510907739313 0 0.045164119306279123 -0.0099209969693937056 0 0.03059825987435251 -0.01907510907739313 0 0.039881004700212483 -0.0081759591608999756 0 0.045164119306279123 -0.0099209969693937056 0 0.037800010054661062 0.0012988040134497959 0 0.039881004700212483 -0.0081759591608999756 0 0.033187153211320833 -0.004094398238834009 0 0.02856846585004898 0.0023008959674395871 0 0.037800010054661062 0.0012988040134497959 0 0.033187153211320833 -0.004094398238834009 0 0.027245216396481961 -0.0079549092662204637 0 0.039881004700212483 -0.0081759591608999756 0 0.033187153211320833 -0.004094398238834009 0 0.093596902684648237 -0.00058102248458167312 0 0.073828516940257299 -0.001940676278266155 0 0.093596902684648237 -0.00058102248458167312 0 0.087575205206462212 -0.013825285023034119 0 0.073828516940257299 -0.001940676278266155 0 0.058526685188744529 -0.025451900748473991 0 0.059729978738206742 -0.00076688486139602635 0 0.071962410089428969 -0.016924357643432111 0 0.059729978738206742 -0.00076688486139602635 0 0.073828516940257299 -0.001940676278266155 0 0.071962410089428969 -0.016924357643432111 0 0.087575205206462212 -0.013825285023034119 0 0.073828516940257299 -0.001940676278266155 0 0.071962410089428969 -0.016924357643432111 0 0.071962410089428969 -0.016924357643432111 0 0.086845930485447198 -0.026594248473580381 0 0.06851850105231122 -0.036631536356147763 0 0.058526685188744529 -0.025451900748473991 0 0.071962410089428969 -0.016924357643432111 0 0.06851850105231122 -0.036631536356147763 0 0.087575205206462212 -0.013825285023034119 0 0.071962410089428969 -0.016924357643432111 0 0.086845930485447198 -0.026594248473580381 0 0.086845930485447198 -0.026594248473580381 0 0.086227645609569539 -0.045488132951585603 0 0.10049544106544719 -0.038583527814152647 0 0.086845930485447198 -0.026594248473580381 0 0.086227645609569539 -0.045488132951585603 0 0.06851850105231122 -0.036631536356147763 0 0.086227645609569539 -0.045488132951585603 0 0.06851850105231122 -0.036631536356147763 0 0.072983231905277723 -0.051851386564837412 0 0.053315388462936417 -0.053038943997711793 0 0.072983231905277723 -0.051851386564837412 0 0.063684879442813314 -0.061647909170853582 0 0.053315388462936417 -0.053038943997711793 0 0.06851850105231122 -0.036631536356147763 0 0.072983231905277723 -0.051851386564837412 0 0.072983231905277723 -0.051851386564837412 0 0.083481494104445303 -0.057661319770131253 0 0.075233107182694423 -0.065407941066685696 0 0.072983231905277723 -0.051851386564837412 0 0.063684879442813314 -0.061647909170853582 0 0.075233107182694423 -0.065407941066685696 0 0.086227645609569539 -0.045488132951585603 0 0.072983231905277723 -0.051851386564837412 0 0.083481494104445303 -0.057661319770131253 0 0.086227645609569539 -0.045488132951585603 0 0.083481494104445303 -0.057661319770131253 0 0.0975337625409156 -0.055604051668087497 0 0.083481494104445303 -0.057661319770131253 0 0.0975337625409156 -0.055604051668087497 0 0.090794283327140207 -0.066193550584137603 0 0.0975337625409156 -0.055604051668087497 0 0.1102157675176698 -0.052632625629201277 0 0.10049544106544719 -0.038583527814152647 0 0.0975337625409156 -0.055604051668087497 0 0.1102157675176698 -0.052632625629201277 0 0.10843426072964139 -0.076748954373903722 0 0.1102157675176698 -0.052632625629201277 0 0.10843426072964139 -0.076748954373903722 0 0.12686592154363949 -0.053396183868486248 0 0.1102157675176698 -0.052632625629201277 0 0.1183205926690539 -0.038039055067747199 0 0.12686592154363949 -0.053396183868486248 0 0.1183205926690539 -0.038039055067747199 0 0.10049544106544719 -0.038583527814152647 0 0.1116422658325294 -0.023086120235310269 0 0.1102157675176698 -0.052632625629201277 0 0.1183205926690539 -0.038039055067747199 0 0.10049544106544719 -0.038583527814152647 0 0.086227645609569539 -0.045488132951585603 0 0.0975337625409156 -0.055604051668087497 0 0.10049544106544719 -0.038583527814152647 0 0.086845930485447198 -0.026594248473580381 0 0.10049544106544719 -0.038583527814152647 0 0.1116422658325294 -0.023086120235310269 0 0.087575205206462212 -0.013825285023034119 0 0.086845930485447198 -0.026594248473580381 0 0.1116422658325294 -0.023086120235310269 0 0.1183205926690539 -0.038039055067747199 0 0.1116422658325294 -0.023086120235310269 0 0.12924586723977999 -0.024143277067086591 0 0.1116422658325294 -0.023086120235310269 0 0.1305210978098208 -0.011138433909733051 0 0.12924586723977999 -0.024143277067086591 0 0.1116936488630241 0.00066365727394526795 0 0.12979039504140011 0.0019083370324715679 0 0.1211120162326277 -0.0058453094924676794 0 0.1116936488630241 0.00066365727394526795 0 0.1116422658325294 -0.023086120235310269 0 0.1211120162326277 -0.0058453094924676794 0 0.1116422658325294 -0.023086120235310269 0 0.1211120162326277 -0.0058453094924676794 0 0.1305210978098208 -0.011138433909733051 0 0.1116936488630241 0.00066365727394526795 0 0.093596902684648237 -0.00058102248458167312 0 0.1116422658325294 -0.023086120235310269 0 0.093596902684648237 -0.00058102248458167312 0 0.1116422658325294 -0.023086120235310269 0 0.093596902684648237 -0.00058102248458167312 0 0.087575205206462212 -0.013825285023034119 0 0.1116422658325294 -0.023086120235310269 0 0.085187711869083332 -0.1013443502775911 0 0.075967167464978461 -0.111054383463564 0 0.1003568131492918 -0.1089555342993266 0 0.085187711869083332 -0.1013443502775911 0 0.09242853857041726 -0.092419840193893751 0 0.1003568131492918 -0.1089555342993266 0 0.085187711869083332 -0.1013443502775911 0 0.075967167464978461 -0.111054383463564 0 0.074564005855624949 -0.10027908747037299 0 0.085187711869083332 -0.1013443502775911 0 0.082622034305104133 -0.094012905960798018 0 0.074564005855624949 -0.10027908747037299 0 0.085187711869083332 -0.1013443502775911 0 0.082622034305104133 -0.094012905960798018 0 0.09242853857041726 -0.092419840193893751 0 0.087168253498346976 -0.11930395665730149 0 0.075967167464978461 -0.111054383463564 0 0.1003568131492918 -0.1089555342993266 0 0.075967167464978461 -0.111054383463564 0 0.1003568131492918 -0.1089555342993266 0 0.087168253498346976 -0.11930395665730149 0 0.075967167464978461 -0.111054383463564 0 0.07543673121532829 -0.12426649182123869 0 0.085188909666997381 -0.1285712659685313 0 0.087168253498346976 -0.11930395665730149 0 0.07543673121532829 -0.12426649182123869 0 0.051577521780665152 -0.1131532326278015 0 0.075967167464978461 -0.111054383463564 0 0.068749061142275386 -0.1043735209130801 0 0.051577521780665152 -0.1131532326278015 0 0.075967167464978461 -0.111054383463564 0 0.051577521780665152 -0.1131532326278015 0 0.075967167464978461 -0.111054383463564 0 0.064486337582434647 -0.1205566771600914 0 0.075967167464978461 -0.111054383463564 0 0.07543673121532829 -0.12426649182123869 0 0.064486337582434647 -0.1205566771600914 0 0.075967167464978461 -0.111054383463564 0 0.068749061142275386 -0.1043735209130801 0 0.074564005855624949 -0.10027908747037299 0 0.082622034305104133 -0.094012905960798018 0 0.074564005855624949 -0.10027908747037299 0 0.074051308695091966 -0.093721929851455624 0 0.060878946730787697 -0.092969335542022274 0 0.068749061142275386 -0.1043735209130801 0 0.074564005855624949 -0.10027908747037299 0 0.060878946730787697 -0.092969335542022274 0 0.074564005855624949 -0.10027908747037299 0 0.074051308695091966 -0.093721929851455624 0 0.060878946730787697 -0.092969335542022274 0 0.07778698858015802 -0.088047091972577776 0 0.074051308695091966 -0.093721929851455624 0 0.060878946730787697 -0.092969335542022274 0 0.079777181846764356 -0.081395907208629215 0 0.060878946730787697 -0.092969335542022274 0 0.07778698858015802 -0.088047091972577776 0 0.079777181846764356 -0.081395907208629215 0 0.060878946730787697 -0.092969335542022274 0 0.06648705474655911 -0.080925641469345971 0 0.079777181846764356 -0.081395907208629215 0 0.06648705474655911 -0.080925641469345971 0 0.072710170407157715 -0.074646286949823268 0 0.079777181846764356 -0.081395907208629215 0 0.063684879442813314 -0.061647909170853582 0 0.062708280616264087 -0.072332284016741855 0 0.075233107182694423 -0.065407941066685696 0 0.06648705474655911 -0.080925641469345971 0 0.062708280616264087 -0.072332284016741855 0 0.072710170407157715 -0.074646286949823268 0 0.062708280616264087 -0.072332284016741855 0 0.072710170407157715 -0.074646286949823268 0 0.075233107182694423 -0.065407941066685696 0 0.072710170407157715 -0.074646286949823268 0 0.079345227643506613 -0.073169660987713547 0 0.079777181846764356 -0.081395907208629215 0 0.072710170407157715 -0.074646286949823268 0 0.075233107182694423 -0.065407941066685696 0 0.079345227643506613 -0.073169660987713547 0 0.083481494104445303 -0.057661319770131253 0 0.075233107182694423 -0.065407941066685696 0 0.090794283327140207 -0.066193550584137603 0 0.075233107182694423 -0.065407941066685696 0 0.079345227643506613 -0.073169660987713547 0 0.090794283327140207 -0.066193550584137603 0 0.079345227643506613 -0.073169660987713547 0 0.079777181846764356 -0.081395907208629215 0 0.082363025405525411 -0.078173033709708559 0 0.079345227643506613 -0.073169660987713547 0 0.087524772668192641 -0.074943070884113616 0 0.082363025405525411 -0.078173033709708559 0 0.079345227643506613 -0.073169660987713547 0 0.087524772668192641 -0.074943070884113616 0 0.090794283327140207 -0.066193550584137603 0 0.087524772668192641 -0.074943070884113616 0 0.082804919463638049 -0.083183495758377884 0 0.10843426072964139 -0.076748954373903722 0 0.082622034305104133 -0.094012905960798018 0 0.07778698858015802 -0.088047091972577776 0 0.074051308695091966 -0.093721929851455624 0 0.082622034305104133 -0.094012905960798018 0 0.07778698858015802 -0.088047091972577776 0 0.083096980472203139 -0.08848133176136988 0 0.07778698858015802 -0.088047091972577776 0 0.083096980472203139 -0.08848133176136988 0 0.080866517590690884 -0.085276956675238685 0 0.07778698858015802 -0.088047091972577776 0 0.080866517590690884 -0.085276956675238685 0 0.079777181846764356 -0.081395907208629215 0 0.087524772668192641 -0.074943070884113616 0 0.082363025405525411 -0.078173033709708559 0 0.082804919463638049 -0.083183495758377884 0 0.080866517590690884 -0.085276956675238685 0 0.079777181846764356 -0.081395907208629215 0 0.082804919463638049 -0.083183495758377884 0 0.079777181846764356 -0.081395907208629215 0 0.082363025405525411 -0.078173033709708559 0 0.082804919463638049 -0.083183495758377884 0 0.083096980472203139 -0.08848133176136988 0 0.080866517590690884 -0.085276956675238685 0 0.082804919463638049 -0.083183495758377884 0 0.083096980472203139 -0.08848133176136988 0 0.082804919463638049 -0.083183495758377884 0 0.09242853857041726 -0.092419840193893751 0 0.082622034305104133 -0.094012905960798018 0 0.083096980472203139 -0.08848133176136988 0 0.09242853857041726 -0.092419840193893751 0 0.082804919463638049 -0.083183495758377884 0 0.10843426072964139 -0.076748954373903722 0 0.082804919463638049 -0.083183495758377884 0 0.09242853857041726 -0.092419840193893751 0 0.10843426072964139 -0.076748954373903722 0 0.09242853857041726 -0.092419840193893751 0 0.10843426072964139 -0.076748954373903722 0 0.1107012293778198 -0.094664054120096416 0 0.087524772668192641 -0.074943070884113616 0 0.090794283327140207 -0.066193550584137603 0 0.10843426072964139 -0.076748954373903722 0 0.0975337625409156 -0.055604051668087497 0 0.090794283327140207 -0.066193550584137603 0 0.10843426072964139 -0.076748954373903722 0 0.10843426072964139 -0.076748954373903722 0 0.13406360199564479 -0.070314412989429545 0 0.10843426072964139 -0.076748954373903722 0 0.13406360199564479 -0.070314412989429545 0 0.12686592154363949 -0.053396183868486248 0 0.10843426072964139 -0.076748954373903722 0 0.1107012293778198 -0.094664054120096416 0 0.12754007560614319 -0.088339256598268967 0 0.10843426072964139 -0.076748954373903722 0 0.12754007560614319 -0.088339256598268967 0 0.13406360199564479 -0.070314412989429545 0 0.1247464588336054 -0.1068566851350891 0 0.1003568131492918 -0.1089555342993266 0 0.1107012293778198 -0.094664054120096416 0 0.1247464588336054 -0.1068566851350891 0 0.1003568131492918 -0.1089555342993266 0 0.1107012293778198 -0.094664054120096416 0 0.1247464588336054 -0.1068566851350891 0 0.12754007560614319 -0.088339256598268967 0 0.09242853857041726 -0.092419840193893751 0 0.1107012293778198 -0.094664054120096416 0 0.1003568131492918 -0.1089555342993266 0 0.1013597258402647 -0.12789369715778459 0 0.1003568131492918 -0.1089555342993266 0 0.1146411448523986 -0.11949851538073041 0 0.1013597258402647 -0.12789369715778459 0 0.087168253498346976 -0.11930395665730149 0 0.1003568131492918 -0.1089555342993266 0 0.1247464588336054 -0.1068566851350891 0 0.1003568131492918 -0.1089555342993266 0 0.1146411448523986 -0.11949851538073041 0 0.1247464588336054 -0.1068566851350891 0 0.1146411448523986 -0.11949851538073041 0 0.12514826998312581 -0.1212353398206515 0 0.12065364634618821 -0.1315602422156881 0 0.1146411448523986 -0.11949851538073041 0 0.12514826998312581 -0.1212353398206515 0 0.1247464588336054 -0.1068566851350891 0 0.12514826998312581 -0.1212353398206515 0 0.13904653372508349 -0.1254401913109193 0 0.1247464588336054 -0.1068566851350891 0 0.14690169231524389 -0.1003081895566118 0 0.13904653372508349 -0.1254401913109193 0 0.14690169231524389 -0.1003081895566118 0 0.16097773107399729 -0.1169040034365532 0 0.13904653372508349 -0.1254401913109193 0 0.14690169231524389 -0.1003081895566118 0 0.13904653372508349 -0.1254401913109193 0 0.1247464588336054 -0.1068566851350891 0 0.14690169231524389 -0.1003081895566118 0 0.12754007560614319 -0.088339256598268967 0 0.14690169231524389 -0.1003081895566118 0 0.12754007560614319 -0.088339256598268967 0 0.1435549082717868 -0.083525325475855783 0 0.12754007560614319 -0.088339256598268967 0 0.13406360199564479 -0.070314412989429545 0 0.1435549082717868 -0.083525325475855783 0 0.13406360199564479 -0.070314412989429545 0 0.15969294326164821 -0.063879871604955368 0 0.14562813094379279 -0.056259170724650642 0 0.13406360199564479 -0.070314412989429545 0 0.1516541229055465 -0.074656251873742752 0 0.15969294326164821 -0.063879871604955368 0 0.13406360199564479 -0.070314412989429545 0 0.15969294326164821 -0.063879871604955368 0 0.13406360199564479 -0.070314412989429545 0 0.1516541229055465 -0.074656251873742752 0 0.1435549082717868 -0.083525325475855783 0 0.14690169231524389 -0.1003081895566118 0 0.1435549082717868 -0.083525325475855783 0 0.1576150485363558 -0.084008516361225805 0 0.1516541229055465 -0.074656251873742752 0 0.1435549082717868 -0.083525325475855783 0 0.1576150485363558 -0.084008516361225805 0 0.14690169231524389 -0.1003081895566118 0 0.1576150485363558 -0.084008516361225805 0 0.1703546195249602 -0.092427607132574946 0 0.1576150485363558 -0.084008516361225805 0 0.1668195717768611 -0.08167077806597528 0 0.1635345396109664 -0.072959682042918056 0 0.1668195717768611 -0.08167077806597528 0 0.1703546195249602 -0.092427607132574946 0 0.1757740794351621 -0.077287306727182328 0 0.1576150485363558 -0.084008516361225805 0 0.1668195717768611 -0.08167077806597528 0 0.1703546195249602 -0.092427607132574946 0 0.1757740794351621 -0.077287306727182328 0 0.16616632196324729 -0.056421451341316382 0 0.15969294326164821 -0.063879871604955368 0 0.1635345396109664 -0.072959682042918056 0 0.16616632196324729 -0.056421451341316382 0 0.1635345396109664 -0.072959682042918056 0 0.1757740794351621 -0.077287306727182328 0 0.16616632196324729 -0.056421451341316382 0 0.1516541229055465 -0.074656251873742752 0 0.1576150485363558 -0.084008516361225805 0 0.1635345396109664 -0.072959682042918056 0 0.1516541229055465 -0.074656251873742752 0 0.15969294326164821 -0.063879871604955368 0 0.1635345396109664 -0.072959682042918056 0 0.1668195717768611 -0.08167077806597528 0 0.1635345396109664 -0.072959682042918056 0 0.1757740794351621 -0.077287306727182328 0 0.17414399541562689 -0.069213867743302154 0 0.16616632196324729 -0.056421451341316382 0 0.17414399541562689 -0.069213867743302154 0 0.1757740794351621 -0.077287306727182328 0 0.16616632196324729 -0.056421451341316382 0 0.17414399541562689 -0.069213867743302154 0 0.18076975597408509 -0.06432808654244565 0 0.1750929811432631 -0.060344230275620359 0 0.17414399541562689 -0.069213867743302154 0 0.1827266766235979 -0.071390655266697856 0 0.18076975597408509 -0.06432808654244565 0 0.17414399541562689 -0.069213867743302154 0 0.1757740794351621 -0.077287306727182328 0 0.1827266766235979 -0.071390655266697856 0 0.1827266766235979 -0.071390655266697856 0 0.188959780628736 -0.082038376252564993 0 0.19064360961182719 -0.070083761979561315 0 0.1757740794351621 -0.077287306727182328 0 0.1827266766235979 -0.071390655266697856 0 0.188959780628736 -0.082038376252564993 0 0.1827266766235979 -0.071390655266697856 0 0.18076975597408509 -0.06432808654244565 0 0.18903632801269879 -0.062572401355274032 0 0.1827266766235979 -0.071390655266697856 0 0.18903632801269879 -0.062572401355274032 0 0.19064360961182719 -0.070083761979561315 0 0.1703546195249602 -0.092427607132574946 0 0.1757740794351621 -0.077287306727182328 0 0.18538183690707699 -0.098153162113048267 0 0.1757740794351621 -0.077287306727182328 0 0.18538183690707699 -0.098153162113048267 0 0.1757740794351621 -0.077287306727182328 0 0.18538183690707699 -0.098153162113048267 0 0.188959780628736 -0.082038376252564993 0 0.1703546195249602 -0.092427607132574946 0 0.18538183690707699 -0.098153162113048267 0 0.17816608051987051 -0.1128228862444153 0 0.17816608051987051 -0.1128228862444153 0 0.16097773107399729 -0.1169040034365532 0 0.17863980177531821 -0.13107823074583561 0 0.18538183690707699 -0.098153162113048267 0 0.17816608051987051 -0.1128228862444153 0 0.19498959437899191 -0.11901901749891421 0 0.17816608051987051 -0.1128228862444153 0 0.19498959437899191 -0.11901901749891421 0 0.17863980177531821 -0.13107823074583561 0 0.14690169231524389 -0.1003081895566118 0 0.1703546195249602 -0.092427607132574946 0 0.16097773107399729 -0.1169040034365532 0 0.1703546195249602 -0.092427607132574946 0 0.17816608051987051 -0.1128228862444153 0 0.16097773107399729 -0.1169040034365532 0 0.15092663000695719 0.003362070403861992 0 0.12979039504140011 0.0019083370324715679 0 0.14285165005785119 -0.0053648860101241664 0 0.15092663000695719 0.003362070403861992 0 0.1499332284813811 -0.0066305698636900893 0 0.15837002858371019 -0.0087475670828399792 0 0.1499332284813811 -0.0066305698636900893 0 0.15308251011453899 -0.012670766174966539 0 0.15837002858371019 -0.0087475670828399792 0 0.1499332284813811 -0.0066305698636900893 0 0.15308251011453899 -0.012670766174966539 0 0.146504194378902 -0.013719799894277801 0 0.1499332284813811 -0.0066305698636900893 0 0.146504194378902 -0.013719799894277801 0 0.14285165005785119 -0.0053648860101241664 0 0.146504194378902 -0.013719799894277801 0 0.14285165005785119 -0.0053648860101241664 0 0.1419157040153492 -0.017534925758791051 0 0.15092663000695719 0.003362070403861992 0 0.1499332284813811 -0.0066305698636900893 0 0.14285165005785119 -0.0053648860101241664 0 0.12979039504140011 0.0019083370324715679 0 0.1419157040153492 -0.017534925758791051 0 0.12979039504140011 0.0019083370324715679 0 0.1305210978098208 -0.011138433909733051 0 0.1419157040153492 -0.017534925758791051 0 0.12979039504140011 0.0019083370324715679 0 0.14285165005785119 -0.0053648860101241664 0 0.1419157040153492 -0.017534925758791051 0 0.12979039504140011 0.0019083370324715679 0 0.1211120162326277 -0.0058453094924676794 0 0.1305210978098208 -0.011138433909733051 0 0.1305210978098208 -0.011138433909733051 0 0.13457792200952329 -0.01881767869974009 0 0.1419157040153492 -0.017534925758791051 0 0.13457792200952329 -0.01881767869974009 0 0.13678640240865311 -0.024667600205000469 0 0.1419157040153492 -0.017534925758791051 0 0.13457792200952329 -0.01881767869974009 0 0.12924586723977999 -0.024143277067086591 0 0.13678640240865311 -0.024667600205000469 0 0.1305210978098208 -0.011138433909733051 0 0.13457792200952329 -0.01881767869974009 0 0.12924586723977999 -0.024143277067086591 0 0.12924586723977999 -0.024143277067086591 0 0.13678640240865311 -0.024667600205000469 0 0.1314582928152577 -0.036392595792246199 0 0.13678640240865311 -0.024667600205000469 0 0.14168064590528259 -0.03118396953824161 0 0.1419157040153492 -0.017534925758791051 0 0.13678640240865311 -0.024667600205000469 0 0.14168064590528259 -0.03118396953824161 0 0.1314582928152577 -0.036392595792246199 0 0.14168064590528259 -0.03118396953824161 0 0.1419157040153492 -0.017534925758791051 0 0.15404101298929829 -0.036978188550053651 0 0.1419157040153492 -0.017534925758791051 0 0.15404101298929829 -0.036978188550053651 0 0.1563352581710746 -0.035070625617797078 0 0.146504194378902 -0.013719799894277801 0 0.1419157040153492 -0.017534925758791051 0 0.1563352581710746 -0.035070625617797078 0 0.146504194378902 -0.013719799894277801 0 0.1563352581710746 -0.035070625617797078 0 0.15752258901416269 -0.02158512785905832 0 0.146504194378902 -0.013719799894277801 0 0.1563352581710746 -0.035070625617797078 0 0.1419157040153492 -0.017534925758791051 0 0.15404101298929829 -0.036978188550053651 0 0.15308251011453899 -0.012670766174966539 0 0.146504194378902 -0.013719799894277801 0 0.15752258901416269 -0.02158512785905832 0 0.15404101298929829 -0.036978188550053651 0 0.1490183110712596 -0.040464969190733183 0 0.14737716658812641 -0.037714494733850273 0 0.15108741618448709 -0.04392779783128313 0 0.14356764852312651 -0.043239395647745649 0 0.15248225101834961 -0.051321658875150097 0 0.15404101298929829 -0.036978188550053651 0 0.15108741618448709 -0.04392779783128313 0 0.1490183110712596 -0.040464969190733183 0 0.15108741618448709 -0.04392779783128313 0 0.1490183110712596 -0.040464969190733183 0 0.14356764852312651 -0.043239395647745649 0 0.1490183110712596 -0.040464969190733183 0 0.14356764852312651 -0.043239395647745649 0 0.14737716658812641 -0.037714494733850273 0 0.14168064590528259 -0.03118396953824161 0 0.14356764852312651 -0.043239395647745649 0 0.14737716658812641 -0.037714494733850273 0 0.14168064590528259 -0.03118396953824161 0 0.15404101298929829 -0.036978188550053651 0 0.14737716658812641 -0.037714494733850273 0 0.14168064590528259 -0.03118396953824161 0 0.14356764852312651 -0.043239395647745649 0 0.1314582928152577 -0.036392595792246199 0 0.1183205926690539 -0.038039055067747199 0 0.1314582928152577 -0.036392595792246199 0 0.12686592154363949 -0.053396183868486248 0 0.14356764852312651 -0.043239395647745649 0 0.1314582928152577 -0.036392595792246199 0 0.12686592154363949 -0.053396183868486248 0 0.1183205926690539 -0.038039055067747199 0 0.12924586723977999 -0.024143277067086591 0 0.1314582928152577 -0.036392595792246199 0 0.13406360199564479 -0.070314412989429545 0 0.12686592154363949 -0.053396183868486248 0 0.14562813094379279 -0.056259170724650642 0 0.14356764852312651 -0.043239395647745649 0 0.12686592154363949 -0.053396183868486248 0 0.14562813094379279 -0.056259170724650642 0 0.14356764852312651 -0.043239395647745649 0 0.14562813094379279 -0.056259170724650642 0 0.15248225101834961 -0.051321658875150097 0 0.14562813094379279 -0.056259170724650642 0 0.15248225101834961 -0.051321658875150097 0 0.15599241179675949 -0.056970538136518117 0 0.15969294326164821 -0.063879871604955368 0 0.14562813094379279 -0.056259170724650642 0 0.15599241179675949 -0.056970538136518117 0 0.15248225101834961 -0.051321658875150097 0 0.15599241179675949 -0.056970538136518117 0 0.16616632196324729 -0.056421451341316382 0 0.15969294326164821 -0.063879871604955368 0 0.15599241179675949 -0.056970538136518117 0 0.16616632196324729 -0.056421451341316382 0 0.15108741618448709 -0.04392779783128313 0 0.15248225101834961 -0.051321658875150097 0 0.16616632196324729 -0.056421451341316382 0 0.16616632196324729 -0.056421451341316382 0 0.1739667814748285 -0.052801979876461798 0 0.1685492088557429 -0.045878477531709351 0 0.16616632196324729 -0.056421451341316382 0 0.1685492088557429 -0.045878477531709351 0 0.16391501158023669 -0.041441106992994137 0 0.16616632196324729 -0.056421451341316382 0 0.1750929811432631 -0.060344230275620359 0 0.1739667814748285 -0.052801979876461798 0 0.17414399541562689 -0.069213867743302154 0 0.16616632196324729 -0.056421451341316382 0 0.1750929811432631 -0.060344230275620359 0 0.1750929811432631 -0.060344230275620359 0 0.18242845402720451 -0.058153987892537173 0 0.1739667814748285 -0.052801979876461798 0 0.18076975597408509 -0.06432808654244565 0 0.1750929811432631 -0.060344230275620359 0 0.18242845402720451 -0.058153987892537173 0 0.18076975597408509 -0.06432808654244565 0 0.18242845402720451 -0.058153987892537173 0 0.18903632801269879 -0.062572401355274032 0 0.18242845402720451 -0.058153987892537173 0 0.18852834358625639 -0.054435587336261297 0 0.18903632801269879 -0.062572401355274032 0 0.18244971813688141 -0.049841638575926057 0 0.19035426881593209 -0.046914643772645953 0 0.18852834358625639 -0.054435587336261297 0 0.18242845402720451 -0.058153987892537173 0 0.18244971813688141 -0.049841638575926057 0 0.18852834358625639 -0.054435587336261297 0 0.18244971813688141 -0.049841638575926057 0 0.1739667814748285 -0.052801979876461798 0 0.17538319479654241 -0.044872084671632402 0 0.1739667814748285 -0.052801979876461798 0 0.17538319479654241 -0.044872084671632402 0 0.1685492088557429 -0.045878477531709351 0 0.18242845402720451 -0.058153987892537173 0 0.18244971813688141 -0.049841638575926057 0 0.1739667814748285 -0.052801979876461798 0 0.17538319479654241 -0.044872084671632402 0 0.18320723238102191 -0.041891628271957117 0 0.17842048893522561 -0.03372255640990264 0 0.18244971813688141 -0.049841638575926057 0 0.17538319479654241 -0.044872084671632402 0 0.18320723238102191 -0.041891628271957117 0 0.18244971813688141 -0.049841638575926057 0 0.18320723238102191 -0.041891628271957117 0 0.19035426881593209 -0.046914643772645953 0 0.17842048893522561 -0.03372255640990264 0 0.1856124346976058 -0.02484326424449107 0 0.19036231850688759 -0.036292251294196318 0 0.18320723238102191 -0.041891628271957117 0 0.17842048893522561 -0.03372255640990264 0 0.19036231850688759 -0.036292251294196318 0 0.17538319479654241 -0.044872084671632402 0 0.17842048893522561 -0.03372255640990264 0 0.1668957075257507 -0.035288690385845881 0 0.15404101298929829 -0.036978188550053651 0 0.16616632196324729 -0.056421451341316382 0 0.16616632196324729 -0.056421451341316382 0 0.1563352581710746 -0.035070625617797078 0 0.15404101298929829 -0.036978188550053651 0 0.16616632196324729 -0.056421451341316382 0 0.1563352581710746 -0.035070625617797078 0 0.15404101298929829 -0.036978188550053651 0 0.15108741618448709 -0.04392779783128313 0 0.16616632196324729 -0.056421451341316382 0 0.16616632196324729 -0.056421451341316382 0 0.16391501158023669 -0.041441106992994137 0 0.1563352581710746 -0.035070625617797078 0 0.1668957075257507 -0.035288690385845881 0 0.16391501158023669 -0.041441106992994137 0 0.16222354553767579 -0.035138153356098961 0 0.17538319479654241 -0.044872084671632402 0 0.1668957075257507 -0.035288690385845881 0 0.1685492088557429 -0.045878477531709351 0 0.1668957075257507 -0.035288690385845881 0 0.1685492088557429 -0.045878477531709351 0 0.16391501158023669 -0.041441106992994137 0 0.1563352581710746 -0.035070625617797078 0 0.16222354553767579 -0.035138153356098961 0 0.16174820487364139 -0.02875219042775877 0 0.1668957075257507 -0.035288690385845881 0 0.16222354553767579 -0.035138153356098961 0 0.16174820487364139 -0.02875219042775877 0 0.16391501158023669 -0.041441106992994137 0 0.1563352581710746 -0.035070625617797078 0 0.16222354553767579 -0.035138153356098961 0 0.1668957075257507 -0.035288690385845881 0 0.16174820487364139 -0.02875219042775877 0 0.1694792862491328 -0.015236443305298169 0 0.17842048893522561 -0.03372255640990264 0 0.1668957075257507 -0.035288690385845881 0 0.1694792862491328 -0.015236443305298169 0 0.1668957075257507 -0.035288690385845881 0 0.1694792862491328 -0.015236443305298169 0 0.1563352581710746 -0.035070625617797078 0 0.16174820487364139 -0.02875219042775877 0 0.15752258901416269 -0.02158512785905832 0 0.16174820487364139 -0.02875219042775877 0 0.15752258901416269 -0.02158512785905832 0 0.1694792862491328 -0.015236443305298169 0 0.1856124346976058 -0.02484326424449107 0 0.18089076895374909 -0.0074794475965449508 0 0.19305716680983739 -0.015311751653695541 0 0.17842048893522561 -0.03372255640990264 0 0.1856124346976058 -0.02484326424449107 0 0.1694792862491328 -0.015236443305298169 0 0.1856124346976058 -0.02484326424449107 0 0.18089076895374909 -0.0074794475965449508 0 0.1694792862491328 -0.015236443305298169 0 0.17206286497251441 0.0048158037752495672 0 0.18089076895374909 -0.0074794475965449508 0 0.1694792862491328 -0.015236443305298169 0 0.1893930781060881 0.0033881031404621731 0 0.18037517114347609 0.0008153331900191184 0 0.18089076895374909 -0.0074794475965449508 0 0.17206286497251441 0.0048158037752495672 0 0.18037517114347609 0.0008153331900191184 0 0.18089076895374909 -0.0074794475965449508 0 0.17206286497251441 0.0048158037752495672 0 0.15092663000695719 0.003362070403861992 0 0.15837002858371019 -0.0087475670828399792 0 0.17206286497251441 0.0048158037752495672 0 0.1694792862491328 -0.015236443305298169 0 0.17206286497251441 0.0048158037752495672 0 0.1694792862491328 -0.015236443305298169 0 0.15837002858371019 -0.0087475670828399792 0 0.15308251011453899 -0.012670766174966539 0 0.15752258901416269 -0.02158512785905832 0 0.15837002858371019 -0.0087475670828399792 0 0.15752258901416269 -0.02158512785905832 0 0.1694792862491328 -0.015236443305298169 0 0.15837002858371019 -0.0087475670828399792 0 0.20923784945252041 0.0098223260899010824 0 0.20690236083747379 -0.011107369894935401 0 0.22643588993749281 -0.0029050851839538929 0 0.1893930781060881 0.0033881031404621731 0 0.18089076895374909 -0.0074794475965449508 0 0.19305716680983739 -0.015311751653695541 0 0.1893930781060881 0.0033881031404621731 0 0.20690236083747379 -0.011107369894935401 0 0.1893930781060881 0.0033881031404621731 0 0.20690236083747379 -0.011107369894935401 0 0.19305716680983739 -0.015311751653695541 0 0.20690236083747379 -0.011107369894935401 0 0.19305716680983739 -0.015311751653695541 0 0.20219882003045991 -0.027915469500810822 0 0.1856124346976058 -0.02484326424449107 0 0.20219882003045991 -0.027915469500810822 0 0.19036231850688759 -0.036292251294196318 0 0.1856124346976058 -0.02484326424449107 0 0.19305716680983739 -0.015311751653695541 0 0.20219882003045991 -0.027915469500810822 0 0.20690236083747379 -0.011107369894935401 0 0.22441164356885951 -0.025602842930333009 0 0.20690236083747379 -0.011107369894935401 0 0.20219882003045991 -0.027915469500810822 0 0.22441164356885951 -0.025602842930333009 0 0.20219882003045991 -0.027915469500810822 0 0.21396522115501909 -0.041817369785955419 0 0.22441164356885951 -0.025602842930333009 0 0.21396522115501909 -0.041817369785955419 0 0.1997257192745322 -0.042994965846646582 0 0.2056326971260039 -0.051056180566203868 0 0.20219882003045991 -0.027915469500810822 0 0.21396522115501909 -0.041817369785955419 0 0.1997257192745322 -0.042994965846646582 0 0.20219882003045991 -0.027915469500810822 0 0.19036231850688759 -0.036292251294196318 0 0.1997257192745322 -0.042994965846646582 0 0.19036231850688759 -0.036292251294196318 0 0.1997257192745322 -0.042994965846646582 0 0.19035426881593209 -0.046914643772645953 0 0.18320723238102191 -0.041891628271957117 0 0.19036231850688759 -0.036292251294196318 0 0.19035426881593209 -0.046914643772645953 0 0.1997257192745322 -0.042994965846646582 0 0.19035426881593209 -0.046914643772645953 0 0.1967128814595594 -0.054735425816801922 0 0.1997257192745322 -0.042994965846646582 0 0.1967128814595594 -0.054735425816801922 0 0.2056326971260039 -0.051056180566203868 0 0.19035426881593209 -0.046914643772645953 0 0.18852834358625639 -0.054435587336261297 0 0.1967128814595594 -0.054735425816801922 0 0.1967128814595594 -0.054735425816801922 0 0.18903632801269879 -0.062572401355274032 0 0.19778982503206821 -0.065132635017038851 0 0.18852834358625639 -0.054435587336261297 0 0.1967128814595594 -0.054735425816801922 0 0.18903632801269879 -0.062572401355274032 0 0.1967128814595594 -0.054735425816801922 0 0.2042690040174599 -0.058760565414879652 0 0.2056326971260039 -0.051056180566203868 0 0.1967128814595594 -0.054735425816801922 0 0.2042690040174599 -0.058760565414879652 0 0.19778982503206821 -0.065132635017038851 0 0.2042690040174599 -0.058760565414879652 0 0.2056326971260039 -0.051056180566203868 0 0.2141539232107241 -0.05567814667372268 0 0.2042690040174599 -0.058760565414879652 0 0.2141539232107241 -0.05567814667372268 0 0.20705569325894391 -0.067200439000630899 0 0.21396522115501909 -0.041817369785955419 0 0.2056326971260039 -0.051056180566203868 0 0.2141539232107241 -0.05567814667372268 0 0.21396522115501909 -0.041817369785955419 0 0.2141539232107241 -0.05567814667372268 0 0.22334324307800441 -0.050905759461247237 0 0.2141539232107241 -0.05567814667372268 0 0.20705569325894391 -0.067200439000630899 0 0.21952782625614631 -0.063559715761219882 0 0.22334324307800441 -0.050905759461247237 0 0.22907540406656199 -0.059900566787668363 0 0.21952782625614631 -0.063559715761219882 0 0.2141539232107241 -0.05567814667372268 0 0.22334324307800441 -0.050905759461247237 0 0.21952782625614631 -0.063559715761219882 0 0.22334324307800441 -0.050905759461247237 0 0.23238600464244771 -0.051293451019140068 0 0.2275460945939925 -0.041492589055611623 0 0.22334324307800441 -0.050905759461247237 0 0.23238600464244771 -0.051293451019140068 0 0.22907540406656199 -0.059900566787668363 0 0.23238600464244771 -0.051293451019140068 0 0.22907540406656199 -0.059900566787668363 0 0.23956790244474921 -0.064920518735926067 0 0.25011840933587692 -0.057229550981744648 0 0.24149469975731519 -0.04459460768411723 0 0.23956790244474921 -0.064920518735926067 0 0.24149469975731519 -0.04459460768411723 0 0.23956790244474921 -0.064920518735926067 0 0.25011840933587692 -0.057229550981744648 0 0.24192092630024439 -0.040098315965731553 0 0.24149469975731519 -0.04459460768411723 0 0.23238600464244771 -0.051293451019140068 0 0.24149469975731519 -0.04459460768411723 0 0.23956790244474921 -0.064920518735926067 0 0.25011840933587692 -0.057229550981744648 0 0.24149469975731519 -0.04459460768411723 0 0.23238600464244771 -0.051293451019140068 0 0.24192092630024439 -0.040098315965731553 0 0.24149469975731519 -0.04459460768411723 0 0.24192092630024439 -0.040098315965731553 0 0.24149469975731519 -0.04459460768411723 0 0.25375313424769591 -0.039650162925027828 0 0.25178175771781741 -0.028332578758821132 0 0.24192092630024439 -0.040098315965731553 0 0.24192092630024439 -0.040098315965731553 0 0.22441164356885951 -0.025602842930333009 0 0.21396522115501909 -0.041817369785955419 0 0.2275460945939925 -0.041492589055611623 0 0.22441164356885951 -0.025602842930333009 0 0.24192092630024439 -0.040098315965731553 0 0.2275460945939925 -0.041492589055611623 0 0.22441164356885951 -0.025602842930333009 0 0.23238600464244771 -0.051293451019140068 0 0.24192092630024439 -0.040098315965731553 0 0.2275460945939925 -0.041492589055611623 0 0.21396522115501909 -0.041817369785955419 0 0.22334324307800441 -0.050905759461247237 0 0.2275460945939925 -0.041492589055611623 0 0.25178175771781741 -0.028332578758821132 0 0.24192092630024439 -0.040098315965731553 0 0.24437885508449611 -0.014169464230963959 0 0.24192092630024439 -0.040098315965731553 0 0.22441164356885951 -0.025602842930333009 0 0.24437885508449611 -0.014169464230963959 0 0.24192092630024439 -0.040098315965731553 0 0.24437885508449611 -0.014169464230963959 0 0.24683678386874991 0.011759387503803471 0 0.24437885508449611 -0.014169464230963959 0 0.22643588993749281 -0.0029050851839538929 0 0.24683678386874991 0.011759387503803471 0 0.24437885508449611 -0.014169464230963959 0 0.20690236083747379 -0.011107369894935401 0 0.22441164356885951 -0.025602842930333009 0 0.22643588993749281 -0.0029050851839538929 0 0.22441164356885951 -0.025602842930333009 0 0.24437885508449611 -0.014169464230963959 0 0.22643588993749281 -0.0029050851839538929 0 0.2113217760841494 -0.093835340953229138 0 0.21626285921315569 -0.11470597678731891 0 0.20004835097258919 -0.104044804221088 0 0.21626285921315569 -0.11470597678731891 0 0.19498959437899191 -0.11901901749891421 0 0.20004835097258919 -0.104044804221088 0 0.21626285921315569 -0.11470597678731891 0 0.19498959437899191 -0.11901901749891421 0 0.21004340569002691 -0.13281922804294899 0 0.18538183690707699 -0.098153162113048267 0 0.19498959437899191 -0.11901901749891421 0 0.18538183690707699 -0.098153162113048267 0 0.19498959437899191 -0.11901901749891421 0 0.20004835097258919 -0.104044804221088 0 0.2113217760841494 -0.093835340953229138 0 0.20004835097258919 -0.104044804221088 0 0.1963628973803965 -0.092313690483160377 0 0.18538183690707699 -0.098153162113048267 0 0.20004835097258919 -0.104044804221088 0 0.1963628973803965 -0.092313690483160377 0 0.18538183690707699 -0.098153162113048267 0 0.188959780628736 -0.082038376252564993 0 0.1963628973803965 -0.092313690483160377 0 0.188959780628736 -0.082038376252564993 0 0.20203052140443381 -0.081350905222173628 0 0.1973038374762692 -0.073697445268425366 0 0.188959780628736 -0.082038376252564993 0 0.20203052140443381 -0.081350905222173628 0 0.1963628973803965 -0.092313690483160377 0 0.19064360961182719 -0.070083761979561315 0 0.1973038374762692 -0.073697445268425366 0 0.19778982503206821 -0.065132635017038851 0 0.18903632801269879 -0.062572401355274032 0 0.19064360961182719 -0.070083761979561315 0 0.19778982503206821 -0.065132635017038851 0 0.188959780628736 -0.082038376252564993 0 0.19064360961182719 -0.070083761979561315 0 0.1973038374762692 -0.073697445268425366 0 0.20203052140443381 -0.081350905222173628 0 0.1973038374762692 -0.073697445268425366 0 0.20705569325894391 -0.067200439000630899 0 0.1973038374762692 -0.073697445268425366 0 0.19778982503206821 -0.065132635017038851 0 0.20705569325894391 -0.067200439000630899 0 0.2042690040174599 -0.058760565414879652 0 0.19778982503206821 -0.065132635017038851 0 0.20705569325894391 -0.067200439000630899 0 0.20203052140443381 -0.081350905222173628 0 0.20705569325894391 -0.067200439000630899 0 0.21222271515887639 -0.077114589933653721 0 0.21222271515887639 -0.077114589933653721 0 0.21540652606523281 -0.07085039233430819 0 0.2228198695869649 -0.075526824641728246 0 0.20705569325894391 -0.067200439000630899 0 0.21222271515887639 -0.077114589933653721 0 0.21540652606523281 -0.07085039233430819 0 0.20705569325894391 -0.067200439000630899 0 0.21540652606523281 -0.07085039233430819 0 0.21952782625614631 -0.063559715761219882 0 0.2113217760841494 -0.093835340953229138 0 0.20203052140443381 -0.081350905222173628 0 0.21222271515887639 -0.077114589933653721 0 0.2113217760841494 -0.093835340953229138 0 0.21222271515887639 -0.077114589933653721 0 0.22400767215894621 -0.088020169472003862 0 0.2113217760841494 -0.093835340953229138 0 0.20203052140443381 -0.081350905222173628 0 0.1963628973803965 -0.092313690483160377 0 0.21222271515887639 -0.077114589933653721 0 0.22400767215894621 -0.088020169472003862 0 0.2228198695869649 -0.075526824641728246 0 0.22400767215894621 -0.088020169472003862 0 0.2228198695869649 -0.075526824641728246 0 0.23039508411571491 -0.077499157205791813 0 0.22400767215894621 -0.088020169472003862 0 0.23039508411571491 -0.077499157205791813 0 0.2372148785892563 -0.089742721506120754 0 0.22400767215894621 -0.088020169472003862 0 0.2372148785892563 -0.089742721506120754 0 0.23008751997619839 -0.1023432341620812 0 0.21952782625614631 -0.063559715761219882 0 0.2228198695869649 -0.075526824641728246 0 0.22836509779865771 -0.06928555167318011 0 0.21540652606523281 -0.07085039233430819 0 0.21952782625614631 -0.063559715761219882 0 0.2228198695869649 -0.075526824641728246 0 0.22907540406656199 -0.059900566787668363 0 0.21952782625614631 -0.063559715761219882 0 0.22836509779865771 -0.06928555167318011 0 0.2228198695869649 -0.075526824641728246 0 0.23039508411571491 -0.077499157205791813 0 0.22836509779865771 -0.06928555167318011 0 0.23039508411571491 -0.077499157205791813 0 0.22836509779865771 -0.06928555167318011 0 0.23956790244474921 -0.064920518735926067 0 0.22907540406656199 -0.059900566787668363 0 0.22836509779865771 -0.06928555167318011 0 0.23956790244474921 -0.064920518735926067 0 0.23039508411571491 -0.077499157205791813 0 0.23956790244474921 -0.064920518735926067 0 0.2372148785892563 -0.089742721506120754 0 0.23956790244474921 -0.064920518735926067 0 0.2372148785892563 -0.089742721506120754 0 0.23956790244474921 -0.064920518735926067 0 0.24865985591140999 -0.07605453343057085 0 0.2372148785892563 -0.089742721506120754 0 0.25097550182825579 -0.067858360500835699 0 0.25011840933587692 -0.057229550981744648 0 0.23956790244474921 -0.064920518735926067 0 0.25097550182825579 -0.067858360500835699 0 0.23956790244474921 -0.064920518735926067 0 0.24865985591140999 -0.07605453343057085 0 0.24865985591140999 -0.07605453343057085 0 0.24771348206734081 -0.093011461863686695 0 0.2372148785892563 -0.089742721506120754 0 0.24771348206734081 -0.093011461863686695 0 0.2374869532872117 -0.1147859246536112 0 0.24771348206734081 -0.093011461863686695 0 0.2372148785892563 -0.089742721506120754 0 0.23008751997619839 -0.1023432341620812 0 0.24771348206734081 -0.093011461863686695 0 0.23008751997619839 -0.1023432341620812 0 0.2374869532872117 -0.1147859246536112 0 0.25952857979713628 -0.1090390699561984 0 0.24771348206734081 -0.093011461863686695 0 0.2374869532872117 -0.1147859246536112 0 0.2113217760841494 -0.093835340953229138 0 0.22400767215894621 -0.088020169472003862 0 0.23008751997619839 -0.1023432341620812 0 0.2113217760841494 -0.093835340953229138 0 0.21626285921315569 -0.11470597678731891 0 0.23008751997619839 -0.1023432341620812 0 0.21626285921315569 -0.11470597678731891 0 0.23008751997619839 -0.1023432341620812 0 0.2374869532872117 -0.1147859246536112 0 0.21626285921315569 -0.11470597678731891 0 0.2374869532872117 -0.1147859246536112 0 0.22726042450708431 -0.13656038744353649 0 0.25952857979713628 -0.1090390699561984 0 0.2374869532872117 -0.1147859246536112 0 0.24339450215211089 -0.1227997286998682 0 0.2374869532872117 -0.1147859246536112 0 0.24339450215211089 -0.1227997286998682 0 0.22726042450708431 -0.13656038744353649 0 0.24339450215211089 -0.1227997286998682 0 0.22726042450708431 -0.13656038744353649 0 0.24339450215211089 -0.1227997286998682 0 0.24526979352709261 -0.13759286318909431 0 0.22726042450708431 -0.13656038744353649 0 0.25731749019477168 -0.12594871318621209 0 0.24339450215211089 -0.1227997286998682 0 0.24526979352709261 -0.13759286318909431 0 0.24526979352709261 -0.13759286318909431 0 0.2375528710967981 -0.1487287097685473 0 0.22726042450708431 -0.13656038744353649 0 0.2495687825012961 -0.14881593215434519 0 0.2375528710967981 -0.1487287097685473 0 0.2435079449430248 -0.15712331229295401 0 0.25185696020268089 -0.1592535805797782 0 0.2495687825012961 -0.14881593215434519 0 0.2435079449430248 -0.15712331229295401 0 0.24526979352709261 -0.13759286318909431 0 0.2495687825012961 -0.14881593215434519 0 0.2375528710967981 -0.1487287097685473 0 0.2375528710967981 -0.1487287097685473 0 0.2341568772652883 -0.1617992553673108 0 0.2435079449430248 -0.15712331229295401 0 0.2375528710967981 -0.1487287097685473 0 0.22812005701845581 -0.1539849682108887 0 0.22726042450708431 -0.13656038744353649 0 0.22812005701845581 -0.1539849682108887 0 0.22726042450708431 -0.13656038744353649 0 0.21676247772707119 -0.15891275709374661 0 0.22726042450708431 -0.13656038744353649 0 0.21449383558717741 -0.14744893510723039 0 0.21676247772707119 -0.15891275709374661 0 0.22726042450708431 -0.13656038744353649 0 0.21676247772707119 -0.15891275709374661 0 0.2375528710967981 -0.1487287097685473 0 0.22812005701845581 -0.1539849682108887 0 0.2341568772652883 -0.1617992553673108 0 0.22726042450708431 -0.13656038744353649 0 0.21449383558717741 -0.14744893510723039 0 0.2374869532872117 -0.1147859246536112 0 0.22726042450708431 -0.13656038744353649 0 0.22726042450708431 -0.13656038744353649 0 0.21004340569002691 -0.13281922804294899 0 0.21449383558717741 -0.14744893510723039 0 0.21626285921315569 -0.11470597678731891 0 0.22726042450708431 -0.13656038744353649 0 0.21004340569002691 -0.13281922804294899 0 0.21449383558717741 -0.14744893510723039 0 0.20826130614591251 -0.15463871482242861 0 0.21676247772707119 -0.15891275709374661 0 0.20826130614591251 -0.15463871482242861 0 0.2029741199355431 -0.14562512477739381 0 0.19892721325537549 -0.1564858925345444 0 0.21449383558717741 -0.14744893510723039 0 0.20826130614591251 -0.15463871482242861 0 0.2029741199355431 -0.14562512477739381 0 0.21004340569002691 -0.13281922804294899 0 0.21449383558717741 -0.14744893510723039 0 0.2029741199355431 -0.14562512477739381 0 0.2029741199355431 -0.14562512477739381 0 0.1898534820430145 -0.14735127780817389 0 0.19626547689175189 -0.13500670034903631 0 0.1898534820430145 -0.14735127780817389 0 0.1884664881431071 -0.16334013461446689 0 0.19892721325537549 -0.1564858925345444 0 0.2029741199355431 -0.14562512477739381 0 0.1898534820430145 -0.14735127780817389 0 0.19892721325537549 -0.1564858925345444 0 0.19498959437899191 -0.11901901749891421 0 0.21004340569002691 -0.13281922804294899 0 0.19626547689175189 -0.13500670034903631 0 0.19498959437899191 -0.11901901749891421 0 0.19626547689175189 -0.13500670034903631 0 0.17863980177531821 -0.13107823074583561 0 0.1898534820430145 -0.14735127780817389 0 0.19626547689175189 -0.13500670034903631 0 0.17863980177531821 -0.13107823074583561 0 0.21004340569002691 -0.13281922804294899 0 0.2029741199355431 -0.14562512477739381 0 0.19626547689175189 -0.13500670034903631 0 0.1884664881431071 -0.16334013461446689 0 0.2062645309470599 -0.18126512674395739 0 0.18528014439631041 -0.1774817553044829 0 0.2062645309470599 -0.18126512674395739 0 0.19576658416704859 -0.20361749639416821 0 0.18528014439631041 -0.1774817553044829 0 0.1884664881431071 -0.16334013461446689 0 0.19892721325537549 -0.1564858925345444 0 0.2062645309470599 -0.18126512674395739 0 0.21676247772707119 -0.15891275709374661 0 0.2062645309470599 -0.18126512674395739 0 0.21676247772707119 -0.15891275709374661 0 0.2062645309470599 -0.18126512674395739 0 0.22330767200134899 -0.173324260439566 0 0.20826130614591251 -0.15463871482242861 0 0.21676247772707119 -0.15891275709374661 0 0.2062645309470599 -0.18126512674395739 0 0.20826130614591251 -0.15463871482242861 0 0.19892721325537549 -0.1564858925345444 0 0.2062645309470599 -0.18126512674395739 0 0.22330767200134899 -0.173324260439566 0 0.2356959263911631 -0.18026218851282319 0 0.22715682575706439 -0.19094048359261781 0 0.2062645309470599 -0.18126512674395739 0 0.22330767200134899 -0.173324260439566 0 0.22715682575706439 -0.19094048359261781 0 0.22330767200134899 -0.173324260439566 0 0.23505129554576701 -0.17031839747907301 0 0.2356959263911631 -0.18026218851282319 0 0.2356959263911631 -0.18026218851282319 0 0.2369564364506849 -0.18892772003742031 0 0.22715682575706439 -0.19094048359261781 0 0.22812005701845581 -0.1539849682108887 0 0.21676247772707119 -0.15891275709374661 0 0.2274796759115863 -0.163667927718117 0 0.21676247772707119 -0.15891275709374661 0 0.22330767200134899 -0.173324260439566 0 0.2274796759115863 -0.163667927718117 0 0.22330767200134899 -0.173324260439566 0 0.2274796759115863 -0.163667927718117 0 0.23505129554576701 -0.17031839747907301 0 0.2341568772652883 -0.1617992553673108 0 0.2274796759115863 -0.163667927718117 0 0.23505129554576701 -0.17031839747907301 0 0.22812005701845581 -0.1539849682108887 0 0.2341568772652883 -0.1617992553673108 0 0.2274796759115863 -0.163667927718117 0 0.2341568772652883 -0.1617992553673108 0 0.2444564780514048 -0.167140705308327 0 0.2435079449430248 -0.15712331229295401 0 0.23505129554576701 -0.17031839747907301 0 0.2444564780514048 -0.167140705308327 0 0.24506882269397101 -0.17532202276439099 0 0.2341568772652883 -0.1617992553673108 0 0.23505129554576701 -0.17031839747907301 0 0.2444564780514048 -0.167140705308327 0 0.25449806329141439 -0.1681487817390932 0 0.2444564780514048 -0.167140705308327 0 0.24506882269397101 -0.17532202276439099 0 0.25185696020268089 -0.1592535805797782 0 0.2444564780514048 -0.167140705308327 0 0.2435079449430248 -0.15712331229295401 0 0.2356959263911631 -0.18026218851282319 0 0.2449674821271535 -0.18293464922919139 0 0.2369564364506849 -0.18892772003742031 0 0.23505129554576701 -0.17031839747907301 0 0.2356959263911631 -0.18026218851282319 0 0.24506882269397101 -0.17532202276439099 0 0.2356959263911631 -0.18026218851282319 0 0.24506882269397101 -0.17532202276439099 0 0.2449674821271535 -0.18293464922919139 0 0.25262994893466689 -0.17791068797942161 0 0.24506882269397101 -0.17532202276439099 0 0.2449674821271535 -0.18293464922919139 0 0.2449674821271535 -0.18293464922919139 0 0.24663725417394089 -0.1905812705241178 0 0.2369564364506849 -0.18892772003742031 0 0.25281650411849421 -0.1846040055569744 0 0.2449674821271535 -0.18293464922919139 0 0.24663725417394089 -0.1905812705241178 0 0.26138513676447039 -0.18815136968462029 0 0.23675620859229421 -0.20398690512122819 0 0.26138513676447039 -0.18815136968462029 0 0.24663725417394089 -0.1905812705241178 0 0.23675620859229421 -0.20398690512122819 0 0.24663725417394089 -0.1905812705241178 0 0.2369564364506849 -0.18892772003742031 0 0.23675620859229421 -0.20398690512122819 0 0.25377173369077372 -0.2124540150332884 0 0.24057393574502919 -0.2142277276238192 0 0.23675620859229421 -0.20398690512122819 0 0.25377173369077372 -0.2124540150332884 0 0.24057393574502919 -0.2142277276238192 0 0.246779265349475 -0.2239407451329273 0 0.24057393574502919 -0.2142277276238192 0 0.2295010773713608 -0.21140629898387139 0 0.2360613937212423 -0.21935067384778081 0 0.24057393574502919 -0.2142277276238192 0 0.23675620859229421 -0.20398690512122819 0 0.2295010773713608 -0.21140629898387139 0 0.23675620859229421 -0.20398690512122819 0 0.2295010773713608 -0.21140629898387139 0 0.2193943116050408 -0.21514999484508349 0 0.23675620859229421 -0.20398690512122819 0 0.22954406219513851 -0.20696104437269741 0 0.2193943116050408 -0.21514999484508349 0 0.23675620859229421 -0.20398690512122819 0 0.2193943116050408 -0.21514999484508349 0 0.23675620859229421 -0.20398690512122819 0 0.22954406219513851 -0.20696104437269741 0 0.22954406219513851 -0.20696104437269741 0 0.2193943116050408 -0.21514999484508349 0 0.21565687884961571 -0.20092621836872229 0 0.23675620859229421 -0.20398690512122819 0 0.22954406219513851 -0.20696104437269741 0 0.22715682575706439 -0.19094048359261781 0 0.22954406219513851 -0.20696104437269741 0 0.22715682575706439 -0.19094048359261781 0 0.21565687884961571 -0.20092621836872229 0 0.2369564364506849 -0.18892772003742031 0 0.23675620859229421 -0.20398690512122819 0 0.22715682575706439 -0.19094048359261781 0 0.25905903685994958 -0.2348590572369828 0 0.24535488951562551 -0.25800224037111918 0 0.23787219487653199 -0.23795868473077231 0 0.23968299603182361 -0.25656669561376361 0 0.23787219487653199 -0.23795868473077231 0 0.23787219487653199 -0.23795868473077231 0 0.2360613937212423 -0.21935067384778081 0 0.25905903685994958 -0.2348590572369828 0 0.23787219487653199 -0.23795868473077231 0 0.246779265349475 -0.2239407451329273 0 0.23787219487653199 -0.23795868473077231 0 0.246779265349475 -0.2239407451329273 0 0.2360613937212423 -0.21935067384778081 0 0.24057393574502919 -0.2142277276238192 0 0.246779265349475 -0.2239407451329273 0 0.2360613937212423 -0.21935067384778081 0 0.2295010773713608 -0.21140629898387139 0 0.21968034452729671 -0.23021237819992291 0 0.23787219487653199 -0.23795868473077231 0 0.2360613937212423 -0.21935067384778081 0 0.21968034452729671 -0.23021237819992291 0 0.2295010773713608 -0.21140629898387139 0 0.2193943116050408 -0.21514999484508349 0 0.21968034452729671 -0.23021237819992291 0 0.2295010773713608 -0.21140629898387139 0 0.2360613937212423 -0.21935067384778081 0 0.21968034452729671 -0.23021237819992291 0 0.22477130385752811 -0.25279257651487019 0 0.22597829866073599 -0.24065643984082979 0 0.20985961168323311 -0.2490184574159747 0 0.23968299603182361 -0.25656669561376361 0 0.22477130385752811 -0.25279257651487019 0 0.23787219487653199 -0.23795868473077231 0 0.23787219487653199 -0.23795868473077231 0 0.21968034452729671 -0.23021237819992291 0 0.22597829866073599 -0.24065643984082979 0 0.22477130385752811 -0.25279257651487019 0 0.23787219487653199 -0.23795868473077231 0 0.22597829866073599 -0.24065643984082979 0 0.21968034452729671 -0.23021237819992291 0 0.20985961168323311 -0.2490184574159747 0 0.21968034452729671 -0.23021237819992291 0 0.20985961168323311 -0.2490184574159747 0 0.2014118104030489 -0.2374437387456671 0 0.21968034452729671 -0.23021237819992291 0 0.22597829866073599 -0.24065643984082979 0 0.20985961168323311 -0.2490184574159747 0 0.2193943116050408 -0.21514999484508349 0 0.2020324146177874 -0.2263130845689387 0 0.21968034452729671 -0.23021237819992291 0 0.2020324146177874 -0.2263130845689387 0 0.2014118104030489 -0.2374437387456671 0 0.2193943116050408 -0.21514999484508349 0 0.21968034452729671 -0.23021237819992291 0 0.2020324146177874 -0.2263130845689387 0 0.2020324146177874 -0.2263130845689387 0 0.2014118104030489 -0.2374437387456671 0 0.18467051763053249 -0.2374761742927915 0 0.2020324146177874 -0.2263130845689387 0 0.18811592129770729 -0.21586215725644309 0 0.18621006613144411 -0.22581003085224871 0 0.2020324146177874 -0.2263130845689387 0 0.18467051763053249 -0.2374761742927915 0 0.18621006613144411 -0.22581003085224871 0 0.2020324146177874 -0.2263130845689387 0 0.18467051763053249 -0.2374761742927915 0 0.2014118104030489 -0.2374437387456671 0 0.19081616355639519 -0.24419859925070769 0 0.18467051763053249 -0.2374761742927915 0 0.20985961168323311 -0.2490184574159747 0 0.19081616355639519 -0.24419859925070769 0 0.20985961168323311 -0.2490184574159747 0 0.2014118104030489 -0.2374437387456671 0 0.19081616355639519 -0.24419859925070769 0 0.19297233921846449 -0.25146761223444442 0 0.20985961168323311 -0.2490184574159747 0 0.19081616355639519 -0.24419859925070769 0 0.19297233921846449 -0.25146761223444442 0 0.18467051763053249 -0.2374761742927915 0 0.19297233921846449 -0.25146761223444442 0 0.19081616355639519 -0.24419859925070769 0 0.18467051763053249 -0.2374761742927915 0 0.2062645309470599 -0.18126512674395739 0 0.21565687884961571 -0.20092621836872229 0 0.19576658416704859 -0.20361749639416821 0 0.2062645309470599 -0.18126512674395739 0 0.22715682575706439 -0.19094048359261781 0 0.21565687884961571 -0.20092621836872229 0 0.21565687884961571 -0.20092621836872229 0 0.2063490019897162 -0.2108785900622199 0 0.19576658416704859 -0.20361749639416821 0 0.2193943116050408 -0.21514999484508349 0 0.21565687884961571 -0.20092621836872229 0 0.2063490019897162 -0.2108785900622199 0 0.2193943116050408 -0.21514999484508349 0 0.2020324146177874 -0.2263130845689387 0 0.2063490019897162 -0.2108785900622199 0 0.2063490019897162 -0.2108785900622199 0 0.19576658416704859 -0.20361749639416821 0 0.18811592129770729 -0.21586215725644309 0 0.2020324146177874 -0.2263130845689387 0 0.2063490019897162 -0.2108785900622199 0 0.18811592129770729 -0.21586215725644309 0 0.2062645309470599 -0.18126512674395739 0 0.19576658416704859 -0.20361749639416821 0 0.19576658416704859 -0.20361749639416821 0 0.175148622520511 -0.19022767668913099 0 0.18528014439631041 -0.1774817553044829 0 0.19576658416704859 -0.20361749639416821 0 0.175148622520511 -0.19022767668913099 0 0.17853943252823429 -0.2065286040013978 0 0.175148622520511 -0.19022767668913099 0 0.17853943252823429 -0.2065286040013978 0 0.16406522818653169 -0.20471854366034981 0 0.19576658416704859 -0.20361749639416821 0 0.18811592129770729 -0.21586215725644309 0 0.17853943252823429 -0.2065286040013978 0 0.18811592129770729 -0.21586215725644309 0 0.17853943252823429 -0.2065286040013978 0 0.16960080646937309 -0.21821714600689679 0 0.16406522818653169 -0.20471854366034981 0 0.16960080646937309 -0.21821714600689679 0 0.15229928748587351 -0.2177902590330329 0 0.17853943252823429 -0.2065286040013978 0 0.16406522818653169 -0.20471854366034981 0 0.16960080646937309 -0.21821714600689679 0 0.16406522818653169 -0.20471854366034981 0 0.15799628471765989 -0.18822004437229181 0 0.14934663811489871 -0.20383607615857169 0 0.175148622520511 -0.19022767668913099 0 0.16406522818653169 -0.20471854366034981 0 0.15799628471765989 -0.18822004437229181 0 0.159817065212118 -0.25345607093070283 0 0.18467051763053249 -0.2374761742927915 0 0.17149047278568741 -0.23263463898222711 0 0.159817065212118 -0.25345607093070283 0 0.18467051763053249 -0.2374761742927915 0 0.18467051763053249 -0.2374761742927915 0 0.18100970695791729 -0.23130644337295461 0 0.18811592129770729 -0.21586215725644309 0 0.16960080646937309 -0.21821714600689679 0 0.1782949400100273 -0.2243200502477363 0 0.18100970695791729 -0.23130644337295461 0 0.1782949400100273 -0.2243200502477363 0 0.17149047278568741 -0.23263463898222711 0 0.18467051763053249 -0.2374761742927915 0 0.18100970695791729 -0.23130644337295461 0 0.17149047278568741 -0.23263463898222711 0 0.18467051763053249 -0.2374761742927915 0 0.18100970695791729 -0.23130644337295461 0 0.18621006613144411 -0.22581003085224871 0 0.18100970695791729 -0.23130644337295461 0 0.18621006613144411 -0.22581003085224871 0 0.1782949400100273 -0.2243200502477363 0 0.18811592129770729 -0.21586215725644309 0 0.18621006613144411 -0.22581003085224871 0 0.1782949400100273 -0.2243200502477363 0 0.16960080646937309 -0.21821714600689679 0 0.1782949400100273 -0.2243200502477363 0 0.17149047278568741 -0.23263463898222711 0 0.16960080646937309 -0.21821714600689679 0 0.1564481399907868 -0.23122626491191309 0 0.15229928748587351 -0.2177902590330329 0 0.16960080646937309 -0.21821714600689679 0 0.1564481399907868 -0.23122626491191309 0 0.17149047278568741 -0.23263463898222711 0 0.159817065212118 -0.25345607093070283 0 0.1564481399907868 -0.23122626491191309 0 0.17149047278568741 -0.23263463898222711 0 0.159817065212118 -0.25345607093070283 0 0.14411865207274691 -0.2393718703044817 0 0.13731392064016351 -0.25181983948864062 0 0.159817065212118 -0.25345607093070283 0 0.14411865207274691 -0.2393718703044817 0 0.159817065212118 -0.25345607093070283 0 0.1564481399907868 -0.23122626491191309 0 0.14411865207274691 -0.2393718703044817 0 0.1564481399907868 -0.23122626491191309 0 0.14411865207274691 -0.2393718703044817 0 0.14356767552719141 -0.22598087561339611 0 0.1564481399907868 -0.23122626491191309 0 0.14356767552719141 -0.22598087561339611 0 0.15229928748587351 -0.2177902590330329 0 0.14356767552719141 -0.22598087561339611 0 0.15229928748587351 -0.2177902590330329 0 0.14161551630797459 -0.2151761620724606 0 0.14411865207274691 -0.2393718703044817 0 0.1284202389333762 -0.22528766967826011 0 0.1240225730844019 -0.24156982424738241 0 0.1284202389333762 -0.22528766967826011 0 0.14411865207274691 -0.2393718703044817 0 0.14356767552719141 -0.22598087561339611 0 0.1284202389333762 -0.22528766967826011 0 0.14356767552719141 -0.22598087561339611 0 0.1284202389333762 -0.22528766967826011 0 0.14161551630797459 -0.2151761620724606 0 0.1256140553719472 -0.22277003608547161 0 0.1284202389333762 -0.22528766967826011 0 0.12651812071581231 -0.2113111158799072 0 0.1256140553719472 -0.22277003608547161 0 0.1284202389333762 -0.22528766967826011 0 0.1240225730844019 -0.24156982424738241 0 0.14411865207274691 -0.2393718703044817 0 0.1284202389333762 -0.22528766967826011 0 0.13731392064016351 -0.25181983948864062 0 0.1240225730844019 -0.24156982424738241 0 0.14411865207274691 -0.2393718703044817 0 0.14934663811489871 -0.20383607615857169 0 0.13444374147853319 -0.2029859298790419 0 0.14046724402368979 -0.18068419007982359 0 0.15799628471765989 -0.18822004437229181 0 0.14934663811489871 -0.20383607615857169 0 0.14046724402368979 -0.18068419007982359 0 0.16406522818653169 -0.20471854366034981 0 0.14934663811489871 -0.20383607615857169 0 0.15229928748587351 -0.2177902590330329 0 0.14934663811489871 -0.20383607615857169 0 0.15229928748587351 -0.2177902590330329 0 0.14161551630797459 -0.2151761620724606 0 0.14934663811489871 -0.20383607615857169 0 0.14161551630797459 -0.2151761620724606 0 0.13444374147853319 -0.2029859298790419 0 0.1284202389333762 -0.22528766967826011 0 0.14161551630797459 -0.2151761620724606 0 0.13444374147853319 -0.2029859298790419 0 0.1154810579546022 -0.20083619657384161 0 0.12651812071581231 -0.2113111158799072 0 0.13444374147853319 -0.2029859298790419 0 0.1284202389333762 -0.22528766967826011 0 0.12651812071581231 -0.2113111158799072 0 0.13444374147853319 -0.2029859298790419 0 0.1284202389333762 -0.22528766967826011 0 0.13444374147853319 -0.2029859298790419 0 0.13444374147853319 -0.2029859298790419 0 0.14046724402368979 -0.18068419007982359 0 0.128432065000397 -0.19005262783806029 0 0.13444374147853319 -0.2029859298790419 0 0.14046724402368979 -0.18068419007982359 0 0.1154810579546022 -0.20083619657384161 0 0.128432065000397 -0.19005262783806029 0 0.13444374147853319 -0.2029859298790419 0 0.12333621654476271 -0.17570419481953409 0 0.128432065000397 -0.19005262783806029 0 0.14046724402368979 -0.18068419007982359 0 0.12333621654476271 -0.17570419481953409 0 0.14046724402368979 -0.18068419007982359 0 0.1353713955680555 -0.16633575706129741 0 0.15799628471765989 -0.18822004437229181 0 0.14046724402368979 -0.18068419007982359 0 0.15498178854089281 -0.17305758192984569 0 0.14046724402368979 -0.18068419007982359 0 0.1464907465688465 -0.1583824502806053 0 0.14046724402368979 -0.18068419007982359 0 0.1464907465688465 -0.1583824502806053 0 0.1353713955680555 -0.16633575706129741 0 0.14046724402368979 -0.18068419007982359 0 0.15498178854089281 -0.17305758192984569 0 0.1464907465688465 -0.1583824502806053 0 0.12333621654476271 -0.17570419481953409 0 0.1311913751349231 -0.15057219306522671 0 0.1464907465688465 -0.1583824502806053 0 0.1353713955680555 -0.16633575706129741 0 0.1311913751349231 -0.15057219306522671 0 0.12333621654476271 -0.17570419481953409 0 0.1353713955680555 -0.16633575706129741 0 0.1311913751349231 -0.15057219306522671 0 0.12065364634618821 -0.1315602422156881 0 0.1311913751349231 -0.15057219306522671 0 0.13904653372508349 -0.1254401913109193 0 0.1311913751349231 -0.15057219306522671 0 0.13904653372508349 -0.1254401913109193 0 0.12065364634618821 -0.1315602422156881 0 0.12514826998312581 -0.1212353398206515 0 0.13904653372508349 -0.1254401913109193 0 0.1311913751349231 -0.15057219306522671 0 0.13904653372508349 -0.1254401913109193 0 0.15251424911400319 -0.1360807104813869 0 0.16097773107399729 -0.1169040034365532 0 0.13904653372508349 -0.1254401913109193 0 0.15251424911400319 -0.1360807104813869 0 0.1464907465688465 -0.1583824502806053 0 0.1311913751349231 -0.15057219306522671 0 0.15251424911400319 -0.1360807104813869 0 0.1464907465688465 -0.1583824502806053 0 0.15251424911400319 -0.1360807104813869 0 0.1464907465688465 -0.1583824502806053 0 0.15251424911400319 -0.1360807104813869 0 0.16071667477244761 -0.1505859707774341 0 0.16071667477244761 -0.1505859707774341 0 0.17348010395242161 -0.14584640039004601 0 0.16953418401167 -0.16258068962408459 0 0.15251424911400319 -0.1360807104813869 0 0.16071667477244761 -0.1505859707774341 0 0.17348010395242161 -0.14584640039004601 0 0.16097773107399729 -0.1169040034365532 0 0.15251424911400319 -0.1360807104813869 0 0.17863980177531821 -0.13107823074583561 0 0.15251424911400319 -0.1360807104813869 0 0.17863980177531821 -0.13107823074583561 0 0.17348010395242161 -0.14584640039004601 0 0.18093937420521239 -0.15487606567155851 0 0.17348010395242161 -0.14584640039004601 0 0.16953418401167 -0.16258068962408459 0 0.1898534820430145 -0.14735127780817389 0 0.17863980177531821 -0.13107823074583561 0 0.17348010395242161 -0.14584640039004601 0 0.1898534820430145 -0.14735127780817389 0 0.18093937420521239 -0.15487606567155851 0 0.17348010395242161 -0.14584640039004601 0 0.1898534820430145 -0.14735127780817389 0 0.1884664881431071 -0.16334013461446689 0 0.18093937420521239 -0.15487606567155851 0 0.1884664881431071 -0.16334013461446689 0 0.18093937420521239 -0.15487606567155851 0 0.16953418401167 -0.16258068962408459 0 0.1884664881431071 -0.16334013461446689 0 0.18528014439631041 -0.1774817553044829 0 0.16953418401167 -0.16258068962408459 0 0.18528014439631041 -0.1774817553044829 0 0.16751589045627319 -0.17817186013963429 0 0.16953418401167 -0.16258068962408459 0 0.175148622520511 -0.19022767668913099 0 0.18528014439631041 -0.1774817553044829 0 0.16751589045627319 -0.17817186013963429 0 0.175148622520511 -0.19022767668913099 0 0.15799628471765989 -0.18822004437229181 0 0.16751589045627319 -0.17817186013963429 0 0.15799628471765989 -0.18822004437229181 0 0.15498178854089281 -0.17305758192984569 0 0.16751589045627319 -0.17817186013963429 0 0.15498178854089281 -0.17305758192984569 0 0.1464907465688465 -0.1583824502806053 0 0.16953418401167 -0.16258068962408459 0 0.15498178854089281 -0.17305758192984569 0 0.16751589045627319 -0.17817186013963429 0 0.16953418401167 -0.16258068962408459 0 0.1464907465688465 -0.1583824502806053 0 0.16071667477244761 -0.1505859707774341 0 0.16953418401167 -0.16258068962408459 0 
</DataArray>
</Points>
<Cells>
<DataArray type="UInt32" Name="connectivity" format="ascii">
0 1 2 3 4 5 6 7 8 9 10 11 12 13 14 15 16 17 18 19 20 21 22 23 24 25 26 27 28 29 30 31 32 33 34 35 36 37 38 39 40 41 42 43 44 45 46 47 48 49 50 51 52 53 54 55 56 57 58 59 60 61 62 63 64 65 66 67 68 69 70 71 72 73 74 75 76 77 78 79 80 81 82 83 84 85 86 87 88 89 90 91 92 93 94 95 96 97 98 99 100 101 102 103 104 105 106 107 108 109 110 111 112 113 114 115 116 117 118 119 120 121 122 123 124 125 126 127 128 129 130 131 132 133 134 135 136 137 138 139 140 141 142 143 144 145 146 147 148 149 150 151 152 153 154 155 156 157 158 159 160 161 162 163 164 165 166 167 168 169 170 171 172 173 174 175 176 177 178 179 180 181 182 183 184 185 186 187 188 189 190 191 192 193 194 195 196 197 198 199 200 201 202 203 204 205 206 207 208 209 210 211 212 213 214 215 216 217 218 219 220 221 222 223 224 225 226 227 228 229 230 231 232 233 234 235 236 237 238 239 240 241 242 243 244 245 246 247 248 249 250 251 252 253 254 255 256 257 258 259 260 261 262 263 264 265 266 267 268 269 270 271 272 273 274 275 276 277 278 279 280 281 282 283 284 285 286 287 288 289 290 291 292 293 294 295 296 297 298 299 300 301 302 303 304 305 306 307 308 309 310 311 312 313 314 315 316 317 318 319 320 321 322 323 324 325 326 327 328 329 330 331 332 333 334 335 336 337 338 339 340 341 342 343 344 345 346 347 348 349 350 351 352 353 354 355 356 357 358 359 360 361 362 363 364 365 366 367 368 369 370 371 372 373 374 375 376 377 378 379 380 381 382 383 384 385 386 387 388 389 390 391 392 393 394 395 396 397 398 399 400 401 402 403 404 405 406 407 408 409 410 411 412 413 414 415 416 417 418 419 420 421 422 423 424 425 426 427 428 429 430 431 432 433 434 435 436 437 438 439 440 441 442 443 444 445 446 447 448 449 450 451 452 453 454 455 456 457 458 459 460 461 462 463 464 465 466 467 468 469 470 471 472 473 474 475 476 477 478 479 480 481 482 483 484 485 486 487 488 489 490 491 492 493 494 495 496 497 498 499 500 501 502 503 504 505 506 507 508 509 510 511 512 513 514 515 516 517 518 519 520 521 522 523 524 525 526 527 528 529 530 531 532 533 534 535 536 537 538 539 540 541 542 543 544 545 546 547 548 549 550 551 552 553 554 555 556 557 558 559 560 561 562 563 564 565 566 567 568 569 570 571 572 573 574 575 576 577 578 579 580 581 582 583 584 585 586 587 588 589 590 591 592 593 594 595 596 597 598 599 600 601 602 603 604 605 606 607 608 609 610 611 612 613 614 615 616 617 618 619 620 621 622 623 624 625 626 627 628 629 630 631 632 633 634 635 636 637 638 639 640 641 642 643 644 645 646 647 648 649 650 651 652 653 654 655 656 657 658 659 660 661 662 663 664 665 666 667 668 669 670 671 672 673 674 675 676 677 678 679 680 681 682 683 684 685 686 687 688 689 690 691 692 693 694 695 696 697 698 699 700 701 702 703 704 705 706 707 708 709 710 711 712 713 714 715 716 717 718 719 720 721 722 723 724 725 726 727 728 729 730 731 732 733 734 735 736 737 738 739 740 741 742 743 744 745 746 747 748 749 750 751 752 753 754 755 756 757 758 759 760 761 762 763 764 765 766 767 768 769 770 771 772 773 774 775 776 777 778 779 780 781 782 783 784 785 786 787 788 789 790 791 792 793 794 795 796 797 798 799 800 801 802 803 804 805 806 807 808 809 810 811 812 813 814 815 816 817 818 819 820 821 822 823 824 825 826 827 828 829 830 831 832 833 834 835 836 837 838 839 840 841 842 843 844 845 846 847 848 849 850 851 852 853 854 855 856 857 858 859 860 861 862 863 864 865 866 867 868 869 870 871 872 873 874 875 876 877 878 879 880 881 882 883 884 885 886 887 888 889 890 891 892 893 894 895 896 897 898 899 900 901 902 903 904 905 906 907 908 909 910 911 912 913 914 915 916 917 918 919 920 921 922 923 924 925 926 927 928 929 930 931 932 933 934 935 936 937 938 939 940 941 942 943 944 945 946 947 948 949 950 951 952 953 954 955 956 957 958 959 960 961 962 963 964 965 966 967 968 969 970 971 972 973 974 975 976 977 978 979 980 981 982 983 984 985 986 987 988 989 990 991 992 993 994 995 996 997 998 999 1000 1001 1002 1003 1004 1005 1006 1007 1008 1009 1010 1011 1012 1013 1014 1015 1016 1017 1018 1019 1020 1021 1022 1023 1024 1025 1026 1027 1028 1029 1030 1031 1032 1033 1034 1035 1036 1037 1038 1039 1040 1041 1042 1043 1044 1045 1046 1047 1048 1049 1050 1051 1052 1053 1054 1055 1056 1057 1058 1059 1060 1061 1062 1063 1064 1065 1066 1067 1068 1069 1070 1071 1072 1073 1074 1075 1076 1077 1078 1079 1080 1081 1082 1083 1084 1085 1086 1087 1088 1089 1090 1091 1092 1093 1094 1095 1096 1097 1098 1099 1100 1101 1102 1103 1104 1105 1106 1107 1108 1109 1110 1111 1112 1113 1114 1115 1116 1117 1118 1119 1120 1121 1122 1123 1124 1125 1126 1127 1128 1129 1130 1131 1132 1133 1134 1135 1136 1137 1138 1139 1140 1141 1142 1143 1144 1145 1146 1147 1148 1149 1150 1151 1152 1153 1154 1155 1156 1157 1158 1159 1160 1161 1162 1163 1164 1165 1166 1167 1168 1169 1170 1171 1172 1173 1174 1175 1176 1177 1178 1179 1180 1181 1182 1183 1184 1185 1186 1187 1188 1189 1190 1191 1192 1193 1194 1195 1196 1197 1198 1199 1200 1201 1202 1203 1204 1205 1206 1207 1208 1209 1210 1211 1212 1213 1214 1215 1216 1217 1218 1219 1220 1221 1222 1223 1224 1225 1226 1227 1228 1229 1230 1231 1232 1233 1234 1235 1236 1237 1238 1239 1240 1241 1242 1243 1244 1245 1246 1247 1248 1249 1250 1251 1252 1253 1254 1255 1256 1257 1258 1259 1260 1261 1262 1263 1264 1265 1266 1267 1268 1269 1270 1271 1272 1273 1274 1275 1276 1277 1278 1279 1280 1281 1282 1283 1284 1285 1286 1287 1288 1289 1290 1291 1292 1293 1294 1295 1296 1297 1298 1299 1300 1301 1302 1303 1304 1305 1306 1307 1308 1309 1310 1311 1312 1313 1314 1315 1316 1317 1318 1319 1320 1321 1322 1323 1324 1325 1326 1327 1328 1329 1330 1331 1332 1333 1334 1335 1336 1337 1338 1339 1340 1341 1342 1343 1344 1345 1346 1347 1348 1349 1350 1351 1352 1353 1354 1355 1356 1357 1358 1359 1360 1361 1362 1363 1364 1365 1366 1367 1368 1369 1370 1371 1372 1373 1374 1375 1376 1377 1378 1379 1380 1381 1382 1383 1384 1385 1386 1387 1388 1389 1390 1391 1392 1393 1394 1395 1396 1397 1398 1399 1400 1401 1402 1403 1404 1405 1406 1407 1408 1409 1410 1411 1412 1413 1414 1415 1416 1417 1418 1419 1420 1421 1422 1423 1424 1425 1426 1427 1428 1429 1430 1431 1432 1433 1434 1435 1436 1437 1438 1439 1440 1441 1442 1443 1444 1445 1446 1447 1448 1449 1450 1451 1452 1453 1454 1455 1456 1457 1458 1459 1460 1461 1462 1463 1464 1465 1466 1467 1468 1469 1470 1471 1472 1473 1474 1475 1476 1477 1478 1479 1480 1481 1482 1483 1484 1485 1486 1487 1488 1489 1490 1491 1492 1493 1494 1495 1496 1497 1498 1499 1500 1501 1502 1503 1504 1505 1506 1507 1508 1509 1510 1511 1512 1513 1514 1515 1516 1517 1518 1519 1520 1521 1522 1523 1524 1525 1526 1527 1528 1529 1530 1531 1532 1533 1534 1535 1536 1537 1538 1539 1540 1541 1542 1543 1544 1545 1546 1547 1548 1549 1550 1551 1552 1553 1554 1555 1556 1557 1558 1559 1560 1561 1562 1563 1564 1565 1566 1567 1568 1569 1570 1571 1572 1573 1574 1575 1576 1577 1578 1579 1580 1581 1582 1583 1584 1585 1586 1587 1588 1589 1590 1591 1592 1593 1594 1595 1596 1597 1598 1599 1600 1601 1602 1603 1604 1605 1606 1607 1608 1609 1610 1611 1612 1613 1614 1615 1616 1617 1618 1619 1620 1621 1622 1623 1624 1625 1626 1627 1628 1629 1630 1631 1632 1633 1634 1635 1636 1637 1638 1639 1640 1641 1642 1643 1644 1645 1646 1647 1648 1649 1650 1651 1652 1653 1654 1655 1656 1657 1658 1659 1660 1661 1662 1663 1664 1665 1666 1667 1668 1669 1670 1671 1672 1673 1674 1675 1676 1677 1678 1679 1680 1681 1682 1683 1684 1685 1686 1687 1688 1689 1690 1691 1692 1693 1694 1695 1696 1697 1698 1699 1700 1701 1702 1703 1704 1705 1706 1707 1708 1709 1710 1711 1712 1713 1714 1715 1716 1717 1718 1719 1720 1721 1722 1723 1724 1725 1726 1727 1728 1729 1730 1731 1732 1733 1734 1735 1736 1737 1738 1739 1740 1741 1742 1743 1744 1745 1746 1747 1748 1749 1750 1751 1752 1753 1754 1755 1756 1757 1758 1759 1760 1761 1762 1763 1764 1765 1766 1767 1768 1769 1770 1771 1772 1773 1774 1775 1776 1777 1778 1779 1780 1781 1782 1783 1784 1785 1786 1787 1788 1789 1790 1791 1792 1793 1794 1795 1796 1797 1798 1799 1800 1801 1802 1803 1804 1805 1806 1807 1808 1809 1810 1811 1812 1813 1814 1815 1816 1817 1818 1819 1820 1821 1822 1823 1824 1825 1826 1827 1828 1829 1830 1831 1832 1833 1834 1835 1836 1837 1838 1839 1840 1841 1842 1843 1844 1845 1846 1847 1848 1849 1850 1851 1852 1853 1854 1855 1856 1857 1858 1859 1860 1861 1862 1863 1864 1865 1866 1867 1868 1869 1870 1871 1872 1873 1874 1875 1876 1877 1878 1879 1880 1881 1882 1883 1884 1885 1886 1887 1888 1889 1890 1891 1892 1893 1894 1895 1896 1897 1898 1899 1900 1901 1902 1903 1904 1905 1906 1907 1908 1909 1910 1911 1912 1913 1914 1915 1916 1917 1918 1919 1920 1921 1922 1923 1924 1925 1926 1927 1928 1929 1930 1931 1932 1933 1934 1935 1936 1937 1938 1939 1940 1941 1942 1943 1944 1945 1946 1947 1948 1949 1950 1951 1952 1953 1954 1955 1956 1957 1958 1959 1960 1961 1962 1963 1964 1965 1966 1967 1968 1969 1970 1971 1972 1973 1974 1975 1976 1977 1978 1979 1980 1981 1982 1983 1984 1985 1986 1987 1988 1989 1990 1991 1992 1993 1994 1995 1996 1997 1998 1999 2000 2001 2002 2003 2004 2005 2006 2007 2008 2009 2010 2011 2012 2013 2014 2015 2016 2017 2018 2019 2020 2021 2022 2023 2024 2025 2026 2027 2028 2029 2030 2031 2032 2033 2034 2035 2036 2037 2038 2039 2040 2041 2042 2043 2044 2045 2046 2047 2048 2049 2050 2051 2052 2053 2054 2055 2056 2057 2058 2059 2060 2061 2062 2063 2064 2065 2066 2067 2068 2069 2070 2071 2072 2073 2074 2075 2076 2077 2078 2079 2080 2081 2082 2083 2084 2085 2086 2087 2088 2089 2090 2091 2092 2093 2094 2095 2096 2097 2098 2099 2100 2101 2102 2103 2104 2105 2106 2107 2108 2109 2110 2111 2112 2113 2114 2115 2116 2117 2118 2119 2120 2121 2122 2123 2124 2125 2126 2127 2128 2129 2130 2131 2132 2133 2134 2135 2136 2137 2138 2139 2140 2141 2142 2143 2144 2145 2146 2147 2148 2149 2150 2151 2152 2153 2154 2155 2156 2157 2158 2159 2160 2161 2162 2163 2164 2165 2166 2167 2168 2169 2170 2171 2172 2173 2174 2175 2176 2177 2178 2179 2180 2181 2182 2183 2184 2185 2186 2187 2188 2189 2190 2191 2192 2193 2194 2195 2196 2197 2198 2199 2200 2201 2202 2203 2204 2205 2206 2207 2208 2209 2210 2211 2212 2213 2214 2215 2216 2217 2218 2219 2220 2221 2222 2223 2224 2225 2226 2227 2228 2229 2230 2231 2232 2233 2234 2235 2236 2237 2238 2239 2240 2241 2242 2243 2244 2245 2246 2247 2248 2249 2250 2251 2252 2253 2254 2255 2256 2257 2258 2259 2260 2261 2262 2263 2264 2265 2266 2267 2268 2269 2270 2271 2272 2273 2274 2275 2276 2277 2278 2279 2280 2281 2282 2283 2284 2285 2286 2287 2288 2289 2290 2291 2292 2293 2294 2295 2296 2297 2298 2299 2300 2301 2302 2303 2304 2305 2306 2307 2308 2309 2310 2311 2312 2313 2314 2315 2316 2317 2318 2319 2320 2321 2322 2323 2324 2325 2326 2327 2328 2329 2330 2331 2332 2333 2334 2335 2336 2337 2338 2339 2340 2341 2342 2343 2344 2345 2346 2347 2348 2349 2350 2351 2352 2353 2354 2355 2356 2357 2358 2359 2360 2361 2362 2363 2364 2365 2366 2367 2368 2369 2370 2371 2372 2373 2374 2375 2376 2377 2378 2379 2380 2381 2382 2383 2384 2385 2386 2387 2388 2389 2390 2391 2392 2393 2394 2395 2396 2397 2398 2399 2400 2401 2402 2403 2404 2405 2406 2407 2408 2409 2410 2411 2412 2413 2414 2415 2416 2417 2418 2419 2420 2421 2422 2423 2424 2425 2426 2427 2428 2429 2430 2431 2432 2433 2434 2435 2436 2437 2438 2439 2440 2441 2442 2443 2444 2445 2446 2447 2448 2449 2450 2451 2452 2453 2454 2455 2456 2457 2458 2459 2460 2461 2462 2463 2464 2465 2466 2467 2468 2469 2470 2471 2472 2473 2474 2475 2476 2477 2478 2479 2480 2481 2482 2483 2484 2485 2486 2487 2488 2489 2490 2491 2492 2493 2494 2495 2496 2497 2498 2499 2500 2501 2502 2503 2504 2505 2506 2507 2508 2509 2510 2511 2512 2513 2514 2515 2516 2517 2518 2519 2520 2521 2522 2523 2524 2525 2526 2527 2528 2529 2530 2531 2532 2533 2534 2535 2536 2537 2538 2539 2540 2541 2542 2543 2544 2545 2546 2547 2548 2549 2550 2551 2552 2553 2554 2555 2556 2557 2558 2559 2560 2561 2562 2563 2564 2565 2566 2567 2568 2569 2570 2571 2572 2573 2574 2575 2576 2577 2578 2579 2580 2581 2582 2583 2584 2585 2586 2587 2588 2589 2590 2591 2592 2593 2594 2595 2596 2597 2598 2599 2600 2601 2602 2603 2604 2605 2606 2607 2608 2609 2610 2611 2612 2613 2614 2615 2616 2617 2618 2619 2620 2621 2622 2623 2624 2625 2626 2627 2628 2629 2630 2631 2632 2633 2634 2635 2636 2637 2638 2639 2640 2641 2642 2643 2644 2645 2646 2647 2648 2649 2650 2651 2652 2653 2654 2655 2656 2657 2658 2659 2660 2661 2662 2663 2664 2665 2666 2667 2668 2669 2670 2671 2672 2673 2674 2675 2676 2677 2678 2679 2680 2681 2682 2683 2684 2685 2686 2687 2688 2689 2690 2691 2692 2693 2694 2695 2696 2697 2698 2699 2700 2701 2702 2703 2704 2705 2706 2707 2708 2709 2710 2711 2712 2713 2714 2715 2716 2717 2718 2719 2720 2721 2722 2723 2724 2725 2726 2727 2728 2729 2730 2731 2732 2733 2734 2735 2736 2737 2738 2739 2740 2741 2742 2743 2744 2745 2746 2747 2748 2749 2750 2751 2752 2753 2754 2755 2756 2757 2758 2759 2760 2761 2762 2763 2764 2765 2766 2767 2768 2769 2770 2771 2772 2773 2774 2775 2776 2777 2778 2779 2780 2781 2782 2783 2784 2785 2786 2787 2788 2789 2790 2791 2792 2793 2794 2795 2796 2797 2798 2799 2800 2801 2802 2803 2804 2805 2806 2807 2808 2809 2810 2811 2812 2813 2814 2815 2816 2817 2818 2819 2820 2821 2822 2823 2824 2825 2826 2827 2828 2829 2830 2831 2832 2833 2834 2835 2836 2837 2838 2839 2840 2841 2842 2843 2844 2845 2846 2847 2848 2849 2850 2851 2852 2853 2854 2855 2856 2857 2858 2859 2860 2861 2862 2863 2864 2865 2866 2867 2868 2869 2870 2871 2872 2873 2874 2875 2876 2877 2878 2879 2880 2881 2882 2883 2884 2885 2886 2887 2888 2889 2890 2891 2892 2893 2894 2895 2896 2897 2898 2899 2900 2901 2902 2903 2904 2905 2906 2907 2908 2909 2910 2911 2912 2913 2914 2915 2916 2917 2918 2919 2920 2921 2922 2923 2924 2925 2926 2927 2928 2929 2930 2931 2932 2933 2934 2935 2936 2937 2938 2939 2940 2941 2942 2943 2944 2945 2946 2947 2948 2949 2950 2951 2952 2953 2954 2955 2956 2957 2958 2959 2960 2961 2962 2963 2964 2965 2966 2967 2968 2969 2970 2971 2972 2973 2974 2975 2976 2977 2978 2979 2980 2981 2982 2983 2984 2985 2986 2987 2988 2989 2990 2991 2992 2993 2994 2995 2996 2997 2998 2999 3000 3001 3002 3003 3004 3005 3006 3007 3008 3009 3010 3011 3012 3013 3014 3015 3016 3017 3018 3019 3020 3021 3022 3023 3024 3025 3026 3027 3028 3029 3030 3031 3032 3033 3034 3035 3036 3037 3038 3039 3040 3041 3042 3043 3044 3045 3046 3047 3048 3049 3050 3051 3052 3053 3054 3055 3056 3057 3058 3059 3060 3061 3062 3063 3064 3065 3066 3067 3068 3069 3070 3071 3072 3073 3074 3075 3076 3077 3078 3079 3080 3081 3082 3083 3084 3085 3086 3087 3088 3089 3090 3091 3092 3093 3094 3095 3096 3097 3098 3099 3100 3101 3102 3103 3104 3105 3106 3107 3108 3109 3110 3111 3112 3113 3114 3115 3116 3117 3118 3119 3120 3121 3122 3123 3124 3125 3126 3127 3128 3129 3130 3131 3132 3133 3134 3135 3136 3137 3138 3139 3140 3141 3142 3143 3144 3145 3146 3147 3148 3149 3150 3151 3152 3153 3154 3155 3156 3157 3158 3159 3160 3161 3162 3163 3164 3165 3166 3167 3168 3169 3170 3171 3172 3173 3174 3175 3176 3177 3178 3179 3180 3181 3182 3183 3184 3185 3186 3187 3188 3189 3190 3191 3192 3193 3194 3195 3196 3197 3198 3199 3200 3201 3202 3203 3204 3205 3206 3207 3208 3209 3210 3211 3212 3213 3214 3215 3216 3217 3218 3219 3220 3221 3222 3223 3224 3225 3226 3227 3228 3229 3230 3231 3232 3233 3234 3235 3236 3237 3238 3239 3240 3241 3242 3243 3244 3245 3246 3247 3248 3249 3250 3251 3252 3253 3254 3255 3256 3257 3258 3259 3260 3261 3262 3263 3264 3265 3266 3267 3268 3269 3270 3271 3272 3273 3274 3275 3276 3277 3278 3279 3280 3281 3282 3283 3284 3285 3286 3287 3288 3289 3290 3291 3292 3293 3294 3295 3296 3297 3298 3299 3300 3301 3302 3303 3304 3305 3306 3307 3308 3309 3310 3311 3312 3313 3314 3315 3316 3317 3318 3319 3320 3321 3322 3323 3324 3325 3326 3327 3328 3329 3330 3331 3332 3333 3334 3335 3336 3337 3338 3339 3340 3341 3342 3343 3344 3345 3346 3347 3348 3349 3350 3351 3352 3353 3354 3355 3356 3357 3358 3359 3360 3361 3362 3363 3364 3365 3366 3367 3368 3369 3370 3371 3372 3373 3374 3375 3376 3377 3378 3379 3380 3381 3382 3383 3384 3385 3386 3387 3388 3389 3390 3391 3392 3393 3394 3395 3396 3397 3398 3399 3400 3401 3402 3403 3404 3405 3406 3407 3408 3409 3410 3411 3412 3413 3414 3415 3416 3417 3418 3419 3420 3421 3422 3423 3424 3425 3426 3427 3428 3429 3430 3431 3432 3433 3434 3435 3436 3437 3438 3439 3440 3441 3442 3443 3444 3445 3446 3447 3448 3449 3450 3451 3452 3453 3454 3455 3456 3457 3458 3459 3460 3461 3462 3463 3464 3465 3466 3467 3468 3469 3470 3471 3472 3473 3474 3475 3476 3477 3478 3479 3480 3481 3482 3483 3484 3485 3486 3487 3488 3489 3490 3491 3492 3493 3494 3495 3496 3497 3498 3499 3500 3501 3502 3503 3504 3505 3506 3507 3508 3509 3510 3511 3512 3513 3514 3515 3516 3517 3518 3519 3520 3521 3522 3523 3524 3525 3526 3527 3528 3529 3530 3531 3532 3533 3534 3535 3536 3537 3538 3539 3540 3541 3542 3543 3544 3545 3546 3547 3548 3549 3550 3551 3552 3553 3554 3555 3556 3557 3558 3559 3560 3561 3562 3563 3564 3565 3566 3567 3568 3569 3570 3571 3572 3573 3574 3575 3576 3577 3578 3579 3580 3581 3582 3583 3584 3585 3586 3587 3588 3589 3590 3591 3592 3593 3594 3595 3596 3597 3598 3599 3600 3601 3602 3603 3604 3605 3606 3607 3608 3609 3610 3611 3612 3613 3614 3615 3616 3617 3618 3619 3620 3621 3622 3623 3624 3625 3626 3627 3628 3629 3630 3631 3632 3633 3634 3635 3636 3637 3638 3639 3640 3641 3642 3643 3644 3645 3646 3647 3648 3649 3650 3651 3652 3653 3654 3655 3656 3657 3658 3659 3660 3661 3662 3663 3664 3665 3666 3667 3668 3669 3670 3671 3672 3673 3674 3675 3676 3677 3678 3679 3680 3681 3682 3683 3684 3685 3686 3687 3688 3689 3690 3691 3692 3693 3694 3695 3696 3697 3698 3699 3700 3701 3702 3703 3704 3705 3706 3707 3708 3709 3710 3711 3712 3713 3714 3715 3716 3717 3718 3719 3720 3721 3722 3723 3724 3725 3726 3727 3728 3729 3730 3731 3732 3733 3734 3735 3736 3737 3738 3739 3740 3741 3742 3743 3744 3745 3746 3747 3748 3749 3750 3751 3752 3753 3754 3755 3756 3757 3758 3759 3760 3761 3762 3763 3764 3765 3766 3767 3768 3769 3770 3771 3772 3773 3774 3775 3776 3777 3778 3779 3780 3781 3782 3783 3784 3785 3786 3787 3788 3789 3790 3791 3792 3793 3794 3795 3796 3797 3798 3799 3800 3801 3802 3803 3804 3805 3806 3807 3808 3809 3810 3811 3812 3813 3814 3815 3816 3817 3818 3819 3820 3821 3822 3823 3824 3825 3826 3827 3828 3829 3830 3831 3832 3833 3834 3835 3836 3837 3838 3839 3840 3841 3842 3843 3844 3845 3846 3847 3848 3849 3850 3851 3852 3853 3854 3855 3856 3857 3858 3859 3860 3861 3862 3863 3864 3865 3866 3867 3868 3869 3870 3871 3872 3873 3874 3875 3876 3877 3878 3879 3880 3881 3882 3883 3884 3885 3886 3887 3888 3889 3890 3891 3892 3893 3894 3895 3896 3897 3898 3899 3900 3901 3902 3903 3904 3905 3906 3907 3908 3909 3910 3911 3912 3913 3914 3915 3916 3917 3918 3919 3920 3921 3922 3923 3924 3925 3926 3927 3928 3929 3930 3931 3932 3933 3934 3935 3936 3937 3938 3939 3940 3941 3942 3943 3944 3945 3946 3947 3948 3949 3950 3951 3952 3953 3954 3955 3956 3957 3958 3959 3960 3961 3962 3963 3964 3965 3966 3967 3968 3969 3970 3971 3972 3973 3974 3975 3976 3977 3978 3979 3980 3981 3982 3983 3984 3985 3986 3987 3988 3989 3990 3991 3992 3993 3994 3995 3996 3997 3998 3999 4000 4001 4002 4003 4004 4005 4006 4007 4008 4009 4010 4011 4012 4013 4014 4015 4016 4017 4018 4019 4020 4021 4022 4023 4024 4025 4026 4027 4028 4029 4030 4031 4032 4033 4034 4035 4036 4037 4038 4039 4040 4041 4042 4043 4044 4045 4046 4047 4048 4049 4050 4051 4052 4053 4054 4055 4056 4057 4058 4059 4060 4061 4062 4063 4064 4065 4066 4067 4068 4069 4070 4071 4072 4073 4074 4075 4076 4077 4078 4079 4080 4081 4082 4083 4084 4085 4086 4087 4088 4089 4090 4091 4092 4093 4094 4095 4096 4097 4098 4099 4100 4101 4102 4103 4104 4105 4106 4107 4108 4109 4110 4111 4112 4113 4114 4115 4116 4117 4118 4119 4120 4121 4122 4123 4124 4125 4126 4127 4128 4129 4130 4131 4132 4133 4134 4135 4136 4137 4138 4139 4140 4141 4142 4143 4144 4145 4146 4147 4148 4149 4150 4151 4152 4153 4154 4155 4156 4157 4158 4159 4160 4161 4162 4163 4164 4165 4166 4167 4168 4169 4170 4171 4172 4173 4174 4175 4176 4177 4178 4179 4180 4181 4182 4183 4184 4185 4186 4187 4188 4189 4190 4191 4192 4193 4194 4195 4196 4197 4198 4199 4200 4201 4202 4203 4204 4205 4206 4207 4208 4209 4210 4211 4212 4213 4214 4215 4216 4217 4218 4219 4220 4221 4222 4223 4224 4225 4226 4227 4228 4229 4230 4231 4232 4233 4234 4235 4236 4237 4238 4239 4240 4241 4242 4243 4244 4245 4246 4247 4248 4249 4250 4251 4252 4253 4254 4255 4256 4257 4258 4259 4260 4261 4262 4263 4264 4265 4266 4267 4268 4269 4270 4271 4272 4273 4274 4275 4276 4277 4278 4279 4280 4281 4282 4283 4284 4285 4286 4287 4288 4289 4290 4291 4292 4293 4294 4295 4296 4297 4298 4299 4300 4301 4302 4303 4304 4305 4306 4307 4308 4309 4310 4311 4312 4313 4314 4315 4316 4317 4318 4319 4320 4321 4322 4323 4324 4325 4326 4327 4328 4329 4330 4331 4332 4333 4334 4335 4336 4337 4338 4339 4340 4341 4342 4343 4344 4345 4346 4347 4348 4349 4350 4351 4352 4353 4354 4355 4356 4357 4358 4359 4360 4361 4362 4363 4364 4365 4366 4367 4368 4369 4370 4371 4372 4373 4374 4375 4376 4377 4378 4379 4380 4381 4382 4383 4384 4385 4386 4387 4388 4389 4390 4391 4392 4393 4394 4395 4396 4397 4398 4399 4400 4401 4402 4403 4404 4405 4406 4407 4408 4409 4410 4411 4412 4413 4414 4415 4416 4417 4418 4419 4420 4421 4422 4423 4424 4425 4426 4427 4428 4429 4430 4431 4432 4433 4434 4435 4436 4437 4438 4439 4440 4441 4442 4443 4444 4445 4446 4447 4448 4449 4450 4451 4452 4453 4454 4455 4456 4457 4458 4459 4460 4461 4462 4463 4464 4465 4466 4467 4468 4469 4470 4471 4472 4473 4474 4475 4476 4477 4478 4479 4480 4481 4482 4483 4484 4485 4486 4487 4488 4489 4490 4491 4492 4493 4494 4495 4496 4497 4498 4499 4500 4501 4502 4503 4504 4505 4506 4507 4508 4509 4510 4511 4512 4513 4514 4515 4516 4517 4518 4519 4520 4521 4522 4523 4524 4525 4526 4527 4528 4529 4530 4531 4532 4533 4534 4535 4536 4537 4538 4539 4540 4541 4542 4543 4544 4545 4546 4547 4548 4549 4550 4551 4552 4553 4554 4555 4556 4557 4558 4559 4560 4561 4562 4563 4564 4565 4566 4567 4568 4569 4570 4571 4572 4573 4574 4575 4576 4577 4578 4579 4580 4581 4582 4583 4584 4585 4586 4587 4588 4589 4590 4591 4592 4593 4594 4595 4596 4597 4598 4599 4600 4601 4602 4603 4604 4605 4606 4607 4608 4609 4610 4611 4612 4613 4614 4615 4616 4617 4618 4619 4620 4621 4622 4623 4624 4625 4626 4627 4628 4629 4630 4631 4632 4633 4634 4635 4636 4637 4638 4639 4640 4641 4642 4643 4644 4645 4646 4647 4648 4649 4650 4651 4652 4653 4654 4655 4656 4657 4658 4659 4660 4661 4662 4663 4664 4665 4666 4667 4668 4669 4670 4671 4672 4673 4674 4675 4676 4677 4678 4679 4680 4681 4682 4683 4684 4685 4686 4687 4688 4689 4690 4691 4692 4693 4694 4695 4696 4697 4698 4699 4700 4701 4702 4703 4704 4705 4706 4707 4708 4709 4710 4711 4712 4713 4714 4715 4716 4717 4718 4719 4720 4721 4722 4723 4724 4725 4726 4727 4728 4729 4730 4731 4732 4733 4734 4735 4736 4737 4738 4739 4740 4741 4742 4743 4744 4745 4746 4747 4748 4749 4750 4751 4752 4753 4754 4755 4756 4757 4758 4759 4760 4761 4762 4763 4764 4765 4766 4767 4768 4769 4770 4771 4772 4773 4774 4775 4776 4777 4778 4779 4780 4781 4782 4783 4784 4785 4786 4787 4788 4789 4790 4791 4792 4793 4794 4795 4796 4797 4798 4799 4800 4801 4802 4803 4804 4805 4806 4807 4808 4809 4810 4811 4812 4813 4814 4815 4816 4817 4818 4819 4820 4821 4822 4823 4824 4825 4826 4827 4828 4829 4830 4831 4832 4833 4834 4835 4836 4837 4838 4839 4840 4841 4842 4843 4844 4845 4846 4847 4848 4849 4850 4851 4852 4853 4854 4855 4856 4857 4858 4859 4860 4861 4862 4863 4864 4865 4866 4867 4868 4869 4870 4871 4872 4873 4874 4875 4876 4877 4878 4879 4880 4881 4882 4883 4884 4885 4886 4887 4888 4889 4890 4891 4892 4893 4894 4895 4896 4897 4898 4899 4900 4901 4902 4903 4904 4905 4906 4907 4908 4909 4910 4911 4912 4913 4914 4915 4916 4917 4918 4919 4920 4921 4922 4923 4924 4925 4926 4927 4928 4929 4930 4931 4932 4933 4934 4935 4936 4937 4938 4939 4940 4941 4942 4943 4944 4945 4946 4947 4948 4949 4950 4951 4952 4953 4954 4955 4956 4957 4958 4959 4960 4961 4962 4963 4964 4965 4966 4967 4968 4969 4970 4971 4972 4973 4974 4975 4976 4977 4978 4979 4980 4981 4982 4983 4984 4985 4986 4987 4988 4989 4990 4991 4992 4993 4994 4995 4996 4997 4998 4999 5000 5001 5002 5003 5004 5005 5006 5007 5008 5009 5010 5011 5012 5013 5014 5015 5016 5017 5018 5019 5020 5021 5022 5023 5024 5025 5026 5027 5028 5029 5030 5031 5032 5033 5034 5035 5036 5037 5038 5039 5040 5041 5042 5043 5044 5045 5046 5047 5048 5049 5050 5051 5052 5053 5054 5055 5056 5057 5058 5059 5060 5061 5062 5063 5064 5065 5066 5067 5068 5069 5070 5071 5072 5073 5074 5075 5076 5077 5078 5079 5080 5081 5082 5083 5084 5085 5086 5087 5088 5089 5090 5091 5092 5093 5094 5095 5096 5097 5098 5099 5100 5101 5102 5103 5104 5105 5106 5107 5108 5109 5110 5111 5112 5113 5114 5115 5116 5117 5118 5119 5120 5121 5122 5123 5124 5125 5126 5127 5128 5129 5130 5131 5132 5133 5134 5135 5136 5137 5138 5139 5140 5141 5142 5143 5144 5145 5146 5147 5148 5149 5150 5151 5152 5153 5154 5155 5156 5157 5158 5159 5160 5161 5162 5163 5164 5165 5166 5167 5168 5169 5170 5171 5172 5173 5174 5175 5176 5177 5178 5179 5180 5181 5182 5183 5184 5185 5186 5187 5188 5189 5190 5191 5192 5193 5194 5195 5196 5197 5198 5199 5200 5201 5202 5203 5204 5205 5206 5207 5208 5209 5210 5211 5212 5213 5214 5215 5216 5217 5218 5219 5220 5221 5222 5223 5224 5225 5226 5227 5228 5229 5230 5231 5232 5233 5234 5235 5236 5237 5238 5239 5240 5241 5242 5243 5244 5245 5246 5247 5248 5249 5250 5251 5252 5253 5254 5255 5256 5257 5258 5259 5260 5261 5262 5263 5264 5265 5266 5267 5268 5269 5270 5271 5272 5273 5274 5275 5276 5277 5278 5279 5280 5281 5282 5283 5284 5285 5286 5287 5288 5289 5290 5291 5292 5293 5294 5295 5296 5297 5298 5299 5300 5301 5302 5303 5304 5305 5306 5307 5308 5309 5310 5311 5312 5313 5314 5315 5316 5317 5318 5319 5320 5321 5322 5323 5324 5325 5326 5327 5328 5329 5330 5331 5332 5333 5334 5335 5336 5337 5338 5339 5340 5341 5342 5343 5344 5345 5346 5347 5348 5349 5350 5351 5352 5353 5354 5355 5356 5357 5358 5359 5360 5361 5362 5363 5364 5365 5366 5367 5368 5369 5370 5371 5372 5373 5374 5375 5376 5377 5378 5379 5380 5381 5382 5383 5384 5385 5386 5387 5388 5389 5390 5391 5392 5393 5394 5395 5396 5397 5398 5399 5400 5401 5402 5403 5404 5405 5406 5407 5408 5409 5410 5411 5412 5413 5414 5415 5416 5417 5418 5419 5420 5421 5422 5423 5424 5425 5426 5427 5428 5429 5430 5431 5432 5433 5434 5435 5436 5437 5438 5439 5440 5441 5442 5443 5444 5445 5446 5447 5448 5449 5450 5451 5452 5453 5454 5455 5456 5457 5458 5459 5460 5461 5462 5463 5464 5465 5466 5467 5468 5469 5470 5471 5472 5473 5474 5475 5476 5477 5478 5479 5480 5481 5482 5483 5484 5485 5486 5487 5488 5489 5490 5491 5492 5493 5494 5495 5496 5497 5498 5499 5500 5501 5502 5503 5504 5505 5506 5507 5508 5509 5510 5511 5512 5513 5514 5515 5516 5517 5518 5519 5520 5521 5522 5523 5524 5525 5526 5527 5528 5529 5530 5531 5532 5533 5534 5535 5536 5537 5538 5539 5540 5541 5542 5543 5544 5545 5546 5547 5548 5549 5550 5551 5552 5553 5554 5555 5556 5557 5558 5559 5560 5561 5562 5563 5564 5565 5566 5567 5568 5569 5570 5571 5572 5573 5574 5575 5576 5577 5578 5579 5580 5581 5582 5583 5584 5585 5586 5587 5588 5589 5590 5591 5592 5593 5594 5595 5596 5597 5598 5599 5600 5601 5602 5603 5604 5605 5606 5607 5608 5609 5610 5611 5612 5613 5614 5615 5616 5617 5618 5619 5620 5621 5622 5623 5624 5625 5626 5627 5628 5629 5630 5631 5632 5633 5634 5635 5636 5637 5638 5639 5640 5641 5642 5643 5644 5645 5646 5647 5648 5649 5650 5651 5652 5653 5654 5655 5656 5657 5658 5659 5660 5661 5662 5663 5664 5665 5666 5667 5668 5669 5670 5671 5672 5673 5674 5675 5676 5677 5678 5679 5680 5681 5682 5683 5684 5685 5686 5687 5688 5689 5690 5691 5692 5693 5694 5695 5696 5697 5698 5699 5700 5701 5702 5703 5704 5705 5706 5707 5708 5709 5710 5711 5712 5713 5714 5715 5716 5717 5718 5719 5720 5721 5722 5723 5724 5725 5726 5727 5728 5729 5730 5731 5732 5733 5734 5735 5736 5737 5738 5739 5740 5741 5742 5743 5744 5745 5746 5747 5748 5749 5750 5751 5752 5753 5754 5755 5756 5757 5758 5759 5760 5761 5762 5763 5764 5765 5766 5767 5768 5769 5770 5771 5772 5773 5774 5775 5776 5777 5778 5779 5780 5781 5782 5783 5784 5785 5786 5787 5788 5789 5790 5791 5792 5793 5794 5795 5796 5797 5798 5799 5800 5801 5802 5803 5804 5805 5806 5807 5808 5809 5810 5811 5812 5813 5814 5815 5816 5817 5818 5819 5820 5821 5822 5823 5824 5825 5826 5827 5828 5829 5830 5831 5832 5833 5834 5835 5836 5837 5838 5839 5840 5841 5842 5843 5844 5845 5846 5847 5848 5849 5850 5851 5852 5853 5854 5855 5856 5857 5858 5859 5860 5861 5862 5863 5864 5865 5866 5867 5868 5869 5870 5871 5872 5873 5874 5875 5876 5877 5878 5879 5880 5881 5882 5883 5884 5885 5886 5887 5888 5889 5890 5891 5892 5893 5894 5895 5896 5897 5898 5899 5900 5901 5902 5903 5904 5905 5906 5907 5908 5909 5910 5911 5912 5913 5914 5915 5916 5917 5918 5919 5920 5921 5922 5923 5924 5925 5926 5927 5928 5929 5930 5931 5932 5933 5934 5935 5936 5937 5938 5939 5940 5941 5942 5943 5944 5945 5946 5947 5948 5949 5950 5951 5952 5953 5954 5955 5956 5957 5958 5959 5960 5961 5962 5963 5964 5965 5966 5967 5968 5969 5970 5971 5972 5973 5974 5975 5976 5977 5978 5979 5980 5981 5982 5983 5984 5985 5986 5987 5988 5989 5990 5991 5992 5993 5994 5995 5996 5997 5998 5999 6000 6001 6002 6003 6004 6005 6006 6007 6008 6009 6010 6011 6012 6013 6014 6015 6016 6017 6018 6019 6020 6021 6022 6023 6024 6025 6026 6027 6028 6029 6030 6031 6032 6033 6034 6035 6036 6037 6038 6039 6040 6041 6042 6043 6044 6045 6046 6047 6048 6049 6050 6051 6052 6053 6054 6055 6056 6057 6058 6059 6060 6061 6062 6063 6064 6065 6066 6067 6068 6069 6070 6071 6072 6073 6074 6075 6076 6077 6078 6079 6080 6081 6082 6083 6084 6085 6086 6087 6088 6089 6090 6091 6092 6093 6094 6095 6096 6097 6098 6099 6100 6101 6102 6103 6104 6105 6106 6107 6108 6109 6110 6111 6112 6113 6114 6115 6116 6117 6118 6119 6120 6121 6122 6123 6124 6125 6126 6127 6128 6129 6130 6131 6132 6133 6134 6135 6136 6137 6138 6139 6140 6141 6142 6143 6144 6145 6146 6147 6148 6149 6150 6151 6152 6153 6154 6155 6156 6157 6158 6159 6160 6161 6162 6163 6164 6165 6166 6167 6168 6169 6170 6171 6172 6173 6174 6175 6176 6177 6178 6179 6180 6181 6182 6183 6184 6185 6186 6187 6188 6189 6190 6191 6192 6193 6194 6195 6196 6197 6198 6199 6200 6201 6202 6203 6204 6205 6206 6207 6208 6209 6210 6211 6212 6213 6214 6215 6216 6217 6218 6219 6220 6221 6222 6223 6224 6225 6226 6227 6228 6229 6230 6231 6232 6233 6234 6235 6236 6237 6238 6239 6240 6241 6242 6243 6244 6245 6246 6247 6248 6249 6250 6251 6252 6253 6254 6255 6256 6257 6258 6259 6260 6261 6262 6263 6264 6265 6266 6267 6268 6269 6270 6271 6272 6273 6274 6275 6276 6277 6278 6279 6280 6281 6282 6283 6284 6285 6286 6287 6288 6289 6290 6291 6292 6293 6294 6295 6296 6297 6298 6299 6300 6301 6302 6303 6304 6305 6306 6307 6308 6309 6310 6311 6312 6313 6314 6315 6316 6317 6318 6319 6320 6321 6322 6323 6324 6325 6326 6327 6328 6329 6330 6331 6332 6333 6334 6335 6336 6337 6338 6339 6340 6341 6342 6343 6344 6345 6346 6347 6348 6349 6350 6351 6352 6353 6354 6355 6356 6357 6358 6359 6360 6361 6362 6363 6364 6365 6366 6367 6368 6369 6370 6371 6372 6373 6374 6375 6376 6377 6378 6379 6380 6381 6382 6383 6384 6385 6386 6387 6388 6389 6390 6391 6392 6393 6394 6395 6396 6397 6398 6399 6400 6401 6402 6403 6404 6405 6406 6407 6408 6409 6410 6411 6412 6413 6414 6415 6416 6417 6418 6419 6420 6421 6422 6423 6424 6425 6426 6427 6428 6429 6430 6431 6432 6433 6434 6435 6436 6437 6438 6439 6440 6441 6442 6443 6444 6445 6446 6447 6448 6449 6450 6451 6452 6453 6454 6455 6456 6457 6458 6459 6460 6461 6462 6463 6464 6465 6466 6467 6468 6469 6470 6471 6472 6473 6474 6475 6476 6477 6478 6479 6480 6481 6482 6483 6484 6485 6486 6487 6488 6489 6490 6491 6492 6493 6494 6495 6496 6497 6498 6499 6500 6501 6502 6503 6504 6505 6506 6507 6508 6509 6510 6511 6512 6513 6514 6515 6516 6517 6518 6519 6520 6521 6522 6523 6524 6525 6526 6527 6528 6529 6530 6531 6532 6533 6534 6535 6536 6537 6538 6539 6540 6541 6542 6543 6544 6545 6546 6547 6548 6549 6550 6551 6552 6553 6554 6555 6556 6557 6558 6559 6560 6561 6562 6563 6564 6565 6566 6567 6568 6569 6570 6571 6572 6573 6574 6575 6576 6577 6578 6579 6580 6581 6582 6583 6584 6585 6586 6587 6588 6589 6590 6591 6592 6593 6594 6595 6596 6597 6598 6599 6600 6601 6602 6603 6604 6605 6606 6607 6608 6609 6610 6611 6612 6613 6614 6615 6616 6617 6618 6619 6620 6621 6622 6623 6624 6625 6626 6627 6628 6629 6630 6631 6632 6633 6634 6635 6636 6637 6638 6639 6640 6641 6642 6643 6644 6645 6646 6647 6648 6649 6650 6651 6652 6653 6654 6655 6656 6657 6658 6659 6660 6661 6662 6663 6664 6665 6666 6667 6668 6669 6670 6671 6672 6673 6674 6675 6676 6677 6678 6679 6680 6681 6682 6683 6684 6685 6686 6687 6688 6689 6690 6691 6692 6693 6694 6695 6696 6697 6698 6699 6700 6701 6702 6703 6704 6705 6706 6707 6708 6709 6710 6711 6712 6713 6714 6715 6716 6717 6718 6719 6720 6721 6722 6723 6724 6725 6726 6727 6728 6729 6730 6731 6732 6733 6734 6735 6736 6737 6738 6739 6740 6741 6742 6743 6744 6745 6746 6747 6748 6749 6750 6751 6752 6753 6754 6755 6756 6757 6758 6759 6760 6761 6762 6763 6764 6765 6766 6767 6768 6769 6770 6771 6772 6773 6774 6775 6776 6777 6778 6779 6780 6781 6782 6783 6784 6785 6786 6787 6788 6789 6790 6791 6792 6793 6794 6795 6796 6797 6798 6799 6800 6801 6802 6803 6804 6805 6806 6807 6808 6809 6810 6811 6812 6813 6814 6815 6816 6817 6818 6819 6820 6821 6822 6823 6824 6825 6826 6827 6828 6829 6830 6831 6832 6833 6834 6835 6836 6837 6838 6839 6840 6841 6842 6843 6844 6845 6846 6847 6848 6849 6850 6851 6852 6853 6854 6855 6856 6857 6858 6859 6860 6861 6862 6863 6864 6865 6866 6867 6868 6869 6870 6871 6872 6873 6874 6875 6876 6877 6878 6879 6880 6881 6882 6883 6884 6885 6886 6887 6888 6889 6890 6891 6892 6893 6894 6895 6896 6897 6898 6899 6900 6901 6902 6903 6904 6905 6906 6907 6908 6909 6910 6911 6912 6913 6914 6915 6916 6917 6918 6919 6920 6921 6922 6923 6924 6925 6926 6927 6928 6929 6930 6931 6932 6933 6934 6935 6936 6937 6938 6939 6940 6941 6942 6943 6944 6945 6946 6947 6948 6949 6950 6951 6952 6953 6954 6955 6956 6957 6958 6959 6960 6961 6962 6963 6964 6965 6966 6967 6968 6969 6970 6971 6972 6973 6974 6975 6976 6977 6978 6979 6980 6981 6982 6983 6984 6985 6986 6987 6988 6989 6990 6991 6992 6993 6994 6995 6996 6997 6998 6999 7000 7001 7002 7003 7004 7005 7006 7007 7008 7009 7010 7011 7012 7013 7014 7015 7016 7017 7018 7019 7020 7021 7022 7023 7024 7025 7026 7027 7028 7029 7030 7031 7032 7033 7034 7035 7036 7037 7038 7039 7040 7041 7042 7043 7044 7045 7046 7047 7048 7049 7050 7051 7052 7053 7054 7055 7056 7057 7058 7059 7060 7061 7062 7063 7064 7065 7066 7067 7068 7069 7070 7071 7072 7073 7074 7075 7076 7077 7078 7079 7080 7081 7082 7083 7084 7085 7086 7087 7088 7089 7090 7091 7092 7093 7094 7095 7096 7097 7098 7099 7100 7101 7102 7103 7104 7105 7106 7107 7108 7109 7110 7111 7112 7113 7114 7115 7116 7117 7118 7119 7120 7121 7122 7123 7124 7125 7126 7127 7128 7129 7130 7131 7132 7133 7134 7135 7136 7137 7138 7139 7140 7141 7142 7143 7144 7145 7146 7147 7148 7149 7150 7151 7152 7153 7154 7155 7156 7157 7158 7159 7160 7161 7162 7163 7164 7165 7166 7167 7168 7169 7170 7171 7172 7173 7174 7175 7176 7177 7178 7179 7180 7181 7182 7183 7184 7185 7186 7187 7188 7189 7190 7191 7192 7193 7194 7195 7196 7197 7198 7199 7200 7201 7202 7203 7204 7205 7206 7207 7208 7209 7210 7211 7212 7213 7214 7215 7216 7217 7218 7219 7220 7221 7222 7223 7224 7225 7226 7227 7228 7229 7230 7231 7232 7233 7234 7235 7236 7237 7238 7239 7240 7241 7242 7243 7244 7245 7246 7247 7248 7249 7250 7251 7252 7253 7254 7255 7256 7257 7258 7259 7260 7261 7262 7263 7264 7265 7266 7267 7268 7269 7270 7271 7272 7273 7274 7275 7276 7277 7278 7279 7280 7281 7282 7283 7284 7285 7286 7287 7288 7289 7290 7291 7292 7293 7294 7295 7296 7297 7298 7299 7300 7301 7302 7303 7304 7305 7306 7307 7308 7309 7310 7311 7312 7313 7314 7315 7316 7317 7318 7319 7320 7321 7322 7323 7324 7325 7326 7327 7328 7329 7330 7331 7332 7333 7334 7335 7336 7337 7338 7339 7340 7341 7342 7343 7344 7345 7346 7347 7348 7349 7350 7351 7352 7353 7354 7355 7356 7357 7358 7359 7360 7361 7362 7363 7364 7365 7366 7367 7368 7369 7370 7371 7372 7373 7374 7375 7376 7377 7378 7379 7380 7381 7382 7383 7384 7385 7386 7387 7388 7389 7390 7391 7392 7393 7394 7395 7396 7397 7398 7399 7400 7401 7402 7403 7404 7405 7406 7407 7408 7409 7410 7411 7412 7413 7414 7415 7416 7417 7418 7419 7420 7421 7422 7423 7424 7425 7426 7427 7428 7429 7430 7431 7432 7433 7434 7435 7436 7437 7438 7439 7440 7441 7442 7443 7444 7445 7446 7447 7448 7449 7450 7451 7452 7453 7454 7455 7456 7457 7458 7459 7460 7461 7462 7463 7464 7465 7466 7467 7468 7469 7470 7471 7472 7473 7474 7475 7476 7477 7478 7479 7480 7481 7482 7483 7484 7485 7486 7487 7488 7489 7490 7491 7492 7493 7494 7495 7496 7497 7498 7499 7500 7501 7502 7503 7504 7505 7506 7507 7508 7509 7510 7511 7512 7513 7514 7515 7516 7517 7518 7519 7520 7521 7522 7523 7524 7525 7526 7527 7528 7529 7530 7531 7532 7533 7534 7535 7536 7537 7538 7539 7540 7541 7542 7543 7544 7545 7546 7547 7548 7549 7550 7551 7552 7553 7554 7555 7556 7557 7558 7559 7560 7561 7562 7563 7564 7565 7566 7567 7568 7569 7570 7571 7572 7573 7574 7575 7576 7577 7578 7579 7580 7581 7582 7583 7584 7585 7586 7587 7588 7589 7590 7591 7592 7593 7594 7595 7596 7597 7598 7599 7600 7601 7602 7603 7604 7605 7606 7607 7608 7609 7610 7611 7612 7613 7614 7615 7616 7617 7618 7619 7620 7621 7622 7623 7624 7625 7626 7627 7628 7629 7630 7631 7632 7633 7634 7635 7636 7637 7638 7639 7640 7641 7642 7643 7644 7645 7646 7647 7648 7649 7650 7651 7652 7653 7654 7655 7656 7657 7658 7659 7660 7661 7662 7663 7664 7665 7666 7667 7668 7669 7670 7671 7672 7673 7674 7675 7676 7677 7678 7679 7680 7681 7682 7683 7684 7685 7686 7687 7688 7689 7690 7691 7692 7693 7694 7695 7696 7697 7698 7699 7700 7701 7702 7703 7704 7705 7706 7707 7708 7709 7710 7711 7712 7713 7714 7715 7716 7717 7718 7719 7720 7721 7722 7723 7724 7725 7726 7727 7728 7729 7730 7731 7732 7733 7734 7735 7736 7737 7738 7739 7740 7741 7742 7743 7744 7745 7746 7747 7748 7749 7750 7751 7752 7753 7754 7755 7756 7757 7758 7759 7760 7761 7762 7763 7764 7765 7766 7767 7768 7769 7770 7771 7772 7773 7774 7775 7776 7777 7778 7779 7780 7781 7782 7783 7784 7785 7786 7787 7788 7789 7790 7791 7792 7793 7794 7795 7796 7797 7798 7799 7800 7801 7802 7803 7804 7805 7806 7807 7808 7809 7810 7811 7812 7813 7814 7815 7816 7817 7818 7819 7820 7821 7822 7823 7824 7825 7826 7827 7828 7829 7830 7831 7832 7833 7834 7835 7836 7837 7838 7839 7840 7841 7842 7843 7844 7845 7846 7847 7848 7849 7850 7851 7852 7853 7854 7855 7856 7857 7858 7859 7860 7861 7862 7863 7864 7865 7866 7867 7868 7869 7870 7871 7872 7873 7874 7875 7876 7877 7878 7879 7880 7881 7882 7883 7884 7885 7886 7887 7888 7889 7890 7891 7892 7893 7894 7895 7896 7897 7898 7899 7900 7901 7902 7903 7904 7905 7906 7907 7908 7909 7910 7911 7912 7913 7914 7915 7916 7917 7918 7919 7920 7921 7922 7923 7924 7925 7926 7927 7928 7929 7930 7931 7932 7933 7934 7935 7936 7937 7938 7939 7940 7941 7942 7943 7944 7945 7946 7947 7948 7949 7950 7951 7952 7953 7954 7955 7956 7957 7958 7959 7960 7961 7962 7963 7964 7965 7966 7967 7968 7969 7970 7971 7972 7973 7974 7975 7976 7977 7978 7979 7980 7981 7982 7983 7984 7985 7986 7987 7988 7989 7990 7991 7992 7993 7994 7995 7996 7997 7998 7999 8000 8001 8002 8003 8004 8005 8006 8007 8008 8009 8010 8011 8012 8013 8014 8015 8016 8017 8018 8019 8020 8021 8022 8023 8024 8025 8026 8027 8028 8029 8030 8031 8032 8033 8034 8035 8036 8037 8038 8039 8040 8041 8042 8043 8044 8045 8046 8047 8048 8049 8050 8051 8052 8053 8054 8055 8056 8057 8058 8059 8060 8061 8062 8063 8064 8065 8066 8067 8068 8069 8070 8071 8072 8073 8074 8075 8076 8077 8078 8079 8080 8081 8082 8083 8084 8085 8086 8087 8088 8089 8090 8091 8092 8093 8094 8095 8096 8097 8098 8099 8100 8101 8102 8103 8104 8105 8106 8107 8108 8109 8110 8111 8112 8113 8114 8115 8116 8117 8118 8119 8120 8121 8122 8123 8124 8125 8126 8127 8128 8129 8130 8131 8132 8133 8134 8135 8136 8137 8138 8139 8140 8141 8142 8143 8144 8145 8146 8147 8148 8149 8150 8151 8152 8153 8154 8155 8156 8157 8158 8159 8160 8161 8162 8163 8164 8165 8166 8167 8168 8169 8170 8171 8172 8173 8174 8175 8176 8177 8178 8179 8180 8181 8182 8183 8184 8185 8186 8187 8188 8189 8190 8191 8192 8193 8194 8195 8196 8197 8198 8199 8200 8201 8202 8203 8204 8205 8206 8207 8208 8209 8210 8211 8212 8213 8214 8215 8216 8217 8218 8219 8220 8221 8222 8223 8224 8225 8226 8227 8228 8229 8230 8231 8232 8233 8234 8235 8236 8237 8238 8239 8240 8241 8242 8243 8244 8245 8246 8247 8248 8249 8250 8251 8252 8253 8254 8255 8256 8257 8258 8259 8260 8261 8262 8263 8264 8265 8266 8267 8268 8269 8270 8271 8272 8273 8274 8275 8276 8277 8278 8279 8280 8281 8282 8283 8284 8285 8286 8287 8288 8289 8290 8291 8292 8293 8294 8295 8296 8297 8298 8299 8300 8301 8302 8303 8304 8305 8306 8307 8308 8309 8310 8311 8312 8313 8314 8315 8316 8317 8318 8319 8320 8321 8322 8323 8324 8325 8326 8327 8328 8329 8330 8331 8332 8333 8334 8335 8336 8337 8338 8339 8340 8341 8342 8343 8344 8345 8346 8347 8348 8349 8350 8351 8352 8353 8354 8355 8356 8357 8358 8359 8360 8361 8362 8363 8364 8365 8366 8367 8368 8369 8370 8371 8372 8373 8374 8375 8376 8377 8378 8379 8380 8381 8382 8383 8384 8385 8386 8387 8388 8389 8390 8391 8392 8393 8394 8395 8396 8397 8398 8399 8400 8401 8402 8403 8404 8405 8406 8407 8408 8409 8410 8411 8412 8413 8414 8415 8416 8417 8418 8419 8420 8421 8422 8423 8424 8425 8426 8427 8428 8429 8430 8431 8432 8433 8434 8435 8436 8437 8438 8439 8440 8441 8442 8443 8444 8445 8446 8447 8448 8449 8450 8451 8452 8453 8454 8455 8456 8457 8458 8459 8460 8461 8462 8463 8464 8465 8466 8467 8468 8469 8470 8471 8472 8473 8474 8475 8476 8477 8478 8479 8480 8481 8482 8483 8484 8485 8486 8487 8488 8489 8490 8491 8492 8493 8494 8495 8496 8497 8498 8499 8500 8501 8502 8503 8504 8505 8506 8507 8508 8509 8510 8511 8512 8513 8514 8515 8516 8517 8518 8519 8520 8521 8522 8523 8524 8525 8526 8527 8528 8529 8530 8531 8532 8533 8534 8535 8536 8537 8538 8539 8540 8541 8542 8543 8544 8545 8546 8547 8548 8549 8550 8551 8552 8553 8554 8555 8556 8557 8558 8559 8560 8561 8562 8563 8564 8565 8566 8567 8568 8569 8570 8571 8572 8573 8574 8575 8576 8577 8578 8579 8580 8581 8582 8583 8584 8585 8586 8587 8588 8589 8590 8591 8592 8593 8594 8595 8596 8597 8598 8599 8600 8601 8602 8603 8604 8605 8606 8607 8608 8609 8610 8611 8612 8613 8614 8615 8616 8617 8618 8619 8620 8621 8622 8623 8624 8625 8626 8627 8628 8629 8630 8631 8632 8633 8634 8635 8636 8637 8638 8639 8640 8641 8642 8643 8644 8645 8646 8647 8648 8649 8650 8651 8652 8653 8654 8655 8656 8657 8658 8659 8660 8661 8662 8663 8664 8665 8666 8667 8668 8669 8670 8671 8672 8673 8674 8675 8676 8677 8678 8679 8680 8681 8682 8683 8684 8685 8686 8687 8688 8689 8690 8691 8692 8693 8694 8695 8696 8697 8698 8699 8700 8701 8702 8703 8704 8705 8706 8707 8708 8709 8710 8711 8712 8713 8714 8715 8716 8717 8718 8719 8720 8721 8722 8723 8724 8725 8726 8727 8728 8729 8730 8731 8732 8733 8734 8735 8736 8737 8738 8739 8740 8741 8742 8743 8744 8745 8746 8747 8748 8749 8750 8751 8752 8753 8754 8755 8756 8757 8758 8759 8760 8761 8762 8763 8764 8765 8766 8767 8768 8769 8770 8771 8772 8773 8774 8775 8776 8777 8778 8779 8780 8781 8782 8783 8784 8785 8786 8787 8788 8789 8790 8791 8792 8793 8794 8795 8796 8797 8798 8799 8800 8801 8802 8803 8804 8805 8806 8807 8808 8809 8810 8811 8812 8813 8814 8815 8816 8817 8818 8819 8820 8821 8822 8823 8824 8825 8826 8827 8828 8829 8830 8831 8832 8833 8834 8835 8836 8837 8838 8839 8840 8841 8842 8843 8844 8845 8846 8847 8848 8849 8850 8851 8852 8853 8854 8855 8856 8857 8858 8859 8860 8861 8862 8863 8864 8865 8866 8867 8868 8869 8870 8871 8872 8873 8874 8875 8876 8877 8878 8879 8880 8881 8882 8883 8884 8885 8886 8887 8888 8889 8890 8891 8892 8893 8894 8895 8896 8897 8898 8899 8900 8901 8902 8903 8904 8905 8906 8907 8908 8909 8910 8911 8912 8913 8914 8915 8916 8917 8918 8919 8920 8921 8922 8923 8924 8925 8926 8927 8928 8929 8930 8931 8932 8933 8934 8935 8936 8937 8938 8939 8940 8941 8942 8943 8944 8945 8946 8947 8948 8949 8950 8951 8952 8953 8954 8955 8956 8957 8958 8959 8960 8961 8962 8963 8964 8965 8966 8967 8968 8969 8970 8971 8972 8973 8974 8975 8976 8977 8978 8979 8980 8981 8982 8983 8984 8985 8986 8987 8988 8989 8990 8991 8992 8993 8994 8995 8996 8997 8998 8999 9000 9001 9002 9003 9004 9005 9006 9007 9008 9009 9010 9011 9012 9013 9014 9015 9016 9017 9018 9019 9020 9021 9022 9023 9024 9025 9026 9027 9028 9029 9030 9031 9032 9033 9034 9035 9036 9037 9038 9039 9040 9041 9042 9043 9044 9045 9046 9047 9048 9049 9050 9051 9052 9053 9054 9055 9056 9057 9058 9059 9060 9061 9062 9063 9064 9065 9066 9067 9068 9069 9070 9071 9072 9073 9074 9075 9076 9077 9078 9079 9080 9081 9082 9083 9084 9085 9086 9087 9088 9089 9090 9091 9092 9093 9094 9095 9096 9097 9098 9099 9100 9101 9102 9103 9104 9105 9106 9107 9108 9109 9110 9111 9112 9113 9114 9115 9116 9117 9118 9119 9120 9121 9122 9123 9124 9125 9126 9127 9128 9129 9130 9131 9132 9133 9134 9135 9136 9137 9138 9139 9140 9141 9142 9143 9144 9145 9146 9147 9148 9149 9150 9151 9152 9153 9154 9155 9156 9157 9158 9159 9160 9161 9162 9163 9164 9165 9166 9167 9168 9169 9170 9171 9172 9173 9174 9175 9176 9177 9178 9179 9180 9181 9182 9183 9184 9185 9186 9187 9188 9189 9190 9191 9192 9193 9194 9195 9196 9197 9198 9199 9200 9201 9202 9203 9204 9205 9206 9207 9208 9209 9210 9211 9212 9213 9214 9215 9216 9217 9218 9219 9220 9221 9222 9223 9224 9225 9226 9227 9228 9229 9230 9231 9232 9233 9234 9235 9236 9237 9238 9239 9240 9241 9242 9243 9244 9245 9246 9247 9248 9249 9250 9251 9252 9253 9254 9255 9256 9257 9258 9259 9260 9261 9262 9263 9264 9265 9266 9267 9268 9269 9270 9271 9272 9273 9274 9275 9276 9277 9278 9279 9280 9281 9282 9283 9284 9285 9286 9287 9288 9289 9290 9291 9292 9293 9294 9295 9296 9297 9298 9299 9300 9301 9302 9303 9304 9305 9306 9307 9308 9309 9310 9311 9312 9313 9314 9315 9316 9317 9318 9319 9320 9321 9322 9323 9324 9325 9326 9327 9328 9329 9330 9331 9332 9333 9334 9335 9336 9337 9338 9339 9340 9341 9342 9343 9344 9345 9346 9347 9348 9349 9350 9351 9352 9353 9354 9355 9356 9357 9358 9359 9360 9361 9362 9363 9364 9365 9366 9367 9368 9369 9370 9371 9372 9373 9374 9375 9376 9377 9378 9379 9380 9381 9382 9383 9384 9385 9386 9387 9388 9389 9390 9391 9392 9393 9394 9395 9396 9397 9398 9399 9400 9401 9402 9403 9404 9405 9406 9407 9408 9409 9410 9411 9412 9413 9414 9415 9416 9417 9418 9419 9420 9421 9422 9423 9424 9425 9426 9427 9428 9429 9430 9431 9432 9433 9434 9435 9436 9437 9438 9439 9440 9441 9442 9443 9444 9445 9446 9447 9448 9449 9450 9451 9452 9453 9454 9455 9456 9457 9458 9459 9460 9461 9462 9463 9464 9465 9466 9467 9468 9469 9470 9471 9472 9473 9474 9475 9476 9477 9478 9479 9480 9481 9482 9483 9484 9485 9486 9487 9488 9489 9490 9491 9492 9493 9494 9495 9496 9497 9498 9499 9500 9501 9502 9503 9504 9505 9506 9507 9508 9509 9510 9511 9512 9513 9514 9515 9516 9517 9518 9519 9520 9521 9522 9523 9524 9525 9526 9527 9528 9529 9530 9531 9532 9533 9534 9535 9536 9537 9538 9539 9540 9541 9542 9543 9544 9545 9546 9547 9548 9549 9550 9551 9552 9553 9554 9555 9556 9557 9558 9559 9560 9561 9562 9563 9564 9565 9566 9567 9568 9569 9570 9571 9572 9573 9574 9575 9576 9577 9578 9579 9580 9581 9582 9583 9584 9585 9586 9587 9588 9589 9590 9591 9592 9593 9594 9595 9596 9597 9598 9599 9600 9601 9602 9603 9604 9605 9606 9607 9608 9609 9610 9611 9612 9613 9614 9615 9616 9617 9618 9619 9620 9621 9622 9623 9624 9625 9626 9627 9628 9629 9630 9631 9632 9633 9634 9635 9636 9637 9638 9639 9640 9641 9642 9643 9644 9645 9646 9647 9648 9649 9650 9651 9652 9653 9654 9655 9656 9657 9658 9659 9660 9661 9662 9663 9664 9665 9666 9667 9668 9669 9670 9671 9672 9673 9674 9675 9676 9677 9678 9679 9680 9681 9682 9683 9684 9685 9686 9687 9688 9689 9690 9691 9692 9693 9694 9695 9696 9697 9698 9699 9700 9701 9702 9703 9704 9705 9706 9707 9708 9709 9710 9711 9712 9713 9714 9715 9716 9717 9718 9719 9720 9721 9722 9723 9724 9725 9726 9727 9728 9729 9730 9731 9732 9733 9734 9735 9736 9737 9738 9739 9740 9741 9742 9743 9744 9745 9746 9747 9748 9749 9750 9751 9752 9753 9754 9755 9756 9757 9758 9759 9760 9761 9762 9763 9764 9765 9766 9767 9768 9769 9770 9771 9772 9773 9774 9775 9776 9777 9778 9779 9780 9781 9782 9783 9784 9785 9786 9787 9788 9789 9790 9791 9792 9793 9794 9795 9796 9797 9798 9799 9800 9801 9802 9803 9804 9805 9806 9807 9808 9809 9810 9811 9812 9813 9814 9815 9816 9817 9818 9819 9820 9821 9822 9823 9824 9825 9826 9827 9828 9829 9830 9831 9832 9833 9834 9835 9836 9837 9838 9839 9840 9841 9842 9843 9844 9845 9846 9847 9848 9849 9850 9851 9852 9853 9854 9855 9856 9857 9858 9859 9860 9861 9862 9863 9864 9865 9866 9867 9868 9869 9870 9871 9872 9873 9874 9875 9876 9877 9878 9879 9880 9881 9882 9883 9884 9885 9886 9887 9888 9889 9890 9891 9892 9893 9894 9895 9896 9897 9898 9899 9900 9901 9902 9903 9904 9905 9906 9907 9908 9909 9910 9911 9912 9913 9914 9915 9916 9917 9918 9919 9920 9921 9922 9923 9924 9925 9926 9927 9928 9929 9930 9931 9932 9933 9934 9935 9936 9937 9938 9939 9940 9941 9942 9943 9944 9945 9946 9947 9948 9949 9950 9951 9952 9953 9954 9955 9956 9957 9958 9959 9960 9961 9962 9963 9964 9965 9966 9967 9968 9969 9970 9971 9972 9973 9974 9975 9976 9977 9978 9979 9980 9981 9982 9983 9984 9985 9986 9987 9988 9989 9990 9991 9992 9993 9994 9995 9996 9997 9998 9999 10000 10001 10002 10003 10004 10005 10006 10007 10008 10009 10010 10011 10012 10013 10014 10015 10016 10017 10018 10019 10020 10021 10022 10023 10024 10025 10026 10027 10028 10029 10030 10031 10032 10033 10034 10035 10036 10037 10038 10039 10040 10041 10042 10043 10044 10045 10046 10047 10048 10049 10050 10051 10052 10053 10054 10055 10056 10057 10058 10059 10060 10061 10062 10063 10064 10065 10066 10067 10068 10069 10070 10071 10072 10073 10074 10075 10076 10077 10078 10079 10080 10081 10082 10083 10084 10085 10086 10087 10088 10089 10090 10091 10092 10093 10094 10095 10096 10097 10098 10099 10100 10101 10102 10103 10104 10105 10106 10107 10108 10109 10110 10111 10112 10113 10114 10115 10116 10117 10118 10119 10120 10121 10122 10123 10124 10125 10126 10127 10128 10129 10130 10131 10132 10133 10134 10135 10136 10137 10138 10139 10140 10141 10142 10143 10144 10145 10146 10147 10148 10149 10150 10151 10152 10153 10154 10155 10156 10157 10158 10159 10160 10161 10162 10163 10164 10165 10166 10167 10168 10169 10170 10171 10172 10173 10174 10175 10176 10177 10178 10179 10180 10181 10182 10183 10184 10185 10186 10187 10188 10189 10190 10191 10192 10193 10194 10195 10196 10197 10198 10199 10200 10201 10202 10203 10204 10205 10206 10207 10208 10209 10210 10211 10212 10213 10214 10215 10216 10217 10218 10219 10220 10221 10222 10223 10224 10225 10226 10227 10228 10229 10230 10231 10232 10233 10234 10235 10236 10237 10238 10239 10240 10241 10242 10243 10244 10245 10246 10247 10248 10249 10250 10251 10252 10253 10254 10255 10256 10257 10258 10259 10260 10261 10262 10263 10264 10265 10266 10267 10268 10269 10270 10271 10272 10273 10274 10275 10276 10277 10278 10279 10280 10281 10282 10283 10284 10285 10286 10287 10288 10289 10290 10291 10292 10293 10294 10295 10296 10297 10298 10299 10300 10301 10302 10303 10304 10305 10306 10307 10308 10309 10310 10311 10312 10313 10314 10315 10316 10317 10318 10319 10320 10321 10322 10323 10324 10325 10326 10327 10328 10329 10330 10331 10332 10333 10334 10335 10336 10337 10338 10339 10340 10341 10342 10343 10344 10345 10346 10347 10348 10349 10350 10351 10352 10353 10354 10355 10356 10357 10358 10359 10360 10361 10362 10363 10364 10365 10366 10367 10368 10369 10370 10371 10372 10373 10374 10375 10376 10377 10378 10379 10380 10381 10382 10383 10384 10385 10386 10387 10388 10389 10390 10391 10392 10393 10394 10395 10396 10397 10398 10399 10400 10401 10402 10403 10404 10405 10406 10407 10408 10409 10410 10411 10412 10413 10414 10415 10416 10417 10418 10419 10420 10421 10422 10423 10424 10425 10426 10427 10428 10429 10430 10431 10432 10433 10434 10435 10436 10437 10438 10439 10440 10441 10442 10443 10444 10445 10446 10447 10448 10449 10450 10451 10452 10453 10454 10455 10456 10457 10458 10459 10460 10461 10462 10463 10464 10465 10466 10467 10468 10469 10470 10471 10472 10473 10474 10475 10476 10477 10478 10479 10480 10481 10482 10483 10484 10485 10486 10487 10488 10489 10490 10491 10492 10493 10494 10495 10496 10497 10498 10499 10500 10501 10502 10503 10504 10505 10506 10507 10508 10509 10510 10511 10512 10513 10514 10515 10516 10517 10518 10519 10520 10521 10522 10523 10524 10525 10526 10527 10528 10529 10530 10531 10532 10533 10534 10535 10536 10537 10538 10539 10540 10541 10542 10543 10544 10545 10546 10547 10548 10549 10550 10551 10552 10553 10554 10555 10556 10557 10558 10559 10560 10561 10562 10563 10564 10565 10566 10567 10568 10569 10570 10571 10572 10573 10574 10575 10576 10577 10578 10579 10580 10581 10582 10583 10584 10585 10586 10587 10588 10589 10590 10591 10592 10593 10594 10595 10596 10597 10598 10599 10600 10601 10602 10603 10604 10605 10606 10607 10608 10609 10610 10611 10612 10613 10614 10615 10616 10617 10618 10619 10620 10621 10622 10623 10624 10625 10626 10627 10628 10629 10630 10631 10632 10633 10634 10635 10636 10637 10638 10639 10640 10641 10642 10643 10644 10645 10646 10647 10648 10649 10650 10651 10652 10653 10654 10655 10656 10657 10658 10659 10660 10661 10662 10663 10664 10665 10666 10667 10668 10669 10670 10671 10672 10673 10674 10675 10676 10677 10678 10679 10680 10681 10682 10683 10684 10685 10686 10687 10688 10689 10690 10691 10692 10693 10694 10695 10696 10697 10698 10699 10700 10701 10702 10703 10704 10705 10706 10707 10708 10709 10710 10711 10712 10713 10714 10715 10716 10717 10718 10719 10720 10721 10722 10723 10724 10725 10726 10727 10728 10729 10730 10731 10732 10733 10734 10735 10736 10737 10738 10739 10740 10741 10742 10743 10744 10745 10746 10747 10748 10749 10750 10751 10752 10753 10754 10755 10756 10757 10758 10759 10760 10761 10762 10763 10764 10765 10766 10767 10768 10769 10770 10771 10772 10773 10774 10775 10776 10777 10778 10779 10780 10781 10782 10783 10784 10785 10786 10787 10788 10789 10790 10791 10792 10793 10794 10795 10796 10797 10798 10799 10800 10801 10802 10803 10804 10805 10806 10807 10808 10809 10810 10811 10812 10813 10814 10815 10816 10817 10818 10819 10820 10821 10822 10823 10824 10825 10826 10827 10828 10829 10830 10831 10832 10833 10834 10835 10836 10837 10838 10839 10840 10841 10842 10843 10844 10845 10846 10847 10848 10849 10850 10851 10852 10853 10854 10855 10856 10857 10858 10859 10860 10861 10862 10863 10864 10865 10866 10867 10868 10869 10870 10871 10872 10873 10874 10875 10876 10877 10878 10879 10880 10881 10882 10883 10884 10885 10886 10887 10888 10889 10890 10891 10892 10893 10894 10895 10896 10897 10898 10899 10900 10901 10902 10903 10904 10905 10906 10907 10908 10909 10910 10911 10912 10913 10914 10915 10916 10917 10918 10919 10920 10921 10922 10923 10924 10925 10926 10927 10928 10929 10930 10931 10932 10933 10934 10935 10936 10937 10938 10939 10940 10941 10942 10943 10944 10945 10946 10947 10948 10949 10950 10951 10952 10953 10954 10955 10956 10957 10958 10959 10960 10961 10962 10963 10964 10965 10966 10967 10968 10969 10970 10971 10972 10973 10974 10975 10976 10977 10978 10979 10980 10981 10982 10983 10984 10985 10986 10987 10988 10989 10990 10991 10992 10993 10994 10995 10996 10997 10998 10999 11000 11001 11002 11003 11004 11005 11006 11007 11008 11009 11010 11011 11012 11013 11014 11015 11016 11017 11018 11019 11020 11021 11022 11023 11024 11025 11026 11027 11028 11029 11030 11031 11032 11033 11034 11035 11036 11037 11038 11039 11040 11041 11042 11043 11044 11045 11046 11047 11048 11049 11050 11051 11052 11053 11054 11055 11056 11057 11058 11059 11060 11061 11062 11063 11064 11065 11066 11067 11068 11069 11070 11071 11072 11073 11074 11075 11076 11077 11078 11079 11080 11081 11082 11083 11084 11085 11086 11087 11088 11089 11090 11091 11092 11093 11094 11095 11096 11097 11098 11099 11100 11101 11102 11103 11104 11105 11106 11107 11108 11109 11110 11111 11112 11113 11114 11115 11116 11117 11118 11119 11120 11121 11122 11123 11124 11125 11126 11127 11128 11129 11130 11131 11132 11133 11134 11135 11136 11137 11138 11139 11140 11141 11142 11143 11144 11145 11146 11147 11148 11149 11150 11151 11152 11153 11154 11155 11156 11157 11158 11159 11160 11161 11162 11163 11164 11165 11166 11167 11168 11169 11170 11171 11172 11173 11174 11175 11176 11177 11178 11179 11180 11181 11182 11183 11184 11185 11186 11187 11188 11189 11190 11191 11192 11193 11194 11195 11196 11197 11198 11199 11200 11201 11202 11203 11204 11205 11206 11207 11208 11209 11210 11211 11212 11213 11214 11215 11216 11217 11218 11219 11220 11221 11222 11223 11224 11225 11226 11227 11228 11229 11230 11231 11232 11233 11234 11235 11236 11237 11238 11239 11240 11241 11242 11243 11244 11245 11246 11247 11248 11249 11250 11251 11252 11253 11254 11255 11256 11257 11258 11259 11260 11261 11262 11263 11264 11265 11266 11267 11268 11269 11270 11271 11272 11273 11274 11275 11276 11277 11278 11279 11280 11281 11282 11283 11284 11285 11286 11287 11288 11289 11290 11291 11292 11293 11294 11295 11296 11297 11298 11299 11300 11301 11302 11303 11304 11305 11306 11307 11308 11309 11310 11311 11312 11313 11314 11315 11316 11317 11318 11319 11320 11321 11322 11323 11324 11325 11326 11327 11328 11329 11330 11331 11332 11333 11334 11335 11336 11337 11338 11339 11340 11341 11342 11343 11344 11345 11346 11347 11348 11349 11350 11351 11352 11353 11354 11355 11356 11357 11358 11359 11360 11361 11362 11363 11364 11365 11366 11367 11368 11369 11370 11371 11372 11373 11374 11375 11376 11377 11378 11379 11380 11381 11382 11383 11384 11385 11386 11387 11388 11389 11390 11391 11392 11393 11394 11395 11396 11397 11398 11399 11400 11401 11402 11403 11404 11405 11406 11407 11408 11409 11410 11411 11412 11413 11414 11415 11416 11417 11418 11419 11420 11421 11422 11423 11424 11425 11426 11427 11428 11429 11430 11431 11432 11433 11434 11435 11436 11437 11438 11439 11440 11441 11442 11443 11444 11445 11446 11447 11448 11449 11450 11451 11452 11453 11454 11455 11456 11457 11458 11459 11460 11461 11462 11463 11464 11465 11466 11467 11468 11469 11470 11471 11472 11473 11474 11475 11476 11477 11478 11479 11480 11481 11482 11483 11484 11485 11486 11487 11488 11489 11490 11491 11492 11493 11494 11495 11496 11497 11498 11499 11500 11501 11502 11503 11504 11505 11506 11507 11508 11509 11510 11511 11512 11513 11514 11515 11516 11517 11518 11519 11520 11521 11522 11523 11524 11525 11526 11527 11528 11529 11530 11531 11532 11533 11534 11535 11536 11537 11538 11539 11540 11541 11542 11543 11544 11545 11546 11547 11548 11549 11550 11551 11552 11553 11554 11555 11556 11557 11558 11559 11560 11561 11562 11563 11564 11565 11566 11567 11568 11569 11570 11571 11572 11573 11574 11575 11576 11577 11578 11579 11580 11581 11582 11583 11584 11585 11586 11587 11588 11589 11590 11591 11592 11593 11594 11595 11596 11597 11598 11599 11600 11601 11602 11603 11604 11605 11606 11607 11608 11609 11610 11611 11612 11613 11614 11615 11616 11617 11618 11619 11620 11621 11622 11623 11624 11625 11626 11627 11628 11629 11630 11631 11632 11633 11634 11635 11636 11637 11638 11639 11640 11641 11642 11643 11644 11645 11646 11647 11648 11649 11650 11651 11652 11653 11654 11655 11656 11657 11658 11659 11660 11661 11662 11663 11664 11665 11666 11667 11668 11669 11670 11671 11672 11673 11674 11675 11676 11677 11678 11679 11680 11681 11682 11683 11684 11685 11686 11687 11688 11689 11690 11691 11692 11693 11694 11695 11696 11697 11698 11699 11700 11701 11702 11703 11704 11705 11706 11707 11708 11709 11710 11711 11712 11713 11714 11715 11716 11717 11718 11719 11720 11721 11722 11723 11724 11725 11726 11727 11728 11729 11730 11731 11732 11733 11734 11735 11736 11737 11738 11739 11740 11741 11742 11743 11744 11745 11746 11747 11748 11749 11750 11751 11752 11753 11754 11755 11756 11757 11758 11759 11760 11761 11762 11763 11764 11765 11766 11767 11768 11769 11770 11771 11772 11773 11774 11775 11776 11777 11778 11779 11780 11781 11782 11783 11784 11785 11786 11787 11788 11789 11790 11791 11792 11793 11794 11795 11796 11797 11798 11799 11800 11801 11802 11803 11804 11805 11806 11807 11808 11809 11810 11811 11812 11813 11814 11815 11816 11817 11818 11819 11820 11821 11822 11823 11824 11825 11826 11827 11828 11829 11830 11831 11832 11833 11834 11835 11836 11837 11838 11839 11840 11841 11842 11843 11844 11845 11846 11847 11848 11849 11850 11851 11852 11853 11854 11855 11856 11857 11858 11859 11860 11861 11862 11863 11864 11865 11866 11867 11868 11869 11870 11871 11872 11873 11874 11875 11876 11877 11878 11879 11880 11881 11882 11883 11884 11885 11886 11887 11888 11889 11890 11891 11892 11893 11894 11895 11896 11897 11898 11899 11900 11901 11902 11903 11904 11905 11906 11907 11908 11909 11910 11911 11912 11913 11914 11915 11916 11917 11918 11919 11920 11921 11922 11923 11924 11925 11926 11927 11928 11929 11930 11931 11932 11933 11934 11935 11936 11937 11938 11939 11940 11941 11942 11943 11944 11945 11946 11947 11948 11949 11950 11951 11952 11953 11954 11955 11956 11957 11958 11959 11960 11961 11962 11963 11964 11965 11966 11967 11968 11969 11970 11971 11972 11973 11974 11975 11976 11977 11978 11979 11980 11981 11982 11983 11984 11985 11986 11987 11988 11989 11990 11991 11992 11993 11994 11995 11996 11997 11998 11999 12000 12001 12002 12003 12004 12005 12006 12007 12008 12009 12010 12011 12012 12013 12014 12015 12016 12017 12018 12019 12020 12021 12022 12023 12024 12025 12026 12027 12028 12029 12030 12031 12032 12033 12034 12035 12036 12037 12038 12039 12040 12041 12042 12043 12044 12045 12046 12047 12048 12049 12050 12051 12052 12053 12054 12055 12056 12057 12058 12059 12060 12061 12062 12063 12064 12065 12066 12067 12068 12069 12070 12071 12072 12073 12074 12075 12076 12077 12078 12079 12080 12081 12082 12083 12084 12085 12086 12087 12088 12089 12090 12091 12092 12093 12094 12095 12096 12097 12098 12099 12100 12101 12102 12103 12104 12105 12106 12107 12108 12109 12110 12111 12112 12113 12114 12115 12116 12117 12118 12119 12120 12121 12122 12123 12124 12125 12126 12127 12128 12129 12130 12131 12132 12133 12134 12135 12136 12137 12138 12139 12140 12141 12142 12143 12144 12145 12146 12147 12148 12149 12150 12151 12152 12153 12154 12155 12156 12157 12158 12159 12160 12161 12162 12163 12164 12165 12166 12167 12168 12169 12170 12171 12172 12173 12174 12175 12176 12177 12178 12179 12180 12181 12182 12183 12184 12185 12186 12187 12188 12189 12190 12191 12192 12193 12194 12195 12196 12197 12198 12199 12200 12201 12202 12203 12204 12205 12206 12207 12208 12209 12210 12211 12212 12213 12214 12215 12216 12217 12218 12219 12220 12221 12222 12223 12224 12225 12226 12227 12228 12229 12230 12231 12232 12233 12234 12235 12236 12237 12238 12239 12240 12241 12242 12243 12244 12245 12246 12247 12248 12249 12250 12251 12252 12253 12254 12255 12256 12257 12258 12259 12260 12261 12262 12263 12264 12265 12266 12267 12268 12269 12270 12271 12272 12273 12274 12275 12276 12277 12278 12279 12280 12281 12282 12283 12284 12285 12286 12287 12288 12289 12290 12291 12292 12293 12294 12295 12296 12297 12298 12299 12300 12301 12302 12303 12304 12305 12306 12307 12308 12309 12310 12311 12312 12313 12314 12315 12316 12317 12318 12319 12320 12321 12322 12323 12324 12325 12326 12327 12328 12329 12330 12331 12332 12333 12334 12335 12336 12337 12338 12339 12340 12341 12342 12343 12344 12345 12346 12347 12348 12349 12350 12351 12352 12353 12354 12355 12356 12357 12358 12359 12360 12361 12362 12363 12364 12365 12366 12367 12368 12369 12370 12371 12372 12373 12374 12375 12376 12377 12378 12379 12380 12381 12382 12383 12384 12385 12386 12387 12388 12389 12390 12391 12392 12393 12394 12395 12396 12397 12398 12399 12400 12401 12402 12403 12404 12405 12406 12407 12408 12409 12410 12411 12412 12413 12414 12415 12416 12417 12418 12419 12420 12421 12422 12423 12424 12425 12426 12427 12428 12429 12430 12431 12432 12433 12434 12435 12436 12437 12438 12439 12440 12441 12442 12443 12444 12445 12446 12447 12448 12449 12450 12451 12452 12453 12454 12455 12456 12457 12458 12459 12460 12461 12462 12463 12464 12465 12466 12467 12468 12469 12470 12471 12472 12473 12474 12475 12476 12477 12478 12479 12480 12481 12482 12483 12484 12485 12486 12487 12488 12489 12490 12491 12492 12493 12494 12495 12496 12497 12498 12499 12500 12501 12502 12503 12504 12505 12506 12507 12508 12509 12510 12511 12512 12513 12514 12515 12516 12517 12518 12519 12520 12521 12522 12523 12524 12525 12526 12527 12528 12529 12530 12531 12532 12533 12534 12535 12536 12537 12538 12539 12540 12541 12542 12543 12544 12545 12546 12547 12548 12549 12550 12551 12552 12553 12554 12555 12556 12557 12558 12559 12560 12561 12562 12563 12564 12565 12566 12567 12568 12569 12570 12571 12572 12573 12574 12575 12576 12577 12578 12579 12580 12581 12582 12583 12584 12585 12586 12587 12588 12589 12590 12591 12592 12593 12594 12595 12596 12597 12598 12599 12600 12601 12602 12603 12604 12605 12606 12607 12608 12609 12610 12611 12612 12613 12614 12615 12616 12617 12618 12619 12620 12621 12622 12623 12624 12625 12626 12627 12628 12629 12630 12631 12632 12633 12634 12635 12636 12637 12638 12639 12640 12641 12642 12643 12644 12645 12646 12647 12648 12649 12650 12651 12652 12653 12654 12655 12656 12657 12658 12659 12660 12661 12662 12663 12664 12665 12666 12667 12668 12669 12670 12671 12672 12673 12674 12675 12676 12677 12678 12679 12680 12681 12682 12683 12684 12685 12686 12687 12688 12689 12690 12691 12692 12693 12694 12695 12696 12697 12698 12699 12700 12701 12702 12703 12704 12705 12706 12707 12708 12709 12710 12711 12712 12713 12714 12715 12716 12717 12718 12719 12720 12721 12722 12723 12724 12725 12726 12727 12728 12729 12730 12731 12732 12733 12734 12735 12736 12737 12738 12739 12740 12741 12742 12743 12744 12745 12746 12747 12748 12749 12750 12751 12752 12753 12754 12755 12756 12757 12758 12759 12760 12761 12762 12763 12764 12765 12766 12767 12768 12769 12770 12771 12772 12773 12774 12775 12776 12777 12778 12779 12780 12781 12782 12783 12784 12785 12786 12787 12788 12789 12790 12791 12792 12793 12794 12795 12796 12797 12798 12799 12800 12801 12802 12803 12804 12805 12806 12807 12808 12809 12810 12811 12812 12813 12814 12815 12816 12817 12818 12819 12820 12821 12822 12823 12824 12825 12826 12827 12828 12829 12830 12831 12832 12833 12834 12835 12836 12837 12838 12839 12840 12841 12842 12843 12844 12845 12846 12847 12848 12849 12850 12851 12852 12853 12854 12855 12856 12857 12858 12859 12860 12861 12862 12863 12864 12865 12866 12867 12868 12869 12870 12871 12872 12873 12874 12875 12876 12877 12878 12879 12880 12881 12882 12883 12884 12885 12886 12887 12888 12889 12890 12891 12892 12893 12894 12895 12896 12897 12898 12899 12900 12901 12902 12903 12904 12905 12906 12907 12908 12909 12910 12911 12912 12913 12914 12915 12916 12917 12918 12919 12920 12921 12922 12923 12924 12925 12926 12927 12928 12929 12930 12931 12932 12933 12934 12935 12936 12937 12938 12939 12940 12941 12942 12943 12944 12945 12946 12947 12948 12949 12950 12951 12952 12953 12954 12955 12956 12957 12958 12959 12960 12961 12962 12963 12964 12965 12966 12967 12968 12969 12970 12971 12972 12973 12974 12975 12976 12977 12978 12979 12980 12981 12982 12983 12984 12985 12986 12987 12988 12989 12990 12991 12992 12993 12994 12995 12996 12997 12998 12999 13000 13001 13002 13003 13004 13005 13006 13007 13008 13009 13010 13011 13012 13013 13014 13015 13016 13017 13018 13019 13020 13021 13022 13023 13024 13025 13026 13027 13028 13029 13030 13031 13032 13033 13034 13035 13036 13037 13038 13039 13040 13041 13042 13043 13044 13045 13046 13047 13048 13049 13050 13051 13052 13053 13054 13055 13056 13057 13058 13059 13060 13061 13062 13063 13064 13065 13066 13067 13068 13069 13070 13071 13072 13073 13074 13075 13076 13077 13078 13079 13080 13081 13082 13083 13084 13085 13086 13087 13088 13089 13090 13091 13092 13093 13094 13095 13096 13097 13098 13099 13100 13101 13102 13103 13104 13105 13106 13107 13108 13109 13110 13111 13112 13113 13114 13115 13116 13117 13118 13119 13120 13121 13122 13123 13124 13125 13126 13127 13128 13129 13130 13131 13132 13133 13134 13135 13136 13137 13138 13139 13140 13141 13142 13143 13144 13145 13146 13147 13148 13149 13150 13151 13152 13153 13154 13155 13156 13157 13158 13159 13160 13161 13162 13163 13164 13165 13166 13167 13168 13169 13170 13171 13172 13173 13174 13175 13176 13177 13178 13179 13180 13181 13182 13183 13184 13185 13186 13187 13188 13189 13190 13191 13192 13193 13194 13195 13196 13197 13198 13199 13200 13201 13202 13203 13204 13205 13206 13207 13208 13209 13210 13211 13212 13213 13214 13215 13216 13217 13218 13219 13220 13221 13222 13223 13224 13225 13226 13227 13228 13229 13230 13231 13232 13233 13234 13235 13236 13237 13238 13239 13240 13241 13242 13243 13244 13245 13246 13247 13248 13249 13250 13251 13252 13253 13254 13255 13256 13257 13258 13259 13260 13261 13262 13263 13264 13265 13266 13267 13268 13269 13270 13271 13272 13273 13274 13275 13276 13277 13278 13279 13280 13281 13282 13283 13284 13285 13286 13287 13288 13289 13290 13291 13292 13293 13294 13295 13296 13297 13298 13299 13300 13301 13302 13303 13304 13305 13306 13307 13308 13309 13310 13311 13312 13313 13314 13315 13316 13317 13318 13319 13320 13321 13322 13323 13324 13325 13326 13327 13328 13329 13330 13331 13332 13333 13334 13335 13336 13337 13338 13339 13340 13341 13342 13343 13344 13345 13346 13347 13348 13349 13350 13351 13352 13353 13354 13355 13356 13357 13358 13359 13360 13361 13362 13363 13364 13365 13366 13367 13368 13369 13370 13371 13372 13373 13374 13375 13376 13377 13378 13379 13380 13381 13382 13383 13384 13385 13386 13387 13388 13389 13390 13391 13392 13393 13394 13395 13396 13397 13398 13399 13400 13401 13402 13403 13404 13405 13406 13407 13408 13409 13410 13411 13412 13413 13414 13415 13416 13417 13418 13419 13420 13421 13422 13423 13424 13425 13426 13427 13428 13429 13430 13431 13432 13433 13434 13435 13436 13437 13438 13439 13440 13441 13442 13443 13444 13445 13446 13447 13448 13449 13450 13451 13452 13453 13454 13455 13456 13457 13458 13459 13460 13461 13462 13463 13464 13465 13466 13467 13468 13469 13470 13471 13472 13473 13474 13475 13476 13477 13478 13479 13480 13481 13482 13483 13484 13485 13486 13487 13488 13489 13490 13491 13492 13493 13494 13495 13496 13497 13498 13499 13500 13501 13502 13503 13504 13505 13506 13507 13508 13509 13510 13511 13512 13513 13514 13515 13516 13517 13518 13519 13520 13521 13522 13523 13524 13525 13526 13527 13528 13529 13530 13531 13532 13533 13534 13535 13536 13537 13538 13539 13540 13541 13542 13543 13544 13545 13546 13547 13548 13549 13550 13551 13552 13553 13554 13555 13556 13557 13558 13559 13560 13561 13562 13563 13564 13565 13566 13567 13568 13569 13570 13571 13572 13573 13574 13575 13576 13577 13578 13579 13580 13581 13582 13583 13584 13585 13586 13587 13588 13589 13590 13591 13592 13593 13594 13595 13596 13597 13598 13599 13600 13601 13602 13603 13604 13605 13606 13607 13608 13609 13610 13611 13612 13613 13614 13615 13616 13617 13618 13619 13620 13621 13622 13623 13624 13625 13626 13627 13628 13629 13630 13631 13632 13633 13634 13635 13636 13637 13638 13639 13640 13641 13642 13643 13644 13645 13646 13647 13648 13649 13650 13651 13652 13653 13654 13655 13656 13657 13658 13659 13660 13661 13662 13663 13664 13665 13666 13667 13668 13669 13670 13671 13672 13673 13674 13675 13676 13677 13678 13679 13680 13681 13682 13683 13684 13685 13686 13687 13688 13689 13690 13691 13692 13693 13694 13695 13696 13697 13698 13699 13700 13701 13702 13703 13704 13705 13706 13707 13708 13709 13710 13711 13712 13713 13714 13715 13716 13717 13718 13719 13720 13721 13722 13723 13724 13725 13726 13727 13728 13729 13730 13731 13732 13733 13734 13735 13736 13737 13738 13739 13740 13741 13742 13743 13744 13745 13746 13747 13748 13749 13750 13751 13752 13753 13754 13755 13756 13757 13758 13759 13760 13761 13762 13763 13764 13765 13766 13767 13768 13769 13770 13771 13772 13773 13774 13775 13776 13777 13778 13779 13780 13781 13782 13783 13784 13785 13786 13787 13788 13789 13790 13791 13792 13793 13794 13795 13796 13797 13798 13799 13800 13801 13802 13803 13804 13805 13806 13807 13808 13809 13810 13811 13812 13813 13814 13815 13816 13817 13818 13819 13820 13821 13822 13823 13824 13825 13826 13827 13828 13829 13830 13831 13832 13833 13834 13835 13836 13837 13838 13839 13840 13841 13842 13843 13844 13845 13846 13847 13848 13849 13850 13851 13852 13853 13854 13855 13856 13857 13858 13859 13860 13861 13862 13863 13864 13865 13866 13867 13868 13869 13870 13871 13872 13873 13874 13875 13876 13877 13878 13879 13880 13881 13882 13883 13884 13885 13886 13887 13888 13889 13890 13891 13892 13893 13894 13895 13896 13897 13898 13899 13900 13901 13902 13903 13904 13905 13906 13907 13908 13909 13910 13911 13912 13913 13914 13915 13916 13917 13918 13919 13920 13921 13922 13923 13924 13925 13926 13927 13928 13929 13930 13931 13932 13933 13934 13935 13936 13937 13938 13939 13940 13941 13942 13943 13944 13945 13946 13947 13948 13949 13950 13951 13952 13953 13954 13955 13956 13957 13958 13959 13960 13961 13962 13963 13964 13965 13966 13967 13968 13969 13970 13971 13972 13973 13974 13975 13976 13977 13978 13979 13980 13981 13982 13983 13984 13985 13986 13987 13988 13989 13990 13991 13992 13993 13994 13995 13996 13997 13998 13999 14000 14001 14002 14003 14004 14005 14006 14007 14008 14009 14010 14011 14012 14013 14014 14015 14016 14017 14018 14019 14020 14021 14022 14023 14024 14025 14026 14027 14028 14029 14030 14031 14032 14033 14034 14035 14036 14037 14038 14039 14040 14041 14042 14043 14044 14045 14046 14047 14048 14049 14050 14051 14052 14053 14054 14055 14056 14057 14058 14059 14060 14061 14062 14063 14064 14065 14066 14067 14068 14069 14070 14071 14072 14073 14074 14075 14076 14077 14078 14079 14080 14081 14082 14083 14084 14085 14086 14087 14088 14089 14090 14091 14092 14093 14094 14095 14096 14097 14098 14099 14100 14101 14102 14103 14104 14105 14106 14107 14108 14109 14110 14111 14112 14113 14114 14115 14116 14117 14118 14119 14120 14121 14122 14123 14124 14125 14126 14127 14128 14129 14130 14131 14132 14133 14134 14135 14136 14137 14138 14139 14140 14141 14142 14143 14144 14145 14146 14147 14148 14149 14150 14151 14152 14153 14154 14155 14156 14157 14158 14159 14160 14161 14162 14163 14164 14165 14166 14167 14168 14169 14170 14171 14172 14173 14174 14175 14176 14177 14178 14179 14180 14181 14182 14183 14184 14185 14186 14187 14188 14189 14190 14191 14192 14193 14194 14195 14196 14197 14198 14199 14200 14201 14202 14203 14204 14205 14206 14207 14208 14209 14210 14211 14212 14213 14214 14215 14216 14217 14218 14219 14220 14221 14222 14223 14224 14225 14226 14227 14228 14229 14230 14231 14232 14233 14234 14235 14236 14237 14238 14239 14240 14241 14242 14243 14244 14245 14246 14247 14248 14249 14250 14251 14252 14253 14254 14255 14256 14257 14258 14259 14260 14261 14262 14263 14264 14265 14266 14267 14268 14269 14270 14271 14272 14273 14274 14275 14276 14277 14278 14279 14280 14281 14282 14283 14284 14285 14286 14287 14288 14289 14290 14291 14292 14293 14294 14295 14296 14297 14298 14299 14300 14301 14302 14303 14304 14305 14306 14307 14308 14309 14310 14311 14312 14313 14314 14315 14316 14317 14318 14319 14320 14321 14322 14323 14324 14325 14326 14327 14328 14329 14330 14331 14332 14333 14334 14335 14336 14337 14338 14339 14340 14341 14342 14343 14344 14345 14346 14347 14348 14349 14350 14351 14352 14353 14354 14355 14356 14357 14358 14359 14360 14361 14362 14363 14364 14365 14366 14367 14368 14369 14370 14371 14372 14373 14374 14375 14376 14377 14378 14379 14380 14381 14382 14383 14384 14385 14386 14387 14388 14389 14390 14391 14392 14393 14394 14395 14396 14397 14398 14399 14400 14401 14402 14403 14404 14405 14406 14407 14408 14409 14410 14411 14412 14413 14414 14415 14416 14417 14418 14419 14420 14421 14422 14423 14424 14425 14426 14427 14428 14429 14430 14431 14432 14433 14434 14435 14436 14437 14438 14439 14440 14441 14442 14443 14444 14445 14446 14447 14448 14449 14450 14451 14452 14453 14454 14455 14456 14457 14458 14459 14460 14461 14462 14463 14464 14465 14466 14467 14468 14469 14470 14471 14472 14473 14474 14475 14476 14477 14478 14479 14480 14481 14482 14483 14484 14485 14486 14487 14488 14489 14490 14491 14492 14493 14494 14495 14496 14497 14498 14499 14500 14501 14502 14503 14504 14505 14506 14507 14508 14509 14510 14511 14512 14513 14514 14515 14516 14517 14518 14519 14520 14521 14522 14523 14524 14525 14526 14527 14528 14529 14530 14531 14532 14533 14534 14535 14536 14537 14538 14539 14540 14541 14542 14543 14544 14545 14546 14547 14548 14549 14550 14551 14552 14553 14554 14555 14556 14557 14558 14559 14560 14561 14562 14563 14564 14565 14566 14567 14568 14569 14570 14571 14572 14573 14574 14575 14576 14577 14578 14579 14580 14581 14582 14583 14584 14585 14586 14587 14588 14589 14590 14591 14592 14593 14594 14595 14596 14597 14598 14599 14600 14601 14602 14603 14604 14605 14606 14607 14608 14609 14610 14611 14612 14613 14614 14615 14616 14617 14618 14619 14620 14621 14622 14623 14624 14625 14626 14627 14628 14629 14630 14631 14632 14633 14634 14635 14636 14637 14638 14639 14640 14641 14642 14643 14644 14645 14646 14647 14648 14649 14650 14651 14652 14653 14654 14655 14656 14657 14658 14659 14660 14661 14662 14663 14664 14665 14666 14667 14668 14669 14670 14671 14672 14673 14674 14675 14676 14677 14678 14679 14680 14681 14682 14683 14684 14685 14686 14687 14688 14689 14690 14691 14692 14693 14694 14695 14696 14697 14698 14699 14700 14701 14702 14703 14704 14705 14706 14707 14708 14709 14710 14711 14712 14713 14714 14715 14716 14717 14718 14719 14720 14721 14722 14723 14724 14725 14726 14727 14728 14729 14730 14731 14732 14733 14734 14735 14736 14737 14738 14739 14740 14741 14742 14743 14744 14745 14746 14747 14748 14749 14750 14751 14752 14753 14754 14755 14756 14757 14758 14759 14760 14761 14762 14763 14764 14765 14766 14767 14768 14769 14770 14771 14772 14773 14774 14775 14776 14777 14778 14779 14780 14781 14782 14783 14784 14785 14786 14787 14788 14789 14790 14791 14792 14793 14794 14795 14796 14797 14798 14799 14800 14801 14802 14803 14804 14805 14806 14807 14808 14809 14810 14811 14812 14813 14814 14815 14816 14817 14818 14819 14820 14821 14822 14823 14824 14825 14826 14827 14828 14829 14830 14831 14832 14833 14834 14835 14836 14837 14838 14839 14840 14841 14842 14843 14844 14845 14846 14847 14848 14849 14850 14851 14852 14853 14854 14855 14856 14857 14858 14859 14860 14861 14862 14863 14864 14865 14866 14867 14868 14869 14870 14871 14872 14873 14874 14875 14876 14877 14878 14879 14880 14881 14882 14883 14884 14885 14886 14887 14888 14889 14890 14891 14892 14893 14894 14895 14896 14897 14898 14899 14900 14901 14902 14903 14904 14905 14906 14907 14908 14909 14910 14911 14912 14913 14914 14915 14916 14917 14918 14919 14920 14921 14922 14923 14924 14925 14926 14927 14928 14929 14930 14931 14932 14933 14934 14935 14936 14937 14938 14939 14940 14941 14942 14943 14944 14945 14946 14947 14948 14949 14950 14951 14952 14953 14954 14955 14956 14957 14958 14959 14960 14961 14962 14963 14964 14965 14966 14967 14968 14969 14970 14971 14972 14973 14974 14975 14976 14977 14978 14979 14980 14981 14982 14983 14984 14985 14986 14987 14988 14989 14990 14991 14992 14993 14994 14995 14996 14997 14998 14999 15000 15001 15002 15003 15004 15005 15006 15007 15008 15009 15010 15011 15012 15013 15014 15015 15016 15017 15018 15019 15020 15021 15022 15023 15024 15025 15026 15027 15028 15029 15030 15031 15032 15033 15034 15035 15036 15037 15038 15039 15040 15041 15042 15043 15044 15045 15046 15047 15048 15049 15050 15051 15052 15053 15054 15055 15056 15057 15058 15059 15060 15061 15062 15063 15064 15065 15066 15067 15068 15069 15070 15071 15072 15073 15074 15075 15076 15077 15078 15079 15080 15081 15082 15083 15084 15085 15086 15087 15088 15089 15090 15091 15092 15093 15094 15095 15096 15097 15098 15099 15100 15101 15102 15103 15104 15105 15106 15107 15108 15109 15110 15111 15112 15113 15114 15115 15116 15117 15118 15119 15120 15121 15122 15123 15124 15125 15126 15127 15128 15129 15130 15131 15132 15133 15134 15135 15136 15137 15138 15139 15140 15141 15142 15143 15144 15145 15146 15147 15148 15149 15150 15151 15152 15153 15154 15155 15156 15157 15158 15159 15160 15161 15162 15163 15164 15165 15166 15167 15168 15169 15170 15171 15172 15173 15174 15175 15176 15177 15178 15179 15180 15181 15182 15183 15184 15185 15186 15187 15188 15189 15190 15191 15192 15193 15194 15195 15196 15197 15198 15199 15200 15201 15202 15203 15204 15205 15206 15207 15208 15209 15210 15211 15212 15213 15214 15215 15216 15217 15218 15219 15220 15221 15222 15223 15224 15225 15226 15227 15228 15229 15230 15231 15232 15233 15234 15235 15236 15237 15238 15239 15240 15241 15242 15243 15244 15245 15246 15247 15248 15249 15250 15251 15252 15253 15254 15255 15256 15257 15258 15259 15260 15261 15262 15263 15264 15265 15266 15267 15268 15269 15270 15271 15272 15273 15274 15275 15276 15277 15278 15279 15280 15281 15282 15283 15284 15285 15286 15287 15288 15289 15290 15291 15292 15293 15294 15295 15296 15297 15298 15299 15300 15301 15302 15303 15304 15305 15306 15307 15308 15309 15310 15311 15312 15313 15314 15315 15316 15317 15318 15319 15320 15321 15322 15323 15324 15325 15326 15327 15328 15329 15330 15331 15332 15333 15334 15335 15336 15337 15338 15339 15340 15341 15342 15343 15344 15345 15346 15347 15348 15349 15350 15351 15352 15353 15354 15355 15356 15357 15358 15359 15360 15361 15362 15363 15364 15365 15366 15367 15368 15369 15370 15371 15372 15373 15374 15375 15376 15377 15378 15379 15380 15381 15382 15383 15384 15385 15386 15387 15388 15389 15390 15391 15392 15393 15394 15395 15396 15397 15398 15399 15400 15401 15402 15403 15404 15405 15406 15407 15408 15409 15410 15411 15412 15413 15414 15415 15416 15417 15418 15419 15420 15421 15422 15423 15424 15425 15426 15427 15428 15429 15430 15431 15432 15433 15434 15435 15436 15437 15438 15439 15440 15441 15442 15443 15444 15445 15446 15447 15448 15449 15450 15451 15452 15453 15454 15455 15456 15457 15458 15459 15460 15461 15462 15463 15464 15465 15466 15467 15468 15469 15470 15471 15472 15473 15474 15475 15476 15477 15478 15479 15480 15481 15482 15483 15484 15485 15486 15487 15488 15489 15490 15491 15492 15493 15494 15495 15496 15497 15498 15499 15500 15501 15502 15503 15504 15505 15506 15507 15508 15509 15510 15511 15512 15513 15514 15515 15516 15517 15518 15519 15520 15521 15522 15523 15524 15525 15526 15527 15528 15529 15530 15531 15532 15533 15534 15535 15536 15537 15538 15539 15540 15541 15542 15543 15544 15545 15546 15547 15548 15549 15550 15551 15552 15553 15554 15555 15556 15557 15558 15559 15560 15561 15562 15563 15564 15565 15566 15567 15568 15569 15570 15571 15572 15573 15574 15575 15576 15577 15578 15579 15580 15581 15582 15583 15584 15585 15586 15587 15588 15589 15590 15591 15592 15593 15594 15595 15596 15597 15598 15599 15600 15601 15602 15603 15604 15605 15606 15607 15608 15609 15610 15611 15612 15613 15614 15615 15616 15617 15618 15619 15620 15621 15622 15623 15624 15625 15626 15627 15628 15629 15630 15631 15632 15633 15634 15635 15636 15637 15638 15639 15640 15641 15642 15643 15644 15645 15646 15647 15648 15649 15650 15651 15652 15653 15654 15655 15656 15657 15658 15659 15660 15661 15662 15663 15664 15665 15666 15667 15668 15669 15670 15671 15672 15673 15674 15675 15676 15677 15678 15679 15680 15681 15682 15683 15684 15685 15686 15687 15688 15689 15690 15691 15692 15693 15694 15695 15696 15697 15698 15699 15700 15701 15702 15703 15704 15705 15706 15707 15708 15709 15710 15711 15712 15713 15714 15715 15716 15717 15718 15719 15720 15721 15722 15723 15724 15725 15726 15727 15728 15729 15730 15731 15732 15733 15734 15735 15736 15737 15738 15739 15740 15741 15742 15743 15744 15745 15746 15747 15748 15749 15750 15751 15752 15753 15754 15755 15756 15757 15758 15759 15760 15761 15762 15763 15764 15765 15766 15767 15768 15769 15770 15771 15772 15773 15774 15775 15776 15777 15778 15779 15780 15781 15782 15783 15784 15785 15786 15787 15788 15789 15790 15791 15792 15793 15794 15795 15796 15797 15798 15799 15800 15801 15802 15803 15804 15805 15806 15807 15808 15809 15810 15811 15812 15813 15814 15815 15816 15817 15818 15819 15820 15821 15822 15823 15824 15825 15826 15827 15828 15829 15830 15831 15832 15833 15834 15835 15836 15837 15838 15839 15840 15841 15842 15843 15844 15845 15846 15847 15848 15849 15850 15851 15852 15853 15854 15855 15856 15857 15858 15859 15860 15861 15862 15863 15864 15865 15866 15867 15868 15869 15870 15871 15872 15873 15874 15875 15876 15877 15878 15879 15880 15881 15882 15883 15884 15885 15886 15887 15888 15889 15890 15891 15892 15893 15894 15895 15896 15897 15898 15899 15900 15901 15902 15903 15904 15905 15906 15907 15908 15909 15910 15911 15912 15913 15914 15915 15916 15917 15918 15919 15920 15921 15922 15923 15924 15925 15926 15927 15928 15929 15930 15931 15932 15933 15934 15935 15936 15937 15938 15939 15940 15941 15942 15943 15944 15945 15946 15947 15948 15949 15950 15951 15952 15953 15954 15955 15956 15957 15958 15959 15960 15961 15962 15963 15964 15965 15966 15967 15968 15969 15970 15971 15972 15973 15974 15975 15976 15977 15978 15979 15980 15981 15982 15983 15984 15985 15986 15987 15988 15989 15990 15991 15992 15993 15994 15995 15996 15997 15998 15999 16000 16001 16002 16003 16004 16005 16006 16007 16008 16009 16010 16011 16012 16013 16014 16015 16016 16017 16018 16019 16020 16021 16022 16023 16024 16025 16026 16027 16028 16029 16030 16031 16032 16033 16034 16035 16036 16037 16038 16039 16040 16041 16042 16043 16044 16045 16046 16047 16048 16049 16050 16051 16052 16053 16054 16055 16056 16057 16058 16059 16060 16061 16062 16063 16064 16065 16066 16067 16068 16069 16070 16071 16072 16073 16074 16075 16076 16077 16078 16079 16080 16081 16082 16083 16084 16085 16086 16087 16088 16089 16090 16091 16092 16093 16094 16095 16096 16097 16098 16099 16100 16101 16102 16103 16104 16105 16106 16107 16108 16109 16110 16111 16112 16113 16114 16115 16116 16117 16118 16119 16120 16121 16122 16123 16124 16125 16126 16127 16128 16129 16130 16131 16132 16133 16134 16135 16136 16137 16138 16139 16140 16141 16142 16143 16144 16145 16146 16147 16148 16149 16150 16151 16152 16153 16154 16155 16156 16157 16158 16159 16160 16161 16162 16163 16164 16165 16166 16167 16168 16169 16170 16171 16172 16173 16174 16175 16176 16177 16178 16179 16180 16181 16182 16183 16184 16185 16186 16187 16188 16189 16190 16191 16192 16193 16194 16195 16196 16197 16198 16199 16200 16201 16202 16203 16204 16205 16206 16207 16208 16209 16210 16211 16212 16213 16214 16215 16216 16217 16218 16219 16220 16221 16222 16223 16224 16225 16226 16227 16228 16229 16230 16231 16232 16233 16234 16235 16236 16237 16238 16239 16240 16241 16242 16243 16244 16245 16246 16247 16248 16249 16250 16251 16252 16253 16254 16255 16256 16257 16258 16259 16260 16261 16262 16263 16264 16265 16266 16267 16268 16269 16270 16271 16272 16273 16274 16275 16276 16277 16278 16279 16280 16281 16282 16283 16284 16285 16286 16287 16288 16289 16290 16291 16292 16293 16294 16295 16296 16297 16298 16299 16300 16301 16302 16303 16304 16305 16306 16307 16308 16309 16310 16311 16312 16313 16314 16315 16316 16317 16318 16319 16320 16321 16322 16323 16324 16325 16326 16327 16328 16329 16330 16331 16332 16333 16334 16335 16336 16337 16338 16339 16340 16341 16342 16343 16344 16345 16346 16347 16348 16349 16350 16351 16352 16353 16354 16355 16356 16357 16358 16359 16360 16361 16362 16363 16364 16365 16366 16367 16368 16369 16370 16371 16372 16373 16374 16375 16376 16377 16378 16379 16380 16381 16382 16383 16384 16385 16386 16387 16388 16389 16390 16391 16392 16393 16394 16395 16396 16397 16398 16399 16400 16401 16402 16403 16404 16405 16406 16407 16408 16409 16410 16411 16412 16413 16414 16415 16416 16417 16418 16419 16420 16421 16422 16423 16424 16425 16426 16427 16428 16429 16430 16431 16432 16433 16434 16435 16436 16437 16438 16439 16440 16441 16442 16443 16444 16445 16446 16447 16448 16449 16450 16451 16452 16453 16454 16455 16456 16457 16458 16459 16460 16461 16462 16463 16464 16465 16466 16467 16468 16469 16470 16471 16472 16473 16474 16475 16476 16477 16478 16479 16480 16481 16482 16483 16484 16485 16486 16487 16488 16489 16490 16491 16492 16493 16494 16495 16496 16497 16498 16499 16500 16501 16502 16503 16504 16505 16506 16507 16508 16509 16510 16511 16512 16513 16514 16515 16516 16517 16518 16519 16520 16521 16522 16523 16524 16525 16526 16527 16528 16529 16530 16531 16532 16533 16534 16535 16536 16537 16538 16539 16540 16541 16542 16543 16544 16545 16546 16547 16548 16549 16550 16551 16552 16553 16554 16555 16556 16557 16558 16559 16560 16561 16562 16563 16564 16565 16566 16567 16568 16569 16570 16571 16572 16573 16574 16575 16576 16577 16578 16579 16580 16581 16582 16583 16584 16585 16586 16587 16588 16589 16590 16591 16592 16593 16594 16595 16596 16597 16598 16599 16600 16601 16602 16603 16604 16605 16606 16607 16608 16609 16610 16611 16612 16613 16614 16615 16616 16617 16618 16619 16620 16621 16622 16623 16624 16625 16626 16627 16628 16629 16630 16631 16632 16633 16634 16635 16636 16637 16638 16639 16640 16641 16642 16643 16644 16645 16646 16647 16648 16649 16650 16651 16652 16653 16654 16655 16656 16657 16658 16659 16660 16661 16662 16663 16664 16665 16666 16667 16668 16669 16670 16671 16672 16673 16674 16675 16676 16677 16678 16679 16680 16681 16682 16683 16684 16685 16686 16687 16688 16689 16690 16691 16692 16693 16694 16695 16696 16697 16698 16699 16700 16701 16702 16703 16704 16705 16706 16707 16708 16709 16710 16711 16712 16713 16714 16715 16716 16717 16718 16719 16720 16721 16722 16723 16724 16725 16726 16727 16728 16729 16730 16731 16732 16733 16734 16735 16736 16737 16738 16739 16740 16741 16742 16743 16744 16745 16746 16747 16748 16749 16750 16751 16752 16753 16754 16755 16756 16757 16758 16759 16760 16761 16762 16763 16764 16765 16766 16767 16768 16769 16770 16771 16772 16773 16774 16775 16776 16777 16778 16779 16780 16781 16782 16783 16784 16785 16786 16787 16788 16789 16790 16791 16792 16793 16794 16795 16796 16797 16798 16799 16800 16801 16802 16803 16804 16805 16806 16807 16808 16809 16810 16811 16812 16813 16814 16815 16816 16817 16818 16819 16820 16821 16822 16823 16824 16825 16826 16827 16828 16829 16830 16831 16832 16833 16834 16835 16836 16837 16838 16839 16840 16841 16842 16843 16844 16845 16846 16847 16848 16849 16850 16851 16852 16853 16854 16855 16856 16857 16858 16859 16860 16861 16862 16863 16864 16865 16866 16867 16868 16869 16870 16871 16872 16873 16874 16875 16876 16877 16878 16879 16880 16881 16882 16883 16884 16885 16886 16887 16888 16889 16890 16891 16892 16893 16894 16895 16896 16897 16898 16899 16900 16901 16902 16903 16904 16905 16906 16907 16908 16909 16910 16911 16912 16913 16914 16915 16916 16917 16918 16919 16920 16921 16922 16923 16924 16925 16926 16927 16928 16929 16930 16931 16932 16933 16934 16935 16936 16937 16938 16939 16940 16941 16942 16943 16944 16945 16946 16947 16948 16949 16950 16951 16952 16953 16954 16955 16956 16957 16958 16959 16960 16961 16962 16963 16964 16965 16966 16967 16968 16969 16970 16971 16972 16973 16974 16975 16976 16977 16978 16979 16980 16981 16982 16983 16984 16985 16986 16987 16988 16989 16990 16991 16992 16993 16994 16995 16996 16997 16998 16999 17000 17001 17002 17003 17004 17005 17006 17007 17008 17009 17010 17011 17012 17013 17014 17015 17016 17017 17018 17019 17020 17021 17022 17023 17024 17025 17026 17027 17028 17029 17030 17031 17032 17033 17034 17035 17036 17037 17038 17039 17040 17041 17042 17043 17044 17045 17046 17047 17048 17049 17050 17051 17052 17053 17054 17055 17056 17057 17058 17059 17060 17061 17062 17063 17064 17065 17066 17067 17068 17069 17070 17071 17072 17073 17074 17075 17076 17077 17078 17079 17080 17081 17082 17083 17084 17085 17086 17087 17088 17089 17090 17091 17092 17093 17094 17095 17096 17097 17098 17099 17100 17101 17102 17103 17104 17105 17106 17107 17108 17109 17110 17111 17112 17113 17114 17115 17116 17117 17118 17119 17120 17121 17122 17123 17124 17125 17126 17127 17128 17129 17130 17131 17132 17133 17134 17135 17136 17137 17138 17139 17140 17141 17142 17143 17144 17145 17146 17147 17148 17149 17150 17151 17152 17153 17154 17155 17156 17157 17158 17159 17160 17161 17162 17163 17164 17165 17166 17167 17168 17169 17170 17171 17172 17173 17174 17175 17176 17177 17178 17179 17180 17181 17182 17183 17184 17185 17186 17187 17188 17189 17190 17191 17192 17193 17194 17195 17196 17197 17198 17199 17200 17201 17202 17203 17204 17205 17206 17207 17208 17209 17210 17211 17212 17213 17214 17215 17216 17217 17218 17219 17220 17221 17222 17223 17224 17225 17226 17227 17228 17229 17230 17231 17232 17233 17234 17235 17236 17237 17238 17239 17240 17241 17242 17243 17244 17245 17246 17247 17248 17249 17250 17251 17252 17253 17254 17255 17256 17257 17258 17259 17260 17261 17262 17263 17264 17265 17266 17267 17268 17269 17270 17271 17272 17273 17274 17275 17276 17277 17278 17279 17280 17281 17282 17283 17284 17285 17286 17287 17288 17289 17290 17291 17292 17293 17294 17295 17296 17297 17298 17299 17300 17301 17302 17303 17304 17305 17306 17307 17308 17309 17310 17311 17312 17313 17314 17315 17316 17317 17318 17319 17320 17321 17322 17323 17324 17325 17326 17327 17328 17329 17330 17331 17332 17333 17334 17335 17336 17337 17338 17339 17340 17341 17342 17343 17344 17345 17346 17347 17348 17349 17350 17351 17352 17353 17354 17355 17356 17357 17358 17359 17360 17361 17362 17363 17364 17365 17366 17367 17368 17369 17370 17371 17372 17373 17374 17375 17376 17377 17378 17379 17380 17381 17382 17383 17384 17385 17386 17387 17388 17389 17390 17391 17392 17393 17394 17395 17396 17397 17398 17399 17400 17401 17402 17403 17404 17405 17406 17407 17408 17409 17410 17411 17412 17413 17414 17415 17416 17417 17418 17419 17420 17421 17422 17423 17424 17425 17426 17427 17428 17429 17430 17431 17432 17433 17434 17435 17436 17437 17438 17439 17440 17441 17442 17443 17444 17445 17446 17447 17448 17449 17450 17451 17452 17453 17454 17455 17456 17457 17458 17459 17460 17461 17462 17463 17464 17465 17466 17467 17468 17469 17470 17471 17472 17473 17474 17475 17476 17477 17478 17479 17480 17481 17482 17483 17484 17485 17486 17487 17488 17489 17490 17491 17492 17493 17494 17495 17496 17497 17498 17499 17500 17501 17502 17503 17504 17505 17506 17507 17508 17509 17510 17511 17512 17513 17514 17515 17516 17517 17518 17519 17520 17521 17522 17523 17524 17525 17526 17527 17528 17529 17530 17531 17532 17533 17534 17535 17536 17537 17538 17539 17540 17541 17542 17543 17544 17545 17546 17547 17548 17549 17550 17551 17552 17553 17554 17555 17556 17557 17558 17559 17560 17561 17562 17563 17564 17565 17566 17567 17568 17569 17570 17571 17572 17573 17574 17575 17576 17577 17578 17579 17580 17581 17582 17583 17584 17585 17586 17587 17588 17589 17590 17591 17592 17593 17594 17595 17596 17597 17598 17599 17600 17601 17602 17603 17604 17605 17606 17607 17608 17609 17610 17611 17612 17613 17614 17615 17616 17617 17618 17619 17620 17621 17622 17623 17624 17625 17626 17627 17628 17629 17630 17631 17632 17633 17634 17635 17636 17637 17638 17639 17640 17641 17642 17643 17644 17645 17646 17647 17648 17649 17650 17651 17652 17653 17654 17655 17656 17657 17658 17659 17660 17661 17662 17663 17664 17665 17666 17667 17668 17669 17670 17671 17672 17673 17674 17675 17676 17677 17678 17679 17680 17681 17682 17683 17684 17685 17686 17687 17688 17689 17690 17691 17692 17693 17694 17695 17696 17697 17698 17699 17700 17701 17702 17703 17704 17705 17706 17707 17708 17709 17710 17711 17712 17713 17714 17715 17716 17717 17718 17719 17720 17721 17722 17723 17724 17725 17726 17727 17728 17729 17730 17731 17732 17733 17734 17735 17736 17737 17738 17739 17740 17741 17742 17743 17744 17745 17746 17747 17748 17749 17750 17751 17752 17753 17754 17755 17756 17757 17758 17759 17760 17761 17762 17763 17764 17765 17766 17767 17768 17769 17770 17771 17772 17773 17774 17775 17776 17777 17778 17779 17780 17781 17782 17783 17784 17785 17786 17787 17788 17789 17790 17791 17792 17793 17794 17795 17796 17797 17798 17799 17800 17801 17802 17803 17804 17805 17806 17807 17808 17809 17810 17811 17812 17813 17814 17815 17816 17817 17818 17819 17820 17821 17822 17823 17824 17825 17826 17827 17828 17829 17830 17831 17832 17833 17834 17835 17836 17837 17838 17839 17840 17841 17842 17843 17844 17845 17846 17847 17848 17849 17850 17851 17852 17853 17854 17855 17856 17857 17858 17859 17860 17861 17862 17863 17864 17865 17866 17867 17868 17869 17870 17871 17872 17873 17874 17875 17876 17877 17878 17879 17880 17881 17882 17883 17884 17885 17886 17887 17888 17889 17890 17891 17892 17893 17894 17895 17896 17897 17898 17899 17900 17901 17902 17903 17904 17905 17906 17907 17908 17909 17910 17911 17912 17913 17914 17915 17916 17917 17918 17919 17920 17921 17922 17923 17924 17925 17926 17927 17928 17929 17930 17931 17932 17933 17934 17935 17936 17937 17938 17939 17940 17941 17942 17943 17944 17945 17946 17947 17948 17949 17950 17951 17952 17953 17954 17955 17956 17957 17958 17959 17960 17961 17962 17963 17964 17965 17966 17967 17968 17969 17970 17971 17972 17973 17974 17975 17976 17977 17978 17979 17980 17981 17982 17983 17984 17985 17986 17987 17988 17989 17990 17991 17992 17993 17994 17995 17996 17997 17998 17999 18000 18001 18002 18003 18004 18005 18006 18007 18008 18009 18010 18011 18012 18013 18014 18015 18016 18017 18018 18019 18020 18021 18022 18023 18024 18025 18026 18027 18028 18029 18030 18031 18032 18033 18034 18035 18036 18037 18038 18039 18040 18041 18042 18043 18044 18045 18046 18047 18048 18049 18050 18051 18052 18053 18054 18055 18056 18057 18058 18059 18060 18061 18062 18063 18064 18065 18066 18067 18068 18069 18070 18071 18072 18073 18074 18075 18076 18077 18078 18079 18080 18081 18082 18083 18084 18085 18086 18087 18088 18089 18090 18091 18092 18093 18094 18095 18096 18097 18098 18099 18100 18101 18102 18103 18104 18105 18106 18107 18108 18109 18110 18111 18112 18113 18114 18115 18116 18117 18118 18119 18120 18121 18122 18123 18124 18125 18126 18127 18128 18129 18130 18131 18132 18133 18134 18135 18136 18137 18138 18139 18140 18141 18142 18143 18144 18145 18146 18147 18148 18149 18150 18151 18152 18153 18154 18155 18156 18157 18158 18159 18160 18161 18162 18163 18164 18165 18166 18167 18168 18169 18170 18171 18172 18173 18174 18175 18176 18177 18178 18179 18180 18181 18182 18183 18184 18185 18186 18187 18188 18189 18190 18191 18192 18193 18194 18195 18196 18197 18198 18199 18200 18201 18202 18203 18204 18205 18206 18207 18208 18209 18210 18211 18212 18213 18214 18215 18216 18217 18218 18219 18220 18221 18222 18223 18224 18225 18226 18227 18228 18229 18230 18231 18232 18233 18234 18235 18236 18237 18238 18239 18240 18241 18242 18243 18244 18245 18246 18247 18248 18249 18250 18251 18252 18253 18254 18255 18256 18257 18258 18259 18260 18261 18262 18263 18264 18265 18266 18267 18268 18269 18270 18271 18272 18273 18274 18275 18276 18277 18278 18279 18280 18281 18282 18283 18284 18285 18286 18287 18288 18289 18290 18291 18292 18293 18294 18295 18296 18297 18298 18299 18300 18301 18302 18303 18304 18305 18306 18307 18308 18309 18310 18311 18312 18313 18314 18315 18316 18317 18318 18319 18320 18321 18322 18323 18324 18325 18326 18327 18328 18329 18330 18331 18332 18333 18334 18335 18336 18337 18338 18339 18340 18341 18342 18343 18344 18345 18346 18347 18348 18349 18350 18351 18352 18353 18354 18355 18356 18357 18358 18359 18360 18361 18362 18363 18364 18365 18366 18367 18368 18369 18370 18371 18372 18373 18374 18375 18376 18377 18378 18379 18380 18381 18382 18383 18384 18385 18386 18387 18388 18389 18390 18391 18392 18393 18394 18395 18396 18397 18398 18399 18400 18401 18402 18403 18404 18405 18406 18407 18408 18409 18410 18411 18412 18413 18414 18415 18416 18417 18418 18419 18420 18421 18422 18423 18424 18425 18426 18427 18428 18429 18430 18431 18432 18433 18434 18435 18436 18437 18438 18439 18440 18441 18442 18443 18444 18445 18446 18447 18448 18449 18450 18451 18452 18453 18454 18455 18456 18457 18458 18459 18460 18461 18462 18463 18464 18465 18466 18467 18468 18469 18470 18471 18472 18473 18474 18475 18476 18477 18478 18479 18480 18481 18482 18483 18484 18485 18486 18487 18488 18489 18490 18491 18492 18493 18494 18495 18496 18497 18498 18499 18500 18501 18502 18503 18504 18505 18506 18507 18508 18509 18510 18511 18512 18513 18514 18515 18516 18517 18518 18519 18520 18521 18522 18523 18524 18525 18526 18527 18528 18529 18530 18531 18532 18533 18534 18535 18536 18537 18538 18539 18540 18541 18542 18543 18544 18545 18546 18547 18548 18549 18550 18551 18552 18553 18554 18555 18556 18557 18558 18559 18560 18561 18562 18563 18564 18565 18566 18567 18568 18569 18570 18571 18572 18573 18574 18575 18576 18577 18578 18579 18580 18581 18582 18583 18584 18585 18586 18587 18588 18589 18590 18591 18592 18593 18594 18595 18596 18597 18598 18599 18600 18601 18602 18603 18604 18605 18606 18607 18608 18609 18610 18611 18612 18613 18614 18615 18616 18617 18618 18619 18620 18621 18622 18623 18624 18625 18626 18627 18628 18629 18630 18631 18632 18633 18634 18635 18636 18637 18638 18639 18640 18641 18642 18643 18644 18645 18646 18647 18648 18649 18650 18651 18652 18653 18654 18655 18656 18657 18658 18659 18660 18661 18662 18663 18664 18665 18666 18667 18668 18669 18670 18671 18672 18673 18674 18675 18676 18677 18678 18679 18680 18681 18682 18683 18684 18685 18686 18687 18688 18689 18690 18691 18692 18693 18694 18695 18696 18697 18698 18699 18700 18701 18702 18703 18704 18705 18706 18707 18708 18709 18710 18711 18712 18713 18714 18715 18716 18717 18718 18719 18720 18721 18722 18723 18724 18725 18726 18727 18728 18729 18730 18731 18732 18733 18734 18735 18736 18737 18738 18739 18740 18741 18742 18743 18744 18745 18746 18747 18748 18749 18750 18751 18752 18753 18754 18755 18756 18757 18758 18759 18760 18761 18762 18763 18764 18765 18766 18767 18768 18769 18770 18771 18772 18773 18774 18775 18776 18777 18778 18779 18780 18781 18782 18783 18784 18785 18786 18787 18788 18789 18790 18791 18792 18793 18794 18795 18796 18797 18798 18799 18800 18801 18802 18803 18804 18805 18806 18807 18808 18809 18810 18811 18812 18813 18814 18815 18816 18817 18818 18819 18820 18821 18822 18823 18824 18825 18826 18827 18828 18829 18830 18831 18832 18833 18834 18835 18836 18837 18838 18839 18840 18841 18842 18843 18844 18845 18846 18847 18848 18849 18850 18851 18852 18853 18854 18855 18856 18857 18858 18859 18860 18861 18862 18863 18864 18865 18866 18867 18868 18869 18870 18871 18872 18873 18874 18875 18876 18877 18878 18879 18880 18881 18882 18883 18884 18885 18886 18887 18888 18889 18890 18891 18892 18893 18894 18895 18896 18897 18898 18899 18900 18901 18902 18903 18904 18905 18906 18907 18908 18909 18910 18911 18912 18913 18914 18915 18916 18917 18918 18919 18920 18921 18922 18923 18924 18925 18926 18927 18928 18929 18930 18931 18932 18933 18934 18935 18936 18937 18938 18939 18940 18941 18942 18943 18944 18945 18946 18947 18948 18949 18950 18951 18952 18953 18954 18955 18956 18957 18958 18959 18960 18961 18962 18963 18964 18965 18966 18967 18968 18969 18970 18971 18972 18973 18974 18975 18976 18977 18978 18979 18980 18981 18982 18983 18984 18985 18986 18987 18988 18989 18990 18991 18992 18993 18994 18995 18996 18997 18998 18999 19000 19001 19002 19003 19004 19005 19006 19007 19008 19009 19010 19011 19012 19013 19014 19015 19016 19017 19018 19019 19020 19021 19022 19023 19024 19025 19026 19027 19028 19029 19030 19031 19032 19033 19034 19035 19036 19037 19038 19039 19040 19041 19042 19043 19044 19045 19046 19047 19048 19049 19050 19051 19052 19053 19054 19055 19056 19057 19058 19059 19060 19061 19062 19063 19064 19065 19066 19067 19068 19069 19070 19071 19072 19073 19074 19075 19076 19077 19078 19079 19080 19081 19082 19083 19084 19085 19086 19087 19088 19089 19090 19091 19092 19093 19094 19095 19096 19097 19098 19099 19100 19101 19102 19103 19104 19105 19106 19107 19108 19109 19110 19111 19112 19113 19114 19115 19116 19117 19118 19119 19120 19121 19122 19123 19124 19125 19126 19127 19128 19129 19130 19131 19132 19133 19134 19135 19136 19137 19138 19139 19140 19141 19142 19143 19144 19145 19146 19147 19148 19149 19150 19151 19152 19153 19154 19155 19156 19157 19158 19159 19160 19161 19162 19163 19164 19165 19166 19167 19168 19169 19170 19171 19172 19173 19174 19175 19176 19177 19178 19179 19180 19181 19182 19183 19184 19185 19186 19187 19188 19189 19190 19191 19192 19193 19194 19195 19196 19197 19198 19199 19200 19201 19202 19203 19204 19205 19206 19207 19208 19209 19210 19211 19212 19213 19214 19215 19216 19217 19218 19219 19220 19221 19222 19223 19224 19225 19226 19227 19228 19229 19230 19231 19232 19233 19234 19235 19236 19237 19238 19239 19240 19241 19242 19243 19244 19245 19246 19247 19248 19249 19250 19251 19252 19253 19254 19255 19256 19257 19258 19259 19260 19261 19262 19263 19264 19265 19266 19267 19268 19269 19270 19271 19272 19273 19274 19275 19276 19277 19278 19279 19280 19281 19282 19283 19284 19285 19286 19287 19288 19289 19290 19291 19292 19293 19294 19295 19296 19297 19298 19299 19300 19301 19302 19303 19304 19305 19306 19307 19308 19309 19310 19311 19312 19313 19314 19315 19316 19317 19318 19319 19320 19321 19322 19323 19324 19325 19326 19327 19328 19329 19330 19331 19332 19333 19334 19335 19336 19337 19338 19339 19340 19341 19342 19343 19344 19345 19346 19347 19348 19349 19350 19351 19352 19353 19354 19355 19356 19357 19358 19359 19360 19361 19362 19363 19364 19365 19366 19367 19368 19369 19370 19371 19372 19373 19374 19375 19376 19377 19378 19379 19380 19381 19382 19383 19384 19385 19386 19387 19388 19389 19390 19391 19392 19393 19394 19395 19396 19397 19398 19399 19400 19401 19402 19403 19404 19405 19406 19407 19408 19409 19410 19411 19412 19413 19414 19415 19416 19417 19418 19419 19420 19421 19422 19423 19424 19425 19426 19427 19428 19429 19430 19431 19432 19433 19434 19435 19436 19437 19438 19439 19440 19441 19442 19443 19444 19445 19446 19447 19448 19449 19450 19451 19452 19453 19454 19455 19456 19457 19458 19459 19460 19461 19462 19463 19464 19465 19466 19467 19468 19469 19470 19471 19472 19473 19474 19475 19476 19477 19478 19479 19480 19481 19482 19483 19484 19485 19486 19487 19488 19489 19490 19491 19492 19493 19494 19495 19496 19497 19498 19499 19500 19501 19502 19503 19504 19505 19506 19507 19508 19509 19510 19511 19512 19513 19514 19515 19516 19517 19518 19519 19520 19521 19522 19523 19524 19525 19526 19527 19528 19529 19530 19531 19532 19533 19534 19535 19536 19537 19538 19539 19540 19541 19542 19543 19544 19545 19546 19547 19548 19549 19550 19551 19552 19553 19554 19555 19556 19557 19558 19559 19560 19561 19562 19563 19564 19565 19566 19567 19568 19569 19570 19571 19572 19573 19574 19575 19576 19577 19578 19579 19580 19581 19582 19583 19584 19585 19586 19587 19588 19589 19590 19591 19592 19593 19594 19595 19596 19597 19598 19599 19600 19601 19602 19603 19604 19605 19606 19607 19608 19609 19610 19611 19612 19613 19614 19615 19616 19617 19618 19619 19620 19621 19622 19623 19624 19625 19626 19627 19628 19629 19630 19631 19632 19633 19634 19635 19636 19637 19638 19639 19640 19641 19642 19643 19644 19645 19646 19647 19648 19649 19650 19651 19652 19653 19654 19655 19656 19657 19658 19659 19660 19661 19662 19663 19664 19665 19666 19667 19668 19669 19670 19671 19672 19673 19674 19675 19676 19677 19678 19679 19680 19681 19682 19683 19684 19685 19686 19687 19688 19689 19690 19691 19692 19693 19694 19695 19696 19697 19698 19699 19700 19701 19702 19703 19704 19705 19706 19707 19708 19709 19710 19711 19712 19713 19714 19715 19716 19717 19718 19719 19720 19721 19722 19723 19724 19725 19726 19727 19728 19729 19730 19731 19732 19733 19734 19735 19736 19737 19738 19739 19740 19741 19742 19743 19744 19745 19746 19747 19748 19749 19750 19751 19752 19753 19754 19755 19756 19757 19758 19759 19760 19761 19762 19763 19764 19765 19766 19767 19768 19769 19770 19771 19772 19773 19774 19775 19776 19777 19778 19779 19780 19781 19782 19783 19784 19785 19786 19787 19788 19789 19790 19791 19792 19793 19794 19795 19796 19797 19798 19799 19800 19801 19802 19803 19804 19805 19806 19807 19808 19809 19810 19811 19812 19813 19814 19815 19816 19817 19818 19819 19820 19821 19822 19823 19824 19825 19826 19827 19828 19829 19830 19831 19832 19833 19834 19835 19836 19837 19838 19839 19840 19841 19842 19843 19844 19845 19846 19847 19848 19849 19850 19851 19852 19853 19854 19855 19856 19857 19858 19859 19860 19861 19862 19863 19864 19865 19866 19867 19868 19869 19870 19871 19872 19873 19874 19875 19876 19877 19878 19879 19880 19881 19882 19883 19884 19885 19886 19887 19888 19889 19890 19891 19892 19893 19894 19895 19896 19897 19898 19899 19900 19901 19902 19903 19904 19905 19906 19907 19908 19909 19910 19911 19912 19913 19914 19915 19916 19917 19918 19919 19920 19921 19922 19923 19924 19925 19926 19927 19928 19929 19930 19931 19932 19933 19934 19935 19936 19937 19938 19939 19940 19941 19942 19943 19944 19945 19946 19947 19948 19949 19950 19951 19952 19953 19954 19955 19956 19957 19958 19959 19960 19961 19962 19963 19964 19965 19966 19967 19968 19969 19970 19971 19972 19973 19974 19975 19976 19977 19978 19979 19980 19981 19982 19983 19984 19985 19986 19987 19988 19989 19990 19991 19992 19993 19994 19995 19996 19997 19998 19999 20000 20001 20002 20003 20004 20005 20006 20007 20008 20009 20010 20011 20012 20013 20014 20015 20016 20017 20018 20019 20020 20021 20022 20023 20024 20025 20026 20027 20028 20029 20030 20031 20032 20033 20034 20035 20036 20037 20038 20039 20040 20041 20042 20043 20044 20045 20046 20047 20048 20049 20050 20051 20052 20053 20054 20055 20056 20057 20058 20059 20060 20061 20062 20063 20064 20065 20066 20067 20068 20069 20070 20071 20072 20073 20074 20075 20076 20077 20078 20079 20080 20081 20082 20083 20084 20085 20086 20087 20088 20089 20090 20091 20092 20093 20094 20095 20096 20097 20098 20099 20100 20101 20102 20103 20104 20105 20106 20107 20108 20109 20110 20111 20112 20113 20114 20115 20116 20117 20118 20119 20120 20121 20122 20123 20124 20125 20126 20127 20128 20129 20130 20131 20132 20133 20134 20135 20136 20137 20138 20139 20140 20141 20142 20143 20144 20145 20146 20147 20148 20149 20150 20151 20152 20153 20154 20155 20156 20157 20158 20159 20160 20161 20162 20163 20164 20165 20166 20167 20168 20169 20170 20171 20172 20173 20174 20175 20176 20177 20178 20179 20180 20181 20182 20183 20184 20185 20186 20187 20188 20189 20190 20191 20192 20193 20194 20195 20196 20197 20198 20199 20200 20201 20202 20203 20204 20205 20206 20207 20208 20209 20210 20211 20212 20213 20214 20215 20216 20217 20218 20219 20220 20221 20222 20223 20224 20225 20226 20227 20228 20229 20230 20231 20232 20233 20234 20235 20236 20237 20238 20239 20240 20241 20242 20243 20244 20245 20246 20247 20248 20249 20250 20251 20252 20253 20254 20255 20256 20257 20258 20259 20260 20261 20262 20263 20264 20265 20266 20267 20268 20269 20270 20271 20272 20273 20274 20275 20276 20277 20278 20279 20280 20281 20282 20283 20284 20285 20286 20287 20288 20289 20290 20291 20292 20293 20294 20295 20296 20297 20298 20299 20300 20301 20302 20303 20304 20305 20306 20307 20308 20309 20310 20311 20312 20313 20314 20315 20316 20317 20318 20319 20320 20321 20322 20323 20324 20325 20326 20327 20328 20329 20330 20331 20332 20333 20334 20335 20336 20337 20338 20339 20340 20341 20342 20343 20344 20345 20346 20347 20348 20349 20350 20351 20352 20353 20354 20355 20356 20357 20358 20359 20360 20361 20362 20363 20364 20365 20366 20367 20368 20369 20370 20371 20372 20373 20374 20375 20376 20377 20378 20379 20380 20381 20382 20383 20384 20385 20386 20387 20388 20389 20390 20391 20392 20393 20394 20395 20396 20397 20398 20399 20400 20401 20402 20403 20404 20405 20406 20407 20408 20409 20410 20411 20412 20413 20414 20415 20416 20417 20418 20419 20420 20421 20422 20423 20424 20425 20426 20427 20428 20429 20430 20431 20432 20433 20434 20435 20436 20437 20438 20439 20440 20441 20442 20443 20444 20445 20446 20447 20448 20449 20450 20451 20452 20453 20454 20455 20456 20457 20458 20459 20460 20461 20462 20463 20464 20465 20466 20467 20468 20469 20470 20471 20472 20473 20474 20475 20476 20477 20478 20479 20480 20481 20482 20483 20484 20485 20486 20487 20488 20489 20490 20491 20492 20493 20494 20495 20496 20497 20498 20499 20500 20501 20502 20503 20504 20505 20506 20507 20508 20509 20510 20511 20512 20513 20514 20515 20516 20517 20518 20519 20520 20521 20522 20523 20524 20525 20526 20527 20528 20529 20530 20531 20532 20533 20534 20535 20536 20537 20538 20539 20540 20541 20542 20543 20544 20545 20546 20547 20548 20549 20550 20551 20552 20553 20554 20555 20556 20557 20558 20559 20560 20561 20562 20563 20564 20565 20566 20567 20568 20569 20570 20571 20572 20573 20574 20575 20576 20577 20578 20579 20580 20581 20582 20583 20584 20585 20586 20587 20588 20589 20590 20591 20592 20593 20594 20595 20596 20597 20598 20599 20600 20601 20602 20603 20604 20605 20606 20607 20608 20609 20610 20611 20612 20613 20614 20615 20616 20617 20618 20619 20620 20621 20622 20623 20624 20625 20626 20627 20628 20629 20630 20631 20632 20633 20634 20635 20636 20637 20638 20639 20640 20641 20642 20643 20644 20645 20646 20647 20648 20649 20650 20651 20652 20653 20654 20655 20656 20657 20658 20659 20660 20661 20662 20663 20664 20665 20666 20667 20668 20669 20670 20671 20672 20673 20674 20675 20676 20677 20678 20679 20680 20681 20682 20683 20684 20685 20686 20687 20688 20689 20690 20691 20692 20693 20694 20695 20696 20697 20698 20699 20700 20701 20702 20703 20704 20705 20706 20707 20708 20709 20710 20711 20712 20713 20714 20715 20716 20717 20718 20719 20720 20721 20722 20723 20724 20725 20726 20727 20728 20729 20730 20731 20732 20733 20734 20735 20736 20737 20738 20739 20740 20741 20742 20743 20744 20745 20746 20747 20748 20749 20750 20751 20752 20753 20754 20755 20756 20757 20758 20759 20760 20761 20762 20763 20764 20765 20766 20767 20768 20769 20770 20771 20772 20773 20774 20775 20776 20777 20778 20779 20780 20781 20782 20783 20784 20785 20786 20787 20788 20789 20790 20791 20792 20793 20794 20795 20796 20797 20798 20799 20800 20801 20802 20803 20804 20805 20806 20807 20808 20809 20810 20811 20812 20813 20814 20815 20816 20817 20818 20819 20820 20821 20822 20823 20824 20825 20826 20827 20828 20829 20830 20831 20832 20833 20834 20835 20836 20837 20838 20839 20840 20841 20842 20843 20844 20845 20846 20847 20848 20849 20850 20851 20852 20853 20854 20855 20856 20857 20858 20859 20860 20861 20862 20863 20864 20865 20866 20867 20868 20869 20870 20871 20872 20873 20874 20875 20876 20877 20878 20879 20880 20881 20882 20883 20884 20885 20886 20887 20888 20889 20890 20891 20892 20893 20894 20895 20896 20897 20898 20899 20900 20901 20902 20903 20904 20905 20906 20907 20908 20909 20910 20911 20912 20913 20914 20915 20916 20917 20918 20919 20920 20921 20922 20923 20924 20925 20926 20927 20928 20929 20930 20931 20932 20933 20934 20935 20936 20937 20938 20939 20940 20941 20942 20943 20944 20945 20946 20947 20948 20949 20950 20951 20952 20953 20954 20955 20956 20957 20958 20959 20960 20961 20962 20963 20964 20965 20966 20967 20968 20969 20970 20971 20972 20973 20974 20975 20976 20977 20978 20979 20980 20981 20982 20983 20984 20985 20986 20987 20988 20989 20990 20991 20992 20993 20994 20995 20996 20997 20998 20999 21000 21001 21002 21003 21004 21005 21006 21007 21008 21009 21010 21011 21012 21013 21014 21015 21016 21017 21018 21019 21020 21021 21022 21023 21024 21025 21026 21027 21028 21029 21030 21031 21032 21033 21034 21035 21036 21037 21038 21039 21040 21041 21042 21043 21044 21045 21046 21047 21048 21049 21050 21051 21052 21053 21054 21055 21056 21057 21058 21059 21060 21061 21062 21063 21064 21065 21066 21067 21068 21069 21070 21071 21072 21073 21074 21075 21076 21077 21078 21079 21080 21081 21082 21083 21084 21085 21086 21087 21088 21089 21090 21091 21092 21093 21094 21095 21096 21097 21098 21099 21100 21101 21102 21103 21104 21105 21106 21107 21108 21109 21110 21111 21112 21113 21114 21115 21116 21117 21118 21119 21120 21121 21122 21123 21124 21125 21126 21127 21128 21129 21130 21131 21132 21133 21134 21135 21136 21137 21138 21139 21140 21141 21142 21143 21144 21145 21146 21147 21148 21149 21150 21151 21152 21153 21154 21155 21156 21157 21158 21159 21160 21161 21162 21163 21164 21165 21166 21167 21168 21169 21170 21171 21172 21173 21174 21175 21176 21177 21178 21179 21180 21181 21182 21183 21184 21185 21186 21187 21188 21189 21190 21191 21192 21193 21194 21195 21196 21197 21198 21199 21200 21201 21202 21203 21204 21205 21206 21207 21208 21209 21210 21211 21212 21213 21214 21215 21216 21217 21218 21219 21220 21221 21222 21223 21224 21225 21226 21227 21228 21229 21230 21231 21232 21233 21234 21235 21236 21237 21238 21239 21240 21241 21242 21243 21244 21245 21246 21247 21248 21249 21250 21251 21252 21253 21254 21255 21256 21257 21258 21259 21260 21261 21262 21263 21264 21265 21266 21267 21268 21269 21270 21271 21272 21273 21274 21275 21276 21277 21278 21279 21280 21281 21282 21283 21284 21285 21286 21287 21288 21289 21290 21291 21292 21293 21294 21295 21296 21297 21298 21299 21300 21301 21302 21303 21304 21305 21306 21307 21308 21309 21310 21311 21312 21313 21314 21315 21316 21317 21318 21319 21320 21321 21322 21323 21324 21325 21326 21327 21328 21329 21330 21331 21332 21333 21334 21335 21336 21337 21338 21339 21340 21341 21342 21343 21344 21345 21346 21347 21348 21349 21350 21351 21352 21353 21354 21355 21356 21357 21358 21359 21360 21361 21362 21363 21364 21365 21366 21367 21368 21369 21370 21371 21372 21373 21374 21375 21376 21377 21378 21379 21380 21381 21382 21383 21384 21385 21386 21387 21388 21389 21390 21391 21392 21393 21394 21395 21396 21397 21398 21399 21400 21401 21402 21403 21404 21405 21406 21407 21408 21409 21410 21411 21412 21413 21414 21415 21416 21417 21418 21419 21420 21421 21422 21423 21424 21425 21426 21427 21428 21429 21430 21431 21432 21433 21434 21435 21436 21437 21438 21439 21440 21441 21442 21443 21444 21445 21446 21447 21448 21449 21450 21451 21452 21453 21454 21455 21456 21457 21458 21459 21460 21461 21462 21463 21464 21465 21466 21467 21468 21469 21470 21471 21472 21473 21474 21475 21476 21477 21478 21479 21480 21481 21482 21483 21484 21485 21486 21487 21488 21489 21490 21491 21492 21493 21494 21495 21496 21497 21498 21499 21500 21501 21502 21503 21504 21505 21506 21507 21508 21509 21510 21511 21512 21513 21514 21515 21516 21517 21518 21519 21520 21521 21522 21523 21524 21525 21526 21527 21528 21529 21530 21531 21532 21533 21534 21535 21536 21537 21538 21539 21540 21541 21542 21543 21544 21545 21546 21547 21548 21549 21550 21551 21552 21553 21554 21555 21556 21557 21558 21559 21560 21561 21562 21563 21564 21565 21566 21567 21568 21569 21570 21571 21572 21573 21574 21575 21576 21577 21578 21579 21580 21581 21582 21583 21584 21585 21586 21587 21588 21589 21590 21591 21592 21593 21594 21595 21596 21597 21598 21599 21600 21601 21602 21603 21604 21605 21606 21607 21608 21609 21610 21611 21612 21613 21614 21615 21616 21617 21618 21619 21620 21621 21622 21623 21624 21625 21626 21627 21628 21629 21630 21631 21632 21633 21634 21635 21636 21637 21638 21639 21640 21641 21642 21643 21644 21645 21646 21647 21648 21649 21650 21651 21652 21653 21654 21655 21656 21657 21658 21659 21660 21661 21662 21663 21664 21665 21666 21667 21668 21669 21670 21671 21672 21673 21674 21675 21676 21677 21678 21679 21680 21681 21682 21683 21684 21685 21686 21687 21688 21689 21690 21691 21692 21693 21694 21695 21696 21697 21698 21699 21700 21701 21702 21703 21704 21705 21706 21707 21708 21709 21710 21711 21712 21713 21714 21715 21716 21717 21718 21719 21720 21721 21722 21723 21724 21725 21726 21727 21728 21729 21730 21731 21732 21733 21734 21735 21736 21737 21738 21739 21740 21741 21742 21743 21744 21745 21746 21747 21748 21749 21750 21751 21752 21753 21754 21755 21756 21757 21758 21759 21760 21761 21762 21763 21764 21765 21766 21767 21768 21769 21770 21771 21772 21773 21774 21775 21776 21777 21778 21779 21780 21781 21782 21783 21784 21785 21786 21787 21788 21789 21790 21791 21792 21793 21794 21795 21796 21797 21798 21799 21800 21801 21802 21803 21804 21805 21806 21807 21808 21809 21810 21811 21812 21813 21814 21815 21816 21817 21818 21819 21820 21821 21822 21823 21824 21825 21826 21827 21828 21829 21830 21831 21832 21833 21834 21835 21836 21837 21838 21839 21840 21841 21842 21843 21844 21845 21846 21847 21848 21849 21850 21851 21852 21853 21854 21855 21856 21857 21858 21859 21860 21861 21862 21863 21864 21865 21866 21867 21868 21869 21870 21871 21872 21873 21874 21875 21876 21877 21878 21879 21880 21881 21882 21883 21884 21885 21886 21887 21888 21889 21890 21891 21892 21893 21894 21895 21896 21897 21898 21899 21900 21901 21902 21903 21904 21905 21906 21907 21908 21909 21910 21911 21912 21913 21914 21915 21916 21917 21918 21919 21920 21921 21922 21923 21924 21925 21926 21927 21928 21929 21930 21931 21932 21933 21934 21935 21936 21937 21938 21939 21940 21941 21942 21943 21944 21945 21946 21947 21948 21949 21950 21951 21952 21953 21954 21955 21956 21957 21958 21959 21960 21961 21962 21963 21964 21965 21966 21967 21968 21969 21970 21971 21972 21973 21974 21975 21976 21977 21978 21979 21980 21981 21982 21983 21984 21985 21986 21987 21988 21989 21990 21991 21992 21993 21994 21995 21996 21997 21998 21999 22000 22001 22002 22003 22004 22005 22006 22007 22008 22009 22010 22011 22012 22013 22014 22015 22016 22017 22018 22019 22020 22021 22022 22023 22024 22025 22026 22027 22028 22029 22030 22031 22032 22033 22034 22035 22036 22037 22038 22039 22040 22041 22042 22043 22044 22045 22046 22047 22048 22049 22050 22051 22052 22053 22054 22055 22056 22057 22058 22059 22060 22061 22062 22063 22064 22065 22066 22067 22068 22069 22070 22071 22072 22073 22074 22075 22076 22077 22078 22079 22080 22081 22082 22083 22084 22085 22086 22087 22088 22089 22090 22091 22092 22093 22094 22095 22096 22097 22098 22099 22100 22101 22102 22103 22104 22105 22106 22107 22108 22109 22110 22111 22112 22113 22114 22115 22116 22117 22118 22119 22120 22121 22122 22123 22124 22125 22126 22127 22128 22129 22130 22131 22132 22133 22134 22135 22136 22137 22138 22139 22140 22141 22142 22143 22144 22145 22146 22147 22148 22149 22150 22151 22152 22153 22154 22155 22156 22157 22158 22159 22160 22161 22162 22163 22164 22165 22166 22167 22168 22169 22170 22171 22172 22173 22174 22175 22176 22177 22178 22179 22180 22181 22182 22183 22184 22185 22186 22187 22188 22189 22190 22191 22192 22193 22194 22195 22196 22197 22198 22199 22200 22201 22202 22203 22204 22205 22206 22207 22208 22209 22210 22211 22212 22213 22214 22215 22216 22217 22218 22219 22220 22221 22222 22223 22224 22225 22226 22227 22228 22229 22230 22231 22232 22233 22234 22235 22236 22237 22238 22239 22240 22241 22242 22243 22244 22245 22246 22247 22248 22249 22250 22251 22252 22253 22254 22255 22256 22257 22258 22259 22260 22261 22262 22263 22264 22265 22266 22267 22268 22269 22270 22271 22272 22273 22274 22275 22276 22277 22278 22279 22280 22281 22282 22283 22284 22285 22286 22287 22288 22289 22290 22291 22292 22293 22294 22295 22296 22297 22298 22299 22300 22301 22302 22303 22304 22305 22306 22307 22308 22309 22310 22311 22312 22313 22314 22315 22316 22317 22318 22319 22320 22321 22322 22323 22324 22325 22326 22327 22328 22329 22330 22331 22332 22333 22334 22335 22336 22337 22338 22339 22340 22341 22342 22343 22344 22345 22346 22347 22348 22349 22350 22351 22352 22353 22354 22355 22356 22357 22358 22359 22360 22361 22362 22363 22364 22365 22366 22367 22368 22369 22370 22371 22372 22373 22374 22375 22376 22377 22378 22379 22380 22381 22382 22383 22384 22385 22386 22387 22388 22389 22390 22391 22392 22393 22394 22395 22396 22397 22398 22399 22400 22401 22402 22403 22404 22405 22406 22407 22408 22409 22410 22411 22412 22413 22414 22415 22416 22417 22418 22419 22420 22421 22422 22423 22424 22425 22426 22427 22428 22429 22430 22431 22432 22433 22434 22435 22436 22437 22438 22439 22440 22441 22442 22443 22444 22445 22446 22447 22448 22449 22450 22451 22452 22453 22454 22455 22456 22457 22458 22459 22460 22461 22462 22463 22464 22465 22466 22467 22468 22469 22470 22471 22472 22473 22474 22475 22476 22477 22478 22479 22480 22481 22482 22483 22484 22485 22486 22487 22488 22489 22490 22491 22492 22493 22494 22495 22496 22497 22498 22499 22500 22501 22502 22503 22504 22505 22506 22507 22508 22509 22510 22511 22512 22513 22514 22515 22516 22517 22518 22519 22520 22521 22522 22523 22524 22525 22526 22527 22528 22529 22530 22531 22532 22533 22534 22535 22536 22537 22538 22539 22540 22541 22542 22543 22544 22545 22546 22547 22548 22549 22550 22551 22552 22553 22554 22555 22556 22557 22558 22559 22560 22561 22562 22563 22564 22565 22566 22567 22568 22569 22570 22571 22572 22573 22574 22575 22576 22577 22578 22579 22580 22581 22582 22583 22584 22585 22586 22587 22588 22589 22590 22591 22592 22593 22594 22595 22596 22597 22598 22599 22600 22601 22602 22603 22604 22605 22606 22607 22608 22609 22610 22611 22612 22613 22614 22615 22616 22617 22618 22619 22620 22621 22622 22623 22624 22625 22626 22627 22628 22629 22630 22631 22632 22633 22634 22635 22636 22637 22638 22639 22640 22641 22642 22643 22644 22645 22646 22647 22648 22649 22650 22651 22652 22653 22654 22655 22656 22657 22658 22659 22660 22661 22662 22663 22664 22665 22666 22667 22668 22669 22670 22671 22672 22673 22674 22675 22676 22677 22678 22679 22680 22681 22682 22683 22684 22685 22686 22687 22688 22689 22690 22691 22692 22693 22694 22695 22696 22697 22698 22699 22700 22701 22702 22703 22704 22705 22706 22707 22708 22709 22710 22711 22712 22713 22714 22715 22716 22717 22718 22719 22720 22721 22722 22723 22724 22725 22726 22727 22728 22729 22730 22731 22732 22733 22734 22735 22736 22737 22738 22739 22740 22741 22742 22743 22744 22745 22746 22747 22748 22749 22750 22751 22752 22753 22754 22755 22756 22757 22758 22759 22760 22761 22762 22763 22764 22765 22766 22767 22768 22769 22770 22771 22772 22773 22774 22775 22776 22777 22778 22779 22780 22781 22782 22783 22784 22785 22786 22787 22788 22789 22790 22791 22792 22793 22794 22795 22796 22797 22798 22799 22800 22801 22802 22803 22804 22805 22806 22807 22808 22809 22810 22811 22812 22813 22814 22815 22816 22817 22818 22819 22820 22821 22822 22823 22824 22825 22826 22827 22828 22829 22830 22831 22832 22833 22834 22835 22836 22837 22838 22839 22840 22841 22842 22843 22844 22845 22846 22847 22848 22849 22850 22851 22852 22853 22854 22855 22856 22857 22858 22859 22860 22861 22862 22863 22864 22865 22866 22867 22868 22869 22870 22871 22872 22873 22874 22875 22876 22877 22878 22879 22880 22881 22882 22883 22884 22885 22886 22887 22888 22889 22890 22891 22892 22893 22894 22895 22896 22897 22898 22899 22900 22901 22902 22903 22904 22905 22906 22907 22908 22909 22910 22911 22912 22913 22914 22915 22916 22917 22918 22919 22920 22921 22922 22923 22924 22925 22926 22927 22928 22929 22930 22931 22932 22933 22934 22935 22936 22937 22938 22939 22940 22941 22942 22943 22944 22945 22946 22947 22948 22949 22950 22951 22952 22953 22954 22955 22956 22957 22958 22959 22960 22961 22962 22963 22964 22965 22966 22967 22968 22969 22970 22971 22972 22973 22974 22975 22976 22977 22978 22979 22980 22981 22982 22983 22984 22985 22986 22987 22988 22989 22990 22991 22992 22993 22994 22995 22996 22997 22998 22999 23000 23001 23002 23003 23004 23005 23006 23007 23008 23009 23010 23011 23012 23013 23014 23015 23016 23017 23018 23019 23020 23021 23022 23023 23024 23025 23026 23027 23028 23029 23030 23031 23032 23033 23034 23035 23036 23037 23038 23039 23040 23041 23042 23043 23044 23045 23046 23047 23048 23049 23050 23051 23052 23053 23054 23055 23056 23057 23058 23059 23060 23061 23062 23063 23064 23065 23066 23067 23068 23069 23070 23071 23072 23073 23074 23075 23076 23077 23078 23079 23080 23081 23082 23083 23084 23085 23086 23087 23088 23089 23090 23091 23092 23093 23094 23095 23096 23097 23098 23099 23100 23101 23102 23103 23104 23105 23106 23107 23108 23109 23110 23111 23112 23113 23114 23115 23116 23117 23118 23119 23120 23121 23122 23123 23124 23125 23126 23127 23128 23129 23130 23131 23132 23133 23134 23135 23136 23137 23138 23139 23140 23141 23142 23143 23144 23145 23146 23147 23148 23149 23150 23151 23152 23153 23154 23155 23156 23157 23158 23159 23160 23161 23162 23163 23164 23165 23166 23167 23168 23169 23170 23171 23172 23173 23174 23175 23176 23177 23178 23179 23180 23181 23182 23183 23184 23185 23186 23187 23188 23189 23190 23191 23192 23193 23194 23195 23196 23197 23198 23199 23200 23201 23202 23203 23204 23205 23206 23207 23208 23209 23210 23211 23212 23213 23214 23215 23216 23217 23218 23219 23220 23221 23222 23223 23224 23225 23226 23227 23228 23229 23230 23231 23232 23233 23234 23235 23236 23237 23238 23239 23240 23241 23242 23243 23244 23245 23246 23247 23248 23249 23250 23251 23252 23253 23254 23255 23256 23257 23258 23259 23260 23261 23262 23263 23264 23265 23266 23267 23268 23269 23270 23271 23272 23273 23274 23275 23276 23277 23278 23279 23280 23281 23282 23283 23284 23285 23286 23287 23288 23289 23290 23291 23292 23293 23294 23295 23296 23297 23298 23299 23300 23301 23302 23303 23304 23305 23306 23307 23308 23309 23310 23311 23312 23313 23314 23315 23316 23317 23318 23319 23320 23321 23322 23323 23324 23325 23326 23327 23328 23329 23330 23331 23332 23333 23334 23335 23336 23337 23338 23339 23340 23341 23342 23343 23344 23345 23346 23347 23348 23349 23350 23351 23352 23353 23354 23355 23356 23357 23358 23359 23360 23361 23362 23363 23364 23365 23366 23367 23368 23369 23370 23371 23372 23373 23374 23375 23376 23377 23378 23379 23380 23381 23382 23383 23384 23385 23386 23387 23388 23389 23390 23391 23392 23393 23394 23395 23396 23397 23398 23399 23400 23401 23402 23403 23404 23405 23406 23407 23408 23409 23410 23411 23412 23413 23414 23415 23416 23417 23418 23419 23420 23421 23422 23423 23424 23425 23426 23427 23428 23429 23430 23431 23432 23433 23434 23435 23436 23437 23438 23439 23440 23441 23442 23443 23444 23445 23446 23447 23448 23449 23450 23451 23452 23453 23454 23455 23456 23457 23458 23459 23460 23461 23462 23463 23464 23465 23466 23467 23468 23469 23470 23471 23472 23473 23474 23475 23476 23477 23478 23479 23480 23481 23482 23483 23484 23485 23486 23487 23488 23489 23490 23491 23492 23493 23494 23495 23496 23497 23498 23499 23500 23501 23502 23503 23504 23505 23506 23507 23508 23509 23510 23511 23512 23513 23514 23515 23516 23517 23518 23519 23520 23521 23522 23523 23524 23525 23526 23527 23528 23529 23530 23531 23532 23533 23534 23535 23536 23537 23538 23539 23540 23541 23542 23543 23544 23545 23546 23547 23548 23549 23550 23551 23552 23553 23554 23555 23556 23557 23558 23559 23560 23561 23562 23563 23564 23565 23566 23567 23568 23569 23570 23571 23572 23573 23574 23575 23576 23577 23578 23579 23580 23581 23582 23583 23584 23585 23586 23587 23588 23589 23590 23591 23592 23593 23594 23595 23596 23597 23598 23599 23600 23601 23602 23603 23604 23605 23606 23607 23608 23609 23610 23611 23612 23613 23614 23615 23616 23617 23618 23619 23620 23621 23622 23623 23624 23625 23626 23627 23628 23629 23630 23631 23632 23633 23634 23635 23636 23637 23638 23639 23640 23641 23642 23643 23644 23645 23646 23647 23648 23649 23650 23651 23652 23653 23654 23655 23656 23657 23658 23659 23660 23661 23662 23663 23664 23665 23666 23667 23668 23669 23670 23671 23672 23673 23674 23675 23676 23677 23678 23679 23680 23681 23682 23683 23684 23685 23686 23687 23688 23689 23690 23691 23692 23693 23694 23695 23696 23697 23698 23699 23700 23701 23702 23703 23704 23705 23706 23707 23708 23709 23710 23711 23712 23713 23714 23715 23716 23717 23718 23719 23720 23721 23722 23723 23724 23725 23726 23727 23728 23729 23730 23731 23732 23733 23734 23735 23736 23737 23738 23739 23740 23741 23742 23743 23744 23745 23746 23747 23748 23749 23750 23751 23752 23753 23754 23755 23756 23757 23758 23759 23760 23761 23762 23763 23764 23765 23766 23767 23768 23769 23770 23771 23772 23773 23774 23775 23776 23777 23778 23779 23780 23781 23782 23783 23784 23785 23786 23787 23788 23789 23790 23791 23792 23793 23794 23795 23796 23797 23798 23799 23800 23801 23802 23803 23804 23805 23806 23807 23808 23809 23810 23811 23812 23813 23814 23815 23816 23817 23818 23819 23820 23821 23822 23823 23824 23825 23826 23827 23828 23829 23830 23831 23832 23833 23834 23835 23836 23837 23838 23839 23840 23841 23842 23843 23844 23845 23846 23847 23848 23849 23850 23851 23852 23853 23854 23855 23856 23857 23858 23859 23860 23861 23862 23863 23864 23865 23866 23867 23868 23869 23870 23871 23872 23873 23874 23875 23876 23877 23878 23879 23880 23881 23882 23883 23884 23885 23886 23887 23888 23889 23890 23891 23892 23893 23894 23895 23896 23897 23898 23899 23900 23901 23902 23903 23904 23905 23906 23907 23908 23909 23910 23911 23912 23913 23914 23915 23916 23917 23918 23919 23920 23921 23922 23923 23924 23925 23926 23927 23928 23929 23930 23931 23932 23933 23934 23935 23936 23937 23938 23939 23940 23941 23942 23943 23944 23945 23946 23947 23948 23949 23950 23951 23952 23953 23954 23955 23956 23957 23958 23959 23960 23961 23962 23963 23964 23965 23966 23967 23968 23969 23970 23971 23972 23973 23974 23975 23976 23977 23978 23979 23980 23981 23982 23983 23984 23985 23986 23987 23988 23989 23990 23991 23992 23993 23994 23995 23996 23997 23998 23999 24000 24001 24002 24003 24004 24005 24006 24007 24008 24009 24010 24011 24012 24013 24014 24015 24016 24017 24018 24019 24020 24021 24022 24023 24024 24025 24026 24027 24028 24029 24030 24031 24032 24033 24034 24035 24036 24037 24038 24039 24040 24041 24042 24043 24044 24045 24046 24047 24048 24049 24050 24051 24052 24053 24054 24055 24056 24057 24058 24059 24060 24061 24062 24063 24064 24065 24066 24067 24068 24069 24070 24071 24072 24073 24074 24075 24076 24077 24078 24079 24080 24081 24082 24083 24084 24085 24086 24087 24088 24089 24090 24091 24092 24093 24094 24095 24096 24097 24098 24099 24100 24101 24102 24103 24104 24105 24106 24107 24108 24109 24110 24111 24112 24113 24114 24115 24116 24117 24118 24119 24120 24121 24122 24123 24124 24125 24126 24127 24128 24129 24130 24131 24132 24133 24134 24135 24136 24137 24138 24139 24140 24141 24142 24143 24144 24145 24146 24147 24148 24149 24150 24151 24152 24153 24154 24155 24156 24157 24158 24159 24160 24161 24162 24163 24164 24165 24166 24167 24168 24169 24170 24171 24172 24173 24174 24175 24176 24177 24178 24179 24180 24181 24182 24183 24184 24185 24186 24187 24188 24189 24190 24191 24192 24193 24194 24195 24196 24197 24198 24199 24200 24201 24202 24203 24204 24205 24206 24207 24208 24209 24210 24211 24212 24213 24214 24215 24216 24217 24218 24219 24220 24221 24222 24223 24224 24225 24226 24227 24228 24229 24230 24231 24232 24233 24234 24235 24236 24237 24238 24239 24240 24241 24242 24243 24244 24245 24246 24247 24248 24249 24250 24251 24252 24253 24254 24255 24256 24257 24258 24259 24260 24261 24262 24263 24264 24265 24266 24267 24268 24269 24270 24271 24272 24273 24274 24275 24276 24277 24278 24279 24280 24281 24282 24283 24284 24285 24286 24287 24288 24289 24290 24291 24292 24293 24294 24295 24296 24297 24298 24299 24300 24301 24302 24303 24304 24305 24306 24307 24308 24309 24310 24311 24312 24313 24314 24315 24316 24317 24318 24319 24320 24321 24322 24323 24324 24325 24326 24327 24328 24329 24330 24331 24332 24333 24334 24335 24336 24337 24338 24339 24340 24341 24342 24343 24344 24345 24346 24347 24348 24349 24350 24351 24352 24353 24354 24355 24356 24357 24358 24359 24360 24361 24362 24363 24364 24365 24366 24367 24368 24369 24370 24371 24372 24373 24374 24375 24376 24377 24378 24379 24380 24381 24382 24383 24384 24385 24386 24387 24388 24389 24390 24391 24392 24393 24394 24395 24396 24397 24398 24399 24400 24401 24402 24403 24404 24405 24406 24407 24408 24409 24410 24411 24412 24413 24414 24415 24416 24417 24418 24419 24420 24421 24422 24423 24424 24425 24426 24427 24428 24429 24430 24431 24432 24433 24434 24435 24436 24437 24438 24439 24440 24441 24442 24443 24444 24445 24446 24447 24448 24449 24450 24451 24452 24453 24454 24455 24456 24457 24458 24459 24460 24461 24462 24463 24464 24465 24466 24467 24468 24469 24470 24471 24472 24473 24474 24475 24476 24477 24478 24479 24480 24481 24482 24483 24484 24485 24486 24487 24488 24489 24490 24491 24492 24493 24494 24495 24496 24497 24498 24499 24500 24501 24502 24503 24504 24505 24506 24507 24508 24509 24510 24511 24512 24513 24514 24515 24516 24517 24518 24519 24520 24521 24522 24523 24524 24525 24526 24527 24528 24529 24530 24531 24532 24533 24534 24535 24536 24537 24538 24539 24540 24541 24542 24543 24544 24545 24546 24547 24548 24549 24550 24551 24552 24553 24554 24555 24556 24557 24558 24559 24560 24561 24562 24563 24564 24565 24566 24567 24568 24569 24570 24571 24572 24573 24574 24575 24576 24577 24578 24579 24580 24581 24582 24583 24584 24585 24586 24587 24588 24589 24590 24591 24592 24593 24594 24595 24596 24597 24598 24599 24600 24601 24602 24603 24604 24605 24606 24607 24608 24609 24610 24611 24612 24613 24614 24615 24616 24617 24618 24619 24620 24621 24622 24623 24624 24625 24626 24627 24628 24629 24630 24631 24632 24633 24634 24635 24636 24637 24638 24639 24640 24641 24642 24643 24644 24645 24646 24647 24648 24649 24650 24651 24652 24653 24654 24655 24656 24657 24658 24659 24660 24661 24662 24663 24664 24665 24666 24667 24668 24669 24670 24671 24672 24673 24674 24675 24676 24677 24678 24679 24680 24681 24682 24683 24684 24685 24686 24687 24688 24689 24690 24691 24692 24693 24694 24695 24696 24697 24698 24699 24700 24701 24702 24703 24704 24705 24706 24707 24708 24709 24710 24711 24712 24713 24714 24715 24716 24717 24718 24719 24720 24721 24722 24723 24724 24725 24726 24727 24728 24729 24730 24731 24732 24733 24734 24735 24736 24737 24738 24739 24740 24741 24742 24743 24744 24745 24746 24747 24748 24749 24750 24751 24752 24753 24754 24755 24756 24757 24758 24759 24760 24761 24762 24763 24764 24765 24766 24767 24768 24769 24770 24771 24772 24773 24774 24775 24776 24777 24778 24779 24780 24781 24782 24783 24784 24785 24786 24787 24788 24789 24790 24791 24792 24793 24794 24795 24796 24797 24798 24799 24800 24801 24802 24803 24804 24805 24806 24807 24808 24809 24810 24811 24812 24813 24814 24815 24816 24817 24818 24819 24820 24821 24822 24823 24824 24825 24826 24827 24828 24829 24830 24831 24832 24833 24834 24835 24836 24837 24838 24839 24840 24841 24842 24843 24844 24845 24846 24847 24848 24849 24850 24851 24852 24853 24854 24855 24856 24857 24858 24859 24860 24861 24862 24863 24864 24865 24866 24867 24868 24869 24870 24871 24872 24873 24874 24875 24876 24877 24878 24879 24880 24881 24882 24883 24884 24885 24886 24887 24888 24889 24890 24891 24892 24893 24894 24895 24896 24897 24898 24899 24900 24901 24902 24903 24904 24905 24906 24907 24908 24909 24910 24911 24912 24913 24914 24915 24916 24917 24918 24919 24920 24921 24922 24923 24924 24925 24926 24927 24928 24929 24930 24931 24932 24933 24934 24935 24936 24937 24938 24939 24940 24941 24942 24943 24944 24945 24946 24947 24948 24949 24950 24951 24952 24953 24954 24955 24956 24957 24958 24959 24960 24961 24962 24963 24964 24965 24966 24967 24968 24969 24970 24971 24972 24973 24974 24975 24976 24977 24978 24979 24980 24981 24982 24983 24984 24985 24986 24987 24988 24989 24990 24991 24992 24993 24994 24995 24996 24997 24998 24999 25000 25001 25002 25003 25004 25005 25006 25007 25008 25009 25010 25011 25012 25013 25014 25015 25016 25017 25018 25019 25020 25021 25022 25023 25024 25025 25026 25027 25028 25029 25030 25031 25032 25033 25034 25035 25036 25037 25038 25039 25040 25041 25042 25043 25044 25045 25046 25047 25048 25049 25050 25051 25052 25053 25054 25055 25056 25057 25058 25059 25060 25061 25062 25063 25064 25065 25066 25067 25068 25069 25070 25071 25072 25073 25074 25075 25076 25077 25078 25079 25080 25081 25082 25083 25084 25085 25086 25087 25088 25089 25090 25091 25092 25093 25094 25095 25096 25097 25098 25099 25100 25101 25102 25103 25104 25105 25106 25107 25108 25109 25110 25111 25112 25113 25114 25115 25116 25117 25118 25119 25120 25121 25122 25123 25124 25125 25126 25127 25128 25129 25130 25131 25132 25133 25134 25135 25136 25137 25138 25139 25140 25141 25142 25143 25144 25145 25146 25147 25148 25149 25150 25151 25152 25153 25154 25155 25156 25157 25158 25159 25160 25161 25162 25163 25164 25165 25166 25167 25168 25169 25170 25171 25172 25173 25174 25175 25176 25177 25178 25179 25180 25181 25182 25183 25184 25185 25186 25187 25188 25189 25190 25191 25192 25193 25194 25195 25196 25197 25198 25199 25200 25201 25202 25203 25204 25205 25206 25207 25208 25209 25210 25211 25212 25213 25214 25215 25216 25217 25218 25219 25220 25221 25222 25223 25224 25225 25226 25227 25228 25229 25230 25231 25232 25233 25234 25235 25236 25237 25238 25239 25240 25241 25242 25243 25244 25245 25246 25247 25248 25249 25250 25251 25252 25253 25254 25255 25256 25257 25258 25259 25260 25261 25262 25263 25264 25265 25266 25267 25268 25269 25270 25271 25272 25273 25274 25275 25276 25277 25278 25279 25280 25281 25282 25283 25284 25285 25286 25287 25288 25289 25290 25291 25292 25293 25294 25295 25296 25297 25298 25299 25300 25301 25302 25303 25304 25305 25306 25307 25308 25309 25310 25311 25312 25313 25314 25315 25316 25317 25318 25319 25320 25321 25322 25323 25324 25325 25326 25327 25328 25329 25330 25331 25332 25333 25334 25335 25336 25337 25338 25339 25340 25341 25342 25343 25344 25345 25346 25347 25348 25349 25350 25351 25352 25353 25354 25355 25356 25357 25358 25359 25360 25361 25362 25363 25364 25365 25366 25367 25368 25369 25370 25371 25372 25373 25374 25375 25376 25377 25378 25379 25380 25381 25382 25383 25384 25385 25386 25387 25388 25389 25390 25391 25392 25393 25394 25395 25396 25397 25398 25399 25400 25401 25402 25403 25404 25405 25406 25407 25408 25409 25410 25411 25412 25413 25414 25415 25416 25417 25418 25419 25420 25421 25422 25423 25424 25425 25426 25427 25428 25429 25430 25431 25432 25433 25434 25435 25436 25437 25438 25439 25440 25441 25442 25443 25444 25445 25446 25447 25448 25449 25450 25451 25452 25453 25454 25455 25456 25457 25458 25459 25460 25461 25462 25463 25464 25465 25466 25467 25468 25469 25470 25471 25472 25473 25474 25475 25476 25477 25478 25479 25480 25481 25482 25483 25484 25485 25486 25487 25488 25489 25490 25491 25492 25493 25494 25495 25496 25497 25498 25499 25500 25501 25502 25503 25504 25505 25506 25507 25508 25509 25510 25511 25512 25513 25514 25515 25516 25517 25518 25519 25520 25521 25522 25523 25524 25525 25526 25527 25528 25529 25530 25531 25532 25533 25534 25535 25536 25537 25538 25539 25540 25541 25542 25543 25544 25545 25546 25547 25548 25549 25550 25551 25552 25553 25554 25555 25556 25557 25558 25559 25560 25561 25562 25563 25564 25565 25566 25567 25568 25569 25570 25571 25572 25573 25574 25575 25576 25577 25578 25579 25580 25581 25582 25583 25584 25585 25586 25587 25588 25589 25590 25591 25592 25593 25594 25595 25596 25597 25598 25599 25600 25601 25602 25603 25604 25605 25606 25607 25608 25609 25610 25611 25612 25613 25614 25615 25616 25617 25618 25619 25620 25621 25622 25623 25624 25625 25626 25627 25628 25629 25630 25631 25632 25633 25634 25635 25636 25637 25638 25639 25640 25641 25642 25643 25644 25645 25646 25647 25648 25649 25650 25651 25652 25653 25654 25655 25656 25657 25658 25659 25660 25661 25662 25663 25664 25665 25666 25667 25668 25669 25670 25671 25672 25673 25674 25675 25676 25677 25678 25679 25680 25681 25682 25683 25684 25685 25686 25687 25688 25689 25690 25691 25692 25693 25694 25695 25696 25697 25698 25699 25700 25701 25702 25703 25704 25705 25706 25707 25708 25709 25710 25711 25712 25713 25714 25715 25716 25717 25718 25719 25720 25721 25722 25723 25724 25725 25726 25727 25728 25729 25730 25731 25732 25733 25734 25735 25736 25737 25738 25739 25740 25741 25742 25743 25744 25745 25746 25747 25748 25749 25750 25751 25752 25753 25754 25755 25756 25757 25758 25759 25760 25761 25762 25763 25764 25765 25766 25767 25768 25769 25770 25771 25772 25773 25774 25775 25776 25777 25778 25779 25780 25781 25782 25783 25784 25785 25786 25787 25788 25789 25790 25791 25792 25793 25794 25795 25796 25797 25798 25799 25800 25801 25802 25803 25804 25805 25806 25807 25808 25809 25810 25811 25812 25813 25814 25815 25816 25817 25818 25819 25820 25821 25822 25823 25824 25825 25826 25827 25828 25829 25830 25831 25832 25833 25834 25835 25836 25837 25838 25839 25840 25841 25842 25843 25844 25845 25846 25847 25848 25849 25850 25851 25852 25853 25854 25855 25856 25857 25858 25859 25860 25861 25862 25863 25864 25865 25866 25867 25868 25869 25870 25871 25872 25873 25874 25875 25876 25877 25878 25879 25880 25881 25882 25883 25884 25885 25886 25887 25888 25889 25890 25891 25892 25893 25894 25895 25896 25897 25898 25899 25900 25901 25902 25903 25904 25905 25906 25907 25908 25909 25910 25911 25912 25913 25914 25915 25916 25917 25918 25919 25920 25921 25922 25923 25924 25925 25926 25927 25928 25929 25930 25931 25932 25933 25934 25935 25936 25937 25938 25939 25940 25941 25942 25943 25944 25945 25946 25947 25948 25949 25950 25951 25952 25953 25954 25955 25956 25957 25958 25959 25960 25961 25962 25963 25964 25965 25966 25967 25968 25969 25970 25971 25972 25973 25974 25975 25976 25977 25978 25979 25980 25981 25982 25983 25984 25985 25986 25987 25988 25989 25990 25991 25992 25993 25994 25995 25996 25997 25998 25999 26000 26001 26002 26003 26004 26005 26006 26007 26008 26009 26010 26011 26012 26013 26014 26015 26016 26017 26018 26019 26020 26021 26022 26023 26024 26025 26026 26027 26028 26029 26030 26031 26032 26033 26034 26035 26036 26037 26038 26039 26040 26041 26042 26043 26044 26045 26046 26047 26048 26049 26050 26051 26052 26053 26054 26055 26056 26057 26058 26059 26060 26061 26062 26063 26064 26065 26066 26067 26068 26069 26070 26071 26072 26073 26074 26075 26076 26077 26078 26079 26080 26081 26082 26083 26084 26085 26086 26087 26088 26089 26090 26091 26092 26093 26094 26095 26096 26097 26098 26099 26100 26101 26102 26103 26104 26105 26106 26107 26108 26109 26110 26111 26112 26113 26114 26115 26116 26117 26118 26119 26120 26121 26122 26123 26124 26125 26126 26127 26128 26129 26130 26131 26132 26133 26134 26135 26136 26137 26138 26139 26140 26141 26142 26143 26144 26145 26146 26147 26148 26149 26150 26151 26152 26153 26154 26155 26156 26157 26158 26159 26160 26161 26162 26163 26164 26165 26166 26167 26168 26169 26170 26171 26172 26173 26174 26175 26176 26177 26178 26179 26180 26181 26182 26183 26184 26185 26186 26187 26188 26189 26190 26191 26192 26193 26194 26195 26196 26197 26198 26199 26200 26201 26202 26203 26204 26205 26206 26207 26208 26209 26210 26211 26212 26213 26214 26215 26216 26217 26218 26219 26220 26221 26222 26223 26224 26225 26226 26227 26228 26229 26230 26231 26232 26233 26234 26235 26236 26237 26238 26239 26240 26241 26242 26243 26244 26245 26246 26247 26248 26249 26250 26251 26252 26253 26254 26255 26256 26257 26258 26259 26260 26261 26262 26263 26264 26265 26266 26267 26268 26269 26270 26271 26272 26273 26274 26275 26276 26277 26278 26279 26280 26281 26282 26283 26284 26285 26286 26287 26288 26289 26290 26291 26292 26293 26294 26295 26296 26297 26298 26299 26300 26301 26302 26303 26304 26305 26306 26307 26308 26309 26310 26311 26312 26313 26314 26315 26316 26317 26318 26319 26320 26321 26322 26323 26324 26325 26326 26327 26328 26329 26330 26331 26332 26333 26334 26335 26336 26337 26338 26339 26340 26341 26342 26343 26344 26345 26346 26347 26348 26349 26350 26351 26352 26353 26354 26355 26356 26357 26358 26359 26360 26361 26362 26363 26364 26365 26366 26367 26368 26369 26370 26371 26372 26373 26374 26375 26376 26377 26378 26379 26380 26381 26382 26383 26384 26385 26386 26387 26388 26389 26390 26391 26392 26393 26394 26395 26396 26397 26398 26399 26400 26401 26402 26403 26404 26405 26406 26407 26408 26409 26410 26411 26412 26413 26414 26415 26416 26417 26418 26419 26420 26421 26422 26423 26424 26425 26426 26427 26428 26429 26430 26431 26432 26433 26434 26435 26436 26437 26438 26439 26440 26441 26442 26443 26444 26445 26446 26447 26448 26449 26450 26451 26452 26453 26454 26455 26456 26457 26458 26459 26460 26461 26462 26463 26464 26465 26466 26467 26468 26469 26470 26471 26472 26473 26474 26475 26476 26477 26478 26479 26480 26481 26482 26483 26484 26485 26486 26487 26488 26489 26490 26491 26492 26493 26494 26495 26496 26497 26498 26499 26500 26501 26502 26503 26504 26505 26506 26507 26508 26509 26510 26511 26512 26513 26514 26515 26516 26517 26518 26519 26520 26521 26522 26523 26524 26525 26526 26527 26528 26529 26530 26531 26532 26533 26534 26535 26536 26537 26538 26539 26540 26541 26542 26543 26544 26545 26546 26547 26548 26549 26550 26551 26552 26553 26554 26555 26556 26557 26558 26559 26560 26561 26562 26563 26564 26565 26566 26567 26568 26569 26570 26571 26572 26573 26574 26575 26576 26577 26578 26579 26580 26581 26582 26583 26584 26585 26586 26587 26588 26589 26590 26591 26592 26593 26594 26595 26596 26597 26598 26599 26600 26601 26602 26603 26604 26605 26606 26607 26608 26609 26610 26611 26612 26613 26614 26615 26616 26617 26618 26619 26620 26621 26622 26623 26624 26625 26626 26627 26628 26629 26630 26631 26632 26633 26634 26635 26636 26637 26638 26639 26640 26641 26642 26643 26644 26645 26646 26647 26648 26649 26650 26651 26652 26653 26654 26655 26656 26657 26658 26659 26660 26661 26662 26663 26664 26665 26666 26667 26668 26669 26670 26671 26672 26673 26674 26675 26676 26677 26678 26679 26680 26681 26682 26683 26684 26685 26686 26687 26688 26689 26690 26691 26692 26693 26694 26695 26696 26697 26698 26699 26700 26701 26702 26703 26704 26705 26706 26707 26708 26709 26710 26711 26712 26713 26714 26715 26716 26717 26718 26719 26720 26721 26722 26723 26724 26725 26726 26727 26728 26729 26730 26731 26732 26733 26734 26735 26736 26737 26738 26739 26740 26741 26742 26743 26744 26745 26746 26747 26748 26749 26750 26751 26752 26753 26754 26755 26756 26757 26758 26759 26760 26761 26762 26763 26764 26765 26766 26767 26768 26769 26770 26771 26772 26773 26774 26775 26776 26777 26778 26779 26780 26781 26782 26783 26784 26785 26786 26787 26788 26789 26790 26791 26792 26793 26794 26795 26796 26797 26798 26799 26800 26801 26802 26803 26804 26805 26806 26807 26808 26809 26810 26811 26812 26813 26814 26815 26816 26817 26818 26819 26820 26821 26822 26823 26824 26825 26826 26827 26828 26829 26830 26831 26832 26833 26834 26835 26836 26837 26838 26839 26840 26841 26842 26843 26844 26845 26846 26847 26848 26849 26850 26851 26852 26853 26854 26855 26856 26857 26858 26859 26860 26861 26862 26863 26864 26865 26866 26867 26868 26869 26870 26871 26872 26873 26874 26875 26876 26877 26878 26879 26880 26881 26882 26883 26884 26885 26886 26887 26888 26889 26890 26891 26892 26893 26894 26895 26896 26897 26898 26899 26900 26901 26902 26903 26904 26905 26906 26907 26908 26909 26910 26911 26912 26913 26914 26915 26916 26917 26918 26919 26920 26921 26922 26923 26924 26925 26926 26927 26928 26929 26930 26931 26932 26933 26934 26935 26936 26937 26938 26939 26940 26941 26942 26943 26944 26945 26946 26947 26948 26949 26950 26951 26952 26953 26954 26955 26956 26957 26958 26959 26960 26961 26962 26963 26964 26965 26966 26967 26968 26969 26970 26971 26972 26973 26974 26975 26976 26977 26978 26979 26980 26981 26982 26983 26984 26985 26986 26987 26988 26989 26990 26991 26992 26993 26994 26995 26996 26997 26998 26999 27000 27001 27002 27003 27004 27005 27006 27007 27008 27009 27010 27011 27012 27013 27014 27015 27016 27017 27018 27019 27020 27021 27022 27023 27024 27025 27026 27027 27028 27029 27030 27031 27032 27033 27034 27035 27036 27037 27038 27039 27040 27041 27042 27043 27044 27045 27046 27047 27048 27049 27050 27051 27052 27053 27054 27055 27056 27057 27058 27059 27060 27061 27062 27063 27064 27065 27066 27067 27068 27069 27070 27071 27072 27073 27074 27075 27076 27077 27078 27079 27080 27081 27082 27083 27084 27085 27086 27087 27088 27089 27090 27091 27092 27093 27094 27095 27096 27097 27098 27099 27100 27101 27102 27103 27104 27105 27106 27107 27108 27109 27110 27111 27112 27113 27114 27115 27116 27117 27118 27119 27120 27121 27122 27123 27124 27125 27126 27127 27128 27129 27130 27131 27132 27133 27134 27135 27136 27137 27138 27139 27140 27141 27142 27143 27144 27145 27146 27147 27148 27149 27150 27151 27152 27153 27154 27155 27156 27157 27158 27159 27160 27161 27162 27163 27164 27165 27166 27167 27168 27169 27170 27171 27172 27173 27174 27175 27176 27177 27178 27179 27180 27181 27182 27183 27184 27185 27186 27187 27188 27189 27190 27191 27192 27193 27194 27195 27196 27197 27198 27199 27200 27201 27202 27203 27204 27205 27206 27207 27208 27209 27210 27211 27212 27213 27214 27215 27216 27217 27218 27219 27220 27221 27222 27223 27224 27225 27226 27227 27228 27229 27230 27231 27232 27233 27234 27235 27236 27237 27238 27239 27240 27241 27242 27243 27244 27245 27246 27247 27248 27249 27250 27251 27252 27253 27254 27255 27256 27257 27258 27259 27260 27261 27262 27263 27264 27265 27266 27267 27268 27269 27270 27271 27272 27273 27274 27275 27276 27277 27278 27279 27280 27281 27282 27283 27284 27285 27286 27287 27288 27289 27290 27291 27292 27293 27294 27295 27296 27297 27298 27299 27300 27301 27302 27303 27304 27305 27306 27307 27308 27309 27310 27311 27312 27313 27314 27315 27316 27317 27318 27319 27320 27321 27322 27323 27324 27325 27326 27327 27328 27329 27330 27331 27332 27333 27334 27335 27336 27337 27338 27339 27340 27341 27342 27343 27344 27345 27346 27347 27348 27349 27350 27351 27352 27353 27354 27355 27356 27357 27358 27359 27360 27361 27362 27363 27364 27365 27366 27367 27368 27369 27370 27371 27372 27373 27374 27375 27376 27377 27378 27379 27380 27381 27382 27383 27384 27385 27386 27387 27388 27389 27390 27391 27392 27393 27394 27395 27396 27397 27398 27399 27400 27401 27402 27403 27404 27405 27406 27407 27408 27409 27410 27411 27412 27413 27414 27415 27416 27417 27418 27419 27420 27421 27422 27423 27424 27425 27426 27427 27428 27429 27430 27431 27432 27433 27434 27435 27436 27437 27438 27439 27440 27441 27442 27443 27444 27445 27446 27447 27448 27449 27450 27451 27452 27453 27454 27455 27456 27457 27458 27459 27460 27461 27462 27463 27464 27465 27466 27467 27468 27469 27470 27471 27472 27473 27474 27475 27476 27477 27478 27479 27480 27481 27482 27483 27484 27485 27486 27487 27488 27489 27490 27491 27492 27493 27494 27495 27496 27497 27498 27499 27500 27501 27502 27503 27504 27505 27506 27507 27508 27509 27510 27511 27512 27513 27514 27515 27516 27517 27518 27519 27520 27521 27522 27523 27524 27525 27526 27527 27528 27529 27530 27531 27532 27533 27534 27535 27536 27537 27538 27539 27540 27541 27542 27543 27544 27545 27546 27547 27548 27549 27550 27551 27552 27553 27554 27555 27556 27557 27558 27559 27560 27561 27562 27563 27564 27565 27566 27567 27568 27569 27570 27571 27572 27573 27574 27575 27576 27577 27578 27579 27580 27581 27582 27583 27584 27585 27586 27587 27588 27589 27590 27591 27592 27593 27594 27595 27596 27597 27598 27599 27600 27601 27602 27603 27604 27605 27606 27607 27608 27609 27610 27611 27612 27613 27614 27615 27616 27617 27618 27619 27620 27621 27622 27623 27624 27625 27626 27627 27628 27629 27630 27631 27632 27633 27634 27635 27636 27637 27638 27639 27640 27641 27642 27643 27644 27645 27646 27647 27648 27649 27650 27651 27652 27653 27654 27655 27656 27657 27658 27659 27660 27661 27662 27663 27664 27665 27666 27667 27668 27669 27670 27671 27672 27673 27674 27675 27676 27677 27678 27679 27680 27681 27682 27683 27684 27685 27686 27687 27688 27689 27690 27691 27692 27693 27694 27695 27696 27697 27698 27699 27700 27701 27702 27703 27704 27705 27706 27707 27708 27709 27710 27711 27712 27713 27714 27715 27716 27717 27718 27719 27720 27721 27722 27723 27724 27725 27726 27727 27728 27729 27730 27731 27732 27733 27734 27735 27736 27737 27738 27739 27740 27741 27742 27743 27744 27745 27746 27747 27748 27749 27750 27751 27752 27753 27754 27755 27756 27757 27758 27759 27760 27761 27762 27763 27764 27765 27766 27767 27768 27769 27770 27771 27772 27773 27774 27775 27776 27777 27778 27779 27780 27781 27782 27783 27784 27785 27786 27787 27788 27789 27790 27791 27792 27793 27794 27795 27796 27797 27798 27799 27800 27801 27802 27803 27804 27805 27806 27807 27808 27809 27810 27811 27812 27813 27814 27815 27816 27817 27818 27819 27820 27821 27822 27823 27824 27825 27826 27827 27828 27829 27830 27831 27832 27833 27834 27835 27836 27837 27838 27839 27840 27841 27842 27843 27844 27845 27846 27847 27848 27849 27850 27851 27852 27853 27854 27855 27856 27857 27858 27859 27860 27861 27862 27863 27864 27865 27866 27867 27868 27869 27870 27871 27872 27873 27874 27875 27876 27877 27878 27879 27880 27881 27882 27883 27884 27885 27886 27887 27888 27889 27890 27891 27892 27893 27894 27895 27896 27897 27898 27899 27900 27901 27902 27903 27904 27905 27906 27907 27908 27909 27910 27911 27912 27913 27914 27915 27916 27917 27918 27919 27920 27921 27922 27923 27924 27925 27926 27927 27928 27929 27930 27931 27932 27933 27934 27935 27936 27937 27938 27939 27940 27941 27942 27943 27944 27945 27946 27947 27948 27949 27950 27951 27952 27953 27954 27955 27956 27957 27958 27959 27960 27961 27962 27963 27964 27965 27966 27967 27968 27969 27970 27971 27972 27973 27974 27975 27976 27977 27978 27979 27980 27981 27982 27983 27984 27985 27986 27987 27988 27989 27990 27991 27992 27993 27994 27995 27996 27997 27998 27999 28000 28001 28002 28003 28004 28005 28006 28007 28008 28009 28010 28011 28012 28013 28014 28015 28016 28017 28018 28019 28020 28021 28022 28023 28024 28025 28026 28027 28028 28029 28030 28031 28032 28033 28034 28035 28036 28037 28038 28039 28040 28041 28042 28043 28044 28045 28046 28047 28048 28049 28050 28051 28052 28053 28054 28055 28056 28057 28058 28059 28060 28061 28062 28063 28064 28065 28066 28067 28068 28069 28070 28071 28072 28073 28074 28075 28076 28077 28078 28079 28080 28081 28082 28083 28084 28085 28086 28087 28088 28089 28090 28091 28092 28093 28094 28095 28096 28097 28098 28099 28100 28101 28102 28103 28104 28105 28106 28107 28108 28109 28110 28111 28112 28113 28114 28115 28116 28117 28118 28119 28120 28121 28122 28123 28124 28125 28126 28127 28128 28129 28130 28131 28132 28133 28134 28135 28136 28137 28138 28139 28140 28141 28142 28143 28144 28145 28146 28147 28148 28149 28150 28151 28152 28153 28154 28155 28156 28157 28158 28159 28160 28161 28162 28163 28164 28165 28166 28167 28168 28169 28170 28171 28172 28173 28174 28175 28176 28177 28178 28179 28180 28181 28182 28183 28184 28185 28186 28187 28188 28189 28190 28191 28192 28193 28194 28195 28196 28197 28198 28199 28200 28201 28202 28203 28204 28205 28206 28207 28208 28209 28210 28211 28212 28213 28214 28215 28216 28217 28218 28219 28220 28221 28222 28223 28224 28225 28226 28227 28228 28229 28230 28231 28232 28233 28234 28235 28236 28237 28238 28239 28240 28241 28242 28243 28244 28245 28246 28247 28248 28249 28250 28251 28252 28253 28254 28255 28256 28257 28258 28259 28260 28261 28262 28263 28264 28265 28266 28267 28268 28269 28270 28271 28272 28273 28274 28275 28276 28277 28278 28279 28280 28281 28282 28283 28284 28285 28286 28287 28288 28289 28290 28291 28292 28293 28294 28295 28296 28297 28298 28299 28300 28301 28302 28303 28304 28305 28306 28307 28308 28309 28310 28311 28312 28313 28314 28315 28316 28317 28318 28319 28320 28321 28322 28323 28324 28325 28326 28327 28328 28329 28330 28331 28332 28333 28334 28335 28336 28337 28338 28339 28340 28341 28342 28343 28344 28345 28346 28347 28348 28349 28350 28351 28352 28353 28354 28355 28356 28357 28358 28359 28360 28361 28362 28363 28364 28365 28366 28367 28368 28369 28370 28371 28372 28373 28374 28375 28376 28377 28378 28379 28380 28381 28382 28383 28384 28385 28386 28387 28388 28389 28390 28391 28392 28393 28394 28395 28396 28397 28398 28399 28400 28401 28402 28403 28404 28405 28406 28407 28408 28409 28410 28411 28412 28413 28414 28415 28416 28417 28418 28419 28420 28421 28422 28423 28424 28425 28426 28427 28428 28429 28430 28431 28432 28433 28434 28435 28436 28437 28438 28439 28440 28441 28442 28443 28444 28445 28446 28447 28448 28449 28450 28451 28452 28453 28454 28455 28456 28457 28458 28459 28460 28461 28462 28463 28464 28465 28466 28467 28468 28469 28470 28471 28472 28473 28474 28475 28476 28477 28478 28479 28480 28481 28482 28483 28484 28485 28486 28487 28488 28489 28490 28491 28492 28493 28494 28495 28496 28497 28498 28499 28500 28501 28502 28503 28504 28505 28506 28507 28508 28509 28510 28511 28512 28513 28514 28515 28516 28517 28518 28519 28520 28521 28522 28523 28524 28525 28526 28527 28528 28529 28530 28531 28532 28533 28534 28535 28536 28537 28538 28539 28540 28541 28542 28543 28544 28545 28546 28547 28548 28549 28550 28551 28552 28553 28554 28555 28556 28557 28558 28559 28560 28561 28562 28563 28564 28565 28566 28567 28568 28569 28570 28571 28572 28573 28574 28575 28576 28577 28578 28579 28580 28581 28582 28583 28584 28585 28586 28587 28588 28589 28590 28591 28592 28593 28594 28595 28596 28597 28598 28599 28600 28601 28602 28603 28604 28605 28606 28607 28608 28609 28610 28611 28612 28613 28614 28615 28616 28617 28618 28619 28620 28621 28622 28623 28624 28625 28626 28627 28628 28629 28630 28631 28632 28633 28634 28635 28636 28637 28638 28639 28640 28641 28642 28643 28644 28645 28646 28647 28648 28649 28650 28651 28652 28653 28654 28655 28656 28657 28658 28659 28660 28661 28662 28663 28664 28665 28666 28667 28668 28669 28670 28671 28672 28673 28674 28675 28676 28677 28678 28679 28680 28681 28682 28683 28684 28685 28686 28687 28688 28689 28690 28691 28692 28693 28694 28695 28696 28697 28698 28699 28700 28701 28702 28703 28704 28705 28706 28707 28708 28709 28710 28711 28712 28713 28714 28715 28716 28717 28718 28719 28720 28721 28722 28723 28724 28725 28726 28727 28728 28729 28730 28731 28732 28733 28734 28735 28736 28737 28738 28739 28740 28741 28742 28743 28744 28745 28746 28747 28748 28749 28750 28751 28752 28753 28754 28755 28756 28757 28758 28759 28760 28761 28762 28763 28764 28765 28766 28767 28768 28769 28770 28771 28772 28773 28774 28775 28776 28777 28778 28779 28780 28781 28782 28783 28784 28785 28786 28787 28788 28789 28790 28791 28792 28793 28794 28795 28796 28797 28798 28799 28800 28801 28802 28803 28804 28805 28806 28807 28808 28809 28810 28811 28812 28813 28814 28815 28816 28817 28818 28819 28820 28821 28822 28823 28824 28825 28826 28827 28828 28829 28830 28831 28832 28833 28834 28835 28836 28837 28838 28839 28840 28841 28842 28843 28844 28845 28846 28847 28848 28849 28850 28851 28852 28853 28854 28855 28856 28857 28858 28859 28860 28861 28862 28863 28864 28865 28866 28867 28868 28869 28870 28871 28872 28873 28874 28875 28876 28877 28878 28879 28880 28881 28882 28883 28884 28885 28886 28887 28888 28889 28890 28891 28892 28893 28894 28895 28896 28897 28898 28899 28900 28901 28902 28903 28904 28905 28906 28907 28908 28909 28910 28911 28912 28913 28914 28915 28916 28917 28918 28919 28920 28921 28922 28923 28924 28925 28926 28927 28928 28929 28930 28931 28932 28933 28934 28935 28936 28937 28938 28939 28940 28941 28942 28943 28944 28945 28946 28947 28948 28949 28950 28951 28952 28953 28954 28955 28956 28957 28958 28959 28960 28961 28962 28963 28964 28965 28966 28967 28968 28969 28970 28971 28972 28973 28974 28975 28976 28977 28978 28979 28980 28981 28982 28983 28984 28985 28986 28987 28988 28989 28990 28991 28992 28993 28994 28995 28996 28997 28998 28999 29000 29001 29002 29003 29004 29005 29006 29007 29008 29009 29010 29011 29012 29013 29014 29015 29016 29017 29018 29019 29020 29021 29022 29023 29024 29025 29026 29027 29028 29029 29030 29031 29032 29033 29034 29035 29036 29037 29038 29039 29040 29041 29042 29043 29044 29045 29046 29047 29048 29049 29050 29051 29052 29053 29054 29055 29056 29057 29058 29059 29060 29061 29062 29063 29064 29065 29066 29067 29068 29069 29070 29071 29072 29073 29074 29075 29076 29077 29078 29079 29080 29081 29082 29083 29084 29085 29086 29087 29088 29089 29090 29091 29092 29093 29094 29095 29096 29097 29098 29099 29100 29101 29102 29103 29104 29105 29106 29107 29108 29109 29110 29111 29112 29113 29114 29115 29116 29117 29118 29119 29120 29121 29122 29123 29124 29125 29126 29127 29128 29129 29130 29131 29132 29133 29134 29135 29136 29137 29138 29139 29140 29141 29142 29143 29144 29145 29146 29147 29148 29149 29150 29151 29152 29153 29154 29155 29156 29157 29158 29159 29160 29161 29162 29163 29164 29165 29166 29167 29168 29169 29170 29171 29172 29173 29174 29175 29176 29177 29178 29179 29180 29181 29182 29183 29184 29185 29186 29187 29188 29189 29190 29191 29192 29193 29194 29195 29196 29197 29198 29199 29200 29201 29202 29203 29204 29205 29206 29207 29208 29209 29210 29211 29212 29213 29214 29215 29216 29217 29218 29219 29220 29221 29222 29223 29224 29225 29226 29227 29228 29229 29230 29231 29232 29233 29234 29235 29236 29237 29238 29239 29240 29241 29242 29243 29244 29245 29246 29247 29248 29249 29250 29251 29252 29253 29254 29255 29256 29257 29258 29259 29260 29261 29262 29263 29264 29265 29266 29267 29268 29269 29270 29271 29272 29273 29274 29275 29276 29277 29278 29279 29280 29281 29282 29283 29284 29285 29286 29287 29288 29289 29290 29291 29292 29293 29294 29295 29296 29297 29298 29299 29300 29301 29302 29303 29304 29305 29306 29307 29308 29309 29310 29311 29312 29313 29314 29315 29316 29317 29318 29319 29320 29321 29322 29323 29324 29325 29326 29327 29328 29329 29330 29331 29332 29333 29334 29335 29336 29337 29338 29339 29340 29341 29342 29343 29344 29345 29346 29347 29348 29349 29350 29351 29352 29353 29354 29355 29356 29357 29358 29359 29360 29361 29362 29363 29364 29365 29366 29367 29368 29369 29370 29371 29372 29373 29374 29375 29376 29377 29378 29379 29380 29381 29382 29383 29384 29385 29386 29387 29388 29389 29390 29391 29392 29393 29394 29395 29396 29397 29398 29399 29400 29401 29402 29403 29404 29405 29406 29407 29408 29409 29410 29411 29412 29413 29414 29415 29416 29417 29418 29419 29420 29421 29422 29423 29424 29425 29426 29427 29428 29429 29430 29431 29432 29433 29434 29435 29436 29437 29438 29439 
</DataArray>
<DataArray type="UInt32" Name="offsets" format="ascii">
3 6 8 11 14 17 20 23 26 29 32 35 37 40 43 46 49 52 54 57 60 63 66 69 72 75 78 81 84 87 90 93 95 98 101 104 107 109 112 115 118 120 123 126 129 132 135 138 141 144 147 150 153 156 159 162 165 168 171 174 177 180 183 186 189 192 194 197 200 203 206 209 211 214 217 220 222 224 227 230 233 236 239 242 245 248 251 254 257 260 262 265 268 270 273 276 279 282 285 288 291 294 297 300 303 306 309 312 315 318 321 324 327 329 332 335 337 340 343 346 349 352 355 358 361 364 367 369 372 375 378 381 384 386 389 392 395 398 400 403 405 408 411 414 417 419 422 425 428 431 434 437 440 443 446 449 452 455 458 461 463 466 469 472 475 477 480 483 486 489 492 495 498 501 503 506 509 512 515 518 521 524 527 529 531 534 537 540 543 546 548 550 553 556 559 562 565 568 571 574 576 579 582 584 587 589 592 594 597 600 603 606 609 612 615 617 620 623 626 629 632 635 638 641 644 647 650 652 655 658 661 664 666 668 671 674 677 680 682 685 688 691 693 696 699 702 705 708 711 714 717 720 722 725 728 731 734 737 740 743 746 749 752 755 758 761 764 767 770 773 776 779 782 785 788 791 794 797 799 802 805 808 811 814 817 820 823 826 829 832 835 838 841 844 847 850 853 856 859 862 865 868 871 874 876 879 882 885 888 891 894 896 899 902 905 908 911 914 917 919 921 924 927 930 933 936 939 942 945 948 950 953 956 959 962 964 967 970 973 976 978 981 984 987 990 993 996 999 1002 1004 1007 1010 1013 1016 1018 1021 1024 1027 1030 1033 1036 1039 1042 1045 1048 1050 1053 1055 1058 1061 1064 1067 1070 1073 1076 1079 1082 1085 1087 1090 1092 1095 1098 1101 1104 1107 1110 1113 1116 1119 1122 1125 1127 1130 1133 1136 1139 1142 1145 1148 1151 1153 1156 1159 1162 1165 1167 1170 1173 1176 1179 1182 1185 1188 1191 1193 1196 1199 1202 1205 1208 1211 1214 1217 1220 1223 1226 1229 1232 1235 1238 1241 1244 1247 1250 1253 1256 1258 1261 1264 1267 1270 1273 1276 1279 1282 1285 1287 1290 1293 1296 1299 1302 1305 1308 1311 1314 1317 1320 1323 1326 1329 1332 1335 1338 1341 1344 1347 1350 1353 1356 1359 1362 1365 1368 1371 1374 1377 1380 1383 1385 1388 1391 1394 1397 1400 1403 1406 1409 1412 1415 1418 1421 1424 1427 1430 1432 1435 1437 1440 1443 1446 1449 1451 1454 1457 1460 1463 1466 1468 1471 1474 1477 1480 1483 1486 1489 1492 1495 1498 1501 1504 1506 1509 1512 1515 1518 1521 1524 1527 1530 1533 1536 1539 1542 1545 1548 1551 1554 1557 1560 1563 1566 1569 1572 1575 1578 1581 1584 1587 1590 1593 1596 1599 1602 1605 1608 1611 1614 1617 1620 1623 1626 1629 1631 1634 1637 1639 1642 1645 1648 1651 1654 1657 1659 1662 1665 1668 1671 1674 1677 1679 1682 1685 1688 1691 1694 1697 1700 1703 1706 1709 1711 1714 1717 1720 1723 1726 1729 1732 1735 1738 1741 1744 1747 1750 1752 1755 1758 1761 1764 1767 1769 1772 1775 1778 1781 1784 1787 1790 1793 1796 1798 1800 1803 1806 1809 1812 1815 1817 1820 1823 1826 1829 1832 1835 1838 1841 1844 1847 1850 1853 1856 1859 1862 1865 1868 1871 1874 1877 1880 1883 1886 1889 1892 1895 1898 1901 1904 1907 1910 1913 1916 1919 1922 1925 1928 1930 1933 1935 1938 1941 1944 1947 1950 1953 1956 1959 1962 1965 1968 1971 1974 1977 1980 1983 1986 1989 1992 1994 1997 2000 2002 2005 2008 2011 2014 2017 2020 2022 2025 2027 2030 2033 2036 2038 2041 2044 2046 2048 2051 2053 2056 2059 2062 2065 2068 2071 2073 2076 2079 2082 2085 2088 2090 2092 2094 2097 2100 2103 2106 2108 2111 2114 2117 2120 2123 2126 2128 2131 2134 2137 2140 2143 2146 2148 2151 2153 2155 2158 2161 2163 2166 2168 2171 2174 2177 2180 2183 2186 2189 2192 2195 2198 2201 2204 2207 2210 2213 2216 2219 2221 2224 2227 2230 2232 2235 2238 2241 2244 2247 2249 2252 2255 2258 2261 2264 2267 2269 2272 2275 2278 2280 2283 2286 2289 2292 2295 2298 2301 2304 2307 2310 2313 2316 2319 2322 2325 2328 2330 2333 2336 2338 2341 2344 2347 2350 2353 2356 2359 2362 2364 2367 2370 2373 2376 2379 2382 2385 2388 2391 2394 2397 2400 2403 2406 2409 2412 2415 2417 2420 2423 2426 2429 2432 2435 2437 2440 2443 2446 2448 2451 2453 2456 2458 2461 2463 2466 2469 2471 2474 2477 2480 2483 2486 2489 2492 2495 2498 2501 2504 2507 2509 2512 2515 2518 2521 2524 2527 2530 2533 2536 2539 2542 2545 2548 2551 2554 2557 2560 2563 2566 2569 2572 2575 2578 2581 2584 2587 2590 2593 2596 2599 2602 2605 2608 2610 2613 2616 2619 2622 2625 2627 2629 2632 2634 2637 2640 2643 2646 2649 2652 2655 2657 2660 2663 2666 2669 2672 2675 2678 2681 2684 2687 2690 2692 2695 2697 2700 2703 2705 2708 2711 2714 2716 2719 2722 2725 2727 2730 2733 2736 2738 2740 2743 2746 2749 2752 2755 2758 2761 2764 2767 2770 2773 2776 2779 2782 2785 2788 2791 2794 2797 2800 2803 2806 2809 2812 2815 2818 2821 2824 2827 2830 2833 2836 2839 2842 2845 2848 2851 2854 2857 2860 2863 2866 2869 2872 2875 2878 2881 2884 2887 2890 2893 2896 2899 2902 2905 2908 2911 2914 2917 2920 2923 2926 2929 2932 2935 2938 2941 2944 2947 2950 2953 2956 2959 2962 2965 2968 2971 2974 2977 2980 2983 2986 2989 2992 2995 2998 3001 3004 3007 3010 3013 3016 3019 3022 3025 3028 3031 3034 3037 3040 3043 3046 3049 3052 3055 3058 3061 3064 3067 3070 3073 3076 3079 3082 3085 3088 3091 3094 3097 3100 3103 3106 3109 3112 3115 3118 3121 3124 3127 3130 3133 3136 3139 3142 3145 3148 3151 3154 3157 3160 3163 3166 3169 3172 3175 3178 3181 3183 3185 3188 3191 3194 3197 3200 3203 3206 3209 3212 3215 3218 3221 3224 3227 3230 3233 3236 3239 3242 3245 3248 3251 3254 3257 3260 3263 3266 3269 3272 3275 3278 3281 3284 3287 3290 3293 3296 3299 3302 3305 3308 3311 3313 3316 3319 3321 3324 3327 3330 3333 3336 3339 3342 3345 3348 3351 3354 3356 3359 3362 3364 3367 3370 3372 3375 3378 3381 3384 3387 3390 3393 3396 3399 3402 3405 3408 3411 3414 3417 3419 3422 3425 3428 3431 3434 3436 3438 3441 3444 3447 3450 3453 3456 3459 3462 3465 3468 3471 3474 3477 3480 3483 3486 3489 3492 3495 3497 3500 3502 3505 3508 3510 3513 3515 3518 3521 3524 3526 3529 3532 3535 3538 3541 3544 3546 3549 3552 3555 3558 3560 3563 3566 3569 3572 3575 3578 3581 3584 3587 3590 3592 3595 3598 3601 3604 3607 3610 3613 3616 3619 3622 3625 3628 3631 3633 3636 3639 3642 3645 3647 3649 3652 3655 3658 3660 3663 3665 3668 3671 3673 3676 3679 3682 3685 3687 3689 3692 3695 3698 3701 3704 3706 3709 3712 3715 3718 3721 3724 3727 3730 3733 3736 3738 3741 3744 3747 3750 3753 3756 3759 3762 3765 3768 3771 3774 3777 3780 3783 3786 3788 3791 3793 3796 3798 3801 3804 3806 3808 3811 3814 3817 3820 3823 3826 3829 3831 3834 3836 3839 3842 3845 3848 3851 3854 3857 3860 3863 3866 3869 3872 3875 3878 3881 3884 3887 3890 3893 3896 3899 3902 3905 3908 3911 3914 3917 3920 3923 3926 3928 3931 3934 3937 3940 3943 3946 3949 3952 3955 3958 3961 3964 3967 3970 3972 3975 3978 3981 3984 3987 3990 3993 3996 3999 4002 4005 4007 4010 4013 4016 4019 4022 4025 4028 4031 4034 4037 4040 4043 4046 4049 4052 4054 4057 4060 4063 4066 4069 4072 4075 4078 4081 4083 4086 4088 4091 4094 4097 4100 4102 4105 4108 4110 4113 4116 4119 4122 4125 4128 4131 4133 4135 4138 4141 4144 4147 4150 4153 4156 4159 4161 4164 4167 4169 4172 4175 4178 4181 4184 4187 4190 4193 4196 4199 4201 4204 4207 4209 4212 4215 4217 4220 4223 4226 4228 4230 4233 4236 4239 4242 4245 4248 4251 4254 4257 4260 4263 4265 4268 4271 4274 4277 4280 4283 4286 4289 4292 4295 4298 4301 4304 4307 4310 4313 4316 4319 4322 4325 4328 4331 4334 4337 4340 4342 4345 4348 4351 4354 4357 4360 4363 4366 4368 4371 4374 4377 4380 4383 4385 4388 4391 4394 4397 4400 4403 4405 4408 4411 4414 4417 4420 4423 4426 4429 4432 4435 4438 4441 4444 4447 4450 4453 4456 4459 4462 4465 4468 4471 4474 4477 4480 4483 4485 4488 4491 4494 4497 4500 4502 4505 4508 4511 4514 4517 4520 4523 4526 4529 4532 4535 4538 4541 4544 4547 4550 4553 4556 4559 4562 4565 4568 4571 4574 4576 4579 4582 4584 4587 4590 4593 4595 4598 4600 4603 4606 4609 4611 4614 4616 4619 4622 4625 4628 4631 4633 4635 4638 4641 4644 4647 4650 4652 4654 4656 4659 4661 4664 4667 4670 4673 4676 4679 4682 4685 4688 4691 4694 4697 4700 4703 4706 4709 4712 4714 4717 4719 4722 4725 4728 4731 4733 4735 4737 4740 4743 4746 4749 4752 4755 4758 4761 4764 4767 4770 4773 4776 4779 4782 4785 4788 4791 4794 4796 4799 4802 4805 4808 4811 4813 4816 4819 4822 4825 4827 4830 4833 4836 4839 4842 4845 4848 4851 4854 4857 4860 4863 4866 4869 4872 4875 4878 4881 4884 4886 4889 4891 4894 4897 4900 4903 4906 4909 4912 4915 4917 4919 4922 4925 4928 4930 4933 4936 4939 4942 4945 4948 4951 4954 4957 4959 4962 4965 4968 4971 4974 4977 4980 4983 4986 4989 4992 4995 4998 5001 5004 5007 5010 5012 5015 5018 5021 5024 5027 5029 5032 5035 5037 5040 5043 5046 5049 5052 5055 5058 5061 5064 5067 5070 5073 5076 5079 5082 5084 5087 5090 5092 5095 5098 5101 5103 5106 5109 5112 5115 5117 5120 5123 5126 5129 5132 5135 5137 5140 5143 5145 5148 5151 5154 5157 5160 5163 5166 5169 5172 5175 5178 5181 5184 5187 5190 5193 5196 5199 5202 5205 5208 5211 5214 5217 5220 5223 5225 5228 5231 5233 5236 5239 5242 5245 5248 5251 5254 5257 5260 5263 5266 5269 5272 5275 5278 5281 5284 5287 5290 5293 5296 5299 5302 5305 5308 5311 5314 5317 5320 5322 5325 5328 5331 5334 5337 5340 5343 5345 5348 5351 5354 5357 5360 5363 5366 5368 5371 5374 5377 5380 5383 5386 5389 5392 5395 5398 5401 5404 5407 5410 5413 5416 5419 5422 5425 5428 5431 5434 5437 5440 5443 5446 5449 5452 5455 5458 5461 5464 5467 5469 5472 5475 5478 5481 5483 5486 5489 5491 5493 5496 5499 5502 5505 5508 5511 5513 5516 5519 5522 5525 5528 5531 5534 5537 5540 5543 5546 5549 5552 5555 5558 5561 5564 5567 5570 5573 5576 5579 5582 5585 5588 5590 5593 5596 5599 5602 5605 5608 5611 5614 5617 5620 5623 5626 5629 5632 5635 5638 5641 5644 5647 5650 5653 5656 5659 5662 5665 5668 5671 5674 5677 5680 5683 5686 5689 5692 5695 5698 5701 5704 5707 5710 5713 5716 5719 5722 5725 5728 5731 5734 5737 5740 5743 5746 5749 5752 5755 5758 5761 5764 5767 5770 5773 5776 5779 5782 5785 5788 5791 5794 5797 5800 5803 5806 5809 5812 5815 5818 5821 5824 5827 5830 5833 5836 5839 5842 5845 5848 5851 5854 5857 5860 5863 5866 5869 5872 5874 5877 5880 5883 5886 5889 5892 5895 5898 5901 5904 5907 5909 5912 5915 5917 5920 5923 5925 5928 5931 5934 5937 5940 5943 5946 5949 5952 5955 5957 5960 5963 5966 5969 5972 5974 5977 5980 5982 5985 5988 5991 5994 5997 6000 6002 6005 6008 6011 6014 6017 6020 6023 6025 6028 6031 6034 6037 6039 6041 6044 6047 6050 6052 6055 6058 6061 6064 6067 6070 6073 6075 6078 6080 6083 6085 6088 6090 6093 6095 6098 6101 6103 6106 6108 6111 6114 6117 6120 6123 6125 6128 6131 6134 6137 6140 6143 6146 6149 6152 6155 6158 6160 6163 6166 6169 6172 6175 6177 6180 6183 6186 6188 6191 6194 6197 6200 6203 6206 6208 6211 6214 6217 6220 6222 6225 6228 6230 6233 6236 6239 6242 6245 6248 6251 6254 6257 6260 6263 6266 6269 6272 6275 6278 6281 6284 6287 6290 6293 6296 6299 6302 6304 6307 6310 6313 6316 6319 6322 6325 6328 6330 6333 6336 6339 6342 6345 6348 6351 6354 6357 6360 6363 6366 6369 6372 6374 6377 6380 6383 6386 6389 6391 6394 6396 6399 6401 6404 6407 6410 6413 6416 6419 6422 6425 6428 6431 6434 6437 6440 6443 6446 6448 6451 6454 6457 6460 6463 6466 6469 6472 6475 6477 6480 6483 6485 6488 6491 6494 6497 6500 6503 6506 6509 6512 6515 6517 6520 6523 6525 6527 6530 6533 6536 6538 6541 6544 6547 6550 6553 6555 6558 6561 6564 6567 6570 6573 6576 6578 6581 6584 6586 6589 6592 6595 6598 6601 6604 6607 6610 6613 6616 6619 6622 6625 6628 6631 6634 6636 6639 6642 6645 6648 6651 6654 6657 6660 6663 6666 6668 6671 6674 6677 6680 6683 6686 6689 6692 6694 6697 6700 6703 6706 6709 6712 6715 6718 6721 6724 6727 6730 6733 6736 6739 6741 6744 6747 6750 6753 6756 6759 6762 6765 6767 6770 6772 6774 6777 6780 6783 6786 6789 6792 6795 6798 6801 6804 6807 6810 6813 6816 6819 6822 6825 6827 6830 6832 6835 6837 6840 6843 6846 6848 6850 6853 6856 6859 6862 6865 6868 6871 6874 6876 6879 6882 6885 6888 6891 6894 6896 6899 6902 6905 6908 6911 6914 6917 6920 6923 6926 6929 6932 6935 6938 6941 6944 6947 6950 6953 6956 6959 6962 6965 6968 6971 6973 6976 6979 6982 6985 6988 6990 6993 6996 6999 7002 7004 7007 7009 7012 7015 7017 7020 7022 7025 7028 7030 7033 7036 7038 7041 7044 7046 7049 7051 7054 7056 7059 7061 7064 7067 7070 7073 7076 7079 7082 7084 7087 7090 7093 7096 7099 7102 7105 7108 7111 7113 7116 7119 7122 7125 7128 7131 7134 7137 7140 7143 7146 7149 7152 7155 7158 7161 7164 7167 7169 7172 7175 7178 7181 7184 7186 7189 7192 7195 7198 7201 7204 7207 7210 7213 7215 7218 7221 7224 7227 7230 7233 7236 7238 7241 7244 7247 7250 7253 7256 7259 7262 7265 7268 7271 7274 7277 7280 7283 7286 7289 7292 7295 7297 7299 7302 7305 7308 7311 7314 7316 7319 7321 7324 7327 7329 7332 7335 7338 7341 7343 7346 7349 7352 7354 7357 7360 7363 7366 7368 7371 7374 7377 7380 7383 7385 7388 7391 7394 7396 7399 7401 7404 7406 7409 7412 7415 7417 7420 7423 7426 7429 7431 7434 7437 7439 7442 7445 7448 7450 7453 7456 7459 7462 7465 7468 7471 7474 7477 7480 7483 7486 7488 7491 7494 7497 7500 7503 7506 7509 7512 7515 7517 7520 7523 7526 7529 7532 7535 7538 7541 7544 7547 7550 7553 7556 7559 7562 7565 7568 7571 7574 7577 7580 7583 7586 7589 7592 7595 7598 7601 7604 7607 7610 7613 7616 7619 7622 7625 7628 7631 7634 7637 7640 7643 7646 7649 7652 7655 7658 7661 7663 7666 7669 7672 7675 7678 7681 7684 7687 7690 7693 7696 7699 7702 7705 7708 7711 7714 7717 7719 7722 7724 7727 7730 7733 7736 7739 7742 7745 7748 7751 7754 7757 7760 7763 7766 7769 7772 7775 7778 7781 7784 7787 7790 7793 7796 7799 7801 7804 7806 7809 7812 7815 7818 7820 7823 7825 7828 7830 7833 7836 7839 7842 7845 7847 7849 7852 7855 7857 7859 7862 7865 7868 7871 7874 7877 7880 7882 7885 7888 7891 7894 7897 7900 7903 7905 7908 7911 7914 7917 7920 7923 7925 7927 7930 7933 7936 7939 7941 7943 7946 7949 7952 7955 7958 7961 7964 7967 7970 7973 7976 7979 7982 7985 7988 7991 7994 7997 8000 8003 8006 8009 8012 8015 8018 8021 8024 8027 8029 8032 8035 8037 8040 8043 8046 8049 8052 8055 8058 8061 8064 8067 8070 8073 8076 8079 8082 8085 8088 8091 8093 8096 8098 8101 8104 8107 8110 8113 8116 8119 8122 8125 8128 8131 8134 8137 8140 8143 8145 8148 8151 8153 8156 8159 8162 8165 8168 8171 8174 8177 8180 8183 8186 8188 8191 8194 8197 8200 8203 8206 8209 8212 8214 8217 8220 8223 8226 8229 8232 8235 8238 8241 8244 8247 8250 8253 8256 8259 8262 8265 8268 8271 8274 8277 8280 8283 8285 8288 8291 8294 8297 8300 8303 8306 8309 8311 8314 8316 8319 8322 8324 8327 8329 8332 8334 8337 8339 8342 8345 8347 8350 8353 8356 8359 8362 8365 8368 8371 8374 8377 8379 8382 8385 8388 8391 8394 8397 8400 8403 8406 8409 8412 8415 8418 8421 8424 8427 8430 8433 8436 8438 8440 8443 8446 8448 8451 8454 8457 8460 8463 8466 8469 8472 8475 8478 8481 8484 8487 8490 8493 8496 8499 8502 8505 8508 8511 8514 8517 8520 8523 8526 8529 8532 8535 8538 8541 8544 8547 8550 8553 8556 8559 8562 8565 8568 8570 8573 8576 8579 8582 8585 8588 8591 8594 8596 8599 8602 8604 8607 8610 8613 8615 8618 8621 8624 8626 8629 8631 8634 8636 8638 8641 8644 8647 8650 8653 8655 8658 8661 8664 8667 8670 8673 8675 8678 8681 8684 8687 8690 8693 8696 8698 8700 8703 8706 8709 8712 8715 8718 8721 8724 8726 8729 8732 8735 8738 8740 8743 8746 8749 8752 8755 8758 8760 8763 8766 8769 8772 8775 8778 8781 8784 8786 8789 8792 8795 8797 8800 8803 8806 8809 8812 8815 8818 8821 8824 8826 8829 8832 8835 8838 8841 8844 8847 8849 8852 8855 8858 8861 8864 8867 8869 8872 8875 8878 8881 8884 8887 8890 8893 8896 8898 8901 8904 8907 8910 8912 8914 8917 8920 8923 8926 8929 8932 8935 8938 8941 8944 8947 8950 8953 8956 8959 8962 8965 8967 8970 8973 8976 8979 8982 8985 8988 8991 8994 8997 9000 9003 9006 9009 9012 9015 9018 9021 9024 9027 9030 9032 9035 9038 9041 9044 9046 9049 9052 9055 9057 9060 9063 9066 9069 9072 9075 9078 9081 9084 9087 9090 9093 9096 9099 9102 9105 9108 9110 9113 9116 9119 9122 9125 9127 9130 9132 9135 9138 9141 9144 9146 9149 9152 9155 9158 9161 9164 9167 9170 9173 9175 9178 9181 9184 9187 9190 9193 9196 9199 9202 9205 9208 9211 9214 9217 9220 9223 9226 9229 9232 9235 9238 9241 9244 9247 9250 9253 9256 9259 9262 9265 9268 9271 9274 9277 9280 9283 9286 9289 9292 9295 9298 9301 9304 9307 9310 9313 9316 9319 9322 9325 9328 9331 9334 9337 9340 9343 9346 9349 9352 9355 9358 9361 9363 9366 9369 9372 9375 9378 9380 9383 9385 9388 9391 9394 9397 9400 9403 9406 9409 9412 9415 9418 9421 9424 9427 9430 9433 9436 9439 9442 9445 9448 9451 9453 9456 9459 9462 9465 9468 9470 9473 9476 9479 9482 9485 9488 9491 9493 9496 9499 9502 9505 9508 9511 9513 9515 9518 9521 9524 9527 9530 9533 9536 9539 9542 9545 9548 9551 9554 9556 9559 9562 9565 9568 9571 9574 9577 9580 9583 9586 9589 9592 9594 9597 9600 9603 9606 9609 9611 9614 9617 9620 9623 9626 9629 9632 9635 9638 9641 9644 9647 9650 9653 9656 9659 9662 9665 9668 9670 9673 9676 9679 9682 9685 9688 9691 9694 9697 9700 9702 9705 9708 9711 9714 9717 9719 9722 9725 9728 9730 9733 9736 9739 9742 9745 9747 9750 9753 9756 9759 9762 9765 9768 9771 9774 9777 9780 9783 9785 9788 9791 9794 9797 9799 9802 9805 9808 9811 9813 9816 9819 9821 9824 9827 9829 9832 9835 9838 9841 9844 9846 9849 9852 9855 9857 9860 9863 9866 9868 9871 9874 9877 9880 9883 9886 9889 9892 9895 9898 9900 9903 9906 9909 9912 9915 9918 9921 9924 9926 9929 9932 9935 9938 9940 9943 9946 9948 9950 9953 9956 9959 9962 9965 9968 9971 9974 9976 9979 9982 9984 9987 9990 9992 9995 9998 10001 10003 10006 10009 10012 10015 10018 10021 10024 10027 10029 10032 10035 10038 10041 10044 10046 10049 10052 10054 10057 10060 10063 10066 10069 10071 10074 10077 10080 10082 10085 10088 10091 10094 10096 10099 10102 10105 10107 10110 10112 10115 10118 10121 10123 10126 10129 10132 10135 10138 10141 10144 10147 10150 10153 10156 10159 10162 10165 10168 10171 10174 10177 10180 10183 10186 10189 10192 10195 10198 10201 10204 10207 10210 10213 10216 10219 10222 10225 10228 10231 10234 10237 10240 10243 10246 10249 10252 10255 10257 10259 10261 10263 10266 10269 10272 10275 10278 10280 10283 10286 10289 10292 10295 10298 10301 10304 10307 10310 10312 10315 10318 10321 10323 10325 10328 10331 10333 10336 10339 10342 10345 10348 10351 10354 10357 10359 10362 10365 10367 10369 10372 10375 10377 10379 10382 10385 10388 10391 10394 10397 10400 10403 10406 10408 10411 10414 10417 10420 10423 10426 10428 10431 10434 10437 10440 10443 10446 10449 10452 10455 10458 10461 10464 10467 10470 10473 10476 10479 10482 10485 10488 10491 10494 10497 10500 10503 10505 10508 10511 10514 10517 10520 10522 10524 10527 10529 10532 10535 10538 10540 10543 10546 10549 10551 10554 10557 10560 10562 10565 10568 10571 10573 10576 10579 10582 10584 10587 10589 10592 10595 10598 10601 10604 10607 10610 10613 10616 10619 10622 10625 10628 10631 10634 10637 10639 10642 10645 10648 10651 10654 10657 10660 10663 10666 10669 10672 10674 10677 10680 10682 10684 10687 10690 10693 10696 10699 10702 10705 10708 10710 10713 10716 10719 10722 10725 10728 10731 10734 10736 10739 10741 10744 10747 10750 10753 10756 10759 10762 10765 10768 10771 10773 10776 10779 10782 10784 10787 10790 10793 10795 10798 10801 10804 10807 10810 10812 10815 10817 10820 10823 10826 10829 10832 10835 10838 10841 10844 10847 10850 10853 10856 10859 10862 10865 10868 10871 10874 10877 10880 10883 10885 10888 10891 10894 10897 10900 10903 10906 10909 10912 10915 10918 10921 10924 10927 10930 10933 10936 10938 10940 10943 10945 10948 10951 10954 10957 10960 10963 10966 10968 10971 10974 10977 10980 10982 10985 10988 10991 10994 10997 11000 11003 11006 11009 11012 11015 11018 11021 11024 11027 11030 11033 11036 11039 11041 11044 11047 11049 11052 11055 11058 11061 11064 11067 11070 11073 11075 11078 11081 11084 11086 11089 11092 11095 11098 11101 11104 11107 11110 11113 11116 11119 11122 11124 11127 11130 11133 11136 11139 11142 11145 11148 11151 11154 11157 11160 11163 11166 11169 11172 11175 11178 11181 11184 11187 11190 11193 11196 11199 11202 11205 11208 11211 11214 11217 11219 11222 11225 11228 11230 11233 11236 11239 11241 11244 11247 11250 11252 11255 11258 11260 11263 11266 11269 11272 11275 11278 11281 11284 11287 11290 11293 11296 11299 11302 11305 11308 11311 11314 11317 11319 11322 11325 11328 11330 11333 11336 11339 11342 11345 11348 11351 11354 11357 11360 11362 11365 11368 11370 11373 11376 11379 11382 11385 11387 11390 11392 11395 11398 11401 11403 11406 11409 11412 11415 11418 11421 11424 11427 11430 11433 11436 11439 11442 11445 11447 11449 11452 11455 11458 11461 11464 11467 11470 11473 11476 11479 11482 11485 11488 11491 11494 11497 11500 11503 11506 11509 11512 11514 11516 11519 11522 11525 11528 11531 11534 11537 11540 11543 11546 11549 11552 11554 11557 11560 11563 11566 11569 11572 11575 11578 11581 11584 11586 11589 11592 11594 11597 11600 11603 11606 11609 11612 11614 11617 11620 11622 11625 11628 11631 11634 11637 11639 11642 11645 11648 11651 11654 11657 11660 11663 11665 11668 11670 11673 11676 11679 11682 11684 11687 11690 11693 11696 11699 11702 11705 11708 11711 11714 11716 11719 11722 11725 11728 11731 11734 11737 11740 11743 11746 11749 11751 11754 11756 11759 11761 11764 11767 11770 11773 11776 11779 11781 11784 11787 11790 11793 11796 11799 11802 11805 11807 11809 11812 11815 11818 11821 11824 11827 11830 11833 11836 11838 11841 11844 11847 11850 11853 11855 11857 11859 11862 11865 11868 11871 11873 11876 11879 11882 11885 11887 11890 11893 11896 11899 11902 11905 11907 11910 11913 11916 11919 11922 11925 11927 11930 11933 11936 11939 11941 11944 11947 11949 11951 11954 11957 11960 11963 11966 11969 11972 11975 11978 11980 11983 11986 11988 11991 11994 11997 12000 12003 12006 12009 12012 12015 12018 12021 12024 12027 12030 12033 12036 12039 12042 12045 12048 12051 12054 12057 12060 12063 12066 12068 12071 12074 12077 12079 12082 12085 12088 12091 12094 12097 12099 12102 12105 12108 12111 12114 12117 12120 12123 12126 12129 12131 12134 12137 12139 12142 12145 12148 12151 12154 12157 12160 12163 12166 12169 12172 12175 12178 12181 12183 12186 12189 12192 12195 12198 12201 12204 12207 12210 12213 12216 12219 12222 12225 12228 12231 12234 12237 12240 12243 12246 12249 12252 12255 12258 12261 12264 12267 12270 12272 12275 12278 12281 12284 12287 12290 12293 12296 12299 12302 12305 12308 12311 12314 12317 12320 12323 12326 12329 12332 12335 12338 12341 12344 12347 12350 12353 12356 12359 12362 12365 12368 12371 12374 12377 12380 12383 12386 12389 12392 12395 12398 12401 12404 12407 12410 12413 12416 12419 12422 12425 12428 12431 12434 12437 12440 12443 12446 12449 12452 12455 12458 12461 12464 12467 12470 12473 12476 12479 12482 12485 12488 12491 12494 12497 12500 12503 12506 12509 12512 12515 12518 12521 12524 12527 12530 12533 12536 12539 12542 12545 12548 12550 12553 12556 12559 12562 12565 12567 12570 12573 12576 12579 12582 12585 12588 12591 12594 12597 12600 12602 12605 12608 12611 12614 12616 12619 12621 12623 12626 12628 12631 12634 12637 12640 12643 12646 12649 12652 12654 12657 12660 12663 12666 12669 12672 12675 12678 12681 12684 12687 12690 12693 12696 12699 12702 12705 12708 12711 12714 12717 12720 12723 12726 12729 12732 12735 12738 12741 12744 12747 12750 12753 12756 12759 12761 12763 12766 12769 12771 12774 12777 12779 12782 12785 12787 12790 12793 12796 12799 12801 12804 12806 12809 12812 12815 12817 12820 12822 12825 12827 12829 12831 12834 12837 12839 12841 12844 12847 12850 12853 12856 12859 12862 12864 12867 12870 12873 12876 12879 12882 12884 12887 12890 12892 12895 12897 12900 12903 12906 12909 12912 12914 12917 12920 12922 12925 12928 12931 12934 12937 12940 12943 12946 12949 12952 12955 12958 12961 12964 12967 12970 12973 12976 12979 12981 12984 12987 12989 12991 12994 12996 12999 13001 13004 13007 13010 13012 13014 13017 13020 13023 13026 13028 13031 13034 13037 13040 13043 13046 13049 13052 13055 13058 13061 13064 13067 13070 13073 13075 13078 13081 13084 13086 13089 13092 13095 13098 13100 13103 13106 13108 13111 13114 13117 13120 13123 13126 13129 13132 13135 13137 13140 13143 13146 13149 13152 13155 13158 13161 13164 13167 13170 13173 13176 13179 13182 13185 13188 13191 13194 13197 13200 13203 13206 13209 13211 13214 13217 13220 13223 13226 13229 13232 13235 13238 13241 13244 13247 13249 13252 13255 13258 13261 13263 13266 13269 13271 13274 13277 13280 13283 13286 13289 13291 13294 13297 13300 13303 13306 13309 13311 13313 13315 13318 13321 13324 13326 13329 13332 13335 13338 13341 13344 13347 13350 13353 13356 13359 13362 13365 13367 13370 13373 13376 13379 13382 13385 13388 13391 13393 13396 13399 13401 13404 13406 13409 13412 13415 13418 13421 13423 13425 13428 13431 13434 13437 13440 13443 13446 13449 13452 13454 13456 13459 13462 13465 13468 13471 13474 13477 13479 13482 13485 13488 13491 13494 13497 13500 13503 13506 13509 13512 13515 13518 13521 13524 13527 13530 13533 13536 13539 13542 13545 13548 13551 13553 13556 13559 13562 13565 13568 13571 13574 13577 13580 13583 13586 13589 13592 13595 13598 13601 13604 13607 13610 13613 13616 13619 13622 13625 13628 13631 13634 13637 13640 13643 13645 13648 13650 13653 13656 13659 13661 13664 13667 13670 13673 13675 13678 13681 13684 13686 13689 13692 13695 13698 13701 13704 13707 13709 13711 13714 13717 13719 13722 13725 13728 13731 13734 13737 13740 13743 13746 13749 13752 13755 13758 13761 13764 13766 13768 13771 13774 13777 13780 13783 13785 13788 13791 13794 13797 13800 13802 13805 13808 13811 13813 13816 13819 13822 13825 13828 13831 13834 13837 13840 13843 13846 13849 13852 13855 13858 13861 13864 13867 13870 13873 13876 13879 13882 13885 13887 13890 13893 13895 13898 13901 13903 13906 13909 13912 13915 13918 13921 13924 13927 13930 13933 13936 13939 13942 13945 13948 13951 13954 13957 13960 13963 13966 13969 13972 13975 13978 13980 13983 13986 13989 13991 13994 13997 14000 14003 14006 14009 14012 14015 14018 14021 14024 14027 14030 14033 14036 14039 14042 14045 14048 14051 14054 14057 14060 14063 14066 14069 14072 14075 14078 14081 14084 14087 14090 14093 14096 14099 14102 14105 14108 14111 14114 14117 14120 14123 14126 14129 14132 14135 14137 14140 14143 14146 14149 14152 14155 14158 14161 14164 14167 14170 14173 14175 14178 14181 14184 14187 14190 14193 14196 14199 14201 14204 14206 14209 14212 14215 14218 14221 14224 14227 14230 14233 14236 14239 14242 14245 14248 14251 14253 14256 14259 14262 14265 14268 14271 14274 14277 14279 14281 14284 14287 14289 14292 14295 14298 14301 14303 14306 14308 14311 14314 14317 14320 14323 14325 14327 14330 14333 14336 14339 14342 14345 14348 14351 14354 14357 14360 14363 14366 14369 14372 14375 14378 14381 14384 14387 14390 14393 14396 14399 14401 14404 14407 14410 14413 14415 14418 14420 14423 14426 14429 14432 14435 14438 14441 14444 14447 14450 14453 14456 14459 14462 14465 14468 14471 14474 14477 14480 14482 14485 14488 14490 14493 14496 14499 14502 14505 14508 14511 14514 14517 14520 14523 14526 14529 14532 14535 14538 14540 14543 14546 14549 14552 14555 14558 14560 14562 14565 14568 14571 14574 14577 14580 14583 14586 14589 14592 14595 14598 14601 14604 14607 14610 14613 14616 14619 14622 14625 14628 14631 14634 14637 14640 14642 14645 14648 14651 14654 14657 14660 14663 14666 14669 14672 14675 14678 14681 14684 14687 14690 14693 14696 14698 14701 14704 14707 14710 14713 14716 14719 14722 14724 14727 14729 14732 14735 14738 14741 14744 14747 14750 14753 14756 14759 14762 14764 14767 14770 14773 14776 14779 14782 14785 14788 14791 14794 14797 14800 14803 14806 14808 14811 14814 14817 14820 14822 14825 14828 14831 14834 14836 14839 14841 14843 14846 14849 14852 14855 14857 14860 14863 14866 14869 14872 14875 14878 14880 14883 14886 14888 14890 14893 14896 14899 14902 14905 14908 14911 14914 14916 14919 14922 14925 14928 14931 14934 14937 14940 14943 14946 14949 14952 14955 14958 14961 14964 14967 14970 14972 14975 14978 14981 14983 14986 14989 14992 14995 14997 15000 15003 15006 15009 15012 15015 15018 15021 15024 15027 15030 15033 15036 15039 15041 15044 15047 15050 15053 15056 15059 15062 15065 15068 15071 15074 15077 15079 15082 15085 15088 15091 15094 15096 15099 15102 15105 15108 15111 15114 15117 15119 15122 15125 15128 15131 15134 15137 15140 15142 15145 15148 15150 15153 15155 15158 15161 15164 15166 15169 15172 15175 15178 15181 15184 15187 15190 15193 15196 15199 15202 15205 15208 15210 15213 15216 15219 15222 15225 15228 15231 15234 15237 15240 15242 15245 15248 15251 15253 15256 15259 15261 15264 15267 15270 15272 15275 15277 15280 15283 15286 15289 15292 15295 15298 15300 15303 15306 15309 15312 15315 15318 15320 15323 15326 15329 15332 15335 15338 15341 15344 15347 15350 15353 15356 15358 15361 15364 15367 15370 15373 15376 15379 15382 15384 15387 15390 15393 15396 15399 15402 15405 15408 15411 15413 15416 15419 15422 15425 15428 15431 15434 15436 15439 15442 15445 15448 15451 15454 15457 15460 15463 15466 15469 15472 15475 15477 15480 15483 15486 15488 15491 15493 15495 15498 15501 15504 15507 15510 15513 15515 15518 15521 15524 15527 15530 15533 15536 15539 15542 15545 15548 15551 15554 15557 15560 15562 15565 15568 15571 15574 15577 15580 15582 15585 15588 15591 15594 15597 15600 15603 15606 15609 15612 15615 15618 15621 15624 15626 15629 15631 15634 15637 15640 15643 15645 15648 15651 15654 15657 15660 15663 15665 15668 15671 15674 15677 15680 15683 15685 15688 15691 15694 15697 15700 15703 15706 15709 15712 15715 15718 15721 15724 15727 15730 15733 15736 15739 15742 15745 15748 15751 15754 15757 15760 15763 15766 15769 15772 15775 15778 15781 15784 15787 15790 15793 15796 15799 15802 15805 15808 15811 15814 15817 15820 15823 15826 15829 15832 15834 15837 15840 15843 15846 15848 15851 15853 15856 15859 15862 15865 15868 15871 15874 15877 15880 15883 15886 15889 15892 15895 15898 15901 15904 15907 15910 15912 15915 15917 15920 15923 15926 15929 15931 15934 15936 15938 15941 15944 15947 15950 15952 15954 15956 15959 15962 15964 15966 15969 15972 15975 15978 15981 15984 15987 15990 15993 15996 15999 16002 16005 16008 16011 16014 16017 16019 16022 16025 16028 16031 16033 16036 16039 16042 16044 16047 16050 16053 16056 16059 16062 16065 16068 16070 16073 16076 16079 16082 16085 16088 16091 16094 16097 16100 16103 16106 16109 16111 16114 16116 16119 16122 16125 16128 16131 16134 16137 16140 16143 16146 16149 16151 16154 16157 16160 16163 16166 16169 16172 16175 16177 16180 16182 16184 16187 16189 16192 16195 16197 16200 16203 16206 16209 16212 16215 16218 16221 16224 16227 16230 16233 16236 16239 16242 16245 16248 16251 16254 16256 16259 16262 16264 16267 16270 16273 16276 16279 16282 16285 16287 16290 16293 16295 16298 16301 16304 16307 16310 16312 16315 16318 16320 16323 16326 16328 16330 16333 16336 16339 16342 16345 16348 16351 16353 16356 16359 16362 16365 16368 16370 16373 16375 16378 16381 16384 16387 16389 16392 16394 16397 16400 16403 16406 16409 16412 16415 16418 16421 16424 16427 16430 16433 16436 16439 16442 16445 16448 16450 16453 16456 16458 16461 16463 16466 16469 16472 16475 16478 16481 16484 16487 16490 16493 16496 16499 16502 16505 16508 16511 16514 16517 16520 16522 16525 16528 16531 16534 16537 16540 16543 16546 16549 16552 16555 16558 16561 16564 16567 16570 16573 16576 16579 16581 16584 16587 16590 16593 16595 16598 16601 16603 16606 16609 16612 16615 16618 16620 16623 16626 16629 16632 16635 16638 16641 16644 16647 16650 16653 16656 16658 16661 16664 16667 16670 16673 16676 16679 16681 16684 16687 16690 16693 16696 16699 16702 16705 16708 16711 16714 16716 16719 16722 16724 16727 16729 16732 16735 16738 16741 16743 16746 16749 16752 16755 16757 16760 16762 16765 16768 16771 16773 16776 16779 16782 16785 16787 16790 16793 16796 16799 16802 16805 16808 16811 16814 16817 16820 16823 16826 16829 16832 16834 16836 16839 16842 16845 16848 16850 16853 16855 16858 16861 16864 16867 16869 16872 16875 16878 16881 16884 16886 16889 16892 16894 16897 16900 16903 16905 16908 16911 16913 16916 16919 16921 16924 16927 16930 16933 16936 16939 16942 16945 16948 16951 16954 16957 16960 16963 16965 16968 16971 16974 16977 16979 16982 16985 16988 16991 16994 16996 16999 17002 17005 17008 17011 17014 17017 17020 17023 17026 17029 17032 17035 17038 17041 17044 17047 17050 17053 17056 17059 17062 17065 17068 17071 17074 17077 17080 17083 17086 17089 17092 17095 17097 17100 17103 17106 17109 17112 17115 17117 17120 17123 17126 17129 17132 17135 17137 17140 17143 17146 17148 17151 17154 17157 17160 17163 17165 17168 17171 17173 17176 17179 17182 17184 17187 17190 17193 17196 17199 17202 17205 17208 17211 17214 17217 17220 17223 17226 17229 17232 17235 17238 17241 17244 17247 17250 17253 17256 17259 17262 17265 17268 17271 17274 17277 17280 17283 17286 17289 17292 17295 17297 17300 17303 17306 17308 17311 17314 17317 17320 17323 17326 17329 17332 17335 17337 17340 17343 17345 17348 17351 17354 17357 17360 17363 17366 17369 17372 17375 17378 17380 17383 17386 17389 17391 17394 17397 17400 17403 17406 17409 17412 17415 17418 17420 17423 17426 17429 17432 17434 17437 17440 17443 17446 17449 17452 17455 17458 17461 17463 17466 17469 17472 17475 17477 17480 17483 17486 17489 17492 17495 17498 17501 17504 17507 17510 17513 17516 17519 17522 17525 17528 17530 17532 17535 17538 17541 17544 17546 17549 17552 17555 17558 17560 17563 17565 17568 17571 17574 17577 17580 17583 17586 17589 17592 17594 17597 17600 17602 17605 17608 17611 17614 17617 17620 17623 17626 17629 17632 17635 17637 17640 17643 17646 17649 17652 17655 17658 17661 17664 17667 17670 17673 17676 17679 17682 17684 17687 17690 17693 17696 17699 17702 17705 17708 17710 17713 17716 17719 17722 17725 17727 17730 17733 17736 17739 17742 17745 17747 17750 17753 17756 17759 17762 17765 17768 17771 17774 17777 17780 17783 17786 17789 17792 17795 17798 17801 17804 17807 17810 17813 17816 17819 17822 17825 17828 17831 17834 17837 17840 17843 17846 17849 17852 17855 17858 17861 17864 17867 17870 17873 17876 17879 17882 17885 17888 17891 17894 17897 17900 17903 17906 17909 17912 17915 17917 17920 17923 17926 17929 17932 17935 17938 17941 17944 17947 17950 17953 17956 17959 17962 17964 17967 17970 17973 17976 17979 17982 17985 17988 17991 17994 17997 17999 18002 18005 18007 18010 18013 18016 18019 18022 18025 18028 18031 18033 18036 18039 18042 18045 18048 18051 18054 18057 18059 18061 18064 18067 18070 18073 18076 18078 18081 18084 18087 18090 18093 18096 18099 18102 18105 18107 18110 18113 18116 18119 18122 18125 18128 18131 18134 18137 18140 18143 18146 18149 18152 18155 18158 18161 18164 18167 18170 18173 18176 18179 18182 18185 18188 18191 18194 18197 18200 18203 18205 18208 18211 18213 18216 18219 18222 18225 18228 18231 18234 18237 18240 18242 18245 18248 18251 18254 18257 18260 18263 18266 18269 18272 18275 18278 18281 18284 18287 18290 18293 18296 18299 18302 18305 18308 18311 18314 18317 18320 18323 18326 18329 18332 18335 18337 18340 18343 18346 18349 18352 18354 18357 18360 18363 18366 18369 18372 18374 18377 18380 18383 18386 18388 18390 18393 18396 18399 18402 18405 18407 18410 18413 18416 18419 18422 18425 18428 18431 18434 18437 18440 18443 18445 18448 18451 18454 18457 18460 18463 18466 18469 18472 18475 18478 18481 18484 18487 18490 18493 18496 18499 18502 18505 18508 18511 18514 18517 18520 18523 18526 18529 18532 18535 18538 18541 18544 18547 18550 18553 18556 18559 18562 18565 18568 18571 18574 18577 18580 18583 18586 18589 18591 18594 18597 18600 18603 18606 18609 18612 18615 18618 18621 18624 18627 18630 18633 18636 18639 18642 18645 18648 18651 18654 18657 18660 18663 18666 18668 18671 18674 18677 18680 18683 18686 18689 18692 18695 18698 18701 18704 18706 18709 18712 18715 18718 18721 18724 18727 18730 18733 18736 18739 18742 18745 18748 18751 18754 18757 18760 18763 18766 18768 18771 18774 18777 18780 18782 18785 18788 18791 18793 18795 18798 18801 18804 18807 18809 18812 18815 18818 18821 18824 18827 18830 18832 18835 18838 18841 18844 18847 18849 18852 18855 18858 18860 18863 18866 18869 18872 18874 18877 18880 18883 18886 18889 18892 18895 18898 18901 18904 18907 18910 18913 18915 18918 18921 18924 18927 18930 18932 18935 18937 18940 18943 18945 18948 18951 18954 18956 18958 18961 18964 18967 18970 18973 18976 18978 18980 18983 18985 18988 18991 18994 18997 19000 19003 19006 19009 19012 19015 19018 19021 19024 19027 19030 19033 19036 19039 19042 19045 19048 19051 19054 19057 19060 19063 19066 19069 19072 19074 19077 19080 19083 19086 19089 19092 19095 19098 19101 19104 19107 19110 19113 19116 19119 19122 19125 19128 19131 19134 19137 19140 19143 19146 19149 19152 19155 19158 19161 19164 19167 19170 19173 19175 19178 19181 19184 19187 19190 19193 19196 19198 19201 19204 19207 19210 19213 19216 19219 19222 19225 19228 19231 19234 19237 19239 19242 19245 19248 19251 19254 19257 19260 19263 19265 19268 19270 19273 19275 19278 19281 19284 19287 19290 19293 19296 19299 19302 19305 19308 19311 19313 19316 19319 19322 19325 19328 19331 19333 19336 19339 19342 19345 19348 19351 19354 19357 19360 19363 19366 19369 19372 19375 19378 19381 19384 19387 19390 19393 19396 19399 19402 19405 19408 19411 19414 19417 19420 19423 19426 19429 19432 19434 19437 19440 19443 19446 19449 19452 19455 19458 19461 19464 19466 19469 19472 19475 19478 19480 19483 19486 19489 19492 19495 19498 19501 19504 19507 19510 19513 19516 19519 19522 19525 19527 19530 19533 19536 19539 19542 19544 19547 19550 19553 19556 19558 19561 19564 19567 19569 19572 19575 19577 19580 19583 19585 19588 19591 19594 19597 19600 19602 19605 19608 19611 19614 19617 19619 19622 19625 19627 19630 19633 19636 19639 19641 19644 19647 19650 19652 19655 19658 19661 19664 19667 19670 19673 19676 19679 19682 19685 19688 19691 19694 19697 19700 19703 19706 19709 19712 19715 19718 19721 19724 19727 19729 19732 19735 19738 19741 19744 19746 19749 19751 19754 19757 19760 19763 19765 19768 19770 19773 19776 19778 19781 19784 19787 19790 19793 19796 19799 19801 19804 19807 19810 19813 19816 19819 19822 19825 19828 19831 19834 19837 19840 19843 19846 19849 19852 19855 19858 19860 19862 19865 19868 19871 19874 19877 19880 19883 19886 19888 19891 19893 19896 19899 19902 19905 19908 19910 19913 19916 19919 19922 19925 19928 19931 19934 19937 19940 19943 19946 19949 19952 19955 19958 19961 19964 19967 19970 19973 19976 19979 19982 19985 19988 19991 19994 19996 19999 20002 20004 20007 20010 20013 20015 20018 20021 20023 20026 20028 20030 20033 20036 20039 20042 20045 20048 20051 20054 20056 20059 20061 20064 20066 20069 20072 20075 20078 20081 20084 20087 20090 20093 20096 20099 20101 20104 20107 20110 20113 20116 20119 20121 20124 20127 20130 20133 20136 20138 20140 20143 20146 20149 20152 20155 20157 20160 20163 20166 20168 20171 20173 20176 20178 20181 20184 20187 20190 20192 20195 20198 20200 20203 20206 20208 20211 20213 20216 20219 20222 20225 20228 20231 20234 20237 20240 20243 20246 20249 20252 20254 20257 20260 20263 20266 20268 20271 20274 20277 20280 20283 20286 20289 20292 20295 20298 20301 20303 20306 20309 20311 20314 20317 20320 20322 20325 20327 20329 20332 20335 20338 20341 20344 20347 20350 20352 20355 20358 20361 20364 20367 20370 20373 20376 20379 20382 20384 20387 20390 20392 20395 20398 20401 20404 20407 20410 20413 20416 20419 20422 20425 20428 20431 20433 20436 20438 20441 20444 20447 20450 20453 20456 20459 20462 20465 20468 20471 20474 20476 20479 20482 20485 20488 20491 20494 20497 20500 20503 20506 20509 20511 20514 20517 20520 20522 20525 20528 20531 20534 20537 20540 20543 20546 20549 20552 20554 20557 20559 20562 20565 20567 20570 20573 20576 20578 20581 20584 20586 20589 20592 20595 20597 20600 20603 20605 20608 20611 20614 20617 20619 20621 20624 20627 20630 20632 20635 20638 20641 20643 20646 20649 20652 20655 20658 20661 20664 20667 20670 20672 20675 20678 20681 20684 20687 20690 20693 20696 20699 20702 20704 20706 20709 20712 20715 20718 20721 20724 20727 20729 20731 20734 20737 20740 20742 20745 20747 20750 20753 20756 20759 20762 20765 20768 20771 20774 20777 20780 20783 20786 20789 20792 20795 20798 20801 20804 20807 20810 20813 20816 20819 20822 20825 20828 20831 20834 20837 20840 20843 20846 20849 20852 20855 20858 20860 20863 20866 20869 20872 20875 20878 20881 20883 20886 20888 20891 20894 20896 20899 20902 20904 20906 20909 20912 20915 20917 20920 20922 20925 20928 20931 20933 20935 20938 20940 20942 20945 20947 20950 20953 20955 20957 20960 20962 20965 20968 20971 20974 20977 20980 20983 20986 20989 20992 20995 20998 21001 21004 21007 21010 21012 21015 21018 21021 21024 21026 21028 21030 21033 21036 21039 21041 21043 21046 21049 21052 21055 21058 21061 21063 21066 21068 21070 21073 21076 21079 21081 21084 21087 21090 21092 21095 21098 21101 21104 21106 21109 21111 21114 21117 21119 21122 21125 21128 21131 21134 21137 21140 21143 21146 21149 21152 21155 21158 21161 21164 21167 21170 21173 21176 21179 21182 21185 21188 21191 21194 21197 21200 21203 21206 21209 21212 21215 21218 21221 21224 21227 21229 21232 21235 21238 21241 21244 21247 21250 21253 21256 21259 21262 21265 21268 21271 21274 21277 21280 21283 21286 21289 21292 21295 21298 21301 21304 21307 21310 21313 21316 21319 21322 21325 21328 21331 21334 21337 21340 21343 21346 21349 21352 21355 21358 21361 21364 21367 21370 21373 21376 21379 21382 21385 21388 21391 21394 21397 21400 21403 21406 21409 21412 21415 21418 21420 21423 21426 21429 21431 21433 21436 21439 21442 21445 21448 21451 21454 21457 21460 21463 21466 21469 21472 21475 21478 21480 21483 21486 21489 21491 21494 21496 21498 21501 21504 21507 21510 21513 21516 21519 21522 21525 21528 21530 21533 21536 21538 21540 21543 21545 21548 21550 21553 21556 21559 21562 21565 21568 21571 21574 21577 21580 21583 21586 21589 21592 21595 21598 21601 21603 21605 21607 21610 21613 21616 21619 21622 21624 21627 21630 21633 21636 21639 21642 21645 21648 21651 21654 21657 21660 21663 21666 21669 21672 21675 21678 21681 21684 21687 21690 21693 21696 21699 21702 21705 21708 21711 21713 21716 21719 21722 21725 21728 21731 21733 21736 21739 21742 21745 21748 21751 21754 21757 21760 21762 21764 21767 21770 21773 21776 21779 21782 21785 21787 21789 21792 21795 21798 21800 21803 21806 21809 21812 21814 21817 21819 21821 21823 21826 21829 21832 21835 21837 21840 21843 21846 21849 21851 21854 21857 21860 21863 21865 21868 21871 21874 21877 21880 21882 21884 21887 21890 21893 21896 21899 21902 21904 21907 21910 21912 21915 21918 21921 21924 21927 21929 21932 21935 21938 21941 21944 21947 21950 21952 21955 21958 21961 21964 21967 21970 21973 21975 21978 21981 21984 21987 21990 21993 21996 21999 22002 22005 22008 22011 22014 22017 22020 22023 22026 22029 22032 22035 22038 22041 22044 22047 22050 22053 22055 22058 22061 22064 22067 22070 22073 22076 22079 22082 22085 22088 22091 22094 22097 22100 22103 22106 22108 22111 22114 22116 22119 22121 22124 22127 22129 22132 22135 22138 22141 22143 22145 22148 22151 22154 22157 22160 22163 22166 22169 22172 22175 22177 22180 22183 22186 22189 22192 22195 22198 22201 22204 22207 22210 22213 22216 22219 22222 22225 22228 22231 22234 22237 22240 22243 22246 22249 22252 22255 22258 22261 22264 22267 22270 22273 22276 22279 22282 22285 22288 22291 22294 22297 22300 22303 22306 22309 22312 22315 22318 22320 22323 22326 22329 22332 22335 22338 22341 22344 22347 22349 22352 22355 22358 22360 22362 22364 22367 22370 22373 22376 22378 22381 22384 22386 22388 22391 22394 22396 22398 22401 22404 22407 22410 22413 22416 22419 22422 22425 22428 22431 22434 22436 22439 22442 22445 22448 22450 22453 22456 22459 22462 22465 22468 22471 22474 22477 22480 22482 22485 22488 22491 22494 22497 22500 22503 22506 22509 22512 22515 22518 22521 22524 22527 22529 22532 22534 22536 22539 22542 22545 22547 22550 22553 22556 22559 22562 22565 22568 22571 22574 22577 22580 22583 22586 22589 22592 22595 22598 22601 22604 22607 22610 22613 22616 22619 22622 22625 22628 22631 22634 22637 22640 22643 22646 22648 22651 22654 22657 22660 22663 22666 22669 22672 22675 22678 22680 22683 22686 22689 22692 22695 22697 22700 22703 22706 22709 22712 22715 22718 22721 22724 22727 22729 22732 22735 22738 22740 22743 22746 22749 22752 22755 22758 22761 22764 22767 22770 22773 22776 22779 22782 22785 22788 22791 22794 22797 22800 22803 22806 22809 22812 22814 22817 22819 22822 22825 22828 22831 22834 22837 22839 22842 22845 22848 22851 22854 22857 22860 22862 22865 22868 22871 22874 22877 22879 22882 22885 22888 22891 22894 22896 22899 22901 22904 22907 22910 22913 22916 22919 22921 22924 22927 22930 22933 22936 22938 22941 22944 22947 22950 22953 22956 22959 22962 22965 22968 22971 22974 22977 22980 22983 22986 22988 22991 22994 22997 23000 23003 23006 23009 23011 23014 23016 23018 23020 23023 23025 23028 23031 23034 23037 23040 23043 23046 23049 23052 23055 23057 23060 23063 23066 23069 23072 23075 23078 23081 23084 23087 23090 23093 23096 23098 23101 23104 23107 23110 23113 23115 23118 23121 23124 23127 23130 23132 23135 23138 23141 23144 23147 23149 23152 23155 23157 23160 23162 23164 23167 23170 23172 23175 23178 23181 23183 23185 23188 23191 23193 23196 23199 23202 23205 23207 23210 23213 23216 23219 23222 23224 23227 23230 23233 23236 23239 23242 23245 23248 23250 23252 23255 23258 23261 23263 23266 23269 23271 23274 23277 23279 23282 23285 23288 23291 23293 23296 23299 23302 23304 23307 23309 23312 23315 23317 23319 23322 23324 23326 23329 23332 23335 23338 23340 23342 23344 23347 23350 23353 23356 23359 23362 23365 23368 23371 23374 23377 23380 23382 23385 23388 23391 23394 23397 23400 23403 23406 23408 23410 23412 23415 23418 23421 23423 23425 23427 23430 23433 23436 23439 23442 23445 23448 23451 23454 23457 23460 23463 23466 23468 23471 23474 23477 23479 23482 23485 23488 23490 23493 23496 23499 23502 23504 23507 23510 23513 23515 23518 23521 23524 23526 23529 23532 23535 23538 23541 23544 23547 23550 23553 23556 23559 23562 23565 23568 23571 23574 23577 23580 23583 23586 23589 23592 23595 23598 23601 23604 23607 23610 23612 23615 23617 23620 23623 23626 23629 23632 23635 23638 23641 23644 23647 23650 23653 23656 23659 23662 23665 23668 23671 23674 23677 23679 23681 23684 23687 23690 23693 23696 23699 23701 23704 23707 23710 23713 23716 23719 23721 23724 23727 23730 23733 23736 23739 23742 23745 23748 23751 23753 23756 23759 23762 23765 23767 23770 23772 23775 23778 23780 23783 23786 23788 23791 23793 23796 23799 23802 23804 23807 23809 23812 23815 23817 23820 23822 23825 23827 23830 23832 23835 23838 23840 23843 23846 23849 23851 23854 23857 23860 23863 23866 23869 23872 23875 23878 23881 23884 23886 23888 23890 23892 23895 23898 23901 23903 23906 23909 23911 23914 23917 23920 23922 23924 23927 23930 23933 23936 23939 23942 23945 23947 23950 23953 23956 23959 23962 23965 23967 23969 23972 23975 23978 23981 23984 23986 23988 23990 23993 23996 23999 24002 24005 24008 24011 24014 24017 24019 24022 24025 24028 24031 24034 24037 24040 24043 24046 24049 24051 24054 24057 24060 24063 24066 24069 24072 24075 24078 24081 24084 24087 24090 24093 24096 24099 24102 24104 24107 24110 24113 24116 24119 24122 24124 24127 24130 24133 24136 24139 24141 24144 24147 24150 24153 24156 24159 24162 24165 24168 24171 24174 24177 24180 24183 24186 24189 24192 24195 24198 24201 24204 24207 24210 24213 24216 24219 24222 24225 24228 24231 24234 24237 24240 24243 24246 24249 24252 24255 24258 24261 24264 24267 24269 24272 24275 24278 24281 24284 24287 24290 24293 24296 24299 24302 24305 24308 24311 24314 24317 24319 24322 24325 24328 24331 24334 24337 24340 24343 24346 24349 24352 24355 24358 24361 24364 24367 24370 24372 24375 24377 24380 24383 24386 24389 24392 24395 24398 24401 24404 24407 24410 24413 24416 24419 24422 24425 24428 24431 24434 24437 24440 24443 24446 24449 24452 24454 24457 24460 24463 24466 24468 24471 24474 24477 24480 24483 24486 24489 24492 24495 24498 24501 24504 24507 24509 24512 24515 24518 24521 24524 24527 24530 24533 24536 24539 24542 24545 24548 24551 24554 24557 24560 24563 24566 24569 24572 24575 24578 24581 24584 24587 24590 24593 24596 24599 24602 24605 24608 24611 24614 24616 24619 24622 24625 24628 24631 24634 24637 24640 24643 24645 24648 24651 24654 24656 24659 24662 24665 24668 24671 24674 24677 24680 24683 24686 24689 24692 24695 24698 24701 24704 24707 24710 24713 24716 24719 24722 24725 24728 24731 24734 24737 24740 24743 24745 24748 24751 24754 24757 24759 24762 24765 24768 24770 24773 24776 24779 24782 24785 24788 24791 24794 24797 24800 24803 24806 24809 24811 24814 24817 24820 24823 24826 24829 24832 24835 24838 24841 24844 24847 24850 24853 24856 24859 24862 24865 24867 24870 24873 24876 24879 24882 24885 24888 24890 24893 24896 24898 24901 24904 24907 24910 24913 24916 24919 24922 24924 24927 24930 24932 24935 24938 24941 24944 24947 24949 24952 24955 24957 24960 24962 24965 24968 24971 24974 24977 24980 24983 24986 24989 24992 24994 24996 24998 25000 25003 25006 25008 25011 25014 25017 25020 25023 25026 25028 25031 25034 25037 25040 25043 25046 25049 25052 25055 25058 25061 25064 25067 25069 25072 25075 25077 25080 25083 25086 25088 25091 25094 25097 25100 25103 25106 25109 25112 25115 25118 25121 25124 25127 25130 25133 25136 25139 25141 25144 25147 25149 25152 25155 25158 25161 25164 25167 25170 25173 25176 25178 25181 25184 25187 25189 25192 25195 25198 25201 25203 25206 25209 25212 25215 25218 25221 25223 25225 25228 25231 25234 25237 25240 25243 25246 25249 25251 25254 25257 25259 25262 25265 25268 25271 25273 25276 25279 25282 25285 25288 25291 25294 25296 25299 25302 25305 25307 25310 25313 25316 25319 25322 25325 25328 25331 25334 25337 25340 25343 25346 25349 25352 25355 25358 25361 25364 25367 25370 25373 25376 25379 25381 25384 25387 25390 25392 25395 25398 25401 25403 25406 25408 25411 25413 25416 25419 25422 25425 25427 25430 25432 25434 25437 25439 25442 25445 25448 25451 25454 25457 25459 25462 25465 25467 25469 25472 25475 25477 25480 25483 25485 25488 25491 25493 25496 25499 25502 25505 25508 25510 25513 25516 25519 25522 25524 25527 25530 25532 25534 25537 25540 25543 25545 25548 25551 25554 25557 25560 25562 25565 25567 25570 25573 25576 25579 25581 25584 25587 25590 25593 25596 25599 25602 25605 25608 25611 25614 25617 25620 25623 25626 25629 25632 25635 25638 25641 25644 25647 25650 25653 25656 25659 25662 25665 25668 25670 25673 25676 25679 25681 25684 25687 25690 25693 25696 25699 25702 25705 25708 25711 25713 25716 25719 25722 25725 25728 25731 25734 25737 25740 25743 25746 25748 25751 25754 25757 25760 25763 25765 25768 25771 25774 25776 25779 25782 25785 25788 25790 25792 25795 25798 25801 25804 25807 25810 25813 25815 25818 25821 25824 25827 25830 25833 25836 25839 25842 25844 25847 25850 25853 25856 25859 25862 25865 25868 25871 25874 25877 25879 25882 25885 25888 25891 25894 25897 25900 25903 25906 25909 25912 25915 25918 25921 25924 25927 25930 25933 25936 25939 25942 25944 25947 25950 25953 25956 25959 25962 25965 25968 25971 25974 25977 25980 25983 25986 25989 25992 25995 25998 26001 26004 26007 26010 26013 26016 26019 26022 26025 26028 26031 26034 26037 26040 26043 26046 26049 26052 26054 26057 26060 26063 26066 26069 26072 26075 26078 26081 26084 26087 26089 26092 26095 26098 26100 26102 26105 26108 26111 26114 26116 26119 26121 26124 26127 26129 26131 26134 26137 26140 26142 26145 26148 26151 26154 26157 26159 26162 26165 26168 26170 26173 26176 26179 26182 26185 26188 26191 26194 26197 26200 26203 26206 26208 26211 26214 26217 26220 26223 26226 26229 26232 26234 26236 26239 26242 26245 26248 26251 26254 26257 26260 26263 26265 26268 26271 26274 26276 26278 26281 26284 26287 26290 26293 26295 26298 26300 26302 26305 26307 26310 26313 26316 26318 26320 26323 26326 26328 26331 26334 26336 26338 26341 26344 26347 26349 26352 26354 26357 26360 26362 26365 26368 26371 26374 26377 26380 26383 26385 26388 26391 26394 26397 26400 26403 26406 26409 26412 26414 26417 26420 26422 26425 26427 26430 26433 26435 26438 26441 26443 26445 26448 26451 26454 26457 26460 26463 26466 26469 26472 26475 26478 26481 26483 26485 26488 26491 26494 26497 26500 26503 26506 26508 26511 26514 26517 26520 26523 26526 26529 26531 26533 26536 26539 26542 26545 26548 26551 26554 26557 26560 26563 26566 26569 26571 26573 26576 26579 26582 26584 26587 26590 26593 26595 26598 26601 26604 26607 26610 26612 26615 26618 26621 26624 26627 26630 26633 26636 26639 26642 26645 26648 26651 26654 26657 26660 26663 26666 26669 26672 26675 26678 26680 26683 26686 26689 26692 26694 26697 26700 26703 26706 26709 26712 26715 26718 26721 26724 26727 26730 26733 26736 26738 26741 26744 26747 26750 26753 26756 26758 26761 26763 26766 26769 26771 26774 26777 26780 26782 26785 26787 26790 26793 26796 26798 26801 26804 26807 26810 26813 26816 26818 26821 26824 26827 26830 26833 26836 26839 26842 26845 26848 26851 26854 26856 26859 26862 26865 26868 26871 26874 26877 26879 26882 26885 26888 26891 26894 26897 26900 26903 26906 26908 26911 26914 26916 26919 26922 26925 26928 26931 26934 26936 26939 26942 26945 26948 26950 26952 26955 26958 26960 26963 26966 26969 26972 26975 26978 26981 26984 26987 26990 26993 26996 26999 27002 27005 27008 27010 27013 27016 27018 27021 27024 27027 27030 27032 27035 27037 27040 27043 27046 27049 27052 27054 27057 27060 27063 27066 27068 27071 27073 27076 27079 27081 27084 27087 27090 27093 27096 27098 27101 27104 27106 27109 27112 27114 27117 27120 27123 27126 27129 27132 27135 27138 27141 27143 27146 27148 27151 27154 27157 27160 27162 27165 27168 27170 27172 27175 27178 27181 27184 27186 27188 27191 27193 27196 27199 27202 27205 27207 27209 27211 27214 27217 27219 27222 27225 27227 27229 27232 27235 27238 27241 27243 27246 27249 27252 27255 27257 27260 27263 27265 27268 27271 27274 27277 27280 27283 27286 27288 27291 27294 27297 27300 27303 27306 27309 27312 27314 27317 27320 27323 27326 27328 27331 27334 27337 27340 27343 27346 27349 27352 27355 27358 27361 27364 27367 27370 27372 27375 27378 27381 27384 27387 27390 27393 27396 27399 27402 27405 27407 27410 27413 27416 27419 27422 27424 27427 27430 27433 27436 27439 27442 27445 27448 27451 27454 27457 27460 27463 27466 27469 27472 27475 27478 27481 27484 27487 27490 27493 27496 27499 27502 27505 27508 27511 27514 27517 27520 27523 27526 27529 27532 27535 27538 27541 27544 27547 27550 27553 27556 27559 27562 27565 27568 27571 27574 27577 27580 27583 27586 27589 27592 27595 27598 27601 27604 27607 27610 27612 27615 27618 27620 27623 27626 27629 27632 27635 27638 27641 27644 27647 27650 27653 27656 27659 27662 27665 27668 27670 27673 27676 27679 27682 27685 27688 27691 27694 27697 27700 27702 27705 27708 27711 27714 27717 27720 27723 27726 27729 27732 27735 27738 27741 27744 27747 27750 27753 27756 27758 27761 27763 27766 27769 27772 27775 27778 27780 27782 27785 27788 27791 27794 27797 27800 27803 27806 27809 27812 27814 27816 27818 27821 27824 27826 27829 27832 27834 27837 27840 27842 27845 27848 27851 27854 27857 27860 27863 27866 27869 27872 27875 27878 27881 27884 27887 27890 27893 27896 27898 27901 27904 27907 27910 27913 27915 27918 27921 27924 27927 27929 27932 27934 27937 27940 27943 27946 27948 27951 27954 27957 27960 27963 27966 27969 27972 27975 27978 27981 27984 27987 27990 27993 27996 27999 28002 28005 28008 28011 28014 28017 28020 28023 28026 28029 28032 28035 28038 28041 28044 28046 28049 28052 28055 28058 28061 28064 28067 28069 28072 28075 28078 28080 28083 28086 28089 28092 28095 28098 28101 28103 28106 28109 28112 28115 28118 28121 28124 28127 28130 28133 28136 28139 28142 28145 28148 28151 28154 28157 28160 28163 28166 28169 28172 28175 28177 28180 28183 28186 28189 28191 28194 28197 28200 28202 28205 28208 28211 28214 28217 28220 28223 28226 28229 28232 28235 28237 28240 28243 28246 28249 28252 28254 28257 28260 28263 28266 28269 28272 28275 28277 28280 28283 28286 28289 28292 28294 28297 28300 28303 28306 28309 28312 28315 28318 28321 28323 28326 28329 28332 28335 28338 28341 28344 28347 28350 28353 28356 28359 28362 28365 28367 28370 28373 28376 28379 28382 28385 28388 28391 28394 28397 28400 28403 28406 28409 28411 28413 28416 28419 28422 28425 28428 28431 28434 28437 28440 28443 28446 28449 28452 28455 28458 28461 28464 28467 28470 28473 28476 28479 28482 28485 28488 28491 28494 28497 28500 28503 28506 28509 28512 28515 28518 28521 28524 28527 28530 28532 28534 28537 28540 28543 28546 28549 28552 28555 28558 28561 28564 28567 28569 28572 28575 28578 28581 28584 28587 28590 28593 28596 28598 28601 28604 28607 28610 28613 28615 28618 28621 28624 28627 28629 28632 28635 28638 28641 28644 28647 28650 28653 28656 28659 28662 28665 28668 28671 28674 28677 28680 28683 28686 28689 28692 28695 28698 28701 28704 28706 28709 28712 28714 28717 28719 28722 28724 28727 28730 28733 28736 28739 28742 28744 28747 28749 28752 28755 28758 28761 28764 28766 28769 28772 28775 28778 28781 28784 28787 28790 28793 28796 28799 28802 28805 28808 28811 28814 28817 28820 28823 28826 28829 28832 28835 28838 28841 28844 28847 28850 28853 28856 28858 28861 28864 28867 28870 28872 28875 28878 28881 28884 28887 28890 28893 28896 28899 28901 28904 28907 28910 28913 28916 28919 28922 28925 28928 28931 28933 28936 28938 28940 28943 28946 28949 28952 28955 28958 28961 28964 28967 28970 28973 28976 28979 28982 28985 28988 28990 28993 28996 28999 29002 29005 29008 29011 29014 29017 29020 29023 29026 29029 29032 29035 29038 29041 29044 29047 29050 29053 29056 29059 29061 29064 29067 29070 29073 29076 29079 29082 29085 29087 29089 29092 29095 29098 29101 29104 29106 29108 29111 29114 29117 29119 29122 29125 29128 29131 29134 29137 29140 29142 29145 29148 29150 29153 29156 29159 29162 29165 29167 29170 29172 29175 29178 29180 29183 29186 29189 29192 29195 29198 29201 29204 29206 29209 29212 29215 29218 29221 29224 29227 29230 29233 29236 29238 29240 29243 29246 29249 29252 29255 29258 29261 29264 29267 29270 29272 29275 29278 29281 29284 29287 29289 29291 29294 29297 29300 29302 29305 29308 29311 29314 29317 29320 29323 29326 29329 29332 29334 29336 29339 29342 29345 29348 29351 29353 29356 29359 29361 29364 29367 29370 29372 29375 29378 29381 29384 29386 29389 29392 29395 29398 29401 29404 29407 29410 29413 29416 29419 29422 29425 29428 29431 29434 29437 29440 
</DataArray>
<DataArray type="UInt32" Name="types" format="ascii">
5 5 3 5 5 5 5 5 5 5 5 5 3 5 5 5 5 5 3 5 5 5 5 5 5 5 5 5 5 5 5 5 3 5 5 5 5 3 5 5 5 3 5 5 5 5 5 5 5 5 5 5 5 5 5 5 5 5 5 5 5 5 5 5 5 5 3 5 5 5 5 5 3 5 5 5 3 3 5 5 5 5 5 5 5 5 5 5 5 5 3 5 5 3 5 5 5 5 5 5 5 5 5 5 5 5 5 5 5 5 5 5 5 3 5 5 3 5 5 5 5 5 5 5 5 5 5 3 5 5 5 5 5 3 5 5 5 5 3 5 3 5 5 5 5 3 5 5 5 5 5 5 5 5 5 5 5 5 5 5 3 5 5 5 5 3 5 5 5 5 5 5 5 5 3 5 5 5 5 5 5 5 5 3 3 5 5 5 5 5 3 3 5 5 5 5 5 5 5 5 3 5 5 3 5 3 5 3 5 5 5 5 5 5 5 3 5 5 5 5 5 5 5 5 5 5 5 3 5 5 5 5 3 3 5 5 5 5 3 5 5 5 3 5 5 5 5 5 5 5 5 5 3 5 5 5 5 5 5 5 5 5 5 5 5 5 5 5 5 5 5 5 5 5 5 5 5 5 3 5 5 5 5 5 5 5 5 5 5 5 5 5 5 5 5 5 5 5 5 5 5 5 5 5 3 5 5 5 5 5 5 3 5 5 5 5 5 5 5 3 3 5 5 5 5 5 5 5 5 5 3 5 5 5 5 3 5 5 5 5 3 5 5 5 5 5 5 5 5 3 5 5 5 5 3 5 5 5 5 5 5 5 5 5 5 3 5 3 5 5 5 5 5 5 5 5 5 5 3 5 3 5 5 5 5 5 5 5 5 5 5 5 3 5 5 5 5 5 5 5 5 3 5 5 5 5 3 5 5 5 5 5 5 5 5 3 5 5 5 5 5 5 5 5 5 5 5 5 5 5 5 5 5 5 5 5 5 3 5 5 5 5 5 5 5 5 5 3 5 5 5 5 5 5 5 5 5 5 5 5 5 5 5 5 5 5 5 5 5 5 5 5 5 5 5 5 5 5 5 5 3 5 5 5 5 5 5 5 5 5 5 5 5 5 5 5 3 5 3 5 5 5 5 3 5 5 5 5 5 3 5 5 5 5 5 5 5 5 5 5 5 5 3 5 5 5 5 5 5 5 5 5 5 5 5 5 5 5 5 5 5 5 5 5 5 5 5 5 5 5 5 5 5 5 5 5 5 5 5 5 5 5 5 5 3 5 5 3 5 5 5 5 5 5 3 5 5 5 5 5 5 3 5 5 5 5 5 5 5 5 5 5 3 5 5 5 5 5 5 5 5 5 5 5 5 5 3 5 5 5 5 5 3 5 5 5 5 5 5 5 5 5 3 3 5 5 5 5 5 3 5 5 5 5 5 5 5 5 5 5 5 5 5 5 5 5 5 5 5 5 5 5 5 5 5 5 5 5 5 5 5 5 5 5 5 5 5 3 5 3 5 5 5 5 5 5 5 5 5 5 5 5 5 5 5 5 5 5 5 3 5 5 3 5 5 5 5 5 5 3 5 3 5 5 5 3 5 5 3 3 5 3 5 5 5 5 5 5 3 5 5 5 5 5 3 3 3 5 5 5 5 3 5 5 5 5 5 5 3 5 5 5 5 5 5 3 5 3 3 5 5 3 5 3 5 5 5 5 5 5 5 5 5 5 5 5 5 5 5 5 5 3 5 5 5 3 5 5 5 5 5 3 5 5 5 5 5 5 3 5 5 5 3 5 5 5 5 5 5 5 5 5 5 5 5 5 5 5 5 3 5 5 3 5 5 5 5 5 5 5 5 3 5 5 5 5 5 5 5 5 5 5 5 5 5 5 5 5 5 3 5 5 5 5 5 5 3 5 5 5 3 5 3 5 3 5 3 5 5 3 5 5 5 5 5 5 5 5 5 5 5 5 3 5 5 5 5 5 5 5 5 5 5 5 5 5 5 5 5 5 5 5 5 5 5 5 5 5 5 5 5 5 5 5 5 5 3 5 5 5 5 5 3 3 5 3 5 5 5 5 5 5 5 3 5 5 5 5 5 5 5 5 5 5 5 3 5 3 5 5 3 5 5 5 3 5 5 5 3 5 5 5 3 3 5 5 5 5 5 5 5 5 5 5 5 5 5 5 5 5 5 5 5 5 5 5 5 5 5 5 5 5 5 5 5 5 5 5 5 5 5 5 5 5 5 5 5 5 5 5 5 5 5 5 5 5 5 5 5 5 5 5 5 5 5 5 5 5 5 5 5 5 5 5 5 5 5 5 5 5 5 5 5 5 5 5 5 5 5 5 5 5 5 5 5 5 5 5 5 5 5 5 5 5 5 5 5 5 5 5 5 5 5 5 5 5 5 5 5 5 5 5 5 5 5 5 5 5 5 5 5 5 5 5 5 5 5 5 5 5 5 5 5 5 5 5 5 5 5 5 5 3 3 5 5 5 5 5 5 5 5 5 5 5 5 5 5 5 5 5 5 5 5 5 5 5 5 5 5 5 5 5 5 5 5 5 5 5 5 5 5 5 5 5 5 3 5 5 3 5 5 5 5 5 5 5 5 5 5 5 3 5 5 3 5 5 3 5 5 5 5 5 5 5 5 5 5 5 5 5 5 5 3 5 5 5 5 5 3 3 5 5 5 5 5 5 5 5 5 5 5 5 5 5 5 5 5 5 5 3 5 3 5 5 3 5 3 5 5 5 3 5 5 5 5 5 5 3 5 5 5 5 3 5 5 5 5 5 5 5 5 5 5 3 5 5 5 5 5 5 5 5 5 5 5 5 5 3 5 5 5 5 3 3 5 5 5 3 5 3 5 5 3 5 5 5 5 3 3 5 5 5 5 5 3 5 5 5 5 5 5 5 5 5 5 3 5 5 5 5 5 5 5 5 5 5 5 5 5 5 5 5 3 5 3 5 3 5 5 3 3 5 5 5 5 5 5 5 3 5 3 5 5 5 5 5 5 5 5 5 5 5 5 5 5 5 5 5 5 5 5 5 5 5 5 5 5 5 5 5 5 3 5 5 5 5 5 5 5 5 5 5 5 5 5 5 3 5 5 5 5 5 5 5 5 5 5 5 3 5 5 5 5 5 5 5 5 5 5 5 5 5 5 5 3 5 5 5 5 5 5 5 5 5 3 5 3 5 5 5 5 3 5 5 3 5 5 5 5 5 5 5 3 3 5 5 5 5 5 5 5 5 3 5 5 3 5 5 5 5 5 5 5 5 5 5 3 5 5 3 5 5 3 5 5 5 3 3 5 5 5 5 5 5 5 5 5 5 5 3 5 5 5 5 5 5 5 5 5 5 5 5 5 5 5 5 5 5 5 5 5 5 5 5 5 3 5 5 5 5 5 5 5 5 3 5 5 5 5 5 3 5 5 5 5 5 5 3 5 5 5 5 5 5 5 5 5 5 5 5 5 5 5 5 5 5 5 5 5 5 5 5 5 5 3 5 5 5 5 5 3 5 5 5 5 5 5 5 5 5 5 5 5 5 5 5 5 5 5 5 5 5 5 5 5 3 5 5 3 5 5 5 3 5 3 5 5 5 3 5 3 5 5 5 5 5 3 3 5 5 5 5 5 3 3 3 5 3 5 5 5 5 5 5 5 5 5 5 5 5 5 5 5 5 5 3 5 3 5 5 5 5 3 3 3 5 5 5 5 5 5 5 5 5 5 5 5 5 5 5 5 5 5 5 3 5 5 5 5 5 3 5 5 5 5 3 5 5 5 5 5 5 5 5 5 5 5 5 5 5 5 5 5 5 5 3 5 3 5 5 5 5 5 5 5 5 3 3 5 5 5 3 5 5 5 5 5 5 5 5 5 3 5 5 5 5 5 5 5 5 5 5 5 5 5 5 5 5 5 3 5 5 5 5 5 3 5 5 3 5 5 5 5 5 5 5 5 5 5 5 5 5 5 5 3 5 5 3 5 5 5 3 5 5 5 5 3 5 5 5 5 5 5 3 5 5 3 5 5 5 5 5 5 5 5 5 5 5 5 5 5 5 5 5 5 5 5 5 5 5 5 5 5 3 5 5 3 5 5 5 5 5 5 5 5 5 5 5 5 5 5 5 5 5 5 5 5 5 5 5 5 5 5 5 5 5 3 5 5 5 5 5 5 5 3 5 5 5 5 5 5 5 3 5 5 5 5 5 5 5 5 5 5 5 5 5 5 5 5 5 5 5 5 5 5 5 5 5 5 5 5 5 5 5 5 5 3 5 5 5 5 3 5 5 3 3 5 5 5 5 5 5 3 5 5 5 5 5 5 5 5 5 5 5 5 5 5 5 5 5 5 5 5 5 5 5 5 5 3 5 5 5 5 5 5 5 5 5 5 5 5 5 5 5 5 5 5 5 5 5 5 5 5 5 5 5 5 5 5 5 5 5 5 5 5 5 5 5 5 5 5 5 5 5 5 5 5 5 5 5 5 5 5 5 5 5 5 5 5 5 5 5 5 5 5 5 5 5 5 5 5 5 5 5 5 5 5 5 5 5 5 5 5 5 5 5 5 5 5 5 5 5 5 3 5 5 5 5 5 5 5 5 5 5 5 3 5 5 3 5 5 3 5 5 5 5 5 5 5 5 5 5 3 5 5 5 5 5 3 5 5 3 5 5 5 5 5 5 3 5 5 5 5 5 5 5 3 5 5 5 5 3 3 5 5 5 3 5 5 5 5 5 5 5 3 5 3 5 3 5 3 5 3 5 5 3 5 3 5 5 5 5 5 3 5 5 5 5 5 5 5 5 5 5 5 3 5 5 5 5 5 3 5 5 5 3 5 5 5 5 5 5 3 5 5 5 5 3 5 5 3 5 5 5 5 5 5 5 5 5 5 5 5 5 5 5 5 5 5 5 5 5 5 5 5 3 5 5 5 5 5 5 5 5 3 5 5 5 5 5 5 5 5 5 5 5 5 5 5 3 5 5 5 5 5 3 5 3 5 3 5 5 5 5 5 5 5 5 5 5 5 5 5 5 5 3 5 5 5 5 5 5 5 5 5 3 5 5 3 5 5 5 5 5 5 5 5 5 5 3 5 5 3 3 5 5 5 3 5 5 5 5 5 3 5 5 5 5 5 5 5 3 5 5 3 5 5 5 5 5 5 5 5 5 5 5 5 5 5 5 5 3 5 5 5 5 5 5 5 5 5 5 3 5 5 5 5 5 5 5 5 3 5 5 5 5 5 5 5 5 5 5 5 5 5 5 5 3 5 5 5 5 5 5 5 5 3 5 3 3 5 5 5 5 5 5 5 5 5 5 5 5 5 5 5 5 5 3 5 3 5 3 5 5 5 3 3 5 5 5 5 5 5 5 5 3 5 5 5 5 5 5 3 5 5 5 5 5 5 5 5 5 5 5 5 5 5 5 5 5 5 5 5 5 5 5 5 5 3 5 5 5 5 5 3 5 5 5 5 3 5 3 5 5 3 5 3 5 5 3 5 5 3 5 5 3 5 3 5 3 5 3 5 5 5 5 5 5 5 3 5 5 5 5 5 5 5 5 5 3 5 5 5 5 5 5 5 5 5 5 5 5 5 5 5 5 5 5 3 5 5 5 5 5 3 5 5 5 5 5 5 5 5 5 3 5 5 5 5 5 5 5 3 5 5 5 5 5 5 5 5 5 5 5 5 5 5 5 5 5 5 5 3 3 5 5 5 5 5 3 5 3 5 5 3 5 5 5 5 3 5 5 5 3 5 5 5 5 3 5 5 5 5 5 3 5 5 5 3 5 3 5 3 5 5 5 3 5 5 5 5 3 5 5 3 5 5 5 3 5 5 5 5 5 5 5 5 5 5 5 5 3 5 5 5 5 5 5 5 5 5 3 5 5 5 5 5 5 5 5 5 5 5 5 5 5 5 5 5 5 5 5 5 5 5 5 5 5 5 5 5 5 5 5 5 5 5 5 5 5 5 5 5 5 5 5 5 5 5 5 3 5 5 5 5 5 5 5 5 5 5 5 5 5 5 5 5 5 5 3 5 3 5 5 5 5 5 5 5 5 5 5 5 5 5 5 5 5 5 5 5 5 5 5 5 5 5 3 5 3 5 5 5 5 3 5 3 5 3 5 5 5 5 5 3 3 5 5 3 3 5 5 5 5 5 5 5 3 5 5 5 5 5 5 5 3 5 5 5 5 5 5 3 3 5 5 5 5 3 3 5 5 5 5 5 5 5 5 5 5 5 5 5 5 5 5 5 5 5 5 5 5 5 5 5 5 5 5 3 5 5 3 5 5 5 5 5 5 5 5 5 5 5 5 5 5 5 5 5 5 3 5 3 5 5 5 5 5 5 5 5 5 5 5 5 5 5 5 3 5 5 3 5 5 5 5 5 5 5 5 5 5 5 3 5 5 5 5 5 5 5 5 3 5 5 5 5 5 5 5 5 5 5 5 5 5 5 5 5 5 5 5 5 5 5 5 3 5 5 5 5 5 5 5 5 3 5 3 5 5 3 5 3 5 3 5 3 5 5 3 5 5 5 5 5 5 5 5 5 5 3 5 5 5 5 5 5 5 5 5 5 5 5 5 5 5 5 5 5 5 3 3 5 5 3 5 5 5 5 5 5 5 5 5 5 5 5 5 5 5 5 5 5 5 5 5 5 5 5 5 5 5 5 5 5 5 5 5 5 5 5 5 5 5 5 3 5 5 5 5 5 5 5 5 3 5 5 3 5 5 5 3 5 5 5 3 5 3 5 3 3 5 5 5 5 5 3 5 5 5 5 5 5 3 5 5 5 5 5 5 5 3 3 5 5 5 5 5 5 5 5 3 5 5 5 5 3 5 5 5 5 5 5 3 5 5 5 5 5 5 5 5 3 5 5 5 3 5 5 5 5 5 5 5 5 5 3 5 5 5 5 5 5 5 3 5 5 5 5 5 5 3 5 5 5 5 5 5 5 5 5 3 5 5 5 5 3 3 5 5 5 5 5 5 5 5 5 5 5 5 5 5 5 5 5 3 5 5 5 5 5 5 5 5 5 5 5 5 5 5 5 5 5 5 5 5 5 3 5 5 5 5 3 5 5 5 3 5 5 5 5 5 5 5 5 5 5 5 5 5 5 5 5 5 3 5 5 5 5 5 3 5 3 5 5 5 5 3 5 5 5 5 5 5 5 5 5 3 5 5 5 5 5 5 5 5 5 5 5 5 5 5 5 5 5 5 5 5 5 5 5 5 5 5 5 5 5 5 5 5 5 5 5 5 5 5 5 5 5 5 5 5 5 5 5 5 5 5 5 5 5 5 5 5 5 5 5 5 5 5 3 5 5 5 5 5 3 5 3 5 5 5 5 5 5 5 5 5 5 5 5 5 5 5 5 5 5 5 5 5 5 3 5 5 5 5 5 3 5 5 5 5 5 5 5 3 5 5 5 5 5 5 3 3 5 5 5 5 5 5 5 5 5 5 5 5 5 3 5 5 5 5 5 5 5 5 5 5 5 5 3 5 5 5 5 5 3 5 5 5 5 5 5 5 5 5 5 5 5 5 5 5 5 5 5 5 3 5 5 5 5 5 5 5 5 5 5 3 5 5 5 5 5 3 5 5 5 3 5 5 5 5 5 3 5 5 5 5 5 5 5 5 5 5 5 5 3 5 5 5 5 3 5 5 5 5 3 5 5 3 5 5 3 5 5 5 5 5 3 5 5 5 3 5 5 5 3 5 5 5 5 5 5 5 5 5 5 3 5 5 5 5 5 5 5 5 3 5 5 5 5 3 5 5 3 3 5 5 5 5 5 5 5 5 3 5 5 3 5 5 3 5 5 5 3 5 5 5 5 5 5 5 5 3 5 5 5 5 5 3 5 5 3 5 5 5 5 5 3 5 5 5 3 5 5 5 5 3 5 5 5 3 5 3 5 5 5 3 5 5 5 5 5 5 5 5 5 5 5 5 5 5 5 5 5 5 5 5 5 5 5 5 5 5 5 5 5 5 5 5 5 5 5 5 5 5 5 5 5 5 5 5 3 3 3 3 5 5 5 5 5 3 5 5 5 5 5 5 5 5 5 5 3 5 5 5 3 3 5 5 3 5 5 5 5 5 5 5 5 3 5 5 3 3 5 5 3 3 5 5 5 5 5 5 5 5 5 3 5 5 5 5 5 5 3 5 5 5 5 5 5 5 5 5 5 5 5 5 5 5 5 5 5 5 5 5 5 5 5 5 3 5 5 5 5 5 3 3 5 3 5 5 5 3 5 5 5 3 5 5 5 3 5 5 5 3 5 5 5 3 5 3 5 5 5 5 5 5 5 5 5 5 5 5 5 5 5 5 3 5 5 5 5 5 5 5 5 5 5 5 3 5 5 3 3 5 5 5 5 5 5 5 5 3 5 5 5 5 5 5 5 5 3 5 3 5 5 5 5 5 5 5 5 5 5 3 5 5 5 3 5 5 5 3 5 5 5 5 5 3 5 3 5 5 5 5 5 5 5 5 5 5 5 5 5 5 5 5 5 5 5 5 5 5 3 5 5 5 5 5 5 5 5 5 5 5 5 5 5 5 5 5 3 3 5 3 5 5 5 5 5 5 5 3 5 5 5 5 3 5 5 5 5 5 5 5 5 5 5 5 5 5 5 5 5 5 5 5 3 5 5 3 5 5 5 5 5 5 5 5 3 5 5 5 3 5 5 5 5 5 5 5 5 5 5 5 5 3 5 5 5 5 5 5 5 5 5 5 5 5 5 5 5 5 5 5 5 5 5 5 5 5 5 5 5 5 5 5 5 3 5 5 5 3 5 5 5 3 5 5 5 3 5 5 3 5 5 5 5 5 5 5 5 5 5 5 5 5 5 5 5 5 5 5 3 5 5 5 3 5 5 5 5 5 5 5 5 5 5 3 5 5 3 5 5 5 5 5 3 5 3 5 5 5 3 5 5 5 5 5 5 5 5 5 5 5 5 5 5 3 3 5 5 5 5 5 5 5 5 5 5 5 5 5 5 5 5 5 5 5 5 5 3 3 5 5 5 5 5 5 5 5 5 5 5 5 3 5 5 5 5 5 5 5 5 5 5 3 5 5 3 5 5 5 5 5 5 3 5 5 3 5 5 5 5 5 3 5 5 5 5 5 5 5 5 3 5 3 5 5 5 5 3 5 5 5 5 5 5 5 5 5 5 3 5 5 5 5 5 5 5 5 5 5 5 3 5 3 5 3 5 5 5 5 5 5 3 5 5 5 5 5 5 5 5 3 3 5 5 5 5 5 5 5 5 5 3 5 5 5 5 5 3 3 3 5 5 5 5 3 5 5 5 5 3 5 5 5 5 5 5 3 5 5 5 5 5 5 3 5 5 5 5 3 5 5 3 3 5 5 5 5 5 5 5 5 5 3 5 5 3 5 5 5 5 5 5 5 5 5 5 5 5 5 5 5 5 5 5 5 5 5 5 5 5 5 5 3 5 5 5 3 5 5 5 5 5 5 3 5 5 5 5 5 5 5 5 5 5 3 5 5 3 5 5 5 5 5 5 5 5 5 5 5 5 5 5 3 5 5 5 5 5 5 5 5 5 5 5 5 5 5 5 5 5 5 5 5 5 5 5 5 5 5 5 5 5 3 5 5 5 5 5 5 5 5 5 5 5 5 5 5 5 5 5 5 5 5 5 5 5 5 5 5 5 5 5 5 5 5 5 5 5 5 5 5 5 5 5 5 5 5 5 5 5 5 5 5 5 5 5 5 5 5 5 5 5 5 5 5 5 5 5 5 5 5 5 5 5 5 5 5 5 5 5 5 5 5 5 5 5 5 5 5 5 5 5 5 5 5 3 5 5 5 5 5 3 5 5 5 5 5 5 5 5 5 5 5 3 5 5 5 5 3 5 3 3 5 3 5 5 5 5 5 5 5 5 3 5 5 5 5 5 5 5 5 5 5 5 5 5 5 5 5 5 5 5 5 5 5 5 5 5 5 5 5 5 5 5 5 5 5 5 3 3 5 5 3 5 5 3 5 5 3 5 5 5 5 3 5 3 5 5 5 3 5 3 5 3 3 3 5 5 3 3 5 5 5 5 5 5 5 3 5 5 5 5 5 5 3 5 5 3 5 3 5 5 5 5 5 3 5 5 3 5 5 5 5 5 5 5 5 5 5 5 5 5 5 5 5 5 5 5 3 5 5 3 3 5 3 5 3 5 5 5 3 3 5 5 5 5 3 5 5 5 5 5 5 5 5 5 5 5 5 5 5 5 3 5 5 5 3 5 5 5 5 3 5 5 3 5 5 5 5 5 5 5 5 5 3 5 5 5 5 5 5 5 5 5 5 5 5 5 5 5 5 5 5 5 5 5 5 5 5 3 5 5 5 5 5 5 5 5 5 5 5 5 3 5 5 5 5 3 5 5 3 5 5 5 5 5 5 3 5 5 5 5 5 5 3 3 3 5 5 5 3 5 5 5 5 5 5 5 5 5 5 5 5 5 3 5 5 5 5 5 5 5 5 3 5 5 3 5 3 5 5 5 5 5 3 3 5 5 5 5 5 5 5 5 5 3 3 5 5 5 5 5 5 5 3 5 5 5 5 5 5 5 5 5 5 5 5 5 5 5 5 5 5 5 5 5 5 5 5 3 5 5 5 5 5 5 5 5 5 5 5 5 5 5 5 5 5 5 5 5 5 5 5 5 5 5 5 5 5 5 3 5 3 5 5 5 3 5 5 5 5 3 5 5 5 3 5 5 5 5 5 5 5 3 3 5 5 3 5 5 5 5 5 5 5 5 5 5 5 5 5 5 5 3 3 5 5 5 5 5 3 5 5 5 5 5 3 5 5 5 3 5 5 5 5 5 5 5 5 5 5 5 5 5 5 5 5 5 5 5 5 5 5 5 5 3 5 5 3 5 5 3 5 5 5 5 5 5 5 5 5 5 5 5 5 5 5 5 5 5 5 5 5 5 5 5 5 3 5 5 5 3 5 5 5 5 5 5 5 5 5 5 5 5 5 5 5 5 5 5 5 5 5 5 5 5 5 5 5 5 5 5 5 5 5 5 5 5 5 5 5 5 5 5 5 5 5 5 5 5 3 5 5 5 5 5 5 5 5 5 5 5 5 3 5 5 5 5 5 5 5 5 3 5 3 5 5 5 5 5 5 5 5 5 5 5 5 5 5 5 3 5 5 5 5 5 5 5 5 3 3 5 5 3 5 5 5 5 3 5 3 5 5 5 5 5 3 3 5 5 5 5 5 5 5 5 5 5 5 5 5 5 5 5 5 5 5 5 5 5 5 5 3 5 5 5 5 3 5 3 5 5 5 5 5 5 5 5 5 5 5 5 5 5 5 5 5 5 5 5 3 5 5 3 5 5 5 5 5 5 5 5 5 5 5 5 5 5 5 5 3 5 5 5 5 5 5 3 3 5 5 5 5 5 5 5 5 5 5 5 5 5 5 5 5 5 5 5 5 5 5 5 5 5 5 3 5 5 5 5 5 5 5 5 5 5 5 5 5 5 5 5 5 5 3 5 5 5 5 5 5 5 5 3 5 3 5 5 5 5 5 5 5 5 5 5 5 3 5 5 5 5 5 5 5 5 5 5 5 5 5 5 3 5 5 5 5 3 5 5 5 5 3 5 3 3 5 5 5 5 3 5 5 5 5 5 5 5 3 5 5 3 3 5 5 5 5 5 5 5 5 3 5 5 5 5 5 5 5 5 5 5 5 5 5 5 5 5 5 5 3 5 5 5 3 5 5 5 5 3 5 5 5 5 5 5 5 5 5 5 5 5 5 5 3 5 5 5 5 5 5 5 5 5 5 5 5 3 5 5 5 5 5 3 5 5 5 5 5 5 5 3 5 5 5 5 5 5 5 3 5 5 3 5 3 5 5 5 3 5 5 5 5 5 5 5 5 5 5 5 5 5 5 3 5 5 5 5 5 5 5 5 5 5 3 5 5 5 3 5 5 3 5 5 5 3 5 3 5 5 5 5 5 5 5 3 5 5 5 5 5 5 3 5 5 5 5 5 5 5 5 5 5 5 5 3 5 5 5 5 5 5 5 5 3 5 5 5 5 5 5 5 5 5 3 5 5 5 5 5 5 5 3 5 5 5 5 5 5 5 5 5 5 5 5 5 3 5 5 5 3 5 3 3 5 5 5 5 5 5 3 5 5 5 5 5 5 5 5 5 5 5 5 5 5 5 3 5 5 5 5 5 5 3 5 5 5 5 5 5 5 5 5 5 5 5 5 5 3 5 3 5 5 5 5 3 5 5 5 5 5 5 3 5 5 5 5 5 5 3 5 5 5 5 5 5 5 5 5 5 5 5 5 5 5 5 5 5 5 5 5 5 5 5 5 5 5 5 5 5 5 5 5 5 5 5 5 5 5 5 5 5 5 5 5 5 5 5 5 3 5 5 5 5 3 5 3 5 5 5 5 5 5 5 5 5 5 5 5 5 5 5 5 5 5 5 3 5 3 5 5 5 5 3 5 3 3 5 5 5 5 3 3 3 5 5 3 3 5 5 5 5 5 5 5 5 5 5 5 5 5 5 5 5 5 3 5 5 5 5 3 5 5 5 3 5 5 5 5 5 5 5 5 3 5 5 5 5 5 5 5 5 5 5 5 5 5 3 5 3 5 5 5 5 5 5 5 5 5 5 5 3 5 5 5 5 5 5 5 5 3 5 3 3 5 3 5 5 3 5 5 5 5 5 5 5 5 5 5 5 5 5 5 5 5 5 5 5 3 5 5 3 5 5 5 5 5 5 5 3 5 5 3 5 5 5 5 5 3 5 5 3 5 5 3 3 5 5 5 5 5 5 5 3 5 5 5 5 5 3 5 3 5 5 5 5 3 5 3 5 5 5 5 5 5 5 5 5 5 5 5 5 5 5 5 5 5 3 5 5 3 5 3 5 5 5 5 5 5 5 5 5 5 5 5 5 5 5 5 5 5 5 3 5 5 5 5 5 5 5 5 5 5 5 5 5 5 5 5 5 5 5 3 5 5 5 5 3 5 5 3 5 5 5 5 5 3 5 5 5 5 5 5 5 5 5 5 5 5 3 5 5 5 5 5 5 5 3 5 5 5 5 5 5 5 5 5 5 5 3 5 5 3 5 3 5 5 5 5 3 5 5 5 5 3 5 3 5 5 5 3 5 5 5 5 3 5 5 5 5 5 5 5 5 5 5 5 5 5 5 5 3 3 5 5 5 5 3 5 3 5 5 5 5 3 5 5 5 5 5 3 5 5 3 5 5 5 3 5 5 3 5 5 3 5 5 5 5 5 5 5 5 5 5 5 5 5 5 3 5 5 5 5 3 5 5 5 5 5 3 5 5 5 5 5 5 5 5 5 5 5 5 5 5 5 5 5 5 5 5 5 5 5 5 5 5 5 5 5 5 5 5 5 3 5 5 5 5 5 5 3 5 5 5 5 5 5 3 5 5 5 3 5 5 5 5 5 3 5 5 3 5 5 5 3 5 5 5 5 5 5 5 5 5 5 5 5 5 5 5 5 5 5 5 5 5 5 5 5 5 5 5 5 5 5 5 5 5 5 5 5 5 3 5 5 5 3 5 5 5 5 5 5 5 5 5 3 5 5 3 5 5 5 5 5 5 5 5 5 5 5 3 5 5 5 3 5 5 5 5 5 5 5 5 5 3 5 5 5 5 3 5 5 5 5 5 5 5 5 5 3 5 5 5 5 3 5 5 5 5 5 5 5 5 5 5 5 5 5 5 5 5 5 3 3 5 5 5 5 3 5 5 5 5 3 5 3 5 5 5 5 5 5 5 5 5 3 5 5 3 5 5 5 5 5 5 5 5 5 5 5 3 5 5 5 5 5 5 5 5 5 5 5 5 5 5 5 3 5 5 5 5 5 5 5 5 3 5 5 5 5 5 3 5 5 5 5 5 5 3 5 5 5 5 5 5 5 5 5 5 5 5 5 5 5 5 5 5 5 5 5 5 5 5 5 5 5 5 5 5 5 5 5 5 5 5 5 5 5 5 5 5 5 5 5 5 5 5 5 5 5 5 5 5 5 5 3 5 5 5 5 5 5 5 5 5 5 5 5 5 5 5 3 5 5 5 5 5 5 5 5 5 5 5 3 5 5 3 5 5 5 5 5 5 5 5 3 5 5 5 5 5 5 5 5 3 3 5 5 5 5 5 3 5 5 5 5 5 5 5 5 5 3 5 5 5 5 5 5 5 5 5 5 5 5 5 5 5 5 5 5 5 5 5 5 5 5 5 5 5 5 5 5 5 5 3 5 5 3 5 5 5 5 5 5 5 5 5 3 5 5 5 5 5 5 5 5 5 5 5 5 5 5 5 5 5 5 5 5 5 5 5 5 5 5 5 5 5 5 5 3 5 5 5 5 5 3 5 5 5 5 5 5 3 5 5 5 5 3 3 5 5 5 5 5 3 5 5 5 5 5 5 5 5 5 5 5 5 3 5 5 5 5 5 5 5 5 5 5 5 5 5 5 5 5 5 5 5 5 5 5 5 5 5 5 5 5 5 5 5 5 5 5 5 5 5 5 5 5 5 5 5 5 5 5 5 5 3 5 5 5 5 5 5 5 5 5 5 5 5 5 5 5 5 5 5 5 5 5 5 5 5 5 3 5 5 5 5 5 5 5 5 5 5 5 5 3 5 5 5 5 5 5 5 5 5 5 5 5 5 5 5 5 5 5 5 5 3 5 5 5 5 3 5 5 5 3 3 5 5 5 5 3 5 5 5 5 5 5 5 3 5 5 5 5 5 3 5 5 5 3 5 5 5 5 3 5 5 5 5 5 5 5 5 5 5 5 5 5 3 5 5 5 5 5 3 5 3 5 5 3 5 5 5 3 3 5 5 5 5 5 5 3 3 5 3 5 5 5 5 5 5 5 5 5 5 5 5 5 5 5 5 5 5 5 5 5 5 5 5 5 5 5 5 5 3 5 5 5 5 5 5 5 5 5 5 5 5 5 5 5 5 5 5 5 5 5 5 5 5 5 5 5 5 5 5 5 5 5 3 5 5 5 5 5 5 5 3 5 5 5 5 5 5 5 5 5 5 5 5 5 3 5 5 5 5 5 5 5 5 3 5 3 5 3 5 5 5 5 5 5 5 5 5 5 5 5 3 5 5 5 5 5 5 3 5 5 5 5 5 5 5 5 5 5 5 5 5 5 5 5 5 5 5 5 5 5 5 5 5 5 5 5 5 5 5 5 5 3 5 5 5 5 5 5 5 5 5 5 3 5 5 5 5 3 5 5 5 5 5 5 5 5 5 5 5 5 5 5 5 3 5 5 5 5 5 3 5 5 5 5 3 5 5 5 3 5 5 3 5 5 3 5 5 5 5 5 3 5 5 5 5 5 3 5 5 3 5 5 5 5 3 5 5 5 3 5 5 5 5 5 5 5 5 5 5 5 5 5 5 5 5 5 5 5 5 5 5 5 5 5 3 5 5 5 5 5 3 5 3 5 5 5 5 3 5 3 5 5 3 5 5 5 5 5 5 5 3 5 5 5 5 5 5 5 5 5 5 5 5 5 5 5 5 5 5 5 3 3 5 5 5 5 5 5 5 5 3 5 3 5 5 5 5 5 3 5 5 5 5 5 5 5 5 5 5 5 5 5 5 5 5 5 5 5 5 5 5 5 5 5 5 5 5 3 5 5 3 5 5 5 3 5 5 3 5 3 3 5 5 5 5 5 5 5 5 3 5 3 5 3 5 5 5 5 5 5 5 5 5 5 5 3 5 5 5 5 5 5 3 5 5 5 5 5 3 3 5 5 5 5 5 3 5 5 5 3 5 3 5 3 5 5 5 5 3 5 5 3 5 5 3 5 3 5 5 5 5 5 5 5 5 5 5 5 5 5 3 5 5 5 5 3 5 5 5 5 5 5 5 5 5 5 5 3 5 5 3 5 5 5 3 5 3 3 5 5 5 5 5 5 5 3 5 5 5 5 5 5 5 5 5 5 3 5 5 3 5 5 5 5 5 5 5 5 5 5 5 5 5 3 5 3 5 5 5 5 5 5 5 5 5 5 5 5 3 5 5 5 5 5 5 5 5 5 5 5 3 5 5 5 3 5 5 5 5 5 5 5 5 5 5 3 5 3 5 5 3 5 5 5 3 5 5 3 5 5 5 3 5 5 3 5 5 5 5 3 3 5 5 5 3 5 5 5 3 5 5 5 5 5 5 5 5 5 3 5 5 5 5 5 5 5 5 5 5 3 3 5 5 5 5 5 5 5 3 3 5 5 5 3 5 3 5 5 5 5 5 5 5 5 5 5 5 5 5 5 5 5 5 5 5 5 5 5 5 5 5 5 5 5 5 5 5 5 5 5 5 5 5 3 5 5 5 5 5 5 5 3 5 3 5 5 3 5 5 3 3 5 5 5 3 5 3 5 5 5 3 3 5 3 3 5 3 5 5 3 3 5 3 5 5 5 5 5 5 5 5 5 5 5 5 5 5 5 5 3 5 5 5 5 3 3 3 5 5 5 3 3 5 5 5 5 5 5 3 5 3 3 5 5 5 3 5 5 5 3 5 5 5 5 3 5 3 5 5 3 5 5 5 5 5 5 5 5 5 5 5 5 5 5 5 5 5 5 5 5 5 5 5 5 5 5 5 5 5 5 5 5 5 5 5 5 3 5 5 5 5 5 5 5 5 5 5 5 5 5 5 5 5 5 5 5 5 5 5 5 5 5 5 5 5 5 5 5 5 5 5 5 5 5 5 5 5 5 5 5 5 5 5 5 5 5 5 5 5 5 5 5 5 5 5 5 5 5 5 5 3 5 5 5 3 3 5 5 5 5 5 5 5 5 5 5 5 5 5 5 5 3 5 5 5 3 5 3 3 5 5 5 5 5 5 5 5 5 5 3 5 5 3 3 5 3 5 3 5 5 5 5 5 5 5 5 5 5 5 5 5 5 5 5 5 3 3 3 5 5 5 5 5 3 5 5 5 5 5 5 5 5 5 5 5 5 5 5 5 5 5 5 5 5 5 5 5 5 5 5 5 5 5 3 5 5 5 5 5 5 3 5 5 5 5 5 5 5 5 5 3 3 5 5 5 5 5 5 5 3 3 5 5 5 3 5 5 5 5 3 5 3 3 3 5 5 5 5 3 5 5 5 5 3 5 5 5 5 3 5 5 5 5 5 3 3 5 5 5 5 5 5 3 5 5 3 5 5 5 5 5 3 5 5 5 5 5 5 5 3 5 5 5 5 5 5 5 3 5 5 5 5 5 5 5 5 5 5 5 5 5 5 5 5 5 5 5 5 5 5 5 5 5 5 3 5 5 5 5 5 5 5 5 5 5 5 5 5 5 5 5 5 3 5 5 3 5 3 5 5 3 5 5 5 5 3 3 5 5 5 5 5 5 5 5 5 5 3 5 5 5 5 5 5 5 5 5 5 5 5 5 5 5 5 5 5 5 5 5 5 5 5 5 5 5 5 5 5 5 5 5 5 5 5 5 5 5 5 5 5 5 5 5 5 5 3 5 5 5 5 5 5 5 5 5 3 5 5 5 3 3 3 5 5 5 5 3 5 5 3 3 5 5 3 3 5 5 5 5 5 5 5 5 5 5 5 5 3 5 5 5 5 3 5 5 5 5 5 5 5 5 5 5 3 5 5 5 5 5 5 5 5 5 5 5 5 5 5 5 3 5 3 3 5 5 5 3 5 5 5 5 5 5 5 5 5 5 5 5 5 5 5 5 5 5 5 5 5 5 5 5 5 5 5 5 5 5 5 5 5 3 5 5 5 5 5 5 5 5 5 5 3 5 5 5 5 5 3 5 5 5 5 5 5 5 5 5 5 3 5 5 5 3 5 5 5 5 5 5 5 5 5 5 5 5 5 5 5 5 5 5 5 5 5 5 5 5 3 5 3 5 5 5 5 5 5 3 5 5 5 5 5 5 5 3 5 5 5 5 5 3 5 5 5 5 5 3 5 3 5 5 5 5 5 5 3 5 5 5 5 5 3 5 5 5 5 5 5 5 5 5 5 5 5 5 5 5 5 3 5 5 5 5 5 5 5 3 5 3 3 3 5 3 5 5 5 5 5 5 5 5 5 5 3 5 5 5 5 5 5 5 5 5 5 5 5 5 3 5 5 5 5 5 3 5 5 5 5 5 3 5 5 5 5 5 3 5 5 3 5 3 3 5 5 3 5 5 5 3 3 5 5 3 5 5 5 5 3 5 5 5 5 5 3 5 5 5 5 5 5 5 5 3 3 5 5 5 3 5 5 3 5 5 3 5 5 5 5 3 5 5 5 3 5 3 5 5 3 3 5 3 3 5 5 5 5 3 3 3 5 5 5 5 5 5 5 5 5 5 5 5 3 5 5 5 5 5 5 5 5 3 3 3 5 5 5 3 3 3 5 5 5 5 5 5 5 5 5 5 5 5 5 3 5 5 5 3 5 5 5 3 5 5 5 5 3 5 5 5 3 5 5 5 3 5 5 5 5 5 5 5 5 5 5 5 5 5 5 5 5 5 5 5 5 5 5 5 5 5 5 5 5 3 5 3 5 5 5 5 5 5 5 5 5 5 5 5 5 5 5 5 5 5 5 5 3 3 5 5 5 5 5 5 3 5 5 5 5 5 5 3 5 5 5 5 5 5 5 5 5 5 3 5 5 5 5 3 5 3 5 5 3 5 5 3 5 3 5 5 5 3 5 3 5 5 3 5 3 5 3 5 3 5 5 3 5 5 5 3 5 5 5 5 5 5 5 5 5 5 5 3 3 3 3 5 5 5 3 5 5 3 5 5 5 3 3 5 5 5 5 5 5 5 3 5 5 5 5 5 5 3 3 5 5 5 5 5 3 3 3 5 5 5 5 5 5 5 5 5 3 5 5 5 5 5 5 5 5 5 5 3 5 5 5 5 5 5 5 5 5 5 5 5 5 5 5 5 5 3 5 5 5 5 5 5 3 5 5 5 5 5 3 5 5 5 5 5 5 5 5 5 5 5 5 5 5 5 5 5 5 5 5 5 5 5 5 5 5 5 5 5 5 5 5 5 5 5 5 5 5 5 5 5 5 3 5 5 5 5 5 5 5 5 5 5 5 5 5 5 5 5 3 5 5 5 5 5 5 5 5 5 5 5 5 5 5 5 5 5 3 5 3 5 5 5 5 5 5 5 5 5 5 5 5 5 5 5 5 5 5 5 5 5 5 5 5 5 3 5 5 5 5 3 5 5 5 5 5 5 5 5 5 5 5 5 5 3 5 5 5 5 5 5 5 5 5 5 5 5 5 5 5 5 5 5 5 5 5 5 5 5 5 5 5 5 5 5 5 5 5 5 5 3 5 5 5 5 5 5 5 5 5 3 5 5 5 3 5 5 5 5 5 5 5 5 5 5 5 5 5 5 5 5 5 5 5 5 5 5 5 5 5 5 5 5 5 3 5 5 5 5 3 5 5 5 3 5 5 5 5 5 5 5 5 5 5 5 5 5 3 5 5 5 5 5 5 5 5 5 5 5 5 5 5 5 5 5 5 3 5 5 5 5 5 5 5 3 5 5 3 5 5 5 5 5 5 5 5 3 5 5 3 5 5 5 5 5 3 5 5 3 5 3 5 5 5 5 5 5 5 5 5 5 3 3 3 3 5 5 3 5 5 5 5 5 5 3 5 5 5 5 5 5 5 5 5 5 5 5 5 3 5 5 3 5 5 5 3 5 5 5 5 5 5 5 5 5 5 5 5 5 5 5 5 5 3 5 5 3 5 5 5 5 5 5 5 5 5 3 5 5 5 3 5 5 5 5 3 5 5 5 5 5 5 3 3 5 5 5 5 5 5 5 5 3 5 5 3 5 5 5 5 3 5 5 5 5 5 5 5 3 5 5 5 3 5 5 5 5 5 5 5 5 5 5 5 5 5 5 5 5 5 5 5 5 5 5 5 5 3 5 5 5 3 5 5 5 3 5 3 5 3 5 5 5 5 3 5 3 3 5 3 5 5 5 5 5 5 3 5 5 3 3 5 5 3 5 5 3 5 5 3 5 5 5 5 5 3 5 5 5 5 3 5 5 3 3 5 5 5 3 5 5 5 5 5 3 5 3 5 5 5 5 3 5 5 5 5 5 5 5 5 5 5 5 5 5 5 5 5 5 5 5 5 5 5 5 5 5 5 5 5 5 3 5 5 5 3 5 5 5 5 5 5 5 5 5 5 3 5 5 5 5 5 5 5 5 5 5 5 3 5 5 5 5 5 3 5 5 5 3 5 5 5 5 3 3 5 5 5 5 5 5 5 3 5 5 5 5 5 5 5 5 5 3 5 5 5 5 5 5 5 5 5 5 5 3 5 5 5 5 5 5 5 5 5 5 5 5 5 5 5 5 5 5 5 5 5 3 5 5 5 5 5 5 5 5 5 5 5 5 5 5 5 5 5 5 5 5 5 5 5 5 5 5 5 5 5 5 5 5 5 5 5 5 3 5 5 5 5 5 5 5 5 5 5 5 3 5 5 5 3 3 5 5 5 5 3 5 3 5 5 3 3 5 5 5 3 5 5 5 5 5 3 5 5 5 3 5 5 5 5 5 5 5 5 5 5 5 5 3 5 5 5 5 5 5 5 5 3 3 5 5 5 5 5 5 5 5 5 3 5 5 5 3 3 5 5 5 5 5 3 5 3 3 5 3 5 5 5 3 3 5 5 3 5 5 3 3 5 5 5 3 5 3 5 5 3 5 5 5 5 5 5 5 3 5 5 5 5 5 5 5 5 5 3 5 5 3 5 3 5 5 3 5 5 3 3 5 5 5 5 5 5 5 5 5 5 5 5 3 3 5 5 5 5 5 5 5 3 5 5 5 5 5 5 5 3 3 5 5 5 5 5 5 5 5 5 5 5 5 3 3 5 5 5 3 5 5 5 3 5 5 5 5 5 3 5 5 5 5 5 5 5 5 5 5 5 5 5 5 5 5 5 5 5 5 5 5 3 5 5 5 5 3 5 5 5 5 5 5 5 5 5 5 5 5 5 5 3 5 5 5 5 5 5 3 5 3 5 5 3 5 5 5 3 5 3 5 5 5 3 5 5 5 5 5 5 3 5 5 5 5 5 5 5 5 5 5 5 5 3 5 5 5 5 5 5 5 3 5 5 5 5 5 5 5 5 5 3 5 5 3 5 5 5 5 5 5 3 5 5 5 5 3 3 5 5 3 5 5 5 5 5 5 5 5 5 5 5 5 5 5 5 5 3 5 5 3 5 5 5 5 3 5 3 5 5 5 5 5 3 5 5 5 5 3 5 3 5 5 3 5 5 5 5 5 3 5 5 3 5 5 3 5 5 5 5 5 5 5 5 5 3 5 3 5 5 5 5 3 5 5 3 3 5 5 5 5 3 3 5 3 5 5 5 5 3 3 3 5 5 3 5 5 3 3 5 5 5 5 3 5 5 5 5 3 5 5 3 5 5 5 5 5 5 5 3 5 5 5 5 5 5 5 5 3 5 5 5 5 3 5 5 5 5 5 5 5 5 5 5 5 5 5 5 3 5 5 5 5 5 5 5 5 5 5 5 3 5 5 5 5 5 3 5 5 5 5 5 5 5 5 5 5 5 5 5 5 5 5 5 5 5 5 5 5 5 5 5 5 5 5 5 5 5 5 5 5 5 5 5 5 5 5 5 5 5 5 5 5 5 5 5 5 5 5 5 5 5 5 5 5 5 5 5 5 3 5 5 3 5 5 5 5 5 5 5 5 5 5 5 5 5 5 5 5 3 5 5 5 5 5 5 5 5 5 5 3 5 5 5 5 5 5 5 5 5 5 5 5 5 5 5 5 5 5 3 5 3 5 5 5 5 5 3 3 5 5 5 5 5 5 5 5 5 5 3 3 3 5 5 3 5 5 3 5 5 3 5 5 5 5 5 5 5 5 5 5 5 5 5 5 5 5 5 5 3 5 5 5 5 5 3 5 5 5 5 3 5 3 5 5 5 5 3 5 5 5 5 5 5 5 5 5 5 5 5 5 5 5 5 5 5 5 5 5 5 5 5 5 5 5 5 5 5 5 5 3 5 5 5 5 5 5 5 3 5 5 5 3 5 5 5 5 5 5 5 3 5 5 5 5 5 5 5 5 5 5 5 5 5 5 5 5 5 5 5 5 5 5 5 5 3 5 5 5 5 3 5 5 5 3 5 5 5 5 5 5 5 5 5 5 5 3 5 5 5 5 5 3 5 5 5 5 5 5 5 3 5 5 5 5 5 3 5 5 5 5 5 5 5 5 5 3 5 5 5 5 5 5 5 5 5 5 5 5 5 5 3 5 5 5 5 5 5 5 5 5 5 5 5 5 5 3 3 5 5 5 5 5 5 5 5 5 5 5 5 5 5 5 5 5 5 5 5 5 5 5 5 5 5 5 5 5 5 5 5 5 5 5 5 5 5 5 3 3 5 5 5 5 5 5 5 5 5 5 5 3 5 5 5 5 5 5 5 5 5 3 5 5 5 5 5 3 5 5 5 5 3 5 5 5 5 5 5 5 5 5 5 5 5 5 5 5 5 5 5 5 5 5 5 5 5 5 3 5 5 3 5 3 5 3 5 5 5 5 5 5 3 5 3 5 5 5 5 5 3 5 5 5 5 5 5 5 5 5 5 5 5 5 5 5 5 5 5 5 5 5 5 5 5 5 5 5 5 5 5 3 5 5 5 5 3 5 5 5 5 5 5 5 5 5 3 5 5 5 5 5 5 5 5 5 5 3 5 3 3 5 5 5 5 5 5 5 5 5 5 5 5 5 5 5 5 3 5 5 5 5 5 5 5 5 5 5 5 5 5 5 5 5 5 5 5 5 5 5 5 3 5 5 5 5 5 5 5 5 3 3 5 5 5 5 5 3 3 5 5 5 3 5 5 5 5 5 5 5 3 5 5 3 5 5 5 5 5 3 5 3 5 5 3 5 5 5 5 5 5 5 5 3 5 5 5 5 5 5 5 5 5 5 3 3 5 5 5 5 5 5 5 5 5 5 3 5 5 5 5 5 3 3 5 5 5 3 5 5 5 5 5 5 5 5 5 5 3 3 5 5 5 5 5 3 5 5 3 5 5 5 3 5 5 5 5 3 5 5 5 5 5 5 5 5 5 5 5 5 5 5 5 5 5 5 
</DataArray>
</Cells>
<PointData Scalars="" Vectors="displacement," Tensors="">
<DataArray type="Float64" Name="displacement" NumberOfComponents="3" format="ascii">
4.202313991715564e-07 0.024998318461923533 0 -6.9526853492931418e-07 0.023797559149838846 0 6.1154878550193726e-05 0.024848108450710303 0 4.202313991715564e-07 0.024998318461923533 0 6.1154878550193726e-05 0.024848108450710303 0 -2.8036170032731016e-08 0.025000434473005931 0 -2.1153442612546685e-08 0.023794803200268874 0 3.032415738414065e-06 0.023903850777300614 0 7.2871322250258828e-07 0.023463127366890369 0 -6.1431399960865749e-07 0.023791275404186515 0 0.00032472760039941169 0.022963626780651947 0 -6.9526853492931418e-07 0.023797559149838846 0 -8.4650318133901178e-05 0.024994902369081116 0 6.1154878550193726e-05 0.024848108450710303 0 1.3826268860748346e-05 0.022778238273261 0 0.00015286602914236624 0.022710369282056209 0 0.00032472760039941169 0.022963626780651947 0 -6.1431399960865749e-07 0.023791275404186515 0 1.3826268860748346e-05 0.022778238273261 0 0.00032472760039941169 0.022963626780651947 0 -8.4650318133901178e-05 0.024994902369081116 0 6.1154878550193726e-05 0.024848108450710303 0 -2.8036170032731016e-08 0.025000434473005931 0 -8.4650318133901178e-05 0.024994902369081116 0 7.6880425421535059e-05 0.024950519502696073 0 -2.8036170032731016e-08 0.025000434473005931 0 7.6880425421535059e-05 0.024950519502696073 0 -2.8036170032731016e-08 0.025000434473005931 0 0.00018981725590516192 0.024742235023426481 0 1.3826268860748346e-05 0.022778238273261 0 0.00021611427748774724 0.022838552038925628 0 0.00048233697150593374 0.023071950554851874 0 1.3826268860748346e-05 0.022778238273261 0 0.00021611427748774724 0.022838552038925628 0 0.00015286602914236624 0.022710369282056209 0 3.032415738414065e-06 0.023903850777300614 0 0.00022946404454622462 0.024030264890211182 0 0.00021611427748774724 0.022838552038925628 0 0.00048233697150593374 0.023071950554851874 0 7.0305379690027369e-05 0.023275011676023426 0 -5.0812780481295485e-05 0.022841653604055472 0 0.00011828731908463416 0.02243386431595136 0 -0.00030923989820092775 0.022285864603833281 0 -5.0812780481295485e-05 0.022841653604055472 0 -0.00030923989820092775 0.022285864603833281 0 -0.00017632305940534611 0.023378635395376313 0 0.00021611427748774724 0.022838552038925628 0 7.0305379690027369e-05 0.023275011676023426 0 0.00011828731908463416 0.02243386431595136 0 -5.0812780481295485e-05 0.022841653604055472 0 7.0305379690027369e-05 0.023275011676023426 0 0.00011828731908463416 0.02243386431595136 0 0.00012177884095347031 0.022465820186086938 0 0.00019276132422019082 0.022436875611142926 0 0.00015286602914236624 0.022710369282056209 0 0.00011828731908463416 0.02243386431595136 0 0.00032472760039941169 0.022963626780651947 0 0.00021611427748774724 0.022838552038925628 0 0.00015286602914236624 0.022710369282056209 0 0.00011828731908463416 0.02243386431595136 0 0.00011828731908463416 0.02243386431595136 0 -0.00015369804032366831 0.021786892725826928 0 5.1582654157598756e-06 0.021900544843846587 0 0.00011828731908463416 0.02243386431595136 0 -0.00015369804032366831 0.021786892725826928 0 -0.00030923989820092775 0.022285864603833281 0 3.0291436414123625e-05 0.021767073406389101 0 8.4120848991576735e-05 0.022029809146288389 0 -9.6174983647856477e-05 0.02122732054874826 0 -0.00015369804032366831 0.021786892725826928 0 5.1582654157598756e-06 0.021900544843846587 0 -6.5572311474771636e-05 0.021632128576371493 0 -0.00015369804032366831 0.021786892725826928 0 -6.5572311474771636e-05 0.021632128576371493 0 -0.00017881065250028403 0.021415901072277328 0 5.1582654157598756e-06 0.021900544843846587 0 3.0291436414123625e-05 0.021767073406389101 0 -6.5572311474771636e-05 0.021632128576371493 0 -6.5572311474771636e-05 0.021632128576371493 0 -9.6174983647856477e-05 0.02122732054874826 0 -0.00017881065250028403 0.021415901072277328 0 3.0291436414123625e-05 0.021767073406389101 0 -6.5572311474771636e-05 0.021632128576371493 0 -9.6174983647856477e-05 0.02122732054874826 0 0.00011828731908463416 0.02243386431595136 0 5.1582654157598756e-06 0.021900544843846587 0 6.6115239050367879e-05 0.021842635892051987 0 5.1582654157598756e-06 0.021900544843846587 0 3.0291436414123625e-05 0.021767073406389101 0 6.6115239050367879e-05 0.021842635892051987 0 3.0291436414123625e-05 0.021767073406389101 0 8.4120848991576735e-05 0.022029809146288389 0 6.6115239050367879e-05 0.021842635892051987 0 6.9731169665465249e-08 0.023459489428498428 0 0.00019276132422019082 0.022436875611142926 0 -9.289873800801492e-07 0.023457815143872417 0 9.4640390236326721e-05 0.022393231519380483 0 8.8763321426813185e-07 0.022088767865435732 0 -9.289873800801492e-07 0.023457815143872417 0 8.4120848991576735e-05 0.022029809146288389 0 6.6115239050367879e-05 0.021842635892051987 0 -9.289873800801492e-07 0.023457815143872417 0 8.4120848991576735e-05 0.022029809146288389 0 9.4640390236326721e-05 0.022393231519380483 0 8.4120848991576735e-05 0.022029809146288389 0 5.2957402283560835e-05 0.022186835778924215 0 9.4640390236326721e-05 0.022393231519380483 0 2.7858798179394215e-05 0.021969823702076206 0 1.0592876711851963e-05 0.021657884693261947 0 5.2957402283560835e-05 0.022186835778924215 0 9.4640390236326721e-05 0.022393231519380483 0 8.8763321426813185e-07 0.022088767865435732 0 -9.6174983647856477e-05 0.02122732054874826 0 -5.8057996045984258e-07 0.020715580845221373 0 -0.00018103876750941159 0.021115300716409862 0 5.2957402283560835e-05 0.022186835778924215 0 8.8763321426813185e-07 0.022088767865435732 0 -6.1743235898002842e-07 0.020717148223599293 0 1.0592876711851963e-05 0.021657884693261947 0 9.5815600249875666e-08 0.020717073682623825 0 -5.8057996045984258e-07 0.020715580845221373 0 -0.00018103876750941159 0.021115300716409862 0 -0.00019418996012974534 0.020843528662698643 0 -0.00018103876750941159 0.021115300716409862 0 -0.00019418996012974534 0.020843528662698643 0 -0.00035856798350703759 0.021394054038979531 0 -0.00017881065250028403 0.021415901072277328 0 -0.00018103876750941159 0.021115300716409862 0 -0.00035856798350703759 0.021394054038979531 0 -0.00015369804032366831 0.021786892725826928 0 -0.00017881065250028403 0.021415901072277328 0 -0.00035856798350703759 0.021394054038979531 0 -9.6174983647856477e-05 0.02122732054874826 0 -0.00017881065250028403 0.021415901072277328 0 -0.00018103876750941159 0.021115300716409862 0 -1.6304779547323777e-06 0.018779917468867476 0 5.37052278010501e-07 0.019747376537058377 0 -0.00010073437134240241 0.020089908637842747 0 -1.6304779547323777e-06 0.018779917468867476 0 -0.00010073437134240241 0.020089908637842747 0 -0.00058225350198203582 0.019743583384848995 0 5.37052278010501e-07 0.019747376537058377 0 -0.00019418996012974534 0.020843528662698643 0 -0.00010073437134240241 0.020089908637842747 0 -5.8057996045984258e-07 0.020715580845221373 0 5.37052278010501e-07 0.019747376537058377 0 -0.00019418996012974534 0.020843528662698643 0 -0.00019418996012974534 0.020843528662698643 0 -0.00010073437134240241 0.020089908637842747 0 -0.00020851607114571099 0.02066172411124256 0 -0.00010073437134240241 0.020089908637842747 0 -0.00020851607114571099 0.02066172411124256 0 -0.00045601025349943929 0.02034765168953255 0 -0.00020851607114571099 0.02066172411124256 0 -0.00025041429786483064 0.020732813454522599 0 -0.00027234583410093915 0.021071422682436679 0 -0.00020851607114571099 0.02066172411124256 0 -0.00025041429786483064 0.020732813454522599 0 -0.00045601025349943929 0.02034765168953255 0 -0.00019418996012974534 0.020843528662698643 0 -0.00027234583410093915 0.021071422682436679 0 -0.00085305132104992098 0.02150986975560637 0 -0.00019418996012974534 0.020843528662698643 0 -0.00020851607114571099 0.02066172411124256 0 -0.00027234583410093915 0.021071422682436679 0 -0.00027234583410093915 0.021071422682436679 0 -0.00051312343452180492 0.020523801531431671 0 3.487412894685913e-05 0.02082619911802101 0 -0.00027234583410093915 0.021071422682436679 0 -0.00051312343452180492 0.020523801531431671 0 -0.00085305132104992098 0.02150986975560637 0 3.487412894685913e-05 0.02082619911802101 0 -0.00024129910670583947 0.021276663951781561 0 -0.0005224815133635898 0.020880197263361551 0 -0.00025041429786483064 0.020732813454522599 0 -0.00027234583410093915 0.021071422682436679 0 3.487412894685913e-05 0.02082619911802101 0 -0.00025041429786483064 0.020732813454522599 0 3.487412894685913e-05 0.02082619911802101 0 -0.0005224815133635898 0.020880197263361551 0 -0.00035856798350703759 0.021394054038979531 0 -0.00085305132104992098 0.02150986975560637 0 -0.00030923989820092775 0.022285864603833281 0 -0.00015369804032366831 0.021786892725826928 0 -0.00035856798350703759 0.021394054038979531 0 -0.00030923989820092775 0.022285864603833281 0 -0.00019418996012974534 0.020843528662698643 0 -0.00035856798350703759 0.021394054038979531 0 -0.00085305132104992098 0.02150986975560637 0 -0.00085305132104992098 0.02150986975560637 0 -0.00030923989820092775 0.022285864603833281 0 -0.0010115945422883678 0.023143382246811544 0 -0.00097936332390426172 0.021510781425915591 0 -0.0013884796992514742 0.021348741311692874 0 -0.00051312343452180492 0.020523801531431671 0 -0.00085305132104992098 0.02150986975560637 0 -0.0018717801866175265 0.019627260271382882 0 -0.00030923989820092775 0.022285864603833281 0 -0.0010115945422883678 0.023143382246811544 0 -0.00017632305940534611 0.023378635395376313 0 -0.0010115945422883678 0.023143382246811544 0 -0.00048508272301514641 0.023818689204365813 0 -0.00017632305940534611 0.023378635395376313 0 -0.0018717801866175265 0.019627260271382882 0 -0.00087112430999643719 0.017980940357136647 0 -0.0024409646523685415 0.017189056464674609 0 -0.0018717801866175265 0.019627260271382882 0 -0.00061942837026258968 0.019398661724094955 0 -0.00087112430999643719 0.017980940357136647 0 -0.0013884796992514742 0.021348741311692874 0 -0.0016075166445982008 0.020620596062133435 0 -0.0010115945422883678 0.023143382246811544 0 -0.00048508272301514641 0.023818689204365813 0 -0.00084002745219446614 0.024067164532979531 0 3.487412894685913e-05 0.02082619911802101 0 0.00090409919186041526 0.019829264889772862 0 0.00026968596007458724 0.019652962799140406 0 0.0014960708463210143 0.019892131729184456 0 0.00026968596007458724 0.019652962799140406 0 0.0013387509990162826 0.01805979865097251 0 0.00012103483892612837 0.016980255871195865 0 0.00091700296759097608 0.019102192392218661 0 -0.00041544757133581177 0.021612058013459237 0 0.00012103483892612837 0.016980255871195865 0 -0.00051312343452180492 0.020523801531431671 0 3.487412894685913e-05 0.02082619911802101 0 0.00026968596007458724 0.019652962799140406 0 0.00026968596007458724 0.019652962799140406 0 -0.00061942837026258968 0.019398661724094955 0 0.00021479559248536884 0.018425052185618539 0 -0.00051312343452180492 0.020523801531431671 0 0.00026968596007458724 0.019652962799140406 0 -0.00061942837026258968 0.019398661724094955 0 -0.00051312343452180492 0.020523801531431671 0 -0.0018717801866175265 0.019627260271382882 0 -0.00061942837026258968 0.019398661724094955 0 -0.00087112430999643719 0.017980940357136647 0 0.00021479559248536884 0.018425052185618539 0 0.00060204839563092027 0.016409307686471027 0 -0.00061942837026258968 0.019398661724094955 0 -0.00087112430999643719 0.017980940357136647 0 0.00021479559248536884 0.018425052185618539 0 0.00021479559248536884 0.018425052185618539 0 0.0013387509990162826 0.01805979865097251 0 0.00060204839563092027 0.016409307686471027 0 0.00026968596007458724 0.019652962799140406 0 0.00021479559248536884 0.018425052185618539 0 0.0013387509990162826 0.01805979865097251 0 0.0013387509990162826 0.01805979865097251 0 0.00060204839563092027 0.016409307686471027 0 0.0029973662123747801 0.017366707869499818 0 0.00060204839563092027 0.016409307686471027 0 -0.0011163758404183299 0.016712721973457079 0 -0.0017703911755696257 0.015279160279988385 0 -0.00087112430999643719 0.017980940357136647 0 0.00060204839563092027 0.016409307686471027 0 -0.0011163758404183299 0.016712721973457079 0 -0.0013386734218701598 0.01508864541584066 0 -0.0015864817958579408 0.0148543203699095 0 -0.0017703911755696257 0.015279160279988385 0 -0.00020608568350331783 0.016142040579366974 0 -0.0018207971042793749 0.015160408597573793 0 -0.0013386734218701598 0.01508864541584066 0 -0.0015864817958579408 0.0148543203699095 0 -0.001300211891790097 0.014712041682075594 0 -0.0013386734218701598 0.01508864541584066 0 -0.001300211891790097 0.014712041682075594 0 -0.00095760956684484255 0.01489230798614424 0 -0.0016075166445982008 0.020620596062133435 0 -0.0014539107546332759 0.019794985544544886 0 -0.00084002745219446614 0.024067164532979531 0 -0.00055264836282199238 0.024501464137928562 0 -0.00038574763032774554 0.024296911354802098 0 -0.00048508272301514641 0.023818689204365813 0 -0.00084002745219446614 0.024067164532979531 0 -0.00038574763032774554 0.024296911354802098 0 -0.00087112430999643719 0.017980940357136647 0 -0.0011163758404183299 0.016712721973457079 0 -0.0024409646523685415 0.017189056464674609 0 -0.0011163758404183299 0.016712721973457079 0 -0.0024409646523685415 0.017189056464674609 0 -0.0017703911755696257 0.015279160279988385 0 -0.0024409646523685415 0.017189056464674609 0 -0.0017703911755696257 0.015279160279988385 0 -0.0023708081925304619 0.015008915157168823 0 -0.0015864817958579408 0.0148543203699095 0 -0.0017703911755696257 0.015279160279988385 0 -0.0019579495294591099 0.014784127618941026 0 -0.0017703911755696257 0.015279160279988385 0 -0.0023708081925304619 0.015008915157168823 0 -0.0019579495294591099 0.014784127618941026 0 -0.00055264836282199238 0.024501464137928562 0 -0.000334308972926102 0.024481675815605293 0 -0.00038574763032774554 0.024296911354802098 0 -0.00055264836282199238 0.024501464137928562 0 -0.000334308972926102 0.024481675815605293 0 -0.00035192204550419677 0.024575292184436961 0 -2.8036170032731016e-08 0.025000434473005931 0 8.119909650463532e-07 0.024997088028113096 0 0.00018981725590516192 0.024742235023426481 0 -0.000334308972926102 0.024481675815605293 0 -0.00038574763032774554 0.024296911354802098 0 -0.00010588349508172403 0.024420287817422299 0 -0.000334308972926102 0.024481675815605293 0 -0.00010588349508172403 0.024420287817422299 0 -0.00019034511739665554 0.02458715209112728 0 -0.00038574763032774554 0.024296911354802098 0 -0.00010588349508172403 0.024420287817422299 0 -0.00016776106553438634 0.02403090920155217 0 -0.00048508272301514641 0.023818689204365813 0 -0.00038574763032774554 0.024296911354802098 0 -0.00016776106553438634 0.02403090920155217 0 -0.00010588349508172403 0.024420287817422299 0 8.3482343999536035e-05 0.024648681295427313 0 2.9018173785147093e-05 0.02411388041574802 0 -0.00010588349508172403 0.024420287817422299 0 -3.9521692645961582e-06 0.024617120034026732 0 8.3482343999536035e-05 0.024648681295427313 0 -0.00010588349508172403 0.024420287817422299 0 -3.9521692645961582e-06 0.024617120034026732 0 -0.00019034511739665554 0.02458715209112728 0 -3.9521692645961582e-06 0.024617120034026732 0 8.119909650463532e-07 0.024997088028113096 0 1.5543653955558669e-06 0.024663401592112374 0 -3.9521692645961582e-06 0.024617120034026732 0 8.119909650463532e-07 0.024997088028113096 0 8.3482343999536035e-05 0.024648681295427313 0 1.6108540488428689e-08 0.024999912536107682 0 -1.136281782453018e-06 0.024822684604206842 0 8.119909650463532e-07 0.024997088028113096 0 8.3482343999536035e-05 0.024648681295427313 0 0.00018981725590516192 0.024742235023426481 0 8.3482343999536035e-05 0.024648681295427313 0 0.00018981725590516192 0.024742235023426481 0 2.9018173785147093e-05 0.02411388041574802 0 0.00022946404454622462 0.024030264890211182 0 0.00022341270543991393 0.024649402316425071 0 7.0305379690027369e-05 0.023275011676023426 0 0.00018981725590516192 0.024742235023426481 0 2.9018173785147093e-05 0.02411388041574802 0 0.00048233697150593374 0.023071950554851874 0 7.0305379690027369e-05 0.023275011676023426 0 0.00018981725590516192 0.024742235023426481 0 -5.0812780481295485e-05 0.022841653604055472 0 7.0305379690027369e-05 0.023275011676023426 0 -0.00017632305940534611 0.023378635395376313 0 7.0305379690027369e-05 0.023275011676023426 0 -0.00017632305940534611 0.023378635395376313 0 2.9018173785147093e-05 0.02411388041574802 0 -0.00048508272301514641 0.023818689204365813 0 -0.00017632305940534611 0.023378635395376313 0 -0.00016776106553438634 0.02403090920155217 0 -0.00010588349508172403 0.024420287817422299 0 -0.00016776106553438634 0.02403090920155217 0 2.9018173785147093e-05 0.02411388041574802 0 -0.00017632305940534611 0.023378635395376313 0 -0.00016776106553438634 0.02403090920155217 0 2.9018173785147093e-05 0.02411388041574802 0 -0.0015395056540376667 0.010396465673613577 0 -0.001568598855080413 0.010418977219921579 0 -0.001611689752564747 0.010421109299776396 0 -0.0015776117298704579 0.010439588583385905 0 -0.001568598855080413 0.010418977219921579 0 -0.001611689752564747 0.010421109299776396 0 -0.0023901680351944357 0.0098016880072836036 0 -0.0016045129261860623 0.010828577643209044 0 -0.0012750040386282286 0.0097206845073665969 0 -0.0019217267266789719 0.010250268958867605 0 -0.0011292979448064868 0.011679343664973254 0 -0.0016127359581169448 0.010472929288237525 0 -0.00155004863468316 0.010448808656737118 0 -0.001568598855080413 0.010418977219921579 0 -0.0016127359581169448 0.010472929288237525 0 -0.00155004863468316 0.010448808656737118 0 -0.0015320944883075423 0.010511487064801742 0 -0.0014896183006440629 0.010462210330517143 0 -0.0014482850373943412 0.010502023783862139 0 -0.0015320944883075423 0.010511487064801742 0 -0.00155004863468316 0.010448808656737118 0 -0.0014896183006440629 0.010462210330517143 0 -0.0015320944883075423 0.010511487064801742 0 -0.00155004863468316 0.010448808656737118 0 -0.0014896183006440629 0.010462210330517143 0 -0.0015395056540376667 0.010396465673613577 0 -0.0019217267266789719 0.010250268958867605 0 -0.0017448301309147939 0.010365056210071841 0 -0.00155004863468316 0.010448808656737118 0 -0.0015395056540376667 0.010396465673613577 0 -0.001568598855080413 0.010418977219921579 0 -0.00019989285213509102 0.01501190453366014 0 -0.00023799660389465973 0.01484557108238976 0 -5.4440209410515066e-05 0.014920465043716781 0 -0.00019989285213509102 0.01501190453366014 0 -0.00023799660389465973 0.01484557108238976 0 -0.00055979945382201386 0.014970945441620351 0 -0.00023799660389465973 0.01484557108238976 0 -0.00055979945382201386 0.014970945441620351 0 -0.0005067047251108434 0.014788729227065235 0 -0.00081896014874822314 0.012703690424674612 0 -0.0011292979448064868 0.011679343664973254 0 -0.00055979945382201386 0.014970945441620351 0 -0.0005067047251108434 0.014788729227065235 0 -0.00070803415828775147 0.01478016043654776 0 -0.00018517165855876113 0.013830050943958637 0 -0.00055132960962357138 0.013443357364241385 0 -0.0005067047251108434 0.014788729227065235 0 -0.00048508030892659089 0.014572492784420178 0 -0.00070803415828775147 0.01478016043654776 0 -0.00023799660389465973 0.01484557108238976 0 -0.0005067047251108434 0.014788729227065235 0 -0.00048508030892659089 0.014572492784420178 0 8.1872985068780538e-08 0.012658378057151254 0 4.6215276971993033e-05 0.012950548532686864 0 -0.0002194957373804453 0.012993601379059331 0 8.1872985068780538e-08 0.012658378057151254 0 4.6215276971993033e-05 0.012950548532686864 0 -8.4792809690396285e-08 0.014008359030021799 0 -0.00018517165855876113 0.013830050943958637 0 1.0162353435413263e-07 0.014010327195620145 0 -0.00048508030892659089 0.014572492784420178 0 -4.3171909154891588e-07 0.014012661271125599 0 -8.4090060317599402e-05 0.014680884868308944 0 -0.00023799660389465973 0.01484557108238976 0 -0.00048508030892659089 0.014572492784420178 0 -8.4090060317599402e-05 0.014680884868308944 0 -0.00023799660389465973 0.01484557108238976 0 -8.4090060317599402e-05 0.014680884868308944 0 -3.6565252354636394e-06 0.014839572870065539 0 -3.6565252354636394e-06 0.014839572870065539 0 8.9589889433836964e-05 0.014809113559411013 0 1.7862586991811765e-05 0.014899049014516585 0 -8.4090060317599402e-05 0.014680884868308944 0 -3.6565252354636394e-06 0.014839572870065539 0 8.9589889433836964e-05 0.014809113559411013 0 -4.3171909154891588e-07 0.014012661271125599 0 8.9589889433836964e-05 0.014809113559411013 0 4.0506901346771193e-07 0.015362498008023119 0 -4.3171909154891588e-07 0.014012661271125599 0 -8.4090060317599402e-05 0.014680884868308944 0 8.9589889433836964e-05 0.014809113559411013 0 8.9589889433836964e-05 0.014809113559411013 0 4.0506901346771193e-07 0.015362498008023119 0 -8.3445099673366615e-06 0.015201789265757279 0 8.9589889433836964e-05 0.014809113559411013 0 -8.3445099673366615e-06 0.015201789265757279 0 1.7862586991811765e-05 0.014899049014516585 0 -8.3445099673366615e-06 0.015201789265757279 0 1.7862586991811765e-05 0.014899049014516585 0 -0.00011537084053654678 0.015049938611777627 0 1.7862586991811765e-05 0.014899049014516585 0 -9.2619672497266969e-05 0.014888239287836218 0 -0.00011537084053654678 0.015049938611777627 0 -3.6565252354636394e-06 0.014839572870065539 0 1.7862586991811765e-05 0.014899049014516585 0 -1.4522776454046835e-05 0.014904407191112766 0 1.7862586991811765e-05 0.014899049014516585 0 -1.4522776454046835e-05 0.014904407191112766 0 -9.2619672497266969e-05 0.014888239287836218 0 -1.4522776454046835e-05 0.014904407191112766 0 3.8512980988298648e-06 0.014944496957532605 0 -9.2619672497266969e-05 0.014888239287836218 0 -0.00090817907896139499 0.015170023379402264 0 -0.0012109285602582634 0.018140024778707586 0 -1.4522776454046835e-05 0.014904407191112766 0 -5.4440209410515066e-05 0.014920465043716781 0 -1.1826105602473894e-05 0.014955053467113436 0 -0.00023799660389465973 0.01484557108238976 0 -3.6565252354636394e-06 0.014839572870065539 0 -5.4440209410515066e-05 0.014920465043716781 0 -3.6565252354636394e-06 0.014839572870065539 0 -1.4522776454046835e-05 0.014904407191112766 0 -5.4440209410515066e-05 0.014920465043716781 0 -0.00019989285213509102 0.01501190453366014 0 -5.4440209410515066e-05 0.014920465043716781 0 -1.1826105602473894e-05 0.014955053467113436 0 -0.00081896014874822314 0.012703690424674612 0 -0.00086335124236207013 0.013707458795979914 0 -0.0015395056540376667 0.010396465673613577 0 -0.0013787339481490964 0.010450641878040181 0 -0.0012805546033258118 0.010386726128747073 0 -0.0014896183006440629 0.010462210330517143 0 -0.0015395056540376667 0.010396465673613577 0 -0.0013787339481490964 0.010450641878040181 0 -0.0014896183006440629 0.010462210330517143 0 -0.0014482850373943412 0.010502023783862139 0 -0.0013787339481490964 0.010450641878040181 0 -0.0013787339481490964 0.010450641878040181 0 -0.0012709888206727995 0.01048349988091675 0 -0.0013400819612279825 0.010518532757405568 0 -0.0014482850373943412 0.010502023783862139 0 -0.0013787339481490964 0.010450641878040181 0 -0.0013400819612279825 0.010518532757405568 0 -0.0013787339481490964 0.010450641878040181 0 -0.0012709888206727995 0.01048349988091675 0 -0.0012442771943239187 0.010431409084174198 0 -0.0013787339481490964 0.010450641878040181 0 -0.0012442771943239187 0.010431409084174198 0 -0.0012805546033258118 0.010386726128747073 0 -1.4522776454046835e-05 0.014904407191112766 0 -1.1826105602473894e-05 0.014955053467113436 0 3.8512980988298648e-06 0.014944496957532605 0 -0.0001867199800061664 0.012698114445473889 0 -0.00090817907896139499 0.015170023379402264 0 -0.0012442771943239187 0.010431409084174198 0 -0.0011780680302119434 0.010425565238827273 0 -0.001187135576708408 0.01034565749733461 0 -0.0012442771943239187 0.010431409084174198 0 -0.0011780680302119434 0.010425565238827273 0 -0.0011870188831841662 0.010473611066195316 0 -0.0012709888206727995 0.01048349988091675 0 -0.0012442771943239187 0.010431409084174198 0 -0.0011870188831841662 0.010473611066195316 0 -0.0011870188831841662 0.010473611066195316 0 -0.0010935305269404989 0.010442742536491178 0 -0.0010932494906172509 0.010507898642866003 0 -0.0011780680302119434 0.010425565238827273 0 -0.0011870188831841662 0.010473611066195316 0 -0.0010935305269404989 0.010442742536491178 0 -0.0010935305269404989 0.010442742536491178 0 -0.001187135576708408 0.01034565749733461 0 -0.0009699218732739448 0.010461826478741538 0 -0.0011780680302119434 0.010425565238827273 0 -0.0010935305269404989 0.010442742536491178 0 -0.001187135576708408 0.01034565749733461 0 -0.0012442771943239187 0.010431409084174198 0 -0.0012805546033258118 0.010386726128747073 0 -0.0012280837540736785 0.010403480277468432 0 -0.00086335124236207013 0.013707458795979914 0 -0.00090817907896139499 0.015170023379402264 0 -0.00090817907896139499 0.015170023379402264 0 -0.0014767134754989149 0.01563318088770228 0 -0.001187135576708408 0.01034565749733461 0 -0.0009699218732739448 0.010461826478741538 0 -0.0008564190534920454 0.010417396119901546 0 -0.0022304641156843455 0.02070977696051117 0 -0.0017796332282283939 0.02085926105941956 0 -0.0016666556888232905 0.020570300075153824 0 -0.0017796332282283939 0.02085926105941956 0 -0.001637819914217277 0.020913940346137725 0 -0.0016666556888232905 0.020570300075153824 0 -0.0010935305269404989 0.010442742536491178 0 -0.0009699218732739448 0.010461826478741538 0 -0.00098469353966645912 0.010515645707146014 0 -0.0009699218732739448 0.010461826478741538 0 -0.0008564190534920454 0.010417396119901546 0 -0.0007604259784204123 0.010451840019988605 0 -0.0014767134754989149 0.01563318088770228 0 -0.0011882415638830876 0.015706299874599976 0 -0.0011882415638830876 0.015706299874599976 0 -0.00076239126511473709 0.015745744103399649 0 -0.001637819914217277 0.020913940346137725 0 -0.0012921775538859653 0.020766815541721866 0 -0.00094935284888768854 0.02112977216077681 0 -0.001637819914217277 0.020913940346137725 0 -0.0012921775538859653 0.020766815541721866 0 -0.0016666556888232905 0.020570300075153824 0 -0.0016666556888232905 0.020570300075153824 0 -0.00149803707715649 0.020104122210700001 0 -0.0012078167128956997 0.020465446632093726 0 -0.0012921775538859653 0.020766815541721866 0 -0.0016666556888232905 0.020570300075153824 0 -0.0012078167128956997 0.020465446632093726 0 -0.0016666556888232905 0.020570300075153824 0 -0.0019203239544045361 0.020150949974446639 0 -0.00149803707715649 0.020104122210700001 0 -0.0022304641156843455 0.02070977696051117 0 -0.0016666556888232905 0.020570300075153824 0 -0.0019203239544045361 0.020150949974446639 0 -9.2619672497266969e-05 0.014888239287836218 0 -0.00011537084053654678 0.015049938611777627 0 -0.0003743849460805582 0.015224041116808928 0 -0.0019203239544045361 0.020150949974446639 0 -0.0016191388513377386 0.019466856461006023 0 -0.00149803707715649 0.020104122210700001 0 -0.0012109285602582634 0.018140024778707586 0 -0.0006467628244094932 0.016930111551069802 0 4.0506901346771193e-07 0.015362498008023119 0 -8.3445099673366615e-06 0.015201789265757279 0 -2.0865663666543597e-05 0.01639123716248219 0 -8.3445099673366615e-06 0.015201789265757279 0 -0.00011537084053654678 0.015049938611777627 0 -0.0003743849460805582 0.015224041116808928 0 0.00029046244025968348 0.015104940090747318 0 -0.0006467628244094932 0.016930111551069802 0 4.0506901346771193e-07 0.015362498008023119 0 -4.6205930594458405e-07 0.016715244096783533 0 -2.0865663666543597e-05 0.01639123716248219 0 -0.0006467628244094932 0.016930111551069802 0 -0.00046587304605171496 0.018541799590810884 0 -7.040219502805879e-08 0.016716640125349815 0 -8.0279606349045712e-06 0.016646278468390511 0 2.2435074655376288e-06 0.017631458051910937 0 -5.9755572856433213e-07 0.016715582867335071 0 -0.0006467628244094932 0.016930111551069802 0 -0.0016191388513377386 0.019466856461006023 0 -0.00149803707715649 0.020104122210700001 0 -0.001073929111204722 0.019988165824842669 0 -0.00149803707715649 0.020104122210700001 0 -0.001073929111204722 0.019988165824842669 0 -0.0012078167128956997 0.020465446632093726 0 -7.040219502805879e-08 0.016716640125349815 0 5.7132916119477332e-08 0.017746230176421521 0 2.2435074655376288e-06 0.017631458051910937 0 -0.001073929111204722 0.019988165824842669 0 -0.0010512182356001204 0.019314912484944491 0 -0.00058225350198203582 0.019743583384848995 0 -0.0016191388513377386 0.019466856461006023 0 -0.001073929111204722 0.019988165824842669 0 -0.0010512182356001204 0.019314912484944491 0 -1.6304779547323777e-06 0.018779917468867476 0 -0.0010512182356001204 0.019314912484944491 0 -0.00058225350198203582 0.019743583384848995 0 -5.9377608215710028e-08 0.018777456019904888 0 5.7132916119477332e-08 0.017746230176421521 0 2.2435074655376288e-06 0.017631458051910937 0 1.8724826432037665e-07 0.018777232466327065 0 -0.00046587304605171496 0.018541799590810884 0 -0.001073929111204722 0.019988165824842669 0 -0.00045601025349943929 0.02034765168953255 0 -0.00074812997663896181 0.020571990591223957 0 -0.00010073437134240241 0.020089908637842747 0 -0.00058225350198203582 0.019743583384848995 0 -0.00045601025349943929 0.02034765168953255 0 -0.001073929111204722 0.019988165824842669 0 -0.00058225350198203582 0.019743583384848995 0 -0.00045601025349943929 0.02034765168953255 0 -0.00025041429786483064 0.020732813454522599 0 -0.00074812997663896181 0.020571990591223957 0 -0.0005224815133635898 0.020880197263361551 0 -0.00025041429786483064 0.020732813454522599 0 -0.00045601025349943929 0.02034765168953255 0 -0.00074812997663896181 0.020571990591223957 0 -0.00074812997663896181 0.020571990591223957 0 -0.0012078167128956997 0.020465446632093726 0 -0.00094054222284030474 0.020762076726431707 0 -0.001073929111204722 0.019988165824842669 0 -0.00074812997663896181 0.020571990591223957 0 -0.0012078167128956997 0.020465446632093726 0 -0.0012921775538859653 0.020766815541721866 0 -0.0012078167128956997 0.020465446632093726 0 -0.00094054222284030474 0.020762076726431707 0 -0.0012921775538859653 0.020766815541721866 0 -0.00094054222284030474 0.020762076726431707 0 -0.00094935284888768854 0.02112977216077681 0 -0.00094054222284030474 0.020762076726431707 0 -0.0005224815133635898 0.020880197263361551 0 -0.00094935284888768854 0.02112977216077681 0 -0.00074812997663896181 0.020571990591223957 0 -0.00094054222284030474 0.020762076726431707 0 -0.0005224815133635898 0.020880197263361551 0 0.00012103483892612837 0.016980255871195865 0 -0.00076239126511473709 0.015745744103399649 0 -0.00024129910670583947 0.021276663951781561 0 -0.0005224815133635898 0.020880197263361551 0 -0.00094935284888768854 0.02112977216077681 0 -6.9446548345804634e-05 0.010745916353651751 0 -0.00041070689023365691 0.010603046508256789 0 -0.00033056800175714873 0.010825982645661108 0 -0.00041070689023365691 0.010603046508256789 0 -0.00033056800175714873 0.010825982645661108 0 -0.00056431801609976081 0.010895390327545343 0 -0.00033056800175714873 0.010825982645661108 0 -0.00028066766535953159 0.011061373196591147 0 -0.00056431801609976081 0.010895390327545343 0 0.00071969619308814197 0.013726747691689301 0 -0.00052305475343163545 0.010566490726910113 0 0.00012103483892612837 0.016980255871195865 0 0.00071969619308814197 0.013726747691689301 0 0.0014960708463210143 0.019892131729184456 0 0.0013387509990162826 0.01805979865097251 0 0.0029973662123747801 0.017366707869499818 0 -6.9446548345804634e-05 0.010745916353651751 0 -0.00033056800175714873 0.010825982645661108 0 -0.00028066766535953159 0.011061373196591147 0 0.00073273986810741413 0.011016112177253038 0 0.00033103238690341017 0.011856516828893212 0 -3.2036718747214628e-05 0.010719164486165906 0 -0.0013386734218701598 0.01508864541584066 0 -0.00072792274315713922 0.015298474997025045 0 -0.00095760956684484255 0.01489230798614424 0 -0.00020608568350331783 0.016142040579366974 0 0.00071969619308814197 0.013726747691689301 0 -0.001300211891790097 0.014712041682075594 0 -0.00095760956684484255 0.01489230798614424 0 -0.00098299821541591656 0.014440030828615526 0 -0.00095760956684484255 0.01489230798614424 0 -0.00034133211011460213 0.014579623561018955 0 -0.00098299821541591656 0.014440030828615526 0 -0.00072792274315713922 0.015298474997025045 0 -0.00095760956684484255 0.01489230798614424 0 -0.00034133211011460213 0.014579623561018955 0 0.00071969619308814197 0.013726747691689301 0 -0.00012113662712736794 0.013143088077293282 0 0.00033103238690341017 0.011856516828893212 0 -0.00039364785036381886 0.011595901520191439 0 -3.2036718747214628e-05 0.010719164486165906 0 -0.00039364785036381886 0.011595901520191439 0 -0.00069017362679565822 0.011018803615455406 0 -3.2036718747214628e-05 0.010719164486165906 0 -0.00039364785036381886 0.011595901520191439 0 -0.00097390874405149359 0.011345736709762893 0 -0.00077692967197731384 0.012210483743458473 0 -0.00039364785036381886 0.011595901520191439 0 -0.00097390874405149359 0.011345736709762893 0 -0.00069017362679565822 0.011018803615455406 0 -0.00097390874405149359 0.011345736709762893 0 -0.00069017362679565822 0.011018803615455406 0 -0.0011330688746203897 0.01086093247793469 0 -0.00080572574129334136 0.010657985176493266 0 -0.0010369304945425208 0.010599440763403859 0 -0.0011330688746203897 0.01086093247793469 0 -0.00069017362679565822 0.011018803615455406 0 -0.00080572574129334136 0.010657985176493266 0 -0.0011330688746203897 0.01086093247793469 0 -0.00069017362679565822 0.011018803615455406 0 -0.00080572574129334136 0.010657985176493266 0 -3.2036718747214628e-05 0.010719164486165906 0 -0.00080572574129334136 0.010657985176493266 0 -0.00056431801609976081 0.010895390327545343 0 -0.00064329991658893394 0.010660161255906036 0 -0.00063640143681045465 0.010731738820151783 0 -0.00052305475343163545 0.010566490726910113 0 -0.00041070689023365691 0.010603046508256789 0 -0.00056431801609976081 0.010895390327545343 0 -0.00064329991658893394 0.010660161255906036 0 -0.0007604259784204123 0.010451840019988605 0 -0.00041070689023365691 0.010603046508256789 0 -0.00064329991658893394 0.010660161255906036 0 -0.0007604259784204123 0.010451840019988605 0 -0.00064329991658893394 0.010660161255906036 0 -0.00082319507700359977 0.010569459956741356 0 -0.0009699218732739448 0.010461826478741538 0 -0.0007604259784204123 0.010451840019988605 0 -0.00082319507700359977 0.010569459956741356 0 -0.00082319507700359977 0.010569459956741356 0 -0.00098469353966645912 0.010515645707146014 0 -0.0010369304945425208 0.010599440763403859 0 -0.0009699218732739448 0.010461826478741538 0 -0.00082319507700359977 0.010569459956741356 0 -0.00098469353966645912 0.010515645707146014 0 -0.00080572574129334136 0.010657985176493266 0 -0.00082319507700359977 0.010569459956741356 0 -0.0010369304945425208 0.010599440763403859 0 -0.00080572574129334136 0.010657985176493266 0 -0.00064329991658893394 0.010660161255906036 0 -0.00082319507700359977 0.010569459956741356 0 -0.0012649650137046299 0.010654925749151195 0 -0.0010369304945425208 0.010599440763403859 0 -0.0012014328586622285 0.010536826500155305 0 -0.0010369304945425208 0.010599440763403859 0 -0.0010932494906172509 0.010507898642866003 0 -0.0012014328586622285 0.010536826500155305 0 -0.00098469353966645912 0.010515645707146014 0 -0.0010369304945425208 0.010599440763403859 0 -0.0010932494906172509 0.010507898642866003 0 -0.0010935305269404989 0.010442742536491178 0 -0.00098469353966645912 0.010515645707146014 0 -0.0010932494906172509 0.010507898642866003 0 -0.0011870188831841662 0.010473611066195316 0 -0.0010932494906172509 0.010507898642866003 0 -0.0012014328586622285 0.010536826500155305 0 -0.0012709888206727995 0.01048349988091675 0 -0.0012014328586622285 0.010536826500155305 0 -0.0013400819612279825 0.010518532757405568 0 -0.0012649650137046299 0.010654925749151195 0 -0.0012014328586622285 0.010536826500155305 0 -0.0013400819612279825 0.010518532757405568 0 -0.0012709888206727995 0.01048349988091675 0 -0.0011870188831841662 0.010473611066195316 0 -0.0012014328586622285 0.010536826500155305 0 -0.0013400819612279825 0.010518532757405568 0 -0.0014323909080211222 0.010562562571994274 0 -0.0014063321330400624 0.010631141958531334 0 -0.0014482850373943412 0.010502023783862139 0 -0.0013400819612279825 0.010518532757405568 0 -0.0014323909080211222 0.010562562571994274 0 -0.0014482850373943412 0.010502023783862139 0 -0.0014323909080211222 0.010562562571994274 0 -0.001490923346270126 0.010562816343238893 0 -0.0014323909080211222 0.010562562571994274 0 -0.001490923346270126 0.010562816343238893 0 -0.0014809448086300174 0.010634489666575325 0 -0.0014323909080211222 0.010562562571994274 0 -0.0014809448086300174 0.010634489666575325 0 -0.0014063321330400624 0.010631141958531334 0 -0.0012649650137046299 0.010654925749151195 0 -0.0013400819612279825 0.010518532757405568 0 -0.0014063321330400624 0.010631141958531334 0 -0.0014809448086300174 0.010634489666575325 0 -0.0014063321330400624 0.010631141958531334 0 -0.0015275659509805179 0.010866100841214475 0 -0.0012649650137046299 0.010654925749151195 0 -0.0014063321330400624 0.010631141958531334 0 -0.0015275659509805179 0.010866100841214475 0 -0.0014809448086300174 0.010634489666575325 0 -0.0015275659509805179 0.010866100841214475 0 -0.0015447962783958775 0.010624970398413083 0 -0.0015342508950275074 0.010836747754145667 0 -0.0015290217011903616 0.010791680049598311 0 -0.0012649650137046299 0.010654925749151195 0 -0.0010369304945425208 0.010599440763403859 0 -0.0011330688746203897 0.01086093247793469 0 -0.0012649650137046299 0.010654925749151195 0 -0.0015275659509805179 0.010866100841214475 0 -0.0011330688746203897 0.01086093247793469 0 -0.0015275659509805179 0.010866100841214475 0 -0.0011330688746203897 0.01086093247793469 0 -0.0014829735690681345 0.011126403151784005 0 -0.00097390874405149359 0.011345736709762893 0 -0.0011330688746203897 0.01086093247793469 0 -0.0014829735690681345 0.011126403151784005 0 -0.00097390874405149359 0.011345736709762893 0 -0.0013099569114284407 0.011630145294102496 0 -0.00077692967197731384 0.012210483743458473 0 -0.00097390874405149359 0.011345736709762893 0 -0.0013099569114284407 0.011630145294102496 0 -0.0014829735690681345 0.011126403151784005 0 -0.0013099569114284407 0.011630145294102496 0 -0.0018183779724189068 0.011159233258105946 0 -0.0014829735690681345 0.011126403151784005 0 -0.0018183779724189068 0.011159233258105946 0 -0.0014829735690681345 0.011126403151784005 0 -0.0017562070590493139 0.010963585992108192 0 -0.0015275659509805179 0.010866100841214475 0 -0.0014829735690681345 0.011126403151784005 0 -0.0017562070590493139 0.010963585992108192 0 -0.0015275659509805179 0.010866100841214475 0 -0.0017101091726116026 0.010890818011421801 0 -0.0017562070590493139 0.010963585992108192 0 -0.0017101091726116026 0.010890818011421801 0 -0.0017562070590493139 0.010963585992108192 0 -0.0017470392687526089 0.0107876998946577 0 -0.0017562070590493139 0.010963585992108192 0 -0.0017470392687526089 0.0107876998946577 0 -0.0018263987306197523 0.01069963185734873 0 -0.0018183779724189068 0.011159233258105946 0 -0.0017562070590493139 0.010963585992108192 0 -0.0017687619585272324 0.010864780085071026 0 -0.0017562070590493139 0.010963585992108192 0 -0.0018263987306197523 0.01069963185734873 0 -0.0017687619585272324 0.010864780085071026 0 -0.0016709894949700904 0.010591669491849002 0 -0.0013967551662163785 0.010572100601197062 0 -0.001558412516540974 0.010083044990763819 0 -0.0018263987306197523 0.01069963185734873 0 -0.0016709894949700904 0.010591669491849002 0 -0.001558412516540974 0.010083044990763819 0 -0.0017470392687526089 0.0107876998946577 0 -0.0018263987306197523 0.01069963185734873 0 -0.0016709894949700904 0.010591669491849002 0 -0.0017470392687526089 0.0107876998946577 0 -0.0016709894949700904 0.010591669491849002 0 -0.0016170421402296883 0.010766748066184426 0 -0.0016709894949700904 0.010591669491849002 0 -0.0013967551662163785 0.010572100601197062 0 -0.0016170421402296883 0.010766748066184426 0 -0.0017101091726116026 0.010890818011421801 0 -0.0016379178841476212 0.010917115893550423 0 -0.0014635091639432262 0.010956245488866053 0 -0.0017101091726116026 0.010890818011421801 0 -0.0016170421402296883 0.010766748066184426 0 -0.0014635091639432262 0.010956245488866053 0 -0.0013967551662163785 0.010572100601197062 0 -0.0016170421402296883 0.010766748066184426 0 -0.0014635091639432262 0.010956245488866053 0 -0.0017101091726116026 0.010890818011421801 0 -0.0017470392687526089 0.0107876998946577 0 -0.0016170421402296883 0.010766748066184426 0 -0.0016379178841476212 0.010917115893550423 0 -0.0016258230701380503 0.010921014906757133 0 -0.0014635091639432262 0.010956245488866053 0 -0.0016379178841476212 0.010917115893550423 0 -0.0016363429969139236 0.01085837139336431 0 -0.0016258230701380503 0.010921014906757133 0 -0.0018236081092168599 0.0089658066876180751 0 -0.001172771565032676 0.0078532170520618488 0 -0.0015275659509805179 0.010866100841214475 0 -0.0017101091726116026 0.010890818011421801 0 -0.0016329057927259181 0.010878145952690467 0 -0.0017101091726116026 0.010890818011421801 0 -0.0016379178841476212 0.010917115893550423 0 -0.0016329057927259181 0.010878145952690467 0 -0.0015275659509805179 0.010866100841214475 0 -0.0016329057927259181 0.010878145952690467 0 -0.0016094797553534853 0.010827479726553133 0 -0.0016329057927259181 0.010878145952690467 0 -0.0016363429969139236 0.01085837139336431 0 -0.0016094797553534853 0.010827479726553133 0 -0.0016379178841476212 0.010917115893550423 0 -0.0016329057927259181 0.010878145952690467 0 -0.0016363429969139236 0.01085837139336431 0 -0.0016685737974523637 0.010799273921162067 0 -0.0016094797553534853 0.010827479726553133 0 -0.0017049308665664494 0.010742073013788897 0 -0.0019217267266789719 0.010250268958867605 0 -0.0015290217011903616 0.010791680049598311 0 -0.0017434688527072934 0.010612071978346462 0 -0.0016094797553534853 0.010827479726553133 0 -0.0017049308665664494 0.010742073013788897 0 -0.0016127359581169448 0.010472929288237525 0 -0.0015447962783958775 0.010624970398413083 0 -0.0015320944883075423 0.010511487064801742 0 -0.0016363429969139236 0.01085837139336431 0 -0.0016685737974523637 0.010799273921162067 0 -0.0018385871082059022 0.01082316189593187 0 -0.0016363429969139236 0.01085837139336431 0 -0.0016685737974523637 0.010799273921162067 0 -0.0016094797553534853 0.010827479726553133 0 -0.001490923346270126 0.010562816343238893 0 -0.0014809448086300174 0.010634489666575325 0 -0.0015447962783958775 0.010624970398413083 0 -0.001490923346270126 0.010562816343238893 0 -0.0015447962783958775 0.010624970398413083 0 -0.0015320944883075423 0.010511487064801742 0 -0.0014482850373943412 0.010502023783862139 0 -0.001490923346270126 0.010562816343238893 0 -0.0015320944883075423 0.010511487064801742 0 -0.0019217267266789719 0.010250268958867605 0 -0.0018236081092168599 0.0089658066876180751 0 -0.001519204514524279 0.010775030577310067 0 -0.0018236081092168599 0.0089658066876180751 0 -0.0017434688527072934 0.010612071978346462 0 -0.0017049308665664494 0.010742073013788897 0 -0.0018385871082059022 0.01082316189593187 0 -0.0023901680351944357 0.0098016880072836036 0 -0.0019252815102855122 0.0086914601744761365 0 -0.0012750040386282286 0.0097206845073665969 0 -0.0016685737974523637 0.010799273921162067 0 -0.0017049308665664494 0.010742073013788897 0 -0.0018385871082059022 0.01082316189593187 0 -0.00083407948574699552 0.0078067066150685153 0 -0.00092324041156030003 0.0075256603581087033 0 -0.00079343344695043745 0.0074327033079638703 0 -0.0011327228966025707 0.0079192364201533319 0 -0.00083407948574699552 0.0078067066150685153 0 -0.00092324041156030003 0.0075256603581087033 0 -0.0011327228966025707 0.0079192364201533319 0 -0.001248168781695744 0.0083636975106004471 0 -0.00083407948574699552 0.0078067066150685153 0 -0.0011327228966025707 0.0079192364201533319 0 -0.001617540949946346 0.0083874386747983566 0 -0.001242427042423923 0.0074882711780460392 0 -0.0011327228966025707 0.0079192364201533319 0 -0.001248168781695744 0.0083636975106004471 0 -0.001617540949946346 0.0083874386747983566 0 -0.0011327228966025707 0.0079192364201533319 0 -0.001242427042423923 0.0074882711780460392 0 -0.00092324041156030003 0.0075256603581087033 0 -0.0015959592748577653 0.008345484386747818 0 -0.0014032512092378544 0.0080569518742243506 0 -0.0016298420934180461 0.0090185231590344389 0 -0.0011381758362724746 0.0094395078873628843 0 -0.001548754470956376 0.00952858644457635 0 -0.0016298420934180461 0.0090185231590344389 0 -0.001548754470956376 0.00952858644457635 0 -0.0017531362773215481 0.0091896628627357157 0 -0.0016298420934180461 0.0090185231590344389 0 -0.00078854397869689496 0.0087565705172147814 0 -0.0011381758362724746 0.0094395078873628843 0 -0.00078854397869689496 0.0087565705172147814 0 -0.0011381758362724746 0.0094395078873628843 0 -0.00039045554831867692 0.0093003494289636626 0 -0.0014595706794176206 0.0086697585877184655 0 -0.00084221291162369283 0.0083618635494904225 0 -0.0011381758362724746 0.0094395078873628843 0 -0.00095841211495341437 0.010173267876161143 0 -0.00039045554831867692 0.0093003494289636626 0 -0.0011381758362724746 0.0094395078873628843 0 -0.0013423225697507038 0.009986789173551773 0 -0.001548754470956376 0.00952858644457635 0 -0.0011381758362724746 0.0094395078873628843 0 -0.0013423225697507038 0.009986789173551773 0 -0.00095841211495341437 0.010173267876161143 0 -0.0018263987306197523 0.01069963185734873 0 -0.00095841211495341437 0.010173267876161143 0 -0.0016232764607732198 0.010510108835919157 0 -0.0017931392930473251 0.010496611855478271 0 -0.0014035604743234675 0.0094838472259256654 0 -0.0018263987306197523 0.01069963185734873 0 -0.0019398559133022983 0.0088681669692192763 0 -0.001558412516540974 0.010083044990763819 0 -0.0019398559133022983 0.0088681669692192763 0 -0.001558412516540974 0.010083044990763819 0 -0.001017786223944665 0.0091702517181068022 0 -0.0013423225697507038 0.009986789173551773 0 -0.00095841211495341437 0.010173267876161143 0 -0.0016232764607732198 0.010510108835919157 0 -0.0016232764607732198 0.010510108835919157 0 -0.0018822490020130721 0.010968913430335889 0 -0.0018022049998595473 0.010853801009765105 0 -0.0017687619585272324 0.010864780085071026 0 -0.0016232764607732198 0.010510108835919157 0 -0.0018022049998595473 0.010853801009765105 0 -0.0018263987306197523 0.01069963185734873 0 -0.0017687619585272324 0.010864780085071026 0 -0.0016232764607732198 0.010510108835919157 0 -0.0013423225697507038 0.009986789173551773 0 -0.0016232764607732198 0.010510108835919157 0 -0.001548754470956376 0.00952858644457635 0 -0.0016232764607732198 0.010510108835919157 0 -0.001548754470956376 0.00952858644457635 0 -0.0019260934861494202 0.0094368246642339091 0 -0.0015947981631120863 0.010524262023413744 0 -0.0018402458577108634 0.010235016555184408 0 -0.001548754470956376 0.00952858644457635 0 -0.0019260934861494202 0.0094368246642339091 0 -0.0017531362773215481 0.0091896628627357157 0 -0.0018822490020130721 0.010968913430335889 0 -0.0018022049998595473 0.010853801009765105 0 -0.0018166102018363599 0.010936710724390036 0 -0.0019260934861494202 0.0094368246642339091 0 -0.0018242281875610901 0.0088609196574854325 0 -0.0017531362773215481 0.0091896628627357157 0 -0.0018183779724189068 0.011159233258105946 0 -0.0018022049998595473 0.010853801009765105 0 -0.0018166102018363599 0.010936710724390036 0 -0.0017952946305120577 0.011275209782187261 0 -0.0015182831646932773 0.011797552843801674 0 -0.0018183779724189068 0.011159233258105946 0 -0.0017687619585272324 0.010864780085071026 0 -0.0018022049998595473 0.010853801009765105 0 -0.0013099569114284407 0.011630145294102496 0 -0.0013213165399308944 0.012672636005604896 0 -0.00077692967197731384 0.012210483743458473 0 -0.0013099569114284407 0.011630145294102496 0 -0.0018183779724189068 0.011159233258105946 0 -0.0013213165399308944 0.012672636005604896 0 -0.0018822490020130721 0.010968913430335889 0 -0.0018166102018363599 0.010936710724390036 0 -0.0018145520043361715 0.011104568449490357 0 -0.0018822490020130721 0.010968913430335889 0 -0.0018145520043361715 0.011104568449490357 0 -0.0018259871708042159 0.01134316441701874 0 -0.0018166102018363599 0.010936710724390036 0 -0.0018145520043361715 0.011104568449490357 0 -0.0016951504522243921 0.011198182898029527 0 -0.0018145520043361715 0.011104568449490357 0 -0.0016951504522243921 0.011198182898029527 0 -0.0018259871708042159 0.01134316441701874 0 -0.0016951504522243921 0.011198182898029527 0 -0.0018259871708042159 0.01134316441701874 0 -0.0015308272607882745 0.011436896377294765 0 -0.0018235471166239193 0.0086755643277374971 0 -0.0018242281875610901 0.0088609196574854325 0 -0.0017119716965755803 0.0085405339403873057 0 -0.0016298420934180461 0.0090185231590344389 0 -0.0018242281875610901 0.0088609196574854325 0 -0.0017531362773215481 0.0091896628627357157 0 -0.0014595706794176206 0.0086697585877184655 0 -0.0018357784362368988 0.0088479473228351251 0 -0.0019260934861494202 0.0094368246642339091 0 -0.0018235471166239193 0.0086755643277374971 0 -0.0018242281875610901 0.0088609196574854325 0 -0.0018402458577108634 0.010235016555184408 0 -0.0017911090611274674 0.010064854443898057 0 -0.001248168781695744 0.0083636975106004471 0 -0.0018242281875610901 0.0088609196574854325 0 -0.001617540949946346 0.0083874386747983566 0 -0.0018242281875610901 0.0088609196574854325 0 -0.0017119716965755803 0.0085405339403873057 0 -0.001617540949946346 0.0083874386747983566 0 -0.001617540949946346 0.0083874386747983566 0 -0.0015972215548902026 0.0085180459736886333 0 -0.0015898512500908957 0.0085951326331329386 0 -0.0017119716965755803 0.0085405339403873057 0 -0.001617540949946346 0.0083874386747983566 0 -0.0015972215548902026 0.0085180459736886333 0 -0.0017119716965755803 0.0085405339403873057 0 -0.0015972215548902026 0.0085180459736886333 0 -0.0016480115007406798 0.0085495119219203448 0 -0.0018235471166239193 0.0086755643277374971 0 -0.0016480115007406798 0.0085495119219203448 0 -0.0015728072580025525 0.0085594868230413103 0 -0.0016480115007406798 0.0085495119219203448 0 -0.0015728072580025525 0.0085594868230413103 0 -0.0015605599131540411 0.0085981775484634138 0 -0.0018235471166239193 0.0086755643277374971 0 -0.0017119716965755803 0.0085405339403873057 0 -0.0016480115007406798 0.0085495119219203448 0 -0.0014404885141535331 0.011824414520046928 0 -0.001248496341845618 0.011761729628496673 0 -0.0013456140104717771 0.011597514629126537 0 -0.0011650727904910473 0.011865306643896203 0 -0.0012069379479296958 0.011907857654383389 0 -0.0011072475702712632 0.012075044228445072 0 -0.0010424357748153559 0.012262789805306066 0 -0.0014170411737627613 0.011048827729407079 0 -0.0010473985290444003 0.012217329560793563 0 -0.0011128766957848343 0.011717463387423114 0 -0.0011067903881898603 0.012506510677893077 0 -0.0015261678984918841 0.010106715797008562 0 -0.0014170411737627613 0.011048827729407079 0 -0.0011650727904910473 0.011865306643896203 0 -0.0012069379479296958 0.011907857654383389 0 -0.001248496341845618 0.011761729628496673 0 -0.0014404885141535331 0.011824414520046928 0 -0.0012069379479296958 0.011907857654383389 0 -0.0011072475702712632 0.012075044228445072 0 -0.0011650727904910473 0.011865306643896203 0 -0.0011128766957848343 0.011717463387423114 0 -0.0011072475702712632 0.012075044228445072 0 -0.0010473985290444003 0.012217329560793563 0 -0.00099373320162430916 0.012295421955596327 0 -0.0010261092050164002 0.012360069746067265 0 -0.0010473985290444003 0.012217329560793563 0 -0.00099373320162430916 0.012295421955596327 0 -0.00098821382268678929 0.012169209478498375 0 -0.0010473985290444003 0.012217329560793563 0 -0.0010363395573244687 0.011979136746999691 0 -0.00098821382268678929 0.012169209478498375 0 -0.0010363395573244687 0.011979136746999691 0 -0.00099366268681628893 0.011809899813496748 0 -0.00098821382268678929 0.012169209478498375 0 -0.0010473985290444003 0.012217329560793563 0 -0.0010363395573244687 0.011979136746999691 0 -0.0011128766957848343 0.011717463387423114 0 -0.0010363395573244687 0.011979136746999691 0 -0.00099366268681628893 0.011809899813496748 0 -0.0011128766957848343 0.011717463387423114 0 -0.0014404885141535331 0.011824414520046928 0 -0.0012069379479296958 0.011907857654383389 0 -0.001248496341845618 0.011761729628496673 0 -0.0011650727904910473 0.011865306643896203 0 -0.001248496341845618 0.011761729628496673 0 -0.0011128766957848343 0.011717463387423114 0 -0.0006633278104315667 0.012526239820344114 0 -0.00092081626280175028 0.012363936470134656 0 -0.00099366268681628893 0.011809899813496748 0 -0.0011128766957848343 0.011717463387423114 0 -0.0014031751879204743 0.011246936207235193 0 -0.001248496341845618 0.011761729628496673 0 -0.0011128766957848343 0.011717463387423114 0 -0.0013456140104717771 0.011597514629126537 0 -0.00024711924158883955 0.013256878500138042 0 -0.00028344265306261008 0.013417688277191371 0 -0.00040148741088228703 0.013529985294498496 0 -0.0011128766957848343 0.011717463387423114 0 -0.0014031751879204743 0.011246936207235193 0 -0.0013456140104717771 0.011597514629126537 0 -0.00024711924158883955 0.013256878500138042 0 -0.00028344265306261008 0.013417688277191371 0 -0.00044052857314525612 0.013389899262680164 0 -0.00028344265306261008 0.013417688277191371 0 -0.00031751942190368478 0.013491018915479054 0 -0.00044052857314525612 0.013389899262680164 0 -0.00028344265306261008 0.013417688277191371 0 -0.00026764821001131048 0.013431479417353882 0 -0.00031751942190368478 0.013491018915479054 0 -0.00028344265306261008 0.013417688277191371 0 -0.00040148741088228703 0.013529985294498496 0 -0.00026764821001131048 0.013431479417353882 0 -0.0017911090611274674 0.010064854443898057 0 -0.0015261678984918841 0.010106715797008562 0 -0.0018259871708042159 0.01134316441701874 0 -0.0014404885141535331 0.011824414520046928 0 -0.0015308272607882745 0.011436896377294765 0 -0.0014031751879204743 0.011246936207235193 0 -0.0013456140104717771 0.011597514629126537 0 -0.0015308272607882745 0.011436896377294765 0 -0.0014404885141535331 0.011824414520046928 0 -0.0013456140104717771 0.011597514629126537 0 -0.0015308272607882745 0.011436896377294765 0 -0.0016951504522243921 0.011198182898029527 0 -0.0014031751879204743 0.011246936207235193 0 -0.0015308272607882745 0.011436896377294765 0 -0.0015182831646932773 0.011797552843801674 0 -0.00092081626280175028 0.012363936470134656 0 -0.0013213165399308944 0.012672636005604896 0 -0.00040148741088228703 0.013529985294498496 0 -0.0006581974202479544 0.012945845298205399 0 -0.0018166102018363599 0.010936710724390036 0 -0.0016951504522243921 0.011198182898029527 0 -0.0014031751879204743 0.011246936207235193 0 -0.00040148741088228703 0.013529985294498496 0 -0.0006581974202479544 0.012945845298205399 0 -0.0001559368431273031 0.013259293874261682 0 -0.0013213165399308944 0.012672636005604896 0 -0.0006581974202479544 0.012945845298205399 0 -0.00077692967197731384 0.012210483743458473 0 -0.00039364785036381886 0.011595901520191439 0 -0.00077692967197731384 0.012210483743458473 0 -0.0001559368431273031 0.013259293874261682 0 -0.0006581974202479544 0.012945845298205399 0 -0.00077692967197731384 0.012210483743458473 0 -0.0001559368431273031 0.013259293874261682 0 0.00033103238690341017 0.011856516828893212 0 -0.00039364785036381886 0.011595901520191439 0 -0.0001559368431273031 0.013259293874261682 0 -0.00034133211011460213 0.014579623561018955 0 -0.0001559368431273031 0.013259293874261682 0 -0.00042187080760421286 0.013697978163913681 0 -0.00012113662712736794 0.013143088077293282 0 -0.00013569255935012476 0.013329166158699782 0 -0.0001559368431273031 0.013259293874261682 0 -0.00031751942190368478 0.013491018915479054 0 -0.00042187080760421286 0.013697978163913681 0 -0.00040148741088228703 0.013529985294498496 0 -0.0001559368431273031 0.013259293874261682 0 -0.00026764821001131048 0.013431479417353882 0 -0.0001559368431273031 0.013259293874261682 0 -0.00026764821001131048 0.013431479417353882 0 -0.00031751942190368478 0.013491018915479054 0 -0.00031751942190368478 0.013491018915479054 0 -0.00049125999015019542 0.013553871273569296 0 -0.00042187080760421286 0.013697978163913681 0 -0.00049125999015019542 0.013553871273569296 0 -0.00042187080760421286 0.013697978163913681 0 -0.00070271672540111725 0.013746988626459823 0 -0.00042187080760421286 0.013697978163913681 0 -0.00072080713125770529 0.014063413314052347 0 -0.00070271672540111725 0.013746988626459823 0 -0.00034133211011460213 0.014579623561018955 0 -0.00042187080760421286 0.013697978163913681 0 -0.00072080713125770529 0.014063413314052347 0 -0.00034133211011460213 0.014579623561018955 0 -0.00098299821541591656 0.014440030828615526 0 -0.00072080713125770529 0.014063413314052347 0 -0.00098299821541591656 0.014440030828615526 0 -0.0010661773874350276 0.014045250241527455 0 -0.0012329920911760554 0.014363905417789674 0 -0.00098299821541591656 0.014440030828615526 0 -0.00072080713125770529 0.014063413314052347 0 -0.0010661773874350276 0.014045250241527455 0 -0.0010661773874350276 0.014045250241527455 0 -0.00070271672540111725 0.013746988626459823 0 -0.00097058400462199964 0.013602993372330044 0 -0.00072080713125770529 0.014063413314052347 0 -0.0010661773874350276 0.014045250241527455 0 -0.00070271672540111725 0.013746988626459823 0 -0.00097058400462199964 0.013602993372330044 0 -0.0011526685545069644 0.013021732825833347 0 -0.00068813849613037564 0.013187456482529423 0 -0.00097058400462199964 0.013602993372330044 0 -0.00066330282310376868 0.013501692874900453 0 -0.00068813849613037564 0.013187456482529423 0 -0.00070271672540111725 0.013746988626459823 0 -0.00097058400462199964 0.013602993372330044 0 -0.00066330282310376868 0.013501692874900453 0 -0.00049125999015019542 0.013553871273569296 0 -0.00070271672540111725 0.013746988626459823 0 -0.00066330282310376868 0.013501692874900453 0 -0.00049125999015019542 0.013553871273569296 0 -0.00066330282310376868 0.013501692874900453 0 -0.00044052857314525612 0.013389899262680164 0 -0.00031751942190368478 0.013491018915479054 0 -0.00049125999015019542 0.013553871273569296 0 -0.00044052857314525612 0.013389899262680164 0 -0.00024711924158883955 0.013256878500138042 0 -0.00044052857314525612 0.013389899262680164 0 -0.00052276019660834206 0.013128760611670882 0 -0.00066330282310376868 0.013501692874900453 0 -0.00044052857314525612 0.013389899262680164 0 -0.00068813849613037564 0.013187456482529423 0 -0.00044052857314525612 0.013389899262680164 0 -0.00052276019660834206 0.013128760611670882 0 -0.00068813849613037564 0.013187456482529423 0 -0.0006633278104315667 0.012526239820344114 0 -0.00072672469616284513 0.012560096312146734 0 -0.00052276019660834206 0.013128760611670882 0 -0.00068813849613037564 0.013187456482529423 0 -0.00072512456113403524 0.012598484559425515 0 -0.00099366268681628893 0.011809899813496748 0 -0.00089712281000728963 0.012268592196136609 0 -0.00072512456113403524 0.012598484559425515 0 -0.00024711924158883955 0.013256878500138042 0 -0.00052276019660834206 0.013128760611670882 0 -0.00072512456113403524 0.012598484559425515 0 -0.00099366268681628893 0.011809899813496748 0 -0.00098821382268678929 0.012169209478498375 0 -0.00089712281000728963 0.012268592196136609 0 -0.00089712281000728963 0.012268592196136609 0 -0.00093280731647936703 0.012324408209969336 0 -0.00084680924290012137 0.012436834355880682 0 -0.00098821382268678929 0.012169209478498375 0 -0.00089712281000728963 0.012268592196136609 0 -0.00093280731647936703 0.012324408209969336 0 -0.00099373320162430916 0.012295421955596327 0 -0.00098821382268678929 0.012169209478498375 0 -0.00093280731647936703 0.012324408209969336 0 -0.00086025573792134738 0.012844295679180797 0 -0.0011526685545069644 0.013021732825833347 0 -0.00078377690800367065 0.012466011288506012 0 -0.00086025573792134738 0.012844295679180797 0 -0.00068813849613037564 0.013187456482529423 0 -0.00072512456113403524 0.012598484559425515 0 -0.0014222631705874162 0.013795508763714685 0 -0.0013221293171168168 0.013660596353052876 0 -0.00086025573792134738 0.012844295679180797 0 -0.0011526685545069644 0.013021732825833347 0 -0.00068813849613037564 0.013187456482529423 0 -0.001720699821516469 0.014517334652457791 0 -0.0018940080567086072 0.014967627902937097 0 -0.0016941360865611384 0.014828221802138192 0 -0.0018940080567086072 0.014967627902937097 0 -0.0016288245219953526 0.015056794984440722 0 -0.0016941360865611384 0.014828221802138192 0 -0.0018940080567086072 0.014967627902937097 0 -0.0017757981682628948 0.01516570092728327 0 -0.0016288245219953526 0.015056794984440722 0 -0.00078377690800367065 0.012466011288506012 0 -0.00072512456113403524 0.012598484559425515 0 -0.00078317198659803931 0.012521742395595304 0 -0.00086025573792134738 0.012844295679180797 0 -0.00078377690800367065 0.012466011288506012 0 -0.00072512456113403524 0.012598484559425515 0 -0.00089712281000728963 0.012268592196136609 0 -0.00072512456113403524 0.012598484559425515 0 -0.00084680924290012137 0.012436834355880682 0 -0.00072512456113403524 0.012598484559425515 0 -0.00084680924290012137 0.012436834355880682 0 -0.00078317198659803931 0.012521742395595304 0 -0.00078317198659803931 0.012521742395595304 0 -0.00086672193083720678 0.012482718922972553 0 -0.00087349937240366836 0.012523093896762098 0 -0.00084680924290012137 0.012436834355880682 0 -0.00078317198659803931 0.012521742395595304 0 -0.00086672193083720678 0.012482718922972553 0 -0.00093280731647936703 0.012324408209969336 0 -0.00097938220806478523 0.012396603021121956 0 -0.00091656811139461476 0.012439265446397842 0 -0.00099373320162430916 0.012295421955596327 0 -0.00093280731647936703 0.012324408209969336 0 -0.00097938220806478523 0.012396603021121956 0 -0.00093280731647936703 0.012324408209969336 0 -0.00084680924290012137 0.012436834355880682 0 -0.00091656811139461476 0.012439265446397842 0 -0.00084680924290012137 0.012436834355880682 0 -0.00091656811139461476 0.012439265446397842 0 -0.00086672193083720678 0.012482718922972553 0 -0.00091656811139461476 0.012439265446397842 0 -0.00086672193083720678 0.012482718922972553 0 -0.00092738640205509569 0.012503120453723617 0 -0.00086672193083720678 0.012482718922972553 0 -0.00087349937240366836 0.012523093896762098 0 -0.00092738640205509569 0.012503120453723617 0 -0.00091656811139461476 0.012439265446397842 0 -0.00096247064115814859 0.01246110724333128 0 -0.00092738640205509569 0.012503120453723617 0 -0.00097938220806478523 0.012396603021121956 0 -0.00091656811139461476 0.012439265446397842 0 -0.00096247064115814859 0.01246110724333128 0 -0.00097847815440922745 0.012498001902603419 0 -0.00096247064115814859 0.01246110724333128 0 -0.00092738640205509569 0.012503120453723617 0 -0.00097847815440922745 0.012498001902603419 0 -0.00096247064115814859 0.01246110724333128 0 -0.001001975233877301 0.012461522587873707 0 -0.00097847815440922745 0.012498001902603419 0 -0.001001975233877301 0.012461522587873707 0 -0.0010207722500907704 0.012498947658264762 0 -0.00097938220806478523 0.012396603021121956 0 -0.00096247064115814859 0.01246110724333128 0 -0.001001975233877301 0.012461522587873707 0 -0.00097847815440922745 0.012498001902603419 0 -0.0009726368708765069 0.012549737394297716 0 -0.0010207722500907704 0.012498947658264762 0 -0.00097847815440922745 0.012498001902603419 0 -0.0009726368708765069 0.012549737394297716 0 -0.00092738640205509569 0.012503120453723617 0 -0.0009726368708765069 0.012549737394297716 0 -0.00087349937240366836 0.012523093896762098 0 -0.00092738640205509569 0.012503120453723617 0 -0.0009726368708765069 0.012549737394297716 0 -0.00087349937240366836 0.012523093896762098 0 -0.00086737501717618212 0.012578483511212581 0 -0.00078377690800367065 0.012466011288506012 0 -0.00082342021499750315 0.012520597233030799 0 -0.00086737501717618212 0.012578483511212581 0 -0.00078377690800367065 0.012466011288506012 0 -0.00078317198659803931 0.012521742395595304 0 -0.00082342021499750315 0.012520597233030799 0 -0.00078317198659803931 0.012521742395595304 0 -0.00087349937240366836 0.012523093896762098 0 -0.00082342021499750315 0.012520597233030799 0 -0.00087349937240366836 0.012523093896762098 0 -0.00082342021499750315 0.012520597233030799 0 -0.00086737501717618212 0.012578483511212581 0 -0.0009726368708765069 0.012549737394297716 0 -0.00092616415079034033 0.012656711893017366 0 -0.00099320777352659246 0.01272088270288842 0 -0.00078377690800367065 0.012466011288506012 0 -0.00086737501717618212 0.012578483511212581 0 -0.00086782505031586933 0.012749376588691184 0 -0.0013221293171168168 0.013660596353052876 0 -0.0015640025850954661 0.014399745987504023 0 -0.00086737501717618212 0.012578483511212581 0 -0.00092616415079034033 0.012656711893017366 0 -0.00086782505031586933 0.012749376588691184 0 -0.0009726368708765069 0.012549737394297716 0 -0.00086737501717618212 0.012578483511212581 0 -0.00092616415079034033 0.012656711893017366 0 -0.00092616415079034033 0.012656711893017366 0 -0.00086782505031586933 0.012749376588691184 0 -0.00099320777352659246 0.01272088270288842 0 -0.0018940080567086072 0.014967627902937097 0 -0.0020542311038097665 0.015364457075937209 0 -0.0018636220809333571 0.01527705095469668 0 -0.0018940080567086072 0.014967627902937097 0 -0.0018636220809333571 0.01527705095469668 0 -0.0017757981682628948 0.01516570092728327 0 -0.0017757981682628948 0.01516570092728327 0 -0.0016822908799641668 0.015324649080033234 0 -0.0016288245219953526 0.015056794984440722 0 -0.0018636220809333571 0.01527705095469668 0 -0.0016822908799641668 0.015324649080033234 0 -0.0018462953528087091 0.015486240220503149 0 -0.0018636220809333571 0.01527705095469668 0 -0.0017757981682628948 0.01516570092728327 0 -0.0016822908799641668 0.015324649080033234 0 -0.0016822908799641668 0.015324649080033234 0 -0.0018462953528087091 0.015486240220503149 0 -0.0015592264055123591 0.015600797386074793 0 -0.0020542311038097665 0.015364457075937209 0 -0.0018636220809333571 0.01527705095469668 0 -0.0018462953528087091 0.015486240220503149 0 -0.0018462953528087091 0.015486240220503149 0 -0.0017849782662114283 0.015766266682146052 0 -0.0019836415063969361 0.01563575264470941 0 -0.0018462953528087091 0.015486240220503149 0 -0.0017849782662114283 0.015766266682146052 0 -0.0015592264055123591 0.015600797386074793 0 -0.0017849782662114283 0.015766266682146052 0 -0.0020050726182864304 0.015845083915286787 0 -0.0017762612839792116 0.016147350816376915 0 -0.0017849782662114283 0.015766266682146052 0 -0.0020050726182864304 0.015845083915286787 0 -0.0019836415063969361 0.01563575264470941 0 -0.0020050726182864304 0.015845083915286787 0 -0.0022190917251683744 0.015717045059581557 0 -0.0021925815527832557 0.016004178726044385 0 -0.0014902839275510488 0.012478591479451604 0 -0.0012881598181918256 0.012287065580388416 0 -0.0020050726182864304 0.015845083915286787 0 -0.0019836415063969361 0.01563575264470941 0 -0.0022190917251683744 0.015717045059581557 0 -0.0015640025850954661 0.014399745987504023 0 -0.0014902839275510488 0.012478591479451604 0 -0.0020542311038097665 0.015364457075937209 0 -0.0019836415063969361 0.01563575264470941 0 -0.0022190917251683744 0.015717045059581557 0 -0.00086782505031586933 0.012749376588691184 0 -0.00097440029639363028 0.01293463417036479 0 -0.00099320777352659246 0.01272088270288842 0 -0.0020542311038097665 0.015364457075937209 0 -0.0018462953528087091 0.015486240220503149 0 -0.0019836415063969361 0.01563575264470941 0 -0.0014184535753778867 0.0086914604721609716 0 -0.0014174437187920402 0.0087079184559352204 0 -0.0014182720168902478 0.0086866732936024486 0 -0.0014902839275510488 0.012478591479451604 0 -0.0011989606673466168 0.010267546664999266 0 -0.0014385057899676138 0.0086752410496314936 0 -0.0014184535753778867 0.0086914604721609716 0 -0.001430855935752323 0.0086749267977786274 0 -0.0014385057899676138 0.0086752410496314936 0 -0.0014184535753778867 0.0086914604721609716 0 -0.0014182720168902478 0.0086866732936024486 0 -0.0014184535753778867 0.0086914604721609716 0 -0.001391520333005804 0.0086915808390237558 0 -0.001430855935752323 0.0086749267977786274 0 -0.0015338453135686583 0.012117583936388636 0 -0.0016186087844643146 0.011181965620510215 0 -0.0011266795277117096 0.01129186840857639 0 -0.0014184535753778867 0.0086914604721609716 0 -0.0014174437187920402 0.0087079184559352204 0 -0.001391520333005804 0.0086915808390237558 0 -0.0014902839275510488 0.012478591479451604 0 -0.0011868843991422223 0.0098569551040197205 0 -0.0014174437187920402 0.0087079184559352204 0 -0.001391520333005804 0.0086915808390237558 0 -0.0014062346659434052 0.0086626407606796348 0 -0.001391520333005804 0.0086915808390237558 0 -0.0014062346659434052 0.0086626407606796348 0 -0.0013124248341069584 0.0086652800655658176 0 -0.001391520333005804 0.0086915808390237558 0 -0.0014091381694699404 0.0086631075488052059 0 -0.0013124248341069584 0.0086652800655658176 0 -0.0014091381694699404 0.0086631075488052059 0 -0.001430855935752323 0.0086749267977786274 0 -0.0014640256212193493 0.0086541653547180658 0 -0.001391520333005804 0.0086915808390237558 0 -0.0014091381694699404 0.0086631075488052059 0 -0.001430855935752323 0.0086749267977786274 0 -0.0014385057899676138 0.0086752410496314936 0 -0.001430855935752323 0.0086749267977786274 0 -0.0014694626243627977 0.0086540796804479968 0 -0.001430855935752323 0.0086749267977786274 0 -0.0014694626243627977 0.0086540796804479968 0 -0.0014640256212193493 0.0086541653547180658 0 -0.0014694626243627977 0.0086540796804479968 0 -0.0015118760846416963 0.0086288380102947527 0 -0.0014640256212193493 0.0086541653547180658 0 -0.0014694626243627977 0.0086540796804479968 0 -0.0014985960042303429 0.0086327336696200869 0 -0.0015118760846416963 0.0086288380102947527 0 -0.0014985960042303429 0.0086327336696200869 0 -0.0014598783625850375 0.0086559701904692001 0 -0.0014664815304011526 0.0086362088644978338 0 -0.0014694626243627977 0.0086540796804479968 0 -0.0014985960042303429 0.0086327336696200869 0 -0.0014598783625850375 0.0086559701904692001 0 -0.0014385057899676138 0.0086752410496314936 0 -0.0014694626243627977 0.0086540796804479968 0 -0.0014598783625850375 0.0086559701904692001 0 -0.0011989606673466168 0.010267546664999266 0 -0.0014170411737627613 0.011048827729407079 0 -0.0014182720168902478 0.0086866732936024486 0 -0.0014664815304011526 0.0086362088644978338 0 -0.0014354404557163805 0.0086187759322684365 0 -0.0014385057899676138 0.0086752410496314936 0 -0.0014182720168902478 0.0086866732936024486 0 -0.0014598783625850375 0.0086559701904692001 0 -0.0009726368708765069 0.012549737394297716 0 -0.00099320777352659246 0.01272088270288842 0 -0.0011067903881898603 0.012506510677893077 0 -0.0014182720168902478 0.0086866732936024486 0 -0.0014598783625850375 0.0086559701904692001 0 -0.0014664815304011526 0.0086362088644978338 0 -0.0015728072580025525 0.0085594868230413103 0 -0.0014354404557163805 0.0086187759322684365 0 -0.0015137958684394673 0.0086066432072955147 0 -0.0014664815304011526 0.0086362088644978338 0 -0.0014354404557163805 0.0086187759322684365 0 -0.0015137958684394673 0.0086066432072955147 0 -0.0009726368708765069 0.012549737394297716 0 -0.0010207722500907704 0.012498947658264762 0 -0.0011067903881898603 0.012506510677893077 0 -0.0010473985290444003 0.012217329560793563 0 -0.0011067903881898603 0.012506510677893077 0 -0.0010261092050164002 0.012360069746067265 0 -0.0010314076184449719 0.012431207377537173 0 -0.0011067903881898603 0.012506510677893077 0 -0.0010261092050164002 0.012360069746067265 0 -0.0010207722500907704 0.012498947658264762 0 -0.0010445979052137787 0.012471614888637253 0 -0.0011067903881898603 0.012506510677893077 0 -0.001001975233877301 0.012461522587873707 0 -0.0010314076184449719 0.012431207377537173 0 -0.0010445979052137787 0.012471614888637253 0 -0.00097938220806478523 0.012396603021121956 0 -0.001001975233877301 0.012461522587873707 0 -0.0010314076184449719 0.012431207377537173 0 -0.001001975233877301 0.012461522587873707 0 -0.0010207722500907704 0.012498947658264762 0 -0.0010445979052137787 0.012471614888637253 0 -0.0010314076184449719 0.012431207377537173 0 -0.0010445979052137787 0.012471614888637253 0 -0.0011067903881898603 0.012506510677893077 0 -0.00099373320162430916 0.012295421955596327 0 -0.00097938220806478523 0.012396603021121956 0 -0.0010261092050164002 0.012360069746067265 0 -0.00097938220806478523 0.012396603021121956 0 -0.0010314076184449719 0.012431207377537173 0 -0.0010261092050164002 0.012360069746067265 0 -0.0015728072580025525 0.0085594868230413103 0 -0.0015137958684394673 0.0086066432072955147 0 -0.0015605599131540411 0.0085981775484634138 0 -0.0014985960042303429 0.0086327336696200869 0 -0.0015605599131540411 0.0085981775484634138 0 -0.0015118760846416963 0.0086288380102947527 0 -0.0014985960042303429 0.0086327336696200869 0 -0.0015137958684394673 0.0086066432072955147 0 -0.0015605599131540411 0.0085981775484634138 0 -0.0014985960042303429 0.0086327336696200869 0 -0.0014664815304011526 0.0086362088644978338 0 -0.0015137958684394673 0.0086066432072955147 0 -0.0015605599131540411 0.0085981775484634138 0 -0.0015593867752457359 0.0085920380300644195 0 -0.0015118760846416963 0.0086288380102947527 0 -0.0015972215548902026 0.0085180459736886333 0 -0.0016480115007406798 0.0085495119219203448 0 -0.0015593867752457359 0.0085920380300644195 0 -0.0016480115007406798 0.0085495119219203448 0 -0.0015605599131540411 0.0085981775484634138 0 -0.0015593867752457359 0.0085920380300644195 0 -0.0015593867752457359 0.0085920380300644195 0 -0.0015323230084386202 0.0086323890764408127 0 -0.0015898512500908957 0.0085951326331329386 0 -0.0015972215548902026 0.0085180459736886333 0 -0.0015593867752457359 0.0085920380300644195 0 -0.0015898512500908957 0.0085951326331329386 0 -0.0015593867752457359 0.0085920380300644195 0 -0.0015323230084386202 0.0086323890764408127 0 -0.0015090412286411852 0.0086390370495607032 0 -0.0015323230084386202 0.0086323890764408127 0 -0.0015090412286411852 0.0086390370495607032 0 -0.0014871069788835053 0.0086478230446863751 0 -0.0015593867752457359 0.0085920380300644195 0 -0.0015090412286411852 0.0086390370495607032 0 -0.0015118760846416963 0.0086288380102947527 0 -0.0015090412286411852 0.0086390370495607032 0 -0.0015118760846416963 0.0086288380102947527 0 -0.0014640256212193493 0.0086541653547180658 0 -0.0015090412286411852 0.0086390370495607032 0 -0.0014640256212193493 0.0086541653547180658 0 -0.0014723709338565565 0.0086498561089201915 0 -0.0014091381694699404 0.0086631075488052059 0 -0.0014640256212193493 0.0086541653547180658 0 -0.0014723709338565565 0.0086498561089201915 0 -0.0014091381694699404 0.0086631075488052059 0 -0.0014723709338565565 0.0086498561089201915 0 -0.0014347685278248003 0.0086638307512110074 0 -0.0014091381694699404 0.0086631075488052059 0 -0.0014347685278248003 0.0086638307512110074 0 -0.0013124248341069584 0.0086652800655658176 0 -0.0014723709338565565 0.0086498561089201915 0 -0.0014773176596184553 0.0086526790942528953 0 -0.0014871069788835053 0.0086478230446863751 0 -0.0014723709338565565 0.0086498561089201915 0 -0.0014347685278248003 0.0086638307512110074 0 -0.0014773176596184553 0.0086526790942528953 0 -0.0015090412286411852 0.0086390370495607032 0 -0.0014723709338565565 0.0086498561089201915 0 -0.0014871069788835053 0.0086478230446863751 0 -0.0014871069788835053 0.0086478230446863751 0 -0.0014016304321318215 0.0085887730530639153 0 -0.0013121101845164503 0.0086437571115925826 0 -0.0014773176596184553 0.0086526790942528953 0 -0.0014871069788835053 0.0086478230446863751 0 -0.0014016304321318215 0.0085887730530639153 0 -0.0014016304321318215 0.0085887730530639153 0 -0.0013121101845164503 0.0086437571115925826 0 -0.0010921244782301958 0.0082902482111568195 0 -0.0014871069788835053 0.0086478230446863751 0 -0.0013121101845164503 0.0086437571115925826 0 -0.0014647437663669726 0.0086604658030525385 0 -0.00072258758495152148 0.0075859670642848924 0 -0.0008615403031714897 0.007248446181257865 0 -0.00082502488424214505 0.0072745516295584442 0 -0.0010404684598830367 0.0081141144734676925 0 -0.001167325167731652 0.0079684130853916926 0 -0.0008615403031714897 0.007248446181257865 0 -0.00080354312154599223 0.0072830250670147248 0 -0.00082502488424214505 0.0072745516295584442 0 -0.0015323230084386202 0.0086323890764408127 0 -0.0014871069788835053 0.0086478230446863751 0 -0.0014647437663669726 0.0086604658030525385 0 -0.001167325167731652 0.0079684130853916926 0 -0.0014032512092378544 0.0080569518742243506 0 -0.0015323230084386202 0.0086323890764408127 0 -0.0014647437663669726 0.0086604658030525385 0 -0.0015898512500908957 0.0085951326331329386 0 -0.0008615403031714897 0.007248446181257865 0 -0.001242427042423923 0.0074882711780460392 0 -0.00092324041156030003 0.0075256603581087033 0 -0.0008615403031714897 0.007248446181257865 0 -0.00092324041156030003 0.0075256603581087033 0 -0.00080354312154599223 0.0072830250670147248 0 -8.242835411869497e-05 0.024882977447268275 0 -7.4500380706894173e-05 0.024814334243011216 0 -0.00031777937052173192 0.0247106983059136 0 -7.4500380706894173e-05 0.024814334243011216 0 -0.00024645534350103005 0.024666197449024683 0 -0.00031777937052173192 0.0247106983059136 0 -8.242835411869497e-05 0.024882977447268275 0 -0.00019749262748552156 0.024685027580378941 0 -0.00015166577871336296 0.02484662676814341 0 0.00042359864590266893 0.02648805108148922 0 -0.00074091913901943663 0.019799165482856162 0 -8.242835411869497e-05 0.024882977447268275 0 -2.3918049234998095e-05 0.024939654859114018 0 -7.4500380706894173e-05 0.024814334243011216 0 -2.3918049234998095e-05 0.024939654859114018 0 -8.738458867903939e-09 0.024999874139588266 0 -7.1903773840359896e-09 0.024999937831725792 0 -2.3918049234998095e-05 0.024939654859114018 0 -8.738458867903939e-09 0.024999874139588266 0 -2.3569133049552869e-05 0.02492790031698168 0 -2.3918049234998095e-05 0.024939654859114018 0 -2.3569133049552869e-05 0.02492790031698168 0 -7.4500380706894173e-05 0.024814334243011216 0 -2.3569133049552869e-05 0.02492790031698168 0 -6.1650323551753443e-06 0.024976302242560335 0 -7.4500380706894173e-05 0.024814334243011216 0 1.5543653955558669e-06 0.024663401592112374 0 -9.2265270906495355e-05 0.024663253214650811 0 -7.4500380706894173e-05 0.024814334243011216 0 -1.136281782453018e-06 0.024822684604206842 0 -7.3645306698432849e-05 0.024826589032161103 0 -2.3569133049552869e-05 0.02492790031698168 0 -3.7857877337661754e-08 0.024999921898200626 0 -6.1650323551753443e-06 0.024976302242560335 0 -8.738458867903939e-09 0.024999874139588266 0 -2.3569133049552869e-05 0.02492790031698168 0 -3.7857877337661754e-08 0.024999921898200626 0 1.774613806460223e-08 0.025000024361025837 0 -3.7857877337661754e-08 0.024999921898200626 0 -6.1650323551753443e-06 0.024976302242560335 0 -3.9521692645961582e-06 0.024617120034026732 0 1.5543653955558669e-06 0.024663401592112374 0 -9.2265270906495355e-05 0.024663253214650811 0 -3.9521692645961582e-06 0.024617120034026732 0 -9.2265270906495355e-05 0.024663253214650811 0 -0.00019034511739665554 0.02458715209112728 0 -9.2265270906495355e-05 0.024663253214650811 0 -7.4500380706894173e-05 0.024814334243011216 0 -0.00024645534350103005 0.024666197449024683 0 -0.00024645534350103005 0.024666197449024683 0 -0.00019034511739665554 0.02458715209112728 0 -0.00035192204550419677 0.024575292184436961 0 -9.2265270906495355e-05 0.024663253214650811 0 -0.00024645534350103005 0.024666197449024683 0 -0.00019034511739665554 0.02458715209112728 0 -0.000334308972926102 0.024481675815605293 0 -0.00019034511739665554 0.02458715209112728 0 -0.00035192204550419677 0.024575292184436961 0 -0.0023708081925304619 0.015008915157168823 0 -0.0019579495294591099 0.014784127618941026 0 -0.0019594884556454338 0.01461616812470078 0 -0.0014539107546332759 0.019794985544544886 0 -0.001225145186001305 0.019616806146238633 0 -0.00055264836282199238 0.024501464137928562 0 -0.00035192204550419677 0.024575292184436961 0 -0.000383327164988995 0.024585512912850552 0 -0.00024645534350103005 0.024666197449024683 0 -0.00035192204550419677 0.024575292184436961 0 -0.000383327164988995 0.024585512912850552 0 -0.0019579495294591099 0.014784127618941026 0 -0.0018091086608895417 0.014555158494605362 0 -0.0019594884556454338 0.01461616812470078 0 -0.0015864817958579408 0.0148543203699095 0 -0.0019579495294591099 0.014784127618941026 0 -0.0018091086608895417 0.014555158494605362 0 -0.0018091086608895417 0.014555158494605362 0 -0.0019594884556454338 0.01461616812470078 0 -0.0019001848185698344 0.014529248274254865 0 -0.00024645534350103005 0.024666197449024683 0 -0.000383327164988995 0.024585512912850552 0 -0.00031777937052173192 0.0247106983059136 0 -0.001300211891790097 0.014712041682075594 0 -0.00098299821541591656 0.014440030828615526 0 -0.0012329920911760554 0.014363905417789674 0 -0.001300211891790097 0.014712041682075594 0 -0.0012329920911760554 0.014363905417789674 0 -0.0014697750336736173 0.014544070506202881 0 -0.0012329920911760554 0.014363905417789674 0 -0.0014697750336736173 0.014544070506202881 0 -0.0014375186311760321 0.014187492030514779 0 -0.0015864817958579408 0.0148543203699095 0 -0.001300211891790097 0.014712041682075594 0 -0.0014697750336736173 0.014544070506202881 0 -0.0018091086608895417 0.014555158494605362 0 -0.0014697750336736173 0.014544070506202881 0 -0.0014375186311760321 0.014187492030514779 0 -0.0015864817958579408 0.0148543203699095 0 -0.0018091086608895417 0.014555158494605362 0 -0.0014697750336736173 0.014544070506202881 0 -0.0014375186311760321 0.014187492030514779 0 -0.0014073958473365012 0.013998412317814913 0 -0.0012676376437775788 0.014203917281941899 0 -0.0012264412225827964 0.014438374630849038 0 -0.0017948876765173033 0.013657594529189281 0 -0.0014375186311760321 0.014187492030514779 0 -0.0012676376437775788 0.014203917281941899 0 -0.0010530669747430812 0.014138755367559814 0 -0.0018091086608895417 0.014555158494605362 0 -0.0014375186311760321 0.014187492030514779 0 -0.0019001848185698344 0.014529248274254865 0 -0.0010661773874350276 0.014045250241527455 0 -0.0014375186311760321 0.014187492030514779 0 -0.0014073958473365012 0.013998412317814913 0 -0.0010661773874350276 0.014045250241527455 0 -0.00097058400462199964 0.013602993372330044 0 -0.0014073958473365012 0.013998412317814913 0 -0.0010661773874350276 0.014045250241527455 0 -0.0012329920911760554 0.014363905417789674 0 -0.0014375186311760321 0.014187492030514779 0 -0.0014222631705874162 0.013795508763714685 0 -0.0014223800202407689 0.013956708897873168 0 -0.00097058400462199964 0.013602993372330044 0 -0.0011526685545069644 0.013021732825833347 0 -0.0014073958473365012 0.013998412317814913 0 -0.001720699821516469 0.014517334652457791 0 -0.0014073958473365012 0.013998412317814913 0 -0.0014228071845454832 0.014376589136349666 0 -0.0014073958473365012 0.013998412317814913 0 -0.0014228071845454832 0.014376589136349666 0 -0.0012676376437775788 0.014203917281941899 0 -0.0014228071845454832 0.014376589136349666 0 -0.0012676376437775788 0.014203917281941899 0 -0.0012350079002490979 0.01455789137692896 0 -0.0012676376437775788 0.014203917281941899 0 -0.0012350079002490979 0.01455789137692896 0 -0.00098347382700681471 0.014453464857255124 0 -0.0014228071845454832 0.014376589136349666 0 -0.0012350079002490979 0.01455789137692896 0 -0.0015352616129877044 0.014761535030790321 0 -0.001720699821516469 0.014517334652457791 0 -0.0014228071845454832 0.014376589136349666 0 -0.0015352616129877044 0.014761535030790321 0 -0.001720699821516469 0.014517334652457791 0 -0.0016941360865611384 0.014828221802138192 0 -0.0015352616129877044 0.014761535030790321 0 -0.0019594884556454338 0.01461616812470078 0 -0.0018058745994832604 0.014913500436922678 0 -0.0019001848185698344 0.014529248274254865 0 -0.001225145186001305 0.019616806146238633 0 -0.00074091913901943663 0.019799165482856162 0 -0.00074091913901943663 0.019799165482856162 0 -0.0017948876765173033 0.013657594529189281 0 -0.00055550265985269932 0.014429930278249728 0 -0.0010530669747430812 0.014138755367559814 0 -0.00098347382700681471 0.014453464857255124 0 -0.0012676376437775788 0.014203917281941899 0 -0.0010530669747430812 0.014138755367559814 0 -0.00098347382700681471 0.014453464857255124 0 -0.0012350079002490979 0.01455789137692896 0 -0.00098347382700681471 0.014453464857255124 0 -0.0009091078042963006 0.014799310331858356 0 -0.00055550265985269932 0.014429930278249728 0 -0.00098347382700681471 0.014453464857255124 0 -0.0009091078042963006 0.014799310331858356 0 -0.00055550265985269932 0.014429930278249728 0 -0.00047320199709901422 0.014948874595005957 0 -0.0009091078042963006 0.014799310331858356 0 -0.00074091913901943663 0.019799165482856162 0 -0.00027927442715868948 0.019842568763228818 0 -0.00047320199709901422 0.014948874595005957 0 -0.0009091078042963006 0.014799310331858356 0 -0.00085751809953247778 0.015268559416348602 0 -0.0009091078042963006 0.014799310331858356 0 -0.00085751809953247778 0.015268559416348602 0 -0.001257583574721309 0.015001341849802124 0 -0.00085751809953247778 0.015268559416348602 0 -0.001165707858623516 0.01534422334631177 0 -0.0010297752352368067 0.015630441741701591 0 -0.00085751809953247778 0.015268559416348602 0 -0.00076437432468472004 0.015610663007825038 0 -0.00040896079945619063 0.015442892439050908 0 -0.00047320199709901422 0.014948874595005957 0 -0.00085751809953247778 0.015268559416348602 0 -0.00040896079945619063 0.015442892439050908 0 -0.0016288245219953526 0.015056794984440722 0 -0.0015352616129877044 0.014761535030790321 0 -0.001257583574721309 0.015001341849802124 0 -0.0016288245219953526 0.015056794984440722 0 -0.0016941360865611384 0.014828221802138192 0 -0.0015352616129877044 0.014761535030790321 0 -0.0012350079002490979 0.01455789137692896 0 -0.0015352616129877044 0.014761535030790321 0 -0.001257583574721309 0.015001341849802124 0 -0.0012350079002490979 0.01455789137692896 0 -0.0009091078042963006 0.014799310331858356 0 -0.001257583574721309 0.015001341849802124 0 -0.001257583574721309 0.015001341849802124 0 -0.001165707858623516 0.01534422334631177 0 -0.0014237342809923859 0.01530064101319129 0 -0.00085751809953247778 0.015268559416348602 0 -0.001257583574721309 0.015001341849802124 0 -0.001165707858623516 0.01534422334631177 0 -0.001165707858623516 0.01534422334631177 0 -0.0014237342809923859 0.01530064101319129 0 -0.0012995216240906131 0.015533877524333897 0 -0.0016288245219953526 0.015056794984440722 0 -0.001257583574721309 0.015001341849802124 0 -0.0014237342809923859 0.01530064101319129 0 -0.0016822908799641668 0.015324649080033234 0 -0.0016288245219953526 0.015056794984440722 0 -0.0014237342809923859 0.01530064101319129 0 -0.0016822908799641668 0.015324649080033234 0 -0.0014237342809923859 0.01530064101319129 0 -0.0015592264055123591 0.015600797386074793 0 -0.0014237342809923859 0.01530064101319129 0 -0.0015592264055123591 0.015600797386074793 0 -0.0012995216240906131 0.015533877524333897 0 -0.0015592264055123591 0.015600797386074793 0 -0.0012995216240906131 0.015533877524333897 0 -0.0012742222565072586 0.015776686578600686 0 -0.001165707858623516 0.01534422334631177 0 -0.0012995216240906131 0.015533877524333897 0 -0.0010297752352368067 0.015630441741701591 0 -0.0012995216240906131 0.015533877524333897 0 -0.0012742222565072586 0.015776686578600686 0 -0.0010297752352368067 0.015630441741701591 0 -0.0012742222565072586 0.015776686578600686 0 -0.0010297752352368067 0.015630441741701591 0 -0.0010279224138834975 0.015939186587805326 0 -0.0012742222565072586 0.015776686578600686 0 -0.0010279224138834975 0.015939186587805326 0 -0.0012342055521798417 0.016015203995347234 0 -0.0012742222565072586 0.015776686578600686 0 -0.0014880024582310041 0.01593767632891949 0 -0.0012342055521798417 0.016015203995347234 0 -0.0015592264055123591 0.015600797386074793 0 -0.0012742222565072586 0.015776686578600686 0 -0.0014880024582310041 0.01593767632891949 0 -0.0017849782662114283 0.015766266682146052 0 -0.0015592264055123591 0.015600797386074793 0 -0.0014880024582310041 0.01593767632891949 0 -0.00076437432468472004 0.015610663007825038 0 -0.00063117853438507995 0.015832691687246492 0 -0.00040896079945619063 0.015442892439050908 0 -0.00085751809953247778 0.015268559416348602 0 -0.00076437432468472004 0.015610663007825038 0 -0.0010297752352368067 0.015630441741701591 0 -0.00076437432468472004 0.015610663007825038 0 -0.0010297752352368067 0.015630441741701591 0 -0.00085308143100186994 0.015809647940439705 0 -0.0010297752352368067 0.015630441741701591 0 -0.00085308143100186994 0.015809647940439705 0 -0.0010279224138834975 0.015939186587805326 0 -0.00085308143100186994 0.015809647940439705 0 -0.0010279224138834975 0.015939186587805326 0 -0.00079788497135866267 0.016014588073511575 0 -0.00063117853438507995 0.015832691687246492 0 -0.00034958405239460759 0.015908392662006346 0 -0.00060882381526693283 0.016197107235395535 0 -0.00079788497135866267 0.016014588073511575 0 -0.00063117853438507995 0.015832691687246492 0 -0.00060882381526693283 0.016197107235395535 0 -0.00085308143100186994 0.015809647940439705 0 -0.00079788497135866267 0.016014588073511575 0 -0.00063117853438507995 0.015832691687246492 0 -0.00076437432468472004 0.015610663007825038 0 -0.00085308143100186994 0.015809647940439705 0 -0.00063117853438507995 0.015832691687246492 0 -4.4966169093513601e-05 0.024907532762393311 0 -2.9835274075287572e-05 0.02495177546345833 0 -2.4978374188228834e-05 0.024926683906655783 0 -4.4966169093513601e-05 0.024907532762393311 0 -5.36924279925922e-05 0.024927515721369281 0 -2.9835274075287572e-05 0.02495177546345833 0 -5.36924279925922e-05 0.024927515721369281 0 -3.612524062394633e-05 0.024947488465054322 0 -2.9835274075287572e-05 0.02495177546345833 0 -0.00063117853438507995 0.015832691687246492 0 -0.00034958405239460759 0.015908392662006346 0 -0.00040896079945619063 0.015442892439050908 0 -0.00022123502886323845 0.020268621096623106 0 -0.00024844869534756172 0.020203011591209828 0 -4.4966169093513601e-05 0.024907532762393311 0 -5.36924279925922e-05 0.024927515721369281 0 -8.9845841462151197e-05 0.024895733366151866 0 -0.00027927442715868948 0.019842568763228818 0 -0.00024844869534756172 0.020203011591209828 0 -0.00015166577871336296 0.02484662676814341 0 -8.9845841462151197e-05 0.024895733366151866 0 -8.128915089512795e-05 0.024902197761359539 0 -5.36924279925922e-05 0.024927515721369281 0 -8.9845841462151197e-05 0.024895733366151866 0 -8.128915089512795e-05 0.024902197761359539 0 -5.36924279925922e-05 0.024927515721369281 0 -8.128915089512795e-05 0.024902197761359539 0 -3.612524062394633e-05 0.024947488465054322 0 -8.242835411869497e-05 0.024882977447268275 0 -8.128915089512795e-05 0.024902197761359539 0 -3.612524062394633e-05 0.024947488465054322 0 -8.242835411869497e-05 0.024882977447268275 0 -0.00015166577871336296 0.02484662676814341 0 -8.128915089512795e-05 0.024902197761359539 0 -2.3918049234998095e-05 0.024939654859114018 0 -7.1903773840359896e-09 0.024999937831725792 0 -3.612524062394633e-05 0.024947488465054322 0 -8.242835411869497e-05 0.024882977447268275 0 -2.3918049234998095e-05 0.024939654859114018 0 -3.612524062394633e-05 0.024947488465054322 0 -7.1903773840359896e-09 0.024999937831725792 0 -3.612524062394633e-05 0.024947488465054322 0 -2.3815032527396447e-08 0.024999944598382378 0 -3.612524062394633e-05 0.024947488465054322 0 -2.3815032527396447e-08 0.024999944598382378 0 -2.9835274075287572e-05 0.02495177546345833 0 -2.9835274075287572e-05 0.02495177546345833 0 1.1896396263347215e-08 0.024999995649882194 0 -1.6662766524968286e-05 0.024953431124279331 0 -2.3815032527396447e-08 0.024999944598382378 0 -2.9835274075287572e-05 0.02495177546345833 0 1.1896396263347215e-08 0.024999995649882194 0 1.1896396263347215e-08 0.024999995649882194 0 -1.6662766524968286e-05 0.024953431124279331 0 8.651956928541431e-06 0.024975616898634079 0 -1.6662766524968286e-05 0.024953431124279331 0 -2.1656683454808201e-05 0.024926061718543002 0 -2.4978374188228834e-05 0.024926683906655783 0 -2.9835274075287572e-05 0.02495177546345833 0 -1.6662766524968286e-05 0.024953431124279331 0 -2.4978374188228834e-05 0.024926683906655783 0 -1.6662766524968286e-05 0.024953431124279331 0 -1.354942282831854e-05 0.024944185798790007 0 -2.1656683454808201e-05 0.024926061718543002 0 -1.354942282831854e-05 0.024944185798790007 0 8.651956928541431e-06 0.024975616898634079 0 -2.6243132663924702e-05 0.02491280313411183 0 -2.1656683454808201e-05 0.024926061718543002 0 -1.9686989354660365e-05 0.024890923189216933 0 -2.6243132663924702e-05 0.02491280313411183 0 -1.354942282831854e-05 0.024944185798790007 0 -2.1656683454808201e-05 0.024926061718543002 0 -2.6243132663924702e-05 0.02491280313411183 0 -1.6662766524968286e-05 0.024953431124279331 0 -1.354942282831854e-05 0.024944185798790007 0 8.651956928541431e-06 0.024975616898634079 0 7.333362190107023e-05 0.024850654584336308 0 4.6833444210314003e-05 0.025419962704675315 0 1.1896396263347215e-08 0.024999995649882194 0 8.651956928541431e-06 0.024975616898634079 0 -1.2803550975633225e-07 0.024999762109009661 0 -0.00034958405239460759 0.015908392662006346 0 -0.00027969282256372699 0.016358734460524171 0 -0.00060882381526693283 0.016197107235395535 0 -0.00022123502886323845 0.020268621096623106 0 -3.2661971628614444e-05 0.021247397688664144 0 -0.00027969282256372699 0.016358734460524171 0 -0.00050799288019810372 0.01637139420028277 0 -0.00060882381526693283 0.016197107235395535 0 -4.4966169093513601e-05 0.024907532762393311 0 -2.4978374188228834e-05 0.024926683906655783 0 -1.3292000022379836e-05 0.024894285754039038 0 -2.4978374188228834e-05 0.024926683906655783 0 -1.9686989354660365e-05 0.024890923189216933 0 -1.3292000022379836e-05 0.024894285754039038 0 -1.9686989354660365e-05 0.024890923189216933 0 -1.3292000022379836e-05 0.024894285754039038 0 -7.6779000307269721e-06 0.024829691339892573 0 -2.1656683454808201e-05 0.024926061718543002 0 -2.4978374188228834e-05 0.024926683906655783 0 -1.9686989354660365e-05 0.024890923189216933 0 -0.00027969282256372699 0.016358734460524171 0 -0.00019102982772645089 0.016835833231607086 0 -0.00051871295090893184 0.016561113556036886 0 -3.2661971628614444e-05 0.021247397688664144 0 -0.00065139304003466276 0.017968228980529403 0 -0.00027969282256372699 0.016358734460524171 0 -0.00050799288019810372 0.01637139420028277 0 -0.00051871295090893184 0.016561113556036886 0 -0.00065139304003466276 0.017968228980529403 0 -0.0012923537315822542 0.01337126198038306 0 -0.0012737113761940536 0.01095416815745754 0 -0.001353679501309186 0.010891429455790469 0 -0.0013614593293721391 0.010854285775432628 0 -0.0012737113761940536 0.01095416815745754 0 -0.001353679501309186 0.010891429455790469 0 -0.0013717045529754266 0.010901212816781532 0 -0.00019102982772645089 0.016835833231607086 0 -0.00056104454525745422 0.016653376290187989 0 -0.00051871295090893184 0.016561113556036886 0 -0.00065139304003466276 0.017968228980529403 0 -0.001510945803407269 0.01062918250033382 0 0.00048275787312454413 0.024626118491921152 0 0.00033486089645954665 0.02459912403121977 0 0.00026205815735679108 0.024783394166613768 0 -1.9686989354660365e-05 0.024890923189216933 0 -7.6779000307269721e-06 0.024829691339892573 0 -2.6243132663924702e-05 0.02491280313411183 0 -0.00065139304003466276 0.017968228980529403 0 4.6833444210314003e-05 0.025419962704675315 0 -0.00065139304003466276 0.017968228980529403 0 6.9573712911403149e-05 0.021837148250128148 0 -0.0007922435239238393 0.018901561595273154 0 -0.00073828309300793236 0.018941868533854843 0 -0.00077792571605812821 0.018976273078242956 0 -0.00065139304003466276 0.017968228980529403 0 -0.0017063385119665318 0.013517230962056136 0 -0.00073828309300793236 0.018941868533854843 0 -0.00073409201299067515 0.018980306989400113 0 -0.00077792571605812821 0.018976273078242956 0 -0.0020069966494158584 0.011265086933309045 0 -0.0019131231226981568 0.011051789426953203 0 -0.0020401582293723573 0.011023318847777878 0 -0.0020069966494158584 0.011265086933309045 0 -0.0019131231226981568 0.011051789426953203 0 -0.0018285481282267944 0.011152129688249964 0 3.4742558470640675e-09 0.025000010942347002 0 3.298810384101575e-06 0.0250002763830624 0 7.2659094066037025e-10 0.024999985105905079 0 8.651956928541431e-06 0.024975616898634079 0 4.2593771337500033e-05 0.02474027936969838 0 0.00026205815735679108 0.024783394166613768 0 8.651956928541431e-06 0.024975616898634079 0 -1.2803550975633225e-07 0.024999762109009661 0 4.2593771337500033e-05 0.02474027936969838 0 1.0761447094515818e-07 0.024999771800733647 0 -0.00012614551815857646 0.025058289745161499 0 4.2593771337500033e-05 0.02474027936969838 0 0.00026205815735679108 0.024783394166613768 0 0.00020105259579088008 0.024659829359696406 0 0.00033486089645954665 0.02459912403121977 0 0.00026205815735679108 0.024783394166613768 0 0.00020105259579088008 0.024659829359696406 0 4.2593771337500033e-05 0.02474027936969838 0 0.00020105259579088008 0.024659829359696406 0 0.00015390693331475327 0.024514578801787982 0 1.8608592862955203e-05 0.024994488988740043 0 1.463615543897044e-05 0.024995191465066624 0 5.5276629269224562e-05 0.024987869829226288 0 -0.00069338168137690636 0.018985425142319916 0 -0.00073409201299067515 0.018980306989400113 0 -0.00072873553629302192 0.019017918734773279 0 -0.00033938692128500023 0.022619034207441005 0 -0.00045568825353778733 0.022277266569288991 0 -0.00033938692128500023 0.022619034207441005 0 -7.8662271823270896e-05 0.02291578712903743 0 6.9573712911403149e-05 0.021837148250128148 0 -0.00033938692128500023 0.022619034207441005 0 -0.00073828309300793236 0.018941868533854843 0 -0.00069338168137690636 0.018985425142319916 0 -0.00073409201299067515 0.018980306989400113 0 0.00033486089645954665 0.02459912403121977 0 0.00020105259579088008 0.024659829359696406 0 0.00015390693331475327 0.024514578801787982 0 1.463615543897044e-05 0.024995191465066624 0 7.2659094066037025e-10 0.024999985105905079 0 1.8146714352082833e-05 0.024994598555090564 0 3.298810384101575e-06 0.0250002763830624 0 1.4942279104265826e-05 0.024993487820635058 0 1.463615543897044e-05 0.024995191465066624 0 -0.00012614551815857646 0.025058289745161499 0 -0.00033938692128500023 0.022619034207441005 0 3.298810384101575e-06 0.0250002763830624 0 1.463615543897044e-05 0.024995191465066624 0 7.2659094066037025e-10 0.024999985105905079 0 7.2659094066037025e-10 0.024999985105905079 0 1.8146714352082833e-05 0.024994598555090564 0 6.041949939310409e-08 0.025000024583896881 0 1.8146714352082833e-05 0.024994598555090564 0 6.041949939310409e-08 0.025000024583896881 0 3.6351113144470895e-05 0.024969326587195306 0 3.6351113144470895e-05 0.024969326587195306 0 5.5276629269224562e-05 0.024987869829226288 0 0.00012538345403955637 0.024948810555768169 0 1.8146714352082833e-05 0.024994598555090564 0 3.6351113144470895e-05 0.024969326587195306 0 5.5276629269224562e-05 0.024987869829226288 0 1.463615543897044e-05 0.024995191465066624 0 1.8146714352082833e-05 0.024994598555090564 0 5.5276629269224562e-05 0.024987869829226288 0 -0.0017063385119665318 0.013517230962056136 0 -0.00043609044730406183 0.019354471504610452 0 -0.0020401582293723573 0.011023318847777878 0 -0.0019471149969871354 0.010884717642540146 0 -0.0020574614388296354 0.010873899401737941 0 -0.00072873553629302192 0.019017918734773279 0 -0.00077792571605812821 0.018976273078242956 0 -0.0007574687320269592 0.019061424354426947 0 -0.00073409201299067515 0.018980306989400113 0 -0.00072873553629302192 0.019017918734773279 0 -0.00077792571605812821 0.018976273078242956 0 -0.0019131231226981568 0.011051789426953203 0 -0.0019471149969871354 0.010884717642540146 0 -0.0018095333220580784 0.010910466008379079 0 -0.0019131231226981568 0.011051789426953203 0 -0.0020401582293723573 0.011023318847777878 0 -0.0019471149969871354 0.010884717642540146 0 -0.0019471149969871354 0.010884717642540146 0 -0.0020574614388296354 0.010873899401737941 0 -0.0019918242252598929 0.010773727227637208 0 -0.00045568825353778733 0.022277266569288991 0 -0.00043609044730406183 0.019354471504610452 0 0.00027654172996588656 0.023799834991756127 0 0.00030914378811160159 0.024080938415334607 0 0.00020217861068020005 0.024060872666628975 0 -0.00043609044730406183 0.019354471504610452 0 0.00039969091375151094 0.025507804652926715 0 -0.00043609044730406183 0.019354471504610452 0 -0.00087873492846840323 0.017033061352125602 0 -0.0020574614388296354 0.010873899401737941 0 -0.0019918242252598929 0.010773727227637208 0 -0.0020202750923098995 0.010761424343998906 0 -0.0019918242252598929 0.010773727227637208 0 -0.0020202750923098995 0.010761424343998906 0 -0.0019775983818281608 0.010708642684360364 0 -0.00087873492846840323 0.017033061352125602 0 -0.000885842594637317 0.01741887521000161 0 0.00020217861068020005 0.024060872666628975 0 0.00022398610266433232 0.024192682803316674 0 0.0003038659664321278 0.02405996186468435 0 0.00039969091375151094 0.025507804652926715 0 0.00014757736616511814 0.024035482405462057 0 0.00030914378811160159 0.024080938415334607 0 0.00020217861068020005 0.024060872666628975 0 0.00022398610266433232 0.024192682803316674 0 0.00030914378811160159 0.024080938415334607 0 0.00020717167125520252 0.024444876559173174 0 0.00022398610266433232 0.024192682803316674 0 2.0243363554469162e-05 0.024893169838189278 0 -4.8850146274107411e-05 0.024760875898920072 0 0.00020717167125520252 0.024444876559173174 0 0.00018398435581285232 0.024896222356188203 0 2.0243363554469162e-05 0.024893169838189278 0 0.00020717167125520252 0.024444876559173174 0 2.0243363554469162e-05 0.024893169838189278 0 -1.3031623110959278e-07 0.024999744801912915 0 -4.8850146274107411e-05 0.024760875898920072 0 6.041949939310409e-08 0.025000024583896881 0 3.6351113144470895e-05 0.024969326587195306 0 -1.3031623110959278e-07 0.024999744801912915 0 3.6351113144470895e-05 0.024969326587195306 0 2.0243363554469162e-05 0.024893169838189278 0 -1.3031623110959278e-07 0.024999744801912915 0 3.6351113144470895e-05 0.024969326587195306 0 0.00012538345403955637 0.024948810555768169 0 0.00018398435581285232 0.024896222356188203 0 3.6351113144470895e-05 0.024969326587195306 0 0.00018398435581285232 0.024896222356188203 0 2.0243363554469162e-05 0.024893169838189278 0 -0.0018836659668720144 0.010624392898061653 0 -0.0019442485981830174 0.010700765030533056 0 -0.0018388119034799856 0.010654827052799357 0 -0.0018836659668720144 0.010624392898061653 0 -0.0018388119034799856 0.010654827052799357 0 -0.0017420860939636493 0.01050641678764974 0 -0.0018508257573713368 0.010537601438251892 0 -0.0017420860939636493 0.01050641678764974 0 -0.0017874720510773594 0.010419432657392872 0 -0.0018836659668720144 0.010624392898061653 0 -0.0018508257573713368 0.010537601438251892 0 -0.0019364313363038259 0.010619145937918864 0 -0.0018836659668720144 0.010624392898061653 0 -0.0018508257573713368 0.010537601438251892 0 -0.0017420860939636493 0.01050641678764974 0 -0.0018836659668720144 0.010624392898061653 0 -0.0019364313363038259 0.010619145937918864 0 -0.0019775983818281608 0.010708642684360364 0 -0.0020202750923098995 0.010761424343998906 0 -0.0019775983818281608 0.010708642684360364 0 -0.0020312965148666985 0.010651690894036546 0 -0.0019364313363038259 0.010619145937918864 0 -0.0019775983818281608 0.010708642684360364 0 -0.0020312965148666985 0.010651690894036546 0 -0.0019781143530815995 0.010757485098762521 0 -0.0018347832814099064 0.010713857222571592 0 -0.0019918242252598929 0.010773727227637208 0 -0.0019775983818281608 0.010708642684360364 0 -0.0019442485981830174 0.010700765030533056 0 -0.0018836659668720144 0.010624392898061653 0 -0.0019775983818281608 0.010708642684360364 0 -0.0019442485981830174 0.010700765030533056 0 -0.001722118496144343 0.010717617363194811 0 -0.0016397592802378715 0.010844004356471077 0 -0.0015115804779243141 0.010695078922165206 0 -0.0018347832814099064 0.010713857222571592 0 -0.0016762932967589867 0.010674159425488701 0 -0.0019471149969871354 0.010884717642540146 0 -0.0019918242252598929 0.010773727227637208 0 -0.001722118496144343 0.010717617363194811 0 -0.0019471149969871354 0.010884717642540146 0 -0.001722118496144343 0.010717617363194811 0 -0.0018095333220580784 0.010910466008379079 0 -0.0018095333220580784 0.010910466008379079 0 -0.0016397592802378715 0.010844004356471077 0 -0.0017678432441772111 0.011005494561068996 0 -0.001722118496144343 0.010717617363194811 0 -0.0018095333220580784 0.010910466008379079 0 -0.0016397592802378715 0.010844004356471077 0 -0.0016397592802378715 0.010844004356471077 0 -0.0015115804779243141 0.010695078922165206 0 -0.0014898503214580616 0.010821984759548774 0 -0.0016762932967589867 0.010674159425488701 0 -0.0015612050220504077 0.010629555300757884 0 -0.0018388119034799856 0.010654827052799357 0 -0.0017131122103540338 0.010618271923857132 0 -0.0017420860939636493 0.01050641678764974 0 -0.0015115804779243141 0.010695078922165206 0 -0.0014384106704617705 0.010710979464684437 0 -0.00141405821561917 0.010641143867784288 0 -0.0015115804779243141 0.010695078922165206 0 -0.0014384106704617705 0.010710979464684437 0 -0.0014898503214580616 0.010821984759548774 0 -0.0014384106704617705 0.010710979464684437 0 -0.0014608706231334738 0.010754950742590953 0 -0.0014898503214580616 0.010821984759548774 0 -0.0014384106704617705 0.010710979464684437 0 -0.0014608706231334738 0.010754950742590953 0 -0.001427055649853583 0.010692567894118507 0 -0.0014898503214580616 0.010821984759548774 0 -0.0014642182107612901 0.010792284074184711 0 -0.0014308367455266662 0.010851791592654272 0 -0.0014822278650305179 0.010843430722530238 0 -0.0015793060432833714 0.01095879112259889 0 -0.0014608706231334738 0.010754950742590953 0 -0.0014898503214580616 0.010821984759548774 0 -0.0014642182107612901 0.010792284074184711 0 -0.0014608706231334738 0.010754950742590953 0 -0.0014602489893234347 0.010757143705731761 0 -0.001427055649853583 0.010692567894118507 0 -0.0014608706231334738 0.010754950742590953 0 -0.0014642182107612901 0.010792284074184711 0 -0.0014602489893234347 0.010757143705731761 0 -0.0015793060432833714 0.01095879112259889 0 -0.001510945803407269 0.01062918250033382 0 -0.0017678432441772111 0.011005494561068996 0 -0.001655327126398685 0.011013846401950382 0 -0.0018285481282267944 0.011152129688249964 0 -0.0019131231226981568 0.011051789426953203 0 -0.0018095333220580784 0.010910466008379079 0 -0.0017678432441772111 0.011005494561068996 0 -0.0019131231226981568 0.011051789426953203 0 -0.0017678432441772111 0.011005494561068996 0 -0.0018285481282267944 0.011152129688249964 0 -0.0016397592802378715 0.010844004356471077 0 -0.0017678432441772111 0.011005494561068996 0 -0.001655327126398685 0.011013846401950382 0 -0.0016397592802378715 0.010844004356471077 0 -0.0014898503214580616 0.010821984759548774 0 -0.001655327126398685 0.011013846401950382 0 -0.0014642182107612901 0.010792284074184711 0 -0.0014308367455266662 0.010851791592654272 0 -0.001438045011355388 0.010816197868179708 0 -0.0014308367455266662 0.010851791592654272 0 -0.001438045011355388 0.010816197868179708 0 -0.0014123475008476795 0.010844761960242222 0 -0.001438045011355388 0.010816197868179708 0 -0.0014123475008476795 0.010844761960242222 0 -0.0014158298228603998 0.010829621234460013 0 -0.0014123475008476795 0.010844761960242222 0 -0.0014000117854404341 0.010841704795743571 0 -0.0014158298228603998 0.010829621234460013 0 -0.0014308367455266662 0.010851791592654272 0 -0.0014123475008476795 0.010844761960242222 0 -0.0013898857921476862 0.010869254660142586 0 -0.0014308367455266662 0.010851791592654272 0 -0.0013898857921476862 0.010869254660142586 0 -0.0013717045529754266 0.010901212816781532 0 -0.0014123475008476795 0.010844761960242222 0 -0.0013898857921476862 0.010869254660142586 0 -0.0014000117854404341 0.010841704795743571 0 -0.0013898857921476862 0.010869254660142586 0 -0.0014000117854404341 0.010841704795743571 0 -0.0013614593293721391 0.010854285775432628 0 -0.0013898857921476862 0.010869254660142586 0 -0.001353679501309186 0.010891429455790469 0 -0.0013614593293721391 0.010854285775432628 0 -0.0013898857921476862 0.010869254660142586 0 -0.001353679501309186 0.010891429455790469 0 -0.0013717045529754266 0.010901212816781532 0 -0.00056104454525745422 0.016653376290187989 0 -0.00051871295090893184 0.016561113556036886 0 -0.0010566712625503882 0.016377646914487048 0 -0.00041170324797705157 0.016713580948022357 0 -0.0011079605034344576 0.014853479837841162 0 -0.00051871295090893184 0.016561113556036886 0 -0.00072301422341930889 0.016405616435255004 0 -0.00087836016053522521 0.016446773354651969 0 -0.0014000117854404341 0.010841704795743571 0 -0.0013614593293721391 0.010854285775432628 0 -0.0014214599094617901 0.010814137727854393 0 -0.0012923537315822542 0.01337126198038306 0 -0.0011079605034344576 0.014853479837841162 0 -0.00062430201289935907 0.016368753905051683 0 -0.00051871295090893184 0.016561113556036886 0 -0.00072301422341930889 0.016405616435255004 0 -0.00050799288019810372 0.01637139420028277 0 -0.00062430201289935907 0.016368753905051683 0 -0.00051871295090893184 0.016561113556036886 0 -0.00062430201289935907 0.016368753905051683 0 -0.00072301422341930889 0.016405616435255004 0 -0.00072695930154805031 0.016301730206414889 0 -0.00072301422341930889 0.016405616435255004 0 -0.00086600898929882323 0.01633717499717658 0 -0.00072695930154805031 0.016301730206414889 0 -0.00088101889376826308 0.016442969224536131 0 -0.00095602875780911607 0.016400981643408058 0 -0.0013331992183757344 0.016297418750440173 0 -0.001438045011355388 0.010816197868179708 0 -0.0014214599094617901 0.010814137727854393 0 -0.0014622764410024383 0.010785935566302968 0 -0.00072301422341930889 0.016405616435255004 0 -0.00086600898929882323 0.01633717499717658 0 -0.00087836016053522521 0.016446773354651969 0 -0.00086600898929882323 0.01633717499717658 0 -0.00095602875780911607 0.016400981643408058 0 -0.00092646789384710022 0.016243308194832155 0 -0.0011079605034344576 0.014853479837841162 0 -0.00082102547811686085 0.015245511033546317 0 -0.00086600898929882323 0.01633717499717658 0 -0.00087836016053522521 0.016446773354651969 0 -0.00095602875780911607 0.016400981643408058 0 -0.0014000117854404341 0.010841704795743571 0 -0.0014214599094617901 0.010814137727854393 0 -0.0014158298228603998 0.010829621234460013 0 -0.001438045011355388 0.010816197868179708 0 -0.0014214599094617901 0.010814137727854393 0 -0.0014158298228603998 0.010829621234460013 0 -0.00095602875780911607 0.016400981643408058 0 -0.0010720190572015508 0.016175633567056605 0 -0.00092646789384710022 0.016243308194832155 0 -0.0010720190572015508 0.016175633567056605 0 -0.00092574541715644725 0.016103223152870168 0 -0.00092646789384710022 0.016243308194832155 0 -0.0010279224138834975 0.015939186587805326 0 -0.0010720190572015508 0.016175633567056605 0 -0.00092574541715644725 0.016103223152870168 0 -0.0010279224138834975 0.015939186587805326 0 -0.00079788497135866267 0.016014588073511575 0 -0.00092574541715644725 0.016103223152870168 0 -0.00079788497135866267 0.016014588073511575 0 -0.00092574541715644725 0.016103223152870168 0 -0.0008121249572838994 0.016199265396269098 0 -0.00092574541715644725 0.016103223152870168 0 -0.0008121249572838994 0.016199265396269098 0 -0.00092646789384710022 0.016243308194832155 0 -0.00086600898929882323 0.01633717499717658 0 -0.0008121249572838994 0.016199265396269098 0 -0.00092646789384710022 0.016243308194832155 0 -0.00086600898929882323 0.01633717499717658 0 -0.0008121249572838994 0.016199265396269098 0 -0.00072695930154805031 0.016301730206414889 0 -0.00062430201289935907 0.016368753905051683 0 -0.00072695930154805031 0.016301730206414889 0 -0.00060882381526693283 0.016197107235395535 0 -0.0008121249572838994 0.016199265396269098 0 -0.00072695930154805031 0.016301730206414889 0 -0.00060882381526693283 0.016197107235395535 0 -0.00079788497135866267 0.016014588073511575 0 -0.0008121249572838994 0.016199265396269098 0 -0.00060882381526693283 0.016197107235395535 0 -0.00050799288019810372 0.01637139420028277 0 -0.00062430201289935907 0.016368753905051683 0 -0.00060882381526693283 0.016197107235395535 0 -0.0014602489893234347 0.010757143705731761 0 -0.0014622764410024383 0.010785935566302968 0 -0.0014479929606501425 0.010771956170606509 0 -0.0014642182107612901 0.010792284074184711 0 -0.0014602489893234347 0.010757143705731761 0 -0.0014622764410024383 0.010785935566302968 0 -0.0011079605034344576 0.014853479837841162 0 -0.0014224656542630356 0.013398183987808981 0 -0.0014642182107612901 0.010792284074184711 0 -0.001438045011355388 0.010816197868179708 0 -0.0014622764410024383 0.010785935566302968 0 -0.00095602875780911607 0.016400981643408058 0 -0.0010720190572015508 0.016175633567056605 0 -0.0013331992183757344 0.016297418750440173 0 -0.0010720190572015508 0.016175633567056605 0 -0.0013331992183757344 0.016297418750440173 0 -0.0012342055521798417 0.016015203995347234 0 -0.0014880024582310041 0.01593767632891949 0 -0.0013331992183757344 0.016297418750440173 0 -0.0012342055521798417 0.016015203995347234 0 -0.0010279224138834975 0.015939186587805326 0 -0.0010720190572015508 0.016175633567056605 0 -0.0012342055521798417 0.016015203995347234 0 -0.0014880024582310041 0.01593767632891949 0 -0.0013331992183757344 0.016297418750440173 0 -0.0017762612839792116 0.016147350816376915 0 -0.0014224656542630356 0.013398183987808981 0 -0.0016727436618561649 0.013584629819239266 0 -0.0017849782662114283 0.015766266682146052 0 -0.0014880024582310041 0.01593767632891949 0 -0.0017762612839792116 0.016147350816376915 0 -0.0014602489893234347 0.010757143705731761 0 -0.0014479929606501425 0.010771956170606509 0 -0.0014290012384431798 0.010713204646608973 0 -0.0014479929606501425 0.010771956170606509 0 -0.0014290012384431798 0.010713204646608973 0 -0.0013782707910503897 0.010686897984464068 0 -0.0014229083385161529 0.010167688445367001 0 -0.0012881598181918256 0.012287065580388416 0 -0.0020050726182864304 0.015845083915286787 0 -0.0017762612839792116 0.016147350816376915 0 -0.0021925815527832557 0.016004178726044385 0 -0.0016727436618561649 0.013584629819239266 0 -0.0012881598181918256 0.012287065580388416 0 -0.0014479929606501425 0.010771956170606509 0 -0.0013782707910503897 0.010686897984464068 0 -0.0013607435059645654 0.01078962831386223 0 -0.0012881598181918256 0.012287065580388416 0 -0.0011868843991422223 0.0098569551040197205 0 -0.00096029584006480993 0.0086900359567987293 0 -0.0011587983882113575 0.0087905099149465666 0 -0.00097513529528015625 0.0090585535364185593 0 -0.0011868843991422223 0.0098569551040197205 0 -0.0011232308640774357 0.0098541321198560173 0 -0.0013719448089526186 0.010779412763214263 0 -0.0013231683013998591 0.010791671125091695 0 -0.0013366667498897178 0.010705914119854297 0 -0.00096029584006480993 0.0086900359567987293 0 -0.0013124248341069584 0.0086652800655658176 0 -0.0011587983882113575 0.0087905099149465666 0 -0.0011868843991422223 0.0098569551040197205 0 -0.0013716401922639757 0.0086030051581427232 0 -0.0013124248341069584 0.0086652800655658176 0 -0.0011587983882113575 0.0087905099149465666 0 -0.0013288449736169061 0.0088170745546834045 0 -0.0011587983882113575 0.0087905099149465666 0 -0.0013288449736169061 0.0088170745546834045 0 -0.00097513529528015625 0.0090585535364185593 0 -0.0013288449736169061 0.0088170745546834045 0 -0.00097513529528015625 0.0090585535364185593 0 -0.0012889369192750411 0.0091439259238087437 0 -0.0013782707910503897 0.010686897984464068 0 -0.0013719448089526186 0.010779412763214263 0 -0.0013366667498897178 0.010705914119854297 0 -0.0013231683013998591 0.010791671125091695 0 -0.0012585908713605889 0.0106476871164762 0 -0.0013366667498897178 0.010705914119854297 0 -0.0012585908713605889 0.0106476871164762 0 -0.0013366667498897178 0.010705914119854297 0 -0.0013499056038064482 0.010604739989934112 0 -0.0013782707910503897 0.010686897984464068 0 -0.0013366667498897178 0.010705914119854297 0 -0.0013499056038064482 0.010604739989934112 0 -0.0012585908713605889 0.0106476871164762 0 -0.0013499056038064482 0.010604739989934112 0 -0.0013183141895558199 0.010463837558695545 0 -0.0013499056038064482 0.010604739989934112 0 -0.0013183141895558199 0.010463837558695545 0 -0.0013455105352515836 0.010533599316369706 0 -0.0013499056038064482 0.010604739989934112 0 -0.0013455105352515836 0.010533599316369706 0 -0.0013912998840447006 0.010635164299793932 0 -0.0012585908713605889 0.0106476871164762 0 -0.0013183141895558199 0.010463837558695545 0 -0.0012794653999792555 0.010239771348723543 0 -0.00097513529528015625 0.0090585535364185593 0 -0.0012029462566493069 0.009782816751970588 0 -0.0012794653999792555 0.010239771348723543 0 -0.0011232308640774357 0.0098541321198560173 0 -0.0012858126989744715 0.010243927574252649 0 -0.00097513529528015625 0.0090585535364185593 0 -0.0012889369192750411 0.0091439259238087437 0 -0.0012029462566493069 0.009782816751970588 0 -0.0012889369192750411 0.0091439259238087437 0 -0.0012029462566493069 0.009782816751970588 0 -0.0014313306387918764 0.0093063618993393764 0 -0.0012794653999792555 0.010239771348723543 0 -0.0013145798909630811 0.010452377234741636 0 -0.0013777272341647913 0.010525319305711133 0 -0.0013183141895558199 0.010463837558695545 0 -0.0012794653999792555 0.010239771348723543 0 -0.0013145798909630811 0.010452377234741636 0 -0.0013455105352515836 0.010533599316369706 0 -0.0013145798909630811 0.010452377234741636 0 -0.001373104534891484 0.010602262606776049 0 -0.0013183141895558199 0.010463837558695545 0 -0.0013455105352515836 0.010533599316369706 0 -0.0013145798909630811 0.010452377234741636 0 -0.0013455105352515836 0.010533599316369706 0 -0.001373104534891484 0.010602262606776049 0 -0.0013912998840447006 0.010635164299793932 0 -0.001373104534891484 0.010602262606776049 0 -0.001427055649853583 0.010692567894118507 0 -0.0013912998840447006 0.010635164299793932 0 -0.0014384106704617705 0.010710979464684437 0 -0.001373104534891484 0.010602262606776049 0 -0.001427055649853583 0.010692567894118507 0 -0.0014602489893234347 0.010757143705731761 0 -0.0014290012384431798 0.010713204646608973 0 -0.001427055649853583 0.010692567894118507 0 -0.0014290012384431798 0.010713204646608973 0 -0.001427055649853583 0.010692567894118507 0 -0.0013912998840447006 0.010635164299793932 0 -0.0014290012384431798 0.010713204646608973 0 -0.0013782707910503897 0.010686897984464068 0 -0.0013912998840447006 0.010635164299793932 0 -0.0013782707910503897 0.010686897984464068 0 -0.0013499056038064482 0.010604739989934112 0 -0.0013912998840447006 0.010635164299793932 0 -0.0012418875317267454 0.0085425973347644339 0 -0.0013505060350754564 0.0085798038537483398 0 -0.0014028270367516351 0.0086766870561588161 0 -0.0014016304321318215 0.0085887730530639153 0 -0.0013505060350754564 0.0085798038537483398 0 -0.0010921244782301958 0.0082902482111568195 0 -0.0012418875317267454 0.0085425973347644339 0 -0.0013505060350754564 0.0085798038537483398 0 -0.0010921244782301958 0.0082902482111568195 0 -0.0014773176596184553 0.0086526790942528953 0 -0.0014016304321318215 0.0085887730530639153 0 -0.0014663025792561095 0.0086856854273948958 0 -0.0014016304321318215 0.0085887730530639153 0 -0.0013505060350754564 0.0085798038537483398 0 -0.0014663025792561095 0.0086856854273948958 0 -0.0013505060350754564 0.0085798038537483398 0 -0.0014663025792561095 0.0086856854273948958 0 -0.0014028270367516351 0.0086766870561588161 0 -0.0014663025792561095 0.0086856854273948958 0 -0.0014028270367516351 0.0086766870561588161 0 -0.0015931784764878316 0.0088590249480377525 0 -0.0014663025792561095 0.0086856854273948958 0 -0.0015931784764878316 0.0088590249480377525 0 -0.0014865555007033929 0.0087461903339789808 0 -0.0014347685278248003 0.0086638307512110074 0 -0.0014773176596184553 0.0086526790942528953 0 -0.0014865555007033929 0.0087461903339789808 0 -0.0014773176596184553 0.0086526790942528953 0 -0.0014663025792561095 0.0086856854273948958 0 -0.0014865555007033929 0.0087461903339789808 0 -0.0014347685278248003 0.0086638307512110074 0 -0.0013124248341069584 0.0086652800655658176 0 -0.0013288449736169061 0.0088170745546834045 0 -0.0014347685278248003 0.0086638307512110074 0 -0.0013288449736169061 0.0088170745546834045 0 -0.0014865555007033929 0.0087461903339789808 0 -0.0013288449736169061 0.0088170745546834045 0 -0.0012889369192750411 0.0091439259238087437 0 -0.0014606546221050478 0.0089812949437982209 0 -0.0015931784764878316 0.0088590249480377525 0 -0.0014865555007033929 0.0087461903339789808 0 -0.0014606546221050478 0.0089812949437982209 0 -0.0013288449736169061 0.0088170745546834045 0 -0.0014865555007033929 0.0087461903339789808 0 -0.0014606546221050478 0.0089812949437982209 0 -0.0015931784764878316 0.0088590249480377525 0 -0.0014606546221050478 0.0089812949437982209 0 -0.0015415771573143808 0.0091324051209314486 0 -0.0014606546221050478 0.0089812949437982209 0 -0.0014313306387918764 0.0093063618993393764 0 -0.0015415771573143808 0.0091324051209314486 0 -0.0012889369192750411 0.0091439259238087437 0 -0.0014606546221050478 0.0089812949437982209 0 -0.0014313306387918764 0.0093063618993393764 0 -0.0012029462566493069 0.009782816751970588 0 -0.0012794653999792555 0.010239771348723543 0 -0.0017617694886148505 0.010032923982273494 0 -0.0012029462566493069 0.009782816751970588 0 -0.0014313306387918764 0.0093063618993393764 0 -0.0016979265507528866 0.0093194406511159476 0 -0.0012504068023081007 0.009828406661185167 0 -0.0015797945870683397 0.0092642894265072186 0 -0.0014313306387918764 0.0093063618993393764 0 -0.0015415771573143808 0.0091324051209314486 0 -0.0016979265507528866 0.0093194406511159476 0 -0.0012794653999792555 0.010239771348723543 0 -0.0017617694886148505 0.010032923982273494 0 -0.00153315001862064 0.010489889672039983 0 -0.0012794653999792555 0.010239771348723543 0 -0.00153315001862064 0.010489889672039983 0 -0.0013777272341647913 0.010525319305711133 0 -0.0014363936880674351 0.0089621489473459669 0 -0.0013588229816955098 0.008846670989273055 0 -0.0013153631528148215 0.0090131439964259933 0 -0.0014363936880674351 0.0089621489473459669 0 -0.0013588229816955098 0.008846670989273055 0 -0.0015041571809754804 0.0088598224906316584 0 -0.0015797945870683397 0.0092642894265072186 0 -0.0014218432162464707 0.0097752854717268675 0 -0.0015797945870683397 0.0092642894265072186 0 -0.0013978926278412416 0.00867021857114335 0 -0.0014028270367516351 0.0086766870561588161 0 -0.0015931784764878316 0.0088590249480377525 0 -0.0016009760333661951 0.0086281819461110146 0 -0.0016297852929873201 0.0088291822912968925 0 -0.0015797945870683397 0.0092642894265072186 0 -0.0015931784764878316 0.0088590249480377525 0 -0.0015415771573143808 0.0091324051209314486 0 -0.0016979265507528866 0.0093194406511159476 0 -0.0012418875317267454 0.0085425973347644339 0 -0.0014028270367516351 0.0086766870561588161 0 -0.0013444031336184339 0.0085581972430908634 0 -0.0014028270367516351 0.0086766870561588161 0 -0.0016009760333661951 0.0086281819461110146 0 -0.0013444031336184339 0.0085581972430908634 0 -0.0014363936880674351 0.0089621489473459669 0 -0.0015041571809754804 0.0088598224906316584 0 -0.0015402048532222549 0.0089424441590643805 0 -0.0015041571809754804 0.0088598224906316584 0 -0.0015402048532222549 0.0089424441590643805 0 -0.0015734781072377819 0.008862289972101707 0 -0.0015402048532222549 0.0089424441590643805 0 -0.0016075285362016631 0.0089139232874690961 0 -0.0015734781072377819 0.008862289972101707 0 -0.0012418875317267454 0.0085425973347644339 0 -0.0013444031336184339 0.0085581972430908634 0 -0.0012384275313943639 0.0085939523879039244 0 -0.0013978926278412416 0.00867021857114335 0 -0.0014233234693827512 0.0087312318885772473 0 -0.0015850929610389162 0.0090719124520127811 0 -0.0016052910439228892 0.0093771485385649323 0 -0.0016757501166586399 0.0091525534778276671 0 -0.0015402048532222549 0.0089424441590643805 0 -0.0015850929610389162 0.0090719124520127811 0 -0.0016075285362016631 0.0089139232874690961 0 -0.0015850929610389162 0.0090719124520127811 0 -0.0016075285362016631 0.0089139232874690961 0 -0.0016757501166586399 0.0091525534778276671 0 -0.0015402048532222549 0.0089424441590643805 0 -0.0015850929610389162 0.0090719124520127811 0 -0.0015038257140105298 0.0091071798540745263 0 -0.0014363936880674351 0.0089621489473459669 0 -0.0015402048532222549 0.0089424441590643805 0 -0.0015038257140105298 0.0091071798540745263 0 -0.0015850929610389162 0.0090719124520127811 0 -0.0015038257140105298 0.0091071798540745263 0 -0.0016052910439228892 0.0093771485385649323 0 -0.0013937949681904482 0.009137174790558672 0 -0.0012758886217295849 0.0092468388355339114 0 -0.0014388324327079152 0.0093406029009738545 0 -0.0015038257140105298 0.0091071798540745263 0 -0.0013937949681904482 0.009137174790558672 0 -0.0014388324327079152 0.0093406029009738545 0 -0.0013937949681904482 0.009137174790558672 0 -0.0013153631528148215 0.0090131439964259933 0 -0.0012758886217295849 0.0092468388355339114 0 -0.0014363936880674351 0.0089621489473459669 0 -0.0013937949681904482 0.009137174790558672 0 -0.0013153631528148215 0.0090131439964259933 0 -0.0014363936880674351 0.0089621489473459669 0 -0.0015038257140105298 0.0091071798540745263 0 -0.0013937949681904482 0.009137174790558672 0 -0.0014218432162464707 0.0097752854717268675 0 -0.0013420097675045574 0.009869133771854605 0 -0.00153315001862064 0.010489889672039983 0 -0.0013916734713936417 0.010519315949763536 0 -0.0013777272341647913 0.010525319305711133 0 -0.0013420097675045574 0.009869133771854605 0 -0.0013290215760077626 0.0099552303989914864 0 -0.0013916734713936417 0.010519315949763536 0 -0.0013495660270519834 0.010360168585950279 0 -0.0014768570522556994 0.010488818704838155 0 -0.0012758886217295849 0.0092468388355339114 0 -0.0012878450415729776 0.0095638084512982783 0 -0.0014388324327079152 0.0093406029009738545 0 -0.0013290215760077626 0.0099552303989914864 0 -0.0013741986195842685 0.0099833187820411035 0 -0.0012878450415729776 0.0095638084512982783 0 -0.0015131077569331315 0.0096598897856595735 0 -0.0014388324327079152 0.0093406029009738545 0 -0.0015038257140105298 0.0091071798540745263 0 -0.0014388324327079152 0.0093406029009738545 0 -0.0016052910439228892 0.0093771485385649323 0 -0.0015131077569331315 0.0096598897856595735 0 -0.0014388324327079152 0.0093406029009738545 0 -0.0016052910439228892 0.0093771485385649323 0 -0.0015090722130934515 0.0096350760232006005 0 -0.0016020062793768368 0.0094101170985160919 0 -0.0015131077569331315 0.0096598897856595735 0 -0.0016121524473430974 0.0094236373168380058 0 -0.0016686376646436168 0.0095877561543907617 0 -0.0016121524473430974 0.0094236373168380058 0 -0.0016686376646436168 0.0095877561543907617 0 -0.001770596824584284 0.0094307106146030439 0 -0.0016121524473430974 0.0094236373168380058 0 -0.001770596824584284 0.0094307106146030439 0 -0.0017251030061484413 0.0092400515911346525 0 -0.0016020062793768368 0.0094101170985160919 0 -0.0017335101022159258 0.0092013067643211405 0 -0.0017131122103540338 0.010618271923857132 0 -0.0015556572756645496 0.010593282722989166 0 -0.0016472860485330716 0.010510879045000202 0 -0.0014384106704617705 0.010710979464684437 0 -0.001373104534891484 0.010602262606776049 0 -0.00141405821561917 0.010641143867784288 0 -0.001373104534891484 0.010602262606776049 0 -0.00141405821561917 0.010641143867784288 0 -0.0013376167753667101 0.010560858514688324 0 -0.0015612050220504077 0.010629555300757884 0 -0.0014481065877690403 0.01057648202378002 0 -0.0014481065877690403 0.01057648202378002 0 -0.0013878646831025248 0.010535298887400766 0 -0.0013145798909630811 0.010452377234741636 0 -0.001373104534891484 0.010602262606776049 0 -0.0013376167753667101 0.010560858514688324 0 -0.0013145798909630811 0.010452377234741636 0 -0.0013376167753667101 0.010560858514688324 0 -0.0013777272341647913 0.010525319305711133 0 -0.0013916734713936417 0.010519315949763536 0 -0.0013777272341647913 0.010525319305711133 0 -0.0014768570522556994 0.010488818704838155 0 -0.0015556572756645496 0.010593282722989166 0 -0.0014768570522556994 0.010488818704838155 0 -0.0016472860485330716 0.010510879045000202 0 -0.0015556572756645496 0.010593282722989166 0 -0.0013777272341647913 0.010525319305711133 0 -0.0014768570522556994 0.010488818704838155 0 -0.0014768570522556994 0.010488818704838155 0 -0.0015789404030386656 0.010404818353568946 0 -0.0016472860485330716 0.010510879045000202 0 -0.0013495660270519834 0.010360168585950279 0 -0.0015138557798266004 0.010261811024871404 0 -0.0013887901479408009 0.0099991220561574789 0 -0.0013495660270519834 0.010360168585950279 0 -0.0014768570522556994 0.010488818704838155 0 -0.0015138557798266004 0.010261811024871404 0 -0.0015138557798266004 0.010261811024871404 0 -0.0015789404030386656 0.010404818353568946 0 -0.0016358434544919611 0.010344094321593413 0 -0.0014768570522556994 0.010488818704838155 0 -0.0015138557798266004 0.010261811024871404 0 -0.0015789404030386656 0.010404818353568946 0 -0.0015789404030386656 0.010404818353568946 0 -0.0016358434544919611 0.010344094321593413 0 -0.0016472860485330716 0.010510879045000202 0 -0.0017131122103540338 0.010618271923857132 0 -0.0016472860485330716 0.010510879045000202 0 -0.0017420860939636493 0.01050641678764974 0 -0.0016358434544919611 0.010344094321593413 0 -0.0016472860485330716 0.010510879045000202 0 -0.0017420860939636493 0.01050641678764974 0 -0.0016358434544919611 0.010344094321593413 0 -0.0017420860939636493 0.01050641678764974 0 -0.0017042852018733352 0.010349672155403701 0 -0.0017042852018733352 0.010349672155403701 0 -0.0017091624702580419 0.010284227735358937 0 -0.001651662475659747 0.010247875039600753 0 -0.0017042852018733352 0.010349672155403701 0 -0.0017091624702580419 0.010284227735358937 0 -0.0017874720510773594 0.010419432657392872 0 -0.0017091624702580419 0.010284227735358937 0 -0.001651662475659747 0.010247875039600753 0 -0.0016637209546791056 0.010206583326301911 0 -0.001651662475659747 0.010247875039600753 0 -0.0016006574861801403 0.010142567884665058 0 -0.0016637209546791056 0.010206583326301911 0 -0.001651662475659747 0.010247875039600753 0 -0.0015859777558356288 0.010198957041260033 0 -0.0016006574861801403 0.010142567884665058 0 -0.0016358434544919611 0.010344094321593413 0 -0.0017042852018733352 0.010349672155403701 0 -0.001651662475659747 0.010247875039600753 0 -0.0016358434544919611 0.010344094321593413 0 -0.001651662475659747 0.010247875039600753 0 -0.0015859777558356288 0.010198957041260033 0 -0.0015138557798266004 0.010261811024871404 0 -0.0016358434544919611 0.010344094321593413 0 -0.0015859777558356288 0.010198957041260033 0 -0.0015138557798266004 0.010261811024871404 0 -0.0015859777558356288 0.010198957041260033 0 -0.0013887901479408009 0.0099991220561574789 0 -0.0015173612673219932 0.010077410454147864 0 -0.0013887901479408009 0.0099991220561574789 0 -0.0014921314613069968 0.010003862922758292 0 -0.0015859777558356288 0.010198957041260033 0 -0.0015173612673219932 0.010077410454147864 0 -0.0013887901479408009 0.0099991220561574789 0 -0.0015859777558356288 0.010198957041260033 0 -0.0015173612673219932 0.010077410454147864 0 -0.0016006574861801403 0.010142567884665058 0 -0.0015173612673219932 0.010077410454147864 0 -0.0016006574861801403 0.010142567884665058 0 -0.0015602646184605358 0.010075499609570731 0 -0.0016006574861801403 0.010142567884665058 0 -0.0015602646184605358 0.010075499609570731 0 -0.0016288999912544213 0.01013177375615148 0 -0.0015602646184605358 0.010075499609570731 0 -0.0014921314613069968 0.010003862922758292 0 -0.0015477582480907558 0.0100205489865932 0 -0.0015173612673219932 0.010077410454147864 0 -0.0015602646184605358 0.010075499609570731 0 -0.0014921314613069968 0.010003862922758292 0 -0.0015785939497482962 0.010058925093577951 0 -0.0015477582480907558 0.0100205489865932 0 -0.0015837600526902073 0.010032480963878558 0 -0.0015602646184605358 0.010075499609570731 0 -0.0015785939497482962 0.010058925093577951 0 -0.0015477582480907558 0.0100205489865932 0 -0.0015602646184605358 0.010075499609570731 0 -0.0015785939497482962 0.010058925093577951 0 -0.0016288999912544213 0.01013177375615148 0 -0.0015785939497482962 0.010058925093577951 0 -0.0016288999912544213 0.01013177375615148 0 -0.0016074312333550942 0.01007380818527579 0 -0.0016288999912544213 0.01013177375615148 0 -0.0017054826777984447 0.010214797202427722 0 -0.0017114202666715212 0.010185152306765959 0 -0.0017054826777984447 0.010214797202427722 0 -0.0017302401957179935 0.010246303498402293 0 -0.0017114202666715212 0.010185152306765959 0 -0.0017054826777984447 0.010214797202427722 0 -0.0017302401957179935 0.010246303498402293 0 -0.0017440363304015599 0.010264874381297013 0 -0.0017091624702580419 0.010284227735358937 0 -0.0017054826777984447 0.010214797202427722 0 -0.0017663364663710387 0.010328016207710653 0 -0.0017091624702580419 0.010284227735358937 0 -0.0017054826777984447 0.010214797202427722 0 -0.0016637209546791056 0.010206583326301911 0 -0.0016006574861801403 0.010142567884665058 0 -0.0016288999912544213 0.01013177375615148 0 -0.0016637209546791056 0.010206583326301911 0 -0.0016288999912544213 0.01013177375615148 0 -0.0017054826777984447 0.010214797202427722 0 -0.0016637209546791056 0.010206583326301911 0 -0.0016592884347496905 0.0097819765392521563 0 -0.0017069753090830047 0.0096824072050445045 0 -0.0016001159335221299 0.0097531281742563748 0 -0.0017222021116194198 0.0097391018370057043 0 -0.0016592884347496905 0.0097819765392521563 0 -0.0017069753090830047 0.0096824072050445045 0 -0.0017069753090830047 0.0096824072050445045 0 -0.0016686376646436168 0.0095877561543907617 0 -0.001785356843136709 0.0095795607979362631 0 -0.0017069753090830047 0.0096824072050445045 0 -0.0016686376646436168 0.0095877561543907617 0 -0.0016001159335221299 0.0097531281742563748 0 -0.0015131077569331315 0.0096598897856595735 0 -0.0016686376646436168 0.0095877561543907617 0 -0.0016001159335221299 0.0097531281742563748 0 -0.0016592884347496905 0.0097819765392521563 0 -0.0016001159335221299 0.0097531281742563748 0 -0.0015529194879375576 0.0098892454156204162 0 -0.0016592884347496905 0.0097819765392521563 0 -0.0015529194879375576 0.0098892454156204162 0 -0.0016282988669947781 0.0098614300044655538 0 -0.0015529194879375576 0.0098892454156204162 0 -0.0014858681200192981 0.0098776191045400839 0 -0.0014921314613069968 0.010003862922758292 0 -0.0016001159335221299 0.0097531281742563748 0 -0.0015529194879375576 0.0098892454156204162 0 -0.0014858681200192981 0.0098776191045400839 0 -0.0012878450415729776 0.0095638084512982783 0 -0.0015131077569331315 0.0096598897856595735 0 -0.0014858681200192981 0.0098776191045400839 0 -0.0015131077569331315 0.0096598897856595735 0 -0.0016001159335221299 0.0097531281742563748 0 -0.0014858681200192981 0.0098776191045400839 0 -0.0012878450415729776 0.0095638084512982783 0 -0.0014858681200192981 0.0098776191045400839 0 -0.0013887901479408009 0.0099991220561574789 0 -0.0014858681200192981 0.0098776191045400839 0 -0.0013887901479408009 0.0099991220561574789 0 -0.0014921314613069968 0.010003862922758292 0 -0.0014921314613069968 0.010003862922758292 0 -0.0015440729877829217 0.0099694648671804359 0 -0.0015477582480907558 0.0100205489865932 0 -0.0015529194879375576 0.0098892454156204162 0 -0.0014921314613069968 0.010003862922758292 0 -0.0015440729877829217 0.0099694648671804359 0 -0.0015477582480907558 0.0100205489865932 0 -0.0015697458190318744 0.009987123061373707 0 -0.0015837600526902073 0.010032480963878558 0 -0.0015697458190318744 0.009987123061373707 0 -0.0015943394498928445 0.010002401450705883 0 -0.0015837600526902073 0.010032480963878558 0 -0.0015440729877829217 0.0099694648671804359 0 -0.0015477582480907558 0.0100205489865932 0 -0.0015697458190318744 0.009987123061373707 0 -0.0015697458190318744 0.009987123061373707 0 -0.0016072766026493344 0.0099520347476344095 0 -0.0015883658687035594 0.0099233286823476995 0 -0.0015697458190318744 0.009987123061373707 0 -0.0016072766026493344 0.0099520347476344095 0 -0.0015943394498928445 0.010002401450705883 0 -0.0015440729877829217 0.0099694648671804359 0 -0.0015697458190318744 0.009987123061373707 0 -0.0015883658687035594 0.0099233286823476995 0 -0.0015529194879375576 0.0098892454156204162 0 -0.0015440729877829217 0.0099694648671804359 0 -0.0015883658687035594 0.0099233286823476995 0 -0.0015529194879375576 0.0098892454156204162 0 -0.0015883658687035594 0.0099233286823476995 0 -0.0016282988669947781 0.0098614300044655538 0 -0.0015883658687035594 0.0099233286823476995 0 -0.0016282988669947781 0.0098614300044655538 0 -0.001647400123142076 0.0098891354850139911 0 -0.0016072766026493344 0.0099520347476344095 0 -0.0015883658687035594 0.0099233286823476995 0 -0.001647400123142076 0.0098891354850139911 0 -0.001647400123142076 0.0098891354850139911 0 -0.0017075387843191062 0.0098789110494265989 0 -0.0016481141178703261 0.0099276861243651968 0 -0.0016072766026493344 0.0099520347476344095 0 -0.001647400123142076 0.0098891354850139911 0 -0.0016481141178703261 0.0099276861243651968 0 -0.0017075387843191062 0.0098789110494265989 0 -0.0016995845434729438 0.009816999496019347 0 -0.0017611870651044782 0.0098108572271765442 0 -0.001647400123142076 0.0098891354850139911 0 -0.0017075387843191062 0.0098789110494265989 0 -0.0016995845434729438 0.009816999496019347 0 -0.0016282988669947781 0.0098614300044655538 0 -0.001647400123142076 0.0098891354850139911 0 -0.0016995845434729438 0.009816999496019347 0 -0.0016592884347496905 0.0097819765392521563 0 -0.0016282988669947781 0.0098614300044655538 0 -0.0016995845434729438 0.009816999496019347 0 -0.0017222021116194198 0.0097391018370057043 0 -0.0016592884347496905 0.0097819765392521563 0 -0.0016995845434729438 0.009816999496019347 0 -0.0017273689697599088 0.009938371944128865 0 -0.0016866464979695076 0.0099498451230198379 0 -0.001695845848559278 0.0099709974131836649 0 -0.0017273689697599088 0.009938371944128865 0 -0.0017116516217457578 0.0099172994699401589 0 -0.0017513554069198071 0.0098890325000117827 0 -0.0017273689697599088 0.009938371944128865 0 -0.0016866464979695076 0.0099498451230198379 0 -0.0017116516217457578 0.0099172994699401589 0 -0.0017075387843191062 0.0098789110494265989 0 -0.0016781666949260224 0.0099280249146454936 0 -0.0016481141178703261 0.0099276861243651968 0 -0.0017075387843191062 0.0098789110494265989 0 -0.0017116516217457578 0.0099172994699401589 0 -0.0016781666949260224 0.0099280249146454936 0 -0.0017075387843191062 0.0098789110494265989 0 -0.0017116516217457578 0.0099172994699401589 0 -0.0017513554069198071 0.0098890325000117827 0 -0.0016866464979695076 0.0099498451230198379 0 -0.0017116516217457578 0.0099172994699401589 0 -0.0016781666949260224 0.0099280249146454936 0 -0.0016781666949260224 0.0099280249146454936 0 -0.0016481141178703261 0.0099276861243651968 0 -0.0016541061975665627 0.0099628385443724498 0 -0.0016481141178703261 0.0099276861243651968 0 -0.0016541061975665627 0.0099628385443724498 0 -0.0016216240568878626 0.0099776084841495076 0 -0.0016866464979695076 0.0099498451230198379 0 -0.0016628088064122391 0.0099791776236581378 0 -0.001695845848559278 0.0099709974131836649 0 -0.0016866464979695076 0.0099498451230198379 0 -0.0016541061975665627 0.0099628385443724498 0 -0.0016628088064122391 0.0099791776236581378 0 -0.0016866464979695076 0.0099498451230198379 0 -0.0016781666949260224 0.0099280249146454936 0 -0.0016541061975665627 0.0099628385443724498 0 -0.0016628088064122391 0.0099791776236581378 0 -0.001634616961957591 0.0099961033666121704 0 -0.0016491261417425035 0.00999854219256021 0 -0.001634616961957591 0.0099961033666121704 0 -0.0016150413572071955 0.010010372390514671 0 -0.0016325012055367104 0.010018087591144986 0 -0.001634616961957591 0.0099961033666121704 0 -0.0016325012055367104 0.010018087591144986 0 -0.0016491261417425035 0.00999854219256021 0 -0.001634616961957591 0.0099961033666121704 0 -0.0016216240568878626 0.0099776084841495076 0 -0.0016150413572071955 0.010010372390514671 0 -0.0016541061975665627 0.0099628385443724498 0 -0.001634616961957591 0.0099961033666121704 0 -0.0016216240568878626 0.0099776084841495076 0 -0.0016541061975665627 0.0099628385443724498 0 -0.0016628088064122391 0.0099791776236581378 0 -0.001634616961957591 0.0099961033666121704 0 -0.0016072766026493344 0.0099520347476344095 0 -0.0016481141178703261 0.0099276861243651968 0 -0.0016216240568878626 0.0099776084841495076 0 -0.0016072766026493344 0.0099520347476344095 0 -0.0016216240568878626 0.0099776084841495076 0 -0.0015943394498928445 0.010002401450705883 0 -0.0016216240568878626 0.0099776084841495076 0 -0.0015943394498928445 0.010002401450705883 0 -0.0016150413572071955 0.010010372390514671 0 -0.0015943394498928445 0.010002401450705883 0 -0.0016150413572071955 0.010010372390514671 0 -0.001609299774054851 0.010036047202639679 0 -0.0015943394498928445 0.010002401450705883 0 -0.0015837600526902073 0.010032480963878558 0 -0.001609299774054851 0.010036047202639679 0 -0.0016150413572071955 0.010010372390514671 0 -0.0016217137947702649 0.010027680789342778 0 -0.001609299774054851 0.010036047202639679 0 -0.0016150413572071955 0.010010372390514671 0 -0.0016325012055367104 0.010018087591144986 0 -0.0016217137947702649 0.010027680789342778 0 -0.0016325012055367104 0.010018087591144986 0 -0.0016217137947702649 0.010027680789342778 0 -0.0016303620656909627 0.010038705429261066 0 -0.0016325012055367104 0.010018087591144986 0 -0.0016377861905795916 0.01003182492881274 0 -0.0016303620656909627 0.010038705429261066 0 -0.0016325012055367104 0.010018087591144986 0 -0.0016441727380721255 0.010024771682722434 0 -0.0016461618856514464 0.010012866912407967 0 -0.0016325012055367104 0.010018087591144986 0 -0.0016377861905795916 0.01003182492881274 0 -0.0016441727380721255 0.010024771682722434 0 -0.0016441727380721255 0.010024771682722434 0 -0.001651671935276682 0.010019700240852164 0 -0.0016461618856514464 0.010012866912407967 0 -0.0016441727380721255 0.010024771682722434 0 -0.0016440384633752449 0.010040117440187377 0 -0.001650211622419368 0.010031591884514853 0 -0.0016377861905795916 0.01003182492881274 0 -0.0016441727380721255 0.010024771682722434 0 -0.0016440384633752449 0.010040117440187377 0 -0.0016440384633752449 0.010040117440187377 0 -0.001650211622419368 0.010031591884514853 0 -0.0016513474183072645 0.01004561938198041 0 -0.001650211622419368 0.010031591884514853 0 -0.0016547094879238728 0.010037625289378484 0 -0.0016513474183072645 0.01004561938198041 0 -0.001650211622419368 0.010031591884514853 0 -0.0016547094879238728 0.010037625289378484 0 -0.0016562660983706577 0.010028259660425866 0 -0.0016547094879238728 0.010037625289378484 0 -0.0016562660983706577 0.010028259660425866 0 -0.0016573292679230253 0.010029045970275057 0 -0.0016547094879238728 0.010037625289378484 0 -0.0016572333062492672 0.010037227655228151 0 -0.0016573292679230253 0.010029045970275057 0 -0.001650211622419368 0.010031591884514853 0 -0.0016562660983706577 0.010028259660425866 0 -0.0016552109717077237 0.010023770912788214 0 -0.0016607903926286892 0.010021705801193293 0 -0.0016562660983706577 0.010028259660425866 0 -0.0016603241499903412 0.010024404100114886 0 -0.0016562660983706577 0.010028259660425866 0 -0.0016603241499903412 0.010024404100114886 0 -0.0016573292679230253 0.010029045970275057 0 -0.0016607903926286892 0.010021705801193293 0 -0.0016562660983706577 0.010028259660425866 0 -0.0016552109717077237 0.010023770912788214 0 -0.001650211622419368 0.010031591884514853 0 -0.0016552109717077237 0.010023770912788214 0 -0.001651671935276682 0.010019700240852164 0 -0.0016441727380721255 0.010024771682722434 0 -0.001650211622419368 0.010031591884514853 0 -0.001651671935276682 0.010019700240852164 0 -0.0016642798279458155 0.010016594931434383 0 -0.0016707998530692976 0.010005471103742869 0 -0.0016736643818909261 0.010015061850327798 0 -0.001651671935276682 0.010019700240852164 0 -0.0016593726473721592 0.010015568094866216 0 -0.0016568233493530989 0.010007953545597347 0 -0.0016552109717077237 0.010023770912788214 0 -0.001651671935276682 0.010019700240852164 0 -0.0016593726473721592 0.010015568094866216 0 -0.0016607903926286892 0.010021705801193293 0 -0.0016642798279458155 0.010016594931434383 0 -0.0016647748973369937 0.010019373175277466 0 -0.0016607903926286892 0.010021705801193293 0 -0.0016552109717077237 0.010023770912788214 0 -0.0016593726473721592 0.010015568094866216 0 -0.0016607903926286892 0.010021705801193293 0 -0.0016593726473721592 0.010015568094866216 0 -0.0016642798279458155 0.010016594931434383 0 -0.0016593726473721592 0.010015568094866216 0 -0.0016642798279458155 0.010016594931434383 0 -0.0016707998530692976 0.010005471103742869 0 -0.0016593726473721592 0.010015568094866216 0 -0.0016707998530692976 0.010005471103742869 0 -0.0016568233493530989 0.010007953545597347 0 -0.0016568233493530989 0.010007953545597347 0 -0.0016491261417425035 0.00999854219256021 0 -0.001666501866758521 0.0099949938383207763 0 -0.0016707998530692976 0.010005471103742869 0 -0.0016568233493530989 0.010007953545597347 0 -0.001666501866758521 0.0099949938383207763 0 -0.001651671935276682 0.010019700240852164 0 -0.0016568233493530989 0.010007953545597347 0 -0.0016461618856514464 0.010012866912407967 0 -0.0016325012055367104 0.010018087591144986 0 -0.0016461618856514464 0.010012866912407967 0 -0.0016491261417425035 0.00999854219256021 0 -0.0016568233493530989 0.010007953545597347 0 -0.0016461618856514464 0.010012866912407967 0 -0.0016491261417425035 0.00999854219256021 0 -0.0016628088064122391 0.0099791776236581378 0 -0.0016491261417425035 0.00999854219256021 0 -0.001666501866758521 0.0099949938383207763 0 -0.0016628088064122391 0.0099791776236581378 0 -0.001666501866758521 0.0099949938383207763 0 -0.001695845848559278 0.0099709974131836649 0 -0.0016873177962958934 0.0099898353625774358 0 -0.0017105242335331914 0.0099832989171749539 0 -0.001695845848559278 0.0099709974131836649 0 -0.001666501866758521 0.0099949938383207763 0 -0.0016873177962958934 0.0099898353625774358 0 -0.001695845848559278 0.0099709974131836649 0 -0.0016707998530692976 0.010005471103742869 0 -0.0016907811557809805 0.0099992530907497008 0 -0.0016873177962958934 0.0099898353625774358 0 -0.0016707998530692976 0.010005471103742869 0 -0.0016907811557809805 0.0099992530907497008 0 -0.0016736643818909261 0.010015061850327798 0 -0.0016907811557809805 0.0099992530907497008 0 -0.0017105242335331914 0.0099832989171749539 0 -0.0017121901163111388 0.01000263312955065 0 -0.0016707998530692976 0.010005471103742869 0 -0.001666501866758521 0.0099949938383207763 0 -0.0016873177962958934 0.0099898353625774358 0 -0.0016907811557809805 0.0099992530907497008 0 -0.0016873177962958934 0.0099898353625774358 0 -0.0017105242335331914 0.0099832989171749539 0 -0.0017105242335331914 0.0099832989171749539 0 -0.0017366211047022684 0.009979222261071112 0 -0.0017121901163111388 0.01000263312955065 0 -0.0017105242335331914 0.0099832989171749539 0 -0.0017366211047022684 0.009979222261071112 0 -0.0017305132781999211 0.0099650282455727504 0 -0.0017273689697599088 0.009938371944128865 0 -0.0017305132781999211 0.0099650282455727504 0 -0.001695845848559278 0.0099709974131836649 0 -0.0017105242335331914 0.0099832989171749539 0 -0.0017305132781999211 0.0099650282455727504 0 -0.001695845848559278 0.0099709974131836649 0 -0.0016757642702801394 0.010104162152739474 0 -0.0017076351688298506 0.010124049872161603 0 -0.0016535503668149818 0.010118904675536283 0 -0.0016757642702801394 0.010104162152739474 0 -0.0016535503668149818 0.010118904675536283 0 -0.00164820185946789 0.010084296129281542 0 -0.0016757642702801394 0.010104162152739474 0 -0.00164820185946789 0.010084296129281542 0 -0.0016736450990179263 0.010097205068160328 0 -0.0016757642702801394 0.010104162152739474 0 -0.0017076351688298506 0.010124049872161603 0 -0.0016889071839997203 0.010120702361740615 0 -0.0017076351688298506 0.010124049872161603 0 -0.0016965830015549595 0.010145456115889602 0 -0.0016889071839997203 0.010120702361740615 0 -0.0021377839538062587 0.00931776330997478 0 -0.0010354102427644521 0.01638252017310746 0 -0.0021377839538062587 0.00931776330997478 0 -0.001591680905869166 0.010504407324422189 0 -0.0017704155247397816 0.010333276545304294 0 -0.0017302401957179935 0.010246303498402293 0 -0.0017114202666715212 0.010185152306765959 0 -0.0017076351688298506 0.010124049872161603 0 -0.0017114202666715212 0.010185152306765959 0 -0.0016535503668149818 0.010118904675536283 0 -0.0016288999912544213 0.01013177375615148 0 -0.0017114202666715212 0.010185152306765959 0 -0.0016535503668149818 0.010118904675536283 0 -0.0016288999912544213 0.01013177375615148 0 -0.0016535503668149818 0.010118904675536283 0 -0.0016074312333550942 0.01007380818527579 0 -0.0016535503668149818 0.010118904675536283 0 -0.0016074312333550942 0.01007380818527579 0 -0.0016316281961146599 0.010084974072316696 0 -0.0016074312333550942 0.01007380818527579 0 -0.0016316281961146599 0.010084974072316696 0 -0.0016227923584642596 0.010064021121610154 0 -0.0016535503668149818 0.010118904675536283 0 -0.0016316281961146599 0.010084974072316696 0 -0.00164820185946789 0.010084296129281542 0 -0.0015785939497482962 0.010058925093577951 0 -0.0015837600526902073 0.010032480963878558 0 -0.0016027425073615958 0.010051118329028974 0 -0.0015785939497482962 0.010058925093577951 0 -0.0016074312333550942 0.01007380818527579 0 -0.0016027425073615958 0.010051118329028974 0 -0.0016074312333550942 0.01007380818527579 0 -0.0016027425073615958 0.010051118329028974 0 -0.0016227923584642596 0.010064021121610154 0 -0.0016027425073615958 0.010051118329028974 0 -0.001609299774054851 0.010036047202639679 0 -0.0016227923584642596 0.010064021121610154 0 -0.0015837600526902073 0.010032480963878558 0 -0.0016027425073615958 0.010051118329028974 0 -0.001609299774054851 0.010036047202639679 0 -0.0016217137947702649 0.010027680789342778 0 -0.001609299774054851 0.010036047202639679 0 -0.0016247345565879496 0.010047529244923095 0 -0.001609299774054851 0.010036047202639679 0 -0.0016227923584642596 0.010064021121610154 0 -0.0016247345565879496 0.010047529244923095 0 -0.0016227923584642596 0.010064021121610154 0 -0.0016247345565879496 0.010047529244923095 0 -0.0016374684367085716 0.010059007245675742 0 -0.0016247345565879496 0.010047529244923095 0 -0.0016303620656909627 0.010038705429261066 0 -0.0016374684367085716 0.010059007245675742 0 -0.0016217137947702649 0.010027680789342778 0 -0.0016247345565879496 0.010047529244923095 0 -0.0016303620656909627 0.010038705429261066 0 -0.0016316281961146599 0.010084974072316696 0 -0.0016227923584642596 0.010064021121610154 0 -0.00164820185946789 0.010084296129281542 0 -0.0016227923584642596 0.010064021121610154 0 -0.00164820185946789 0.010084296129281542 0 -0.0016374684367085716 0.010059007245675742 0 -0.00164820185946789 0.010084296129281542 0 -0.0016554642554490336 0.010077578911710261 0 -0.0016374684367085716 0.010059007245675742 0 -0.00164820185946789 0.010084296129281542 0 -0.0016554642554490336 0.010077578911710261 0 -0.0016736450990179263 0.010097205068160328 0 -0.0016554642554490336 0.010077578911710261 0 -0.0016374684367085716 0.010059007245675742 0 -0.0016481207207396579 0.010057062980425083 0 -0.0016554642554490336 0.010077578911710261 0 -0.0016481207207396579 0.010057062980425083 0 -0.0016616855399741667 0.010073172595447145 0 -0.0016554642554490336 0.010077578911710261 0 -0.0016616855399741667 0.010073172595447145 0 -0.0016736450990179263 0.010097205068160328 0 -0.0016303620656909627 0.010038705429261066 0 -0.0016397760237602615 0.010048147322108153 0 -0.0016374684367085716 0.010059007245675742 0 -0.0016377861905795916 0.01003182492881274 0 -0.0016303620656909627 0.010038705429261066 0 -0.0016397760237602615 0.010048147322108153 0 -0.0016397760237602615 0.010048147322108153 0 -0.0016374684367085716 0.010059007245675742 0 -0.0016481207207396579 0.010057062980425083 0 -0.0016377861905795916 0.01003182492881274 0 -0.0016440384633752449 0.010040117440187377 0 -0.0016397760237602615 0.010048147322108153 0 -0.0016440384633752449 0.010040117440187377 0 -0.0016397760237602615 0.010048147322108153 0 -0.0016481207207396579 0.010057062980425083 0 -0.0016440384633752449 0.010040117440187377 0 -0.0016481207207396579 0.010057062980425083 0 -0.0016513474183072645 0.01004561938198041 0 -0.0016481207207396579 0.010057062980425083 0 -0.0016513474183072645 0.01004561938198041 0 -0.0016571324365953662 0.010057347312230442 0 -0.0016481207207396579 0.010057062980425083 0 -0.0016571324365953662 0.010057347312230442 0 -0.0016616855399741667 0.010073172595447145 0 -0.0016571324365953662 0.010057347312230442 0 -0.0016592082726339255 0.010049123259664486 0 -0.0016660867056873007 0.010066328333501471 0 -0.0016513474183072645 0.01004561938198041 0 -0.0016571324365953662 0.010057347312230442 0 -0.0016592082726339255 0.010049123259664486 0 -0.0016547094879238728 0.010037625289378484 0 -0.0016513474183072645 0.01004561938198041 0 -0.0016592082726339255 0.010049123259664486 0 -0.0016547094879238728 0.010037625289378484 0 -0.0016592082726339255 0.010049123259664486 0 -0.0016572333062492672 0.010037227655228151 0 -0.0016616855399741667 0.010073172595447145 0 -0.0016759307072853687 0.010091967097718889 0 -0.0016736450990179263 0.010097205068160328 0 -0.0016616855399741667 0.010073172595447145 0 -0.0016660867056873007 0.010066328333501471 0 -0.0016759307072853687 0.010091967097718889 0 -0.0016571324365953662 0.010057347312230442 0 -0.0016616855399741667 0.010073172595447145 0 -0.0016660867056873007 0.010066328333501471 0 -0.0016660867056873007 0.010066328333501471 0 -0.0016759307072853687 0.010091967097718889 0 -0.0016744814355057226 0.010073904417830936 0 -0.0016759307072853687 0.010091967097718889 0 -0.0016910083747099715 0.010127202333466104 0 -0.0016858120726315929 0.010110552169950998 0 -0.0016759307072853687 0.010091967097718889 0 -0.0016736450990179263 0.010097205068160328 0 -0.0016910083747099715 0.010127202333466104 0 -0.0016215599778773785 0.015578977595915368 0 -0.0018919713591759601 0.015926432630621518 0 -0.0016736450990179263 0.010097205068160328 0 -0.0016889071839997203 0.010120702361740615 0 -0.0016910083747099715 0.010127202333466104 0 -0.0016757642702801394 0.010104162152739474 0 -0.0016736450990179263 0.010097205068160328 0 -0.0016889071839997203 0.010120702361740615 0 -0.0010354102427644521 0.01638252017310746 0 -0.0016215599778773785 0.015578977595915368 0 -0.0016965830015549595 0.010145456115889602 0 -0.0016889071839997203 0.010120702361740615 0 -0.0016910083747099715 0.010127202333466104 0 -0.00095296075749042107 0.020120765989025634 0 -0.0016416910062366894 0.021324437112777796 0 -0.0012355610700134705 0.021651693793044519 0 -0.0016416910062366894 0.021324437112777796 0 -0.0012355610700134705 0.021651693793044519 0 -0.0021042419908072021 0.022192484556940444 0 -0.0012355610700134705 0.021651693793044519 0 -0.00083043218021296281 0.022010735883891918 0 -0.0011846532971911542 0.022161903464118008 0 -0.00083043218021296281 0.022010735883891918 0 -0.00038642962098627253 0.021460516180769825 0 -0.00046390134236417793 0.022454391790077435 0 -0.00095296075749042107 0.020120765989025634 0 -0.0012355610700134705 0.021651693793044519 0 -0.00038642962098627253 0.021460516180769825 0 0.00014057744425684598 0.023284842836780388 0 6.6982219970260638e-05 0.023286117013008398 0 -5.2881731259430851e-06 0.023147479244241893 0 -0.0012355610700134705 0.021651693793044519 0 -0.00083043218021296281 0.022010735883891918 0 -0.00038642962098627253 0.021460516180769825 0 6.6982219970260638e-05 0.023286117013008398 0 0.00015543958413338747 0.023302156342738523 0 8.5819675349742139e-05 0.02331764902469971 0 0.00014057744425684598 0.023284842836780388 0 6.6982219970260638e-05 0.023286117013008398 0 0.00015543958413338747 0.023302156342738523 0 6.6982219970260638e-05 0.023286117013008398 0 8.5819675349742139e-05 0.02331764902469971 0 4.7904173191707592e-05 0.023332567093034148 0 -0.0010354102427644521 0.01638252017310746 0 0.00018928398207729099 0.023412949215900668 0 0.00017953540275238709 0.023258817491839116 0 0.00014057744425684598 0.023284842836780388 0 0.00015543958413338747 0.023302156342738523 0 -0.0017704155247397816 0.010333276545304294 0 -0.0017289751671921328 0.010493428034187841 0 -0.0017024266449476345 0.010297210510479778 0 -0.0010354102427644521 0.01638252017310746 0 -0.0007217125316168237 0.016905790319411293 0 0.00017953540275238709 0.023258817491839116 0 0.00015543958413338747 0.023302156342738523 0 0.00023700447905016298 0.023320546044192987 0 0.00015543958413338747 0.023302156342738523 0 0.00023700447905016298 0.023320546044192987 0 0.00024694613010509874 0.023381342954701852 0 -0.0007217125316168237 0.016905790319411293 0 -0.00074843292574239609 0.016897067541910431 0 0.00023700447905016298 0.023320546044192987 0 0.00024694613010509874 0.023381342954701852 0 0.00033892320878229384 0.023475559407778443 0 -0.0017704155247397816 0.010333276545304294 0 -0.0017302401957179935 0.010246303498402293 0 -0.0017024266449476345 0.010297210510479778 0 -0.0017302401957179935 0.010246303498402293 0 -0.0017024266449476345 0.010297210510479778 0 -0.0017440363304015599 0.010264874381297013 0 0.00012164320173110932 0.023393367530639607 0 0.00017047249915361906 0.023345928368017462 0 0.00024347114197440531 0.023512696784136623 0 0.00024694613010509874 0.023381342954701852 0 0.00017047249915361906 0.023345928368017462 0 0.00024347114197440531 0.023512696784136623 0 0.00015543958413338747 0.023302156342738523 0 0.00024694613010509874 0.023381342954701852 0 0.00017047249915361906 0.023345928368017462 0 0.00017047249915361906 0.023345928368017462 0 0.0001270549720151704 0.023337120419672633 0 0.00011607112174219358 0.023322972657654113 0 0.00012164320173110932 0.023393367530639607 0 0.00017047249915361906 0.023345928368017462 0 0.0001270549720151704 0.023337120419672633 0 0.00011607112174219358 0.023322972657654113 0 8.2222824201678952e-05 0.023370944749264676 0 0.00013729342188807436 0.023318545672787641 0 0.0001270549720151704 0.023337120419672633 0 0.00011607112174219358 0.023322972657654113 0 0.00013729342188807436 0.023318545672787641 0 0.00015543958413338747 0.023302156342738523 0 0.00011607112174219358 0.023322972657654113 0 8.5819675349742139e-05 0.02331764902469971 0 0.00015543958413338747 0.023302156342738523 0 0.00017047249915361906 0.023345928368017462 0 0.00011607112174219358 0.023322972657654113 0 0.00011607112174219358 0.023322972657654113 0 8.5819675349742139e-05 0.02331764902469971 0 8.2222824201678952e-05 0.023370944749264676 0 8.5819675349742139e-05 0.02331764902469971 0 8.2222824201678952e-05 0.023370944749264676 0 4.7904173191707592e-05 0.023332567093034148 0 8.2222824201678952e-05 0.023370944749264676 0 0.00013729342188807436 0.023318545672787641 0 7.8336298964799006e-05 0.02349586071557612 0 0.00018320141513607438 0.023237796117033926 0 7.1661983080202344e-05 0.023538985119042163 0 0.00021870233329955707 0.023443668534197978 0 0.00019607328193251635 0.023374203852309983 0 7.8336298964799006e-05 0.02349586071557612 0 0.00021870233329955707 0.023443668534197978 0 0.0002577344798505011 0.023393406997124808 0 0.00019607328193251635 0.023374203852309983 0 0.00021870233329955707 0.023443668534197978 0 0.00031038075086783695 0.023448742141178088 0 0.00021151234024573864 0.023548848608803696 0 0.00031038075086783695 0.023448742141178088 0 0.0002577344798505011 0.023393406997124808 0 0.00028380920322963282 0.023354004823731806 0 7.7695029599143212e-05 0.024999370127852093 0 6.7916096037026101e-05 0.025049420033396951 0 3.3774805534664362e-05 0.024999063972445938 0 8.0054208070462366e-05 0.024545920790308932 0 6.5629881330054921e-05 0.02516576109663449 0 0.00021323272398962389 0.024158238275165386 0 8.0054208070462366e-05 0.024545920790308932 0 7.7695029599143212e-05 0.024999370127852093 0 3.3774805534664362e-05 0.024999063972445938 0 5.6755312088450821e-05 0.024968903576026838 0 0.00021870233329955707 0.023443668534197978 0 0.00031038075086783695 0.023448742141178088 0 0.0002577344798505011 0.023393406997124808 0 0.00028380920322963282 0.023354004823731806 0 0.00019607328193251635 0.023374203852309983 0 0.00024557998870856072 0.023289428858315739 0 0.0002577344798505011 0.023393406997124808 0 0.00028380920322963282 0.023354004823731806 0 0.00019607328193251635 0.023374203852309983 0 7.7152790169988972e-06 0.025000204444435372 0 1.0221474446422666e-05 0.024986467889844963 0 -8.084362574051716e-09 0.024999989665490902 0 7.7152790169988972e-06 0.025000204444435372 0 1.1432886236670156e-08 0.025000007680164204 0 -8.084362574051716e-09 0.024999989665490902 0 7.7152790169988972e-06 0.025000204444435372 0 3.3774805534664362e-05 0.024999063972445938 0 1.0221474446422666e-05 0.024986467889844963 0 7.7152790169988972e-06 0.025000204444435372 0 3.3774805534664362e-05 0.024999063972445938 0 1.4691275783194794e-05 0.024999553849347472 0 6.1293772381949505e-06 0.024995705291755224 0 1.4691275783194794e-05 0.024999553849347472 0 6.2442562461826868e-06 0.024997683557218361 0 6.1293772381949505e-06 0.024995705291755224 0 3.3774805534664362e-05 0.024999063972445938 0 1.4691275783194794e-05 0.024999553849347472 0 7.7152790169988972e-06 0.025000204444435372 0 1.4691275783194794e-05 0.024999553849347472 0 6.2442562461826868e-06 0.024997683557218361 0 7.7152790169988972e-06 0.025000204444435372 0 1.1432886236670156e-08 0.025000007680164204 0 6.2442562461826868e-06 0.024997683557218361 0 1.1432886236670156e-08 0.025000007680164204 0 6.2442562461826868e-06 0.024997683557218361 0 8.4490736253357476e-10 0.024999972545958524 0 9.5409940645214218e-08 0.024994937075002679 0 6.2442562461826868e-06 0.024997683557218361 0 8.4490736253357476e-10 0.024999972545958524 0 9.5409940645214218e-08 0.024994937075002679 0 6.2442562461826868e-06 0.024997683557218361 0 1.3058572945346052e-06 0.024985996299588885 0 9.5409940645214218e-08 0.024994937075002679 0 -4.5866007034854676e-06 0.024994706483047788 0 1.3058572945346052e-06 0.024985996299588885 0 -4.5866007034854676e-06 0.024994706483047788 0 8.4490736253357476e-10 0.024999972545958524 0 -1.2822946392519409e-05 0.02499989470415637 0 9.5409940645214218e-08 0.024994937075002679 0 -4.5866007034854676e-06 0.024994706483047788 0 8.4490736253357476e-10 0.024999972545958524 0 0.0001270549720151704 0.023337120419672633 0 0.00013729342188807436 0.023318545672787641 0 6.8199529828564664e-05 0.023360915153259117 0 0.00018320141513607438 0.023237796117033926 0 0.00013002625017754097 0.023848818743376549 0 0.00012164320173110932 0.023393367530639607 0 0.0001270549720151704 0.023337120419672633 0 6.8199529828564664e-05 0.023360915153259117 0 8.0054208070462366e-05 0.024545920790308932 0 0.00013002625017754097 0.023848818743376549 0 5.4760720269769626e-06 0.024960941114778749 0 9.2541026253003288e-06 0.024984477800508765 0 1.3058572945346052e-06 0.024985996299588885 0 6.1293772381949505e-06 0.024995705291755224 0 6.2442562461826868e-06 0.024997683557218361 0 1.3058572945346052e-06 0.024985996299588885 0 8.0054208070462366e-05 0.024545920790308932 0 -6.8560242435556587e-06 0.025110404263696876 0 9.2541026253003288e-06 0.024984477800508765 0 1.3058572945346052e-06 0.024985996299588885 0 -6.4989398788361627e-06 0.024995319755123108 0 0.00013002625017754097 0.023848818743376549 0 4.0093768405119214e-05 0.024498320385014396 0 -4.5866007034854676e-06 0.024994706483047788 0 1.3058572945346052e-06 0.024985996299588885 0 -6.4989398788361627e-06 0.024995319755123108 0 0.00012164320173110932 0.023393367530639607 0 6.8199529828564664e-05 0.023360915153259117 0 8.3552963909469253e-05 0.023482888658253129 0 0.00018162586032487288 0.023688586365502945 0 0.00022827474406930201 0.023777442691464725 0 0.00013230461963062217 0.023791026580417457 0 0.00013002625017754097 0.023848818743376549 0 0.00014517913733758602 0.023568924043731773 0 0.00022827474406930201 0.023777442691464725 0 0.00013230461963062217 0.023791026580417457 0 0.00021183275020990458 0.023864448158545222 0 0.00013230461963062217 0.023791026580417457 0 0.00021183275020990458 0.023864448158545222 0 5.0383556504070258e-05 0.024001283259820538 0 0.00021183275020990458 0.023864448158545222 0 0.00026482098107744213 0.023926394729318939 0 0.00024203948840516859 0.023778154094824942 0 0.00022827474406930201 0.023777442691464725 0 0.00021183275020990458 0.023864448158545222 0 0.00024203948840516859 0.023778154094824942 0 8.4490736253357476e-10 0.024999972545958524 0 -1.2822946392519409e-05 0.02499989470415637 0 -4.2340064605769067e-08 0.025000097135268771 0 -4.5866007034854676e-06 0.024994706483047788 0 -6.4989398788361627e-06 0.024995319755123108 0 -1.2822946392519409e-05 0.02499989470415637 0 4.0093768405119214e-05 0.024498320385014396 0 1.7545253470506766e-05 0.024475527987494649 0 -6.4989398788361627e-06 0.024995319755123108 0 -1.2822946392519409e-05 0.02499989470415637 0 -4.2981147714291598e-05 0.024995183722599682 0 -1.2822946392519409e-05 0.02499989470415637 0 -4.2340064605769067e-08 0.025000097135268771 0 -4.2981147714291598e-05 0.024995183722599682 0 -4.2340064605769067e-08 0.025000097135268771 0 -4.2981147714291598e-05 0.024995183722599682 0 9.7468323522912432e-08 0.024999654521301266 0 5.0383556504070258e-05 0.024001283259820538 0 -4.8850146274107411e-05 0.024760875898920072 0 0.00020717167125520252 0.024444876559173174 0 1.7545253470506766e-05 0.024475527987494649 0 -5.0088170521699014e-05 0.024739426434764983 0 -1.3031623110959278e-07 0.024999744801912915 0 -4.8850146274107411e-05 0.024760875898920072 0 9.7468323522912432e-08 0.024999654521301266 0 -4.2981147714291598e-05 0.024995183722599682 0 -4.8850146274107411e-05 0.024760875898920072 0 9.7468323522912432e-08 0.024999654521301266 0 0.00023470045545135378 0.024084874795538076 0 0.0003038659664321278 0.02405996186468435 0 0.00026482098107744213 0.023926394729318939 0 0.00021183275020990458 0.023864448158545222 0 0.00023470045545135378 0.024084874795538076 0 0.00026482098107744213 0.023926394729318939 0 5.0383556504070258e-05 0.024001283259820538 0 0.00023470045545135378 0.024084874795538076 0 0.00020717167125520252 0.024444876559173174 0 0.00021183275020990458 0.023864448158545222 0 5.0383556504070258e-05 0.024001283259820538 0 0.00023470045545135378 0.024084874795538076 0 0.00023470045545135378 0.024084874795538076 0 0.00020717167125520252 0.024444876559173174 0 0.00022398610266433232 0.024192682803316674 0 0.00023470045545135378 0.024084874795538076 0 0.00022398610266433232 0.024192682803316674 0 0.0003038659664321278 0.02405996186468435 0 0.0003038659664321278 0.02405996186468435 0 0.00026482098107744213 0.023926394729318939 0 0.00035880699725552776 0.023800008753780036 0 0.00026482098107744213 0.023926394729318939 0 0.00035880699725552776 0.023800008753780036 0 0.00024203948840516859 0.023778154094824942 0 -0.000885842594637317 0.01741887521000161 0 -0.0007911500245791084 0.017119178891252442 0 -0.0020312965148666985 0.010651690894036546 0 -0.0019411117384450622 0.010450753203853492 0 -0.0018816814929231108 0.010501109567327879 0 -0.0018508257573713368 0.010537601438251892 0 -0.0019364313363038259 0.010619145937918864 0 -0.0018816814929231108 0.010501109567327879 0 -0.0019364313363038259 0.010619145937918864 0 -0.0020312965148666985 0.010651690894036546 0 -0.0018816814929231108 0.010501109567327879 0 -0.0019411117384450622 0.010450753203853492 0 -0.0018816814929231108 0.010501109567327879 0 -0.0017663364663710387 0.010328016207710653 0 -0.0018508257573713368 0.010537601438251892 0 -0.0018816814929231108 0.010501109567327879 0 -0.0017874720510773594 0.010419432657392872 0 -0.0017420860939636493 0.01050641678764974 0 -0.0017042852018733352 0.010349672155403701 0 -0.0017874720510773594 0.010419432657392872 0 -0.0017091624702580419 0.010284227735358937 0 -0.0017874720510773594 0.010419432657392872 0 -0.0017663364663710387 0.010328016207710653 0 -0.0018816814929231108 0.010501109567327879 0 -0.0017874720510773594 0.010419432657392872 0 -0.0017663364663710387 0.010328016207710653 0 -0.0017663364663710387 0.010328016207710653 0 -0.0017440363304015599 0.010264874381297013 0 -0.0018260382629882027 0.010313837941198225 0 -0.0019411117384450622 0.010450753203853492 0 -0.0017663364663710387 0.010328016207710653 0 -0.0018260382629882027 0.010313837941198225 0 -0.0017054826777984447 0.010214797202427722 0 -0.0017663364663710387 0.010328016207710653 0 -0.0017440363304015599 0.010264874381297013 0 -0.0017024266449476345 0.010297210510479778 0 -0.0017440363304015599 0.010264874381297013 0 -0.0018260382629882027 0.010313837941198225 0 0.00024694613010509874 0.023381342954701852 0 0.00033892320878229384 0.023475559407778443 0 0.00024347114197440531 0.023512696784136623 0 0.00014517913733758602 0.023568924043731773 0 0.00024289046769759926 0.023793503601423734 0 0.00012164320173110932 0.023393367530639607 0 8.3552963909469253e-05 0.023482888658253129 0 0.00024347114197440531 0.023512696784136623 0 8.3552963909469253e-05 0.023482888658253129 0 0.00024347114197440531 0.023512696784136623 0 0.00024203948840516859 0.023778154094824942 0 0.00035880699725552776 0.023800008753780036 0 0.00024347114197440531 0.023512696784136623 0 0.00024203948840516859 0.023778154094824942 0 0.00035880699725552776 0.023800008753780036 0 0.00033892320878229384 0.023475559407778443 0 0.00024347114197440531 0.023512696784136623 0 -0.0007911500245791084 0.017119178891252442 0 -0.00074843292574239609 0.016897067541910431 0 -0.00081198780661071541 -0.0079529471484673566 0 -3.241146329192949e-05 -0.0092354701744011801 0 0.00057134929958536332 -0.0052993566332930437 0 0.00088026147189943481 -0.006799587630755847 0 -4.459151148525587e-05 -0.0061093988879200303 0 -0.0020999177250590525 -0.010749945342706709 0 -0.0015821449073927369 -0.010869809423148949 0 -0.0019711733767874677 -0.011322184301830983 0 -0.0015821449073927369 -0.010869809423148949 0 -0.0019711733767874677 -0.011322184301830983 0 -0.0013368968540115921 -0.011411167917741171 0 -3.241146329192949e-05 -0.0092354701744011801 0 -0.00090138381335786789 -0.012028813887817172 0 0.00088026147189943481 -0.006799587630755847 0 -0.00021290819760016557 -0.0066978570199472537 0 -4.459151148525587e-05 -0.0061093988879200303 0 -3.241146329192949e-05 -0.0092354701744011801 0 -7.5112009195524169e-06 -0.0067262179101700318 0 0.0012117678452232986 -0.0068740763031636632 0 -7.6116883828415336e-05 -0.0067540583253904796 0 0.00024637186998494081 -0.0079713994608973781 0 -0.00021290819760016557 -0.0066978570199472537 0 -0.00069899002558938437 -0.0062068594521407358 0 -0.0013207109277503213 -0.0066380995392676867 0 -7.5112009195524169e-06 -0.0067262179101700318 0 -0.0012442368263531288 -0.0066434863434010547 0 -0.00021290819760016557 -0.0066978570199472537 0 -0.00069899002558938437 -0.0062068594521407358 0 -4.459151148525587e-05 -0.0061093988879200303 0 0.00026230768273394044 -0.0030808381738393034 0 -0.00083056009193997976 -0.0013038140663715015 0 -0.0013663193431660739 -0.0023522936418091233 0 -0.0013207109277503213 -0.0066380995392676867 0 -0.0010462562962840129 -0.007347593946445392 0 -0.0018936694783642668 -0.0059163397506132569 0 -7.6116883828415336e-05 -0.0067540583253904796 0 -0.0013207109277503213 -0.0066380995392676867 0 -0.0010462562962840129 -0.007347593946445392 0 -0.00044498913385529682 -0.005072312245163006 0 -0.00078268828017882244 -0.0016325057185144177 0 -0.00044498913385529682 -0.005072312245163006 0 -0.00048496982684625414 0.00030030571143694463 0 -0.0013207109277503213 -0.0066380995392676867 0 -0.0011438245740443926 -0.0060797294918319127 0 -0.0014648936020744512 -0.0060198061992900072 0 -0.00069899002558938437 -0.0062068594521407358 0 -0.0013207109277503213 -0.0066380995392676867 0 -0.0011438245740443926 -0.0060797294918319127 0 -0.0013207109277503213 -0.0066380995392676867 0 -0.0014648936020744512 -0.0060198061992900072 0 -0.0018936694783642668 -0.0059163397506132569 0 -0.001763832661216411 -0.0056992980468067384 0 -0.0012852378202305424 -0.0057928281466383931 0 -0.0011560506862324344 -0.0054722426328717251 0 -0.001763832661216411 -0.0056992980468067384 0 -0.0014648936020744512 -0.0060198061992900072 0 -0.0018936694783642668 -0.0059163397506132569 0 -0.00097713040222206218 -0.00083673311168993864 0 -0.00078268828017882244 -0.0016325057185144177 0 -0.001763832661216411 -0.0056992980468067384 0 -0.0014648936020744512 -0.0060198061992900072 0 -0.0012852378202305424 -0.0057928281466383931 0 -0.0012852378202305424 -0.0057928281466383931 0 -0.00095138277363047898 -0.0057704649729111912 0 -0.0011560506862324344 -0.0054722426328717251 0 -0.0011438245740443926 -0.0060797294918319127 0 -0.0012852378202305424 -0.0057928281466383931 0 -0.00095138277363047898 -0.0057704649729111912 0 -0.0011438245740443926 -0.0060797294918319127 0 -0.0014648936020744512 -0.0060198061992900072 0 -0.0012852378202305424 -0.0057928281466383931 0 -0.00069899002558938437 -0.0062068594521407358 0 -0.0011438245740443926 -0.0060797294918319127 0 -0.00095138277363047898 -0.0057704649729111912 0 -0.0008615489489648227 -0.0054284267334016338 0 -0.00098382040882169595 -0.0051306351948332595 0 -0.0011560506862324344 -0.0054722426328717251 0 -0.00095138277363047898 -0.0057704649729111912 0 -0.0008615489489648227 -0.0054284267334016338 0 -0.0011560506862324344 -0.0054722426328717251 0 -0.0008615489489648227 -0.0054284267334016338 0 -0.00098382040882169595 -0.0051306351948332595 0 -0.00062803316667264504 -0.0050679171244555716 0 -0.00098382040882169595 -0.0051306351948332595 0 -0.0011560506862324344 -0.0054722426328717251 0 -0.0013160101109159514 -0.0052343239497399012 0 -0.001763832661216411 -0.0056992980468067384 0 -0.0011560506862324344 -0.0054722426328717251 0 -0.0013160101109159514 -0.0052343239497399012 0 -0.00097713040222206218 -0.00083673311168993864 0 -0.0012394984025499848 -0.00028251337141634529 0 -0.0013505076943832847 0.0032460558462548985 0 -0.0013537055901386476 0.0032443108955450858 0 -0.0013724636281773723 0.0032274508409410514 0 -0.001763832661216411 -0.0056992980468067384 0 -0.0013160101109159514 -0.0052343239497399012 0 -0.0012792858693775173 -0.0048268820821141221 0 0.00057134929958536332 -0.0052993566332930437 0 -4.459151148525587e-05 -0.0061093988879200303 0 -0.00057324982980880767 -0.0057098482776156865 0 0.00057134929958536332 -0.0052993566332930437 0 -0.00057324982980880767 -0.0057098482776156865 0 -0.00062803316667264504 -0.0050679171244555716 0 -0.00069899002558938437 -0.0062068594521407358 0 -4.459151148525587e-05 -0.0061093988879200303 0 -0.00057324982980880767 -0.0057098482776156865 0 -0.00069899002558938437 -0.0062068594521407358 0 -0.00095138277363047898 -0.0057704649729111912 0 -0.00057324982980880767 -0.0057098482776156865 0 -0.00095138277363047898 -0.0057704649729111912 0 -0.0008615489489648227 -0.0054284267334016338 0 -0.00057324982980880767 -0.0057098482776156865 0 -0.0008615489489648227 -0.0054284267334016338 0 -0.00057324982980880767 -0.0057098482776156865 0 -0.00062803316667264504 -0.0050679171244555716 0 -0.00024253717666299879 -0.0044924893285748068 0 -0.00091848660790340723 -0.0041434487700240698 0 0.00025247309504258103 -0.00383234618002194 0 0.00057134929958536332 -0.0052993566332930437 0 -0.00062803316667264504 -0.0050679171244555716 0 -0.00024253717666299879 -0.0044924893285748068 0 -0.00062803316667264504 -0.0050679171244555716 0 -0.00024253717666299879 -0.0044924893285748068 0 -0.00088442163912967251 -0.0047569600105272581 0 -0.00024253717666299879 -0.0044924893285748068 0 -0.00088442163912967251 -0.0047569600105272581 0 -0.00091848660790340723 -0.0041434487700240698 0 -0.0013537055901386476 0.0032443108955450858 0 -0.0013724636281773723 0.0032274508409410514 0 -0.0013700182441798577 0.0032132165555787298 0 -0.00098382040882169595 -0.0051306351948332595 0 -0.0013160101109159514 -0.0052343239497399012 0 -0.0012792858693775173 -0.0048268820821141221 0 -0.00098382040882169595 -0.0051306351948332595 0 -0.00062803316667264504 -0.0050679171244555716 0 -0.00088442163912967251 -0.0047569600105272581 0 -0.00098382040882169595 -0.0051306351948332595 0 -0.0012792858693775173 -0.0048268820821141221 0 -0.00088442163912967251 -0.0047569600105272581 0 -0.0012394984025499848 -0.00028251337141634529 0 -0.00083805999472376879 -0.00063022743776934857 0 -0.00090731048950513883 0.0010024823069992581 0 -0.0008805052898956721 0.001058182908329496 0 -0.00092682278377724395 0.0010517135218491268 0 -0.00083805999472376879 -0.00063022743776934857 0 -0.0012896474913098028 0.0040728817876261592 0 -0.0012792858693775173 -0.0048268820821141221 0 -0.00088442163912967251 -0.0047569600105272581 0 -0.00091848660790340723 -0.0041434487700240698 0 -0.0012394984025499848 -0.00028251337141634529 0 -0.0012896474913098028 0.0040728817876261592 0 -0.00096856331277324641 0.0011662345321297133 0 -0.0013819293649538628 0.0010583640948043605 0 -0.0011979260014989722 0.0019459051989314175 0 -0.0013819293649538628 0.0010583640948043605 0 -0.0019090118209027006 0.0022812263455509497 0 -0.0011979260014989722 0.0019459051989314175 0 -0.00083805999472376879 -0.00063022743776934857 0 -0.0010998842235324675 -0.0071091247903745268 0 -0.00083805999472376879 -0.00063022743776934857 0 -0.0004735614282812431 -0.0033245591359551733 0 -0.00052617018268102749 -0.0032301519078641724 0 -0.0010432072656561715 -0.0033989792964088457 0 -0.00089665739400096546 -0.0039672610674839964 0 -0.00096856331277324641 0.0011662345321297133 0 -0.00035443968588180183 0.0023135089307935765 0 -0.0011979260014989722 0.0019459051989314175 0 -0.0020530824165664015 -0.010058835052410658 0 -0.0022864794567571162 -0.010125479646268804 0 -0.0021718995260114034 -0.0097340599226952741 0 -0.0020530824165664015 -0.010058835052410658 0 -0.0017525585624490491 -0.010127449221600113 0 -0.0018079091207327054 -0.0097754616766176951 0 -0.0020530824165664015 -0.010058835052410658 0 -0.0018079091207327054 -0.0097754616766176951 0 -0.0021718995260114034 -0.0097340599226952741 0 -0.0020530824165664015 -0.010058835052410658 0 -0.0019532177394611296 -0.010427113829997735 0 -0.0017525585624490491 -0.010127449221600113 0 -0.0020530824165664015 -0.010058835052410658 0 -0.0022320239009901159 -0.010107490321491152 0 -0.0019532177394611296 -0.010427113829997735 0 -0.0022903643465514486 -0.0084060481869191132 0 -0.0010998842235324675 -0.0071091247903745268 0 0.00057134929958536332 -0.0052993566332930437 0 -0.00024253717666299879 -0.0044924893285748068 0 0.00025247309504258103 -0.00383234618002194 0 -0.00081198780661071541 -0.0079529471484673566 0 -0.0010998842235324675 -0.0071091247903745268 0 -0.0020999177250590525 -0.010749945342706709 0 -0.0022320239009901159 -0.010107490321491152 0 -0.0019532177394611296 -0.010427113829997735 0 -0.0020999177250590525 -0.010749945342706709 0 -0.0015821449073927369 -0.010869809423148949 0 -0.0019532177394611296 -0.010427113829997735 0 -0.0019532177394611296 -0.010427113829997735 0 -0.0015309834234452846 -0.010401001944717393 0 -0.0017525585624490491 -0.010127449221600113 0 -0.0015821449073927369 -0.010869809423148949 0 -0.0019532177394611296 -0.010427113829997735 0 -0.0015309834234452846 -0.010401001944717393 0 -0.0015309834234452846 -0.010401001944717393 0 -0.0017525585624490491 -0.010127449221600113 0 -0.0015143105134886169 -0.010007606436704014 0 -0.0017525585624490491 -0.010127449221600113 0 -0.0015143105134886169 -0.010007606436704014 0 -0.0018079091207327054 -0.0097754616766176951 0 -0.0015143105134886169 -0.010007606436704014 0 -0.0012827806073051424 -0.0099708865063781061 0 -0.0013975465156321077 -0.0097620067701739612 0 -0.0015143105134886169 -0.010007606436704014 0 -0.0013035381320957026 -0.010249847976096769 0 -0.0012827806073051424 -0.0099708865063781061 0 -0.0015309834234452846 -0.010401001944717393 0 -0.0015143105134886169 -0.010007606436704014 0 -0.0013035381320957026 -0.010249847976096769 0 -0.0013035381320957026 -0.010249847976096769 0 -0.0012827806073051424 -0.0099708865063781061 0 -0.0010818473027320965 -0.010150111043808275 0 -0.0012827806073051424 -0.0099708865063781061 0 -0.0010818473027320965 -0.010150111043808275 0 -0.001129229821660264 -0.0098538808861269485 0 -0.0010818473027320965 -0.010150111043808275 0 -0.00096857025095941013 -0.0099145223688453035 0 -0.001129229821660264 -0.0098538808861269485 0 -0.00086580453991398285 -0.010109329683580207 0 -0.0010818473027320965 -0.010150111043808275 0 -0.00096857025095941013 -0.0099145223688453035 0 -0.00086580453991398285 -0.010109329683580207 0 -0.00075519467485055905 -0.0099163675802678708 0 -0.00096857025095941013 -0.0099145223688453035 0 -0.00086580453991398285 -0.010109329683580207 0 -0.0010818473027320965 -0.010150111043808275 0 -0.00084309191445746398 -0.010414798699346257 0 -0.001176600580128245 -0.010603605470260648 0 -0.00084309191445746398 -0.010414798699346257 0 -0.00080628107801033111 -0.010790770996974491 0 -0.0010818473027320965 -0.010150111043808275 0 -0.001176600580128245 -0.010603605470260648 0 -0.00084309191445746398 -0.010414798699346257 0 -0.0015821449073927369 -0.010869809423148949 0 -0.0015309834234452846 -0.010401001944717393 0 -0.001176600580128245 -0.010603605470260648 0 -0.0015309834234452846 -0.010401001944717393 0 -0.0013035381320957026 -0.010249847976096769 0 -0.001176600580128245 -0.010603605470260648 0 -0.0013035381320957026 -0.010249847976096769 0 -0.0010818473027320965 -0.010150111043808275 0 -0.001176600580128245 -0.010603605470260648 0 -0.00062761693381590254 -0.012702434310493796 0 -0.00053530779364860815 -0.012502400088810936 0 -0.00066975820185970853 -0.012733898032523098 0 -0.00062761693381590254 -0.012702434310493796 0 -0.00071835871293683662 -0.012724160616023899 0 -0.00066975820185970853 -0.012733898032523098 0 -0.00036205609236859891 -0.010175863095926026 0 -0.00068181108563260598 -0.010244111491281275 0 -0.00075519467485055905 -0.0099163675802678708 0 -0.00036205609236859891 -0.010175863095926026 0 -0.00075519467485055905 -0.0099163675802678708 0 -0.00065135145026431172 -0.0098339436596827957 0 -0.00036205609236859891 -0.010175863095926026 0 -0.00068181108563260598 -0.010244111491281275 0 -0.00057088422904973699 -0.010603920084564558 0 -0.00086580453991398285 -0.010109329683580207 0 -0.00068181108563260598 -0.010244111491281275 0 -0.00075519467485055905 -0.0099163675802678708 0 -0.00086580453991398285 -0.010109329683580207 0 -0.00068181108563260598 -0.010244111491281275 0 -0.00084309191445746398 -0.010414798699346257 0 -0.00080628107801033111 -0.010790770996974491 0 -0.00057088422904973699 -0.010603920084564558 0 -0.00058434330460329568 -0.011069068011577192 0 -0.00068181108563260598 -0.010244111491281275 0 -0.00084309191445746398 -0.010414798699346257 0 -0.00057088422904973699 -0.010603920084564558 0 -0.00084309191445746398 -0.010414798699346257 0 -0.00080628107801033111 -0.010790770996974491 0 -0.00057088422904973699 -0.010603920084564558 0 -0.00051985999346758219 -0.011382839272801882 0 -0.0003543316208755639 -0.011616968608344616 0 -0.00036205609236859891 -0.010175863095926026 0 -0.00057088422904973699 -0.010603920084564558 0 -0.00022668349179937316 -0.010946781193577511 0 -0.00062761693381590254 -0.012702434310493796 0 -0.00053530779364860815 -0.012502400088810936 0 -0.0004350742342720194 -0.012311654890090366 0 -0.00057088422904973699 -0.010603920084564558 0 -0.00022668349179937316 -0.010946781193577511 0 -0.00058434330460329568 -0.011069068011577192 0 -0.00022668349179937316 -0.010946781193577511 0 -0.00058434330460329568 -0.011069068011577192 0 -0.00043367747328274908 -0.011437063813492875 0 -0.00058434330460329568 -0.011069068011577192 0 -0.00060648051333487109 -0.011419837055173066 0 -0.00043367747328274908 -0.011437063813492875 0 -0.00058434330460329568 -0.011069068011577192 0 -0.00077599869247107936 -0.011199240539706142 0 -0.00060648051333487109 -0.011419837055173066 0 -0.00080628107801033111 -0.010790770996974491 0 -0.00058434330460329568 -0.011069068011577192 0 -0.00077599869247107936 -0.011199240539706142 0 -0.00077599869247107936 -0.011199240539706142 0 -0.00077956378732872841 -0.011535693999344067 0 -0.00060648051333487109 -0.011419837055173066 0 -0.00077599869247107936 -0.011199240539706142 0 -0.00077956378732872841 -0.011535693999344067 0 -0.0010774756048656654 -0.011112871576561651 0 -0.00077956378732872841 -0.011535693999344067 0 -0.00060648051333487109 -0.011419837055173066 0 -0.00043412304925774921 -0.011804984054546903 0 -0.00060648051333487109 -0.011419837055173066 0 -0.00043367747328274908 -0.011437063813492875 0 -0.00043412304925774921 -0.011804984054546903 0 -0.0015821449073927369 -0.010869809423148949 0 -0.001176600580128245 -0.010603605470260648 0 -0.0010774756048656654 -0.011112871576561651 0 -0.00080628107801033111 -0.010790770996974491 0 -0.00077599869247107936 -0.011199240539706142 0 -0.0010774756048656654 -0.011112871576561651 0 -0.001176600580128245 -0.010603605470260648 0 -0.00080628107801033111 -0.010790770996974491 0 -0.0010774756048656654 -0.011112871576561651 0 -0.00059863074291299518 -0.011690837161718997 0 -0.00090138381335786789 -0.012028813887817172 0 -0.00077956378732872841 -0.011535693999344067 0 -0.0010774756048656654 -0.011112871576561651 0 -0.0013368968540115921 -0.011411167917741171 0 -0.0015821449073927369 -0.010869809423148949 0 -0.0010774756048656654 -0.011112871576561651 0 -0.0013368968540115921 -0.011411167917741171 0 -0.00016705402578173133 -0.012000347712349911 0 -0.0001524670902457463 -0.011724752168804907 0 -0.00037748661958129844 -0.011802692257189024 0 -0.00016705402578173133 -0.012000347712349911 0 -0.0001524670902457463 -0.011724752168804907 0 9.158316141349186e-05 -0.011775435637548756 0 -0.00051719302323611095 -0.011919498690359409 0 -0.00016705402578173133 -0.012000347712349911 0 -0.00037748661958129844 -0.011802692257189024 0 -0.00037748661958129844 -0.011802692257189024 0 -0.00043534948269032496 -0.011768507988711501 0 -0.00027154430961935557 -0.011623308971356822 0 -0.00037748661958129844 -0.011802692257189024 0 -0.00043534948269032496 -0.011768507988711501 0 -0.00050620229312979515 -0.011857392243006575 0 -0.00027154430961935557 -0.011623308971356822 0 -0.00020661274679729293 -0.011472060632446882 0 8.2089986654770546e-05 -0.011432467070884429 0 -0.0001524670902457463 -0.011724752168804907 0 -0.00027154430961935557 -0.011623308971356822 0 8.2089986654770546e-05 -0.011432467070884429 0 -0.0001524670902457463 -0.011724752168804907 0 8.2089986654770546e-05 -0.011432467070884429 0 9.158316141349186e-05 -0.011775435637548756 0 -0.0001524670902457463 -0.011724752168804907 0 -0.00037748661958129844 -0.011802692257189024 0 -0.00027154430961935557 -0.011623308971356822 0 -0.00059863074291299518 -0.011690837161718997 0 -0.00044131680322181076 -0.011805516099764492 0 -0.00051719302323611095 -0.011919498690359409 0 -0.00051160048139346748 -0.011881046189528847 0 -0.00043412304925774921 -0.011804984054546903 0 -0.00051160048139346748 -0.011881046189528847 0 -0.00043412304925774921 -0.011804984054546903 0 -0.00047459846072693253 -0.011893313148041144 0 -0.00051719302323611095 -0.011919498690359409 0 -0.00051160048139346748 -0.011881046189528847 0 -0.00050620229312979515 -0.011857392243006575 0 -0.00051719302323611095 -0.011919498690359409 0 -0.00037748661958129844 -0.011802692257189024 0 -0.00050620229312979515 -0.011857392243006575 0 -0.00043534948269032496 -0.011768507988711501 0 -0.00050620229312979515 -0.011857392243006575 0 -0.00054403903546414926 -0.01190621094037381 0 -0.00050620229312979515 -0.011857392243006575 0 -0.00055831703782240494 -0.011949227309078936 0 -0.00054403903546414926 -0.01190621094037381 0 -0.00051160048139346748 -0.011881046189528847 0 -0.00050620229312979515 -0.011857392243006575 0 -0.00055831703782240494 -0.011949227309078936 0 -0.00051160048139346748 -0.011881046189528847 0 -0.00055831703782240494 -0.011949227309078936 0 -0.00047459846072693253 -0.011893313148041144 0 -0.00055831703782240494 -0.011949227309078936 0 -0.00054403903546414926 -0.01190621094037381 0 -0.00072531790324713828 -0.012183040881079686 0 -0.00054403903546414926 -0.01190621094037381 0 -0.00054354056698828902 -0.011897311402700896 0 -0.00072531790324713828 -0.012183040881079686 0 -0.00054403903546414926 -0.01190621094037381 0 -0.00045654916933266442 -0.011794028607974495 0 -0.00054354056698828902 -0.011897311402700896 0 -0.00043534948269032496 -0.011768507988711501 0 -0.00054403903546414926 -0.01190621094037381 0 -0.00045654916933266442 -0.011794028607974495 0 -0.00054354056698828902 -0.011897311402700896 0 -0.0004028570997489307 -0.011744127741601156 0 -0.0005611948235588009 -0.011677448077568684 0 -0.00045654916933266442 -0.011794028607974495 0 -0.00054354056698828902 -0.011897311402700896 0 -0.0004028570997489307 -0.011744127741601156 0 -0.00054354056698828902 -0.011897311402700896 0 -0.00072531790324713828 -0.012183040881079686 0 -0.0005611948235588009 -0.011677448077568684 0 -0.00071151486652611519 -0.012523344377705088 0 -0.0013965182774325093 -0.011270918189745807 0 -0.00027154430961935557 -0.011623308971356822 0 -0.00020661274679729293 -0.011472060632446882 0 -0.00035723024433661078 -0.011668239304904552 0 -0.00043534948269032496 -0.011768507988711501 0 -0.00027154430961935557 -0.011623308971356822 0 -0.00035723024433661078 -0.011668239304904552 0 -0.00020661274679729293 -0.011472060632446882 0 -0.00035723024433661078 -0.011668239304904552 0 -0.0004028570997489307 -0.011744127741601156 0 -0.00043534948269032496 -0.011768507988711501 0 -0.00045654916933266442 -0.011794028607974495 0 -0.00035723024433661078 -0.011668239304904552 0 -0.00045654916933266442 -0.011794028607974495 0 -0.00035723024433661078 -0.011668239304904552 0 -0.0004028570997489307 -0.011744127741601156 0 -0.00022962047598094608 -0.010002856669510328 0 -0.0010987949613845481 -0.0090675855600244135 0 -0.00065710395614631872 -0.00891378322710293 0 -0.0010987949613845481 -0.0090675855600244135 0 -0.00065710395614631872 -0.00891378322710293 0 -0.0010901723510804045 -0.0085839780714896223 0 -0.00022962047598094608 -0.010002856669510328 0 0.00031051286450561595 -0.0093459731338787506 0 -0.00020019867041646763 -0.0087333734585838783 0 -0.00022962047598094608 -0.010002856669510328 0 -0.00065710395614631872 -0.00891378322710293 0 -0.00020019867041646763 -0.0087333734585838783 0 -0.00013847518401045357 -0.01078186018738834 0 -0.0007771439966428763 -0.01022634264477726 0 0.00031051286450561595 -0.0093459731338787506 0 0.00059907419944447613 -0.00823430921343472 0 -0.00020019867041646763 -0.0087333734585838783 0 0.0009442720249204996 -0.0088461338680127545 0 0.00064822031227056522 -0.0083204462087587121 0 0.00031051286450561595 -0.0093459731338787506 0 0.0010259966315948135 -0.0094833777447430132 0 0.00059907419944447613 -0.00823430921343472 0 0.00031051286450561595 -0.0093459731338787506 0 0.0010259966315948135 -0.0094833777447430132 0 0.00050772339530017504 -0.010085996109653004 0 0.0010864184201359246 -0.008533492287392249 0 0.0013806244918222405 -0.0082782374635284716 0 0.0011922663641110935 -0.0080046761438679129 0 0.0010259966315948135 -0.0094833777447430132 0 0.00087000073800577152 -0.01056870436071697 0 0.00050772339530017504 -0.010085996109653004 0 0.0009442720249204996 -0.0088461338680127545 0 0.0015105314948524299 -0.010257201645657132 0 0.0010259966315948135 -0.0094833777447430132 0 0.00087000073800577152 -0.01056870436071697 0 0.0011810039208098851 -0.010570765684886508 0 0.0010864184201359246 -0.008533492287392249 0 0.0013568076472557568 -0.0087392671427054501 0 0.0015281368074115604 -0.0086044354027256468 0 -0.00013847518401045357 -0.01078186018738834 0 0.0005570186448593848 -0.01103483894385409 0 -0.00022962047598094608 -0.010002856669510328 0 0.00031051286450561595 -0.0093459731338787506 0 0.00050772339530017504 -0.010085996109653004 0 0.00087000073800577152 -0.01056870436071697 0 0.00050772339530017504 -0.010085996109653004 0 0.00059619627518304357 -0.010988762915953715 0 -0.00022962047598094608 -0.010002856669510328 0 0.00050772339530017504 -0.010085996109653004 0 0.00059619627518304357 -0.010988762915953715 0 -0.00020661274679729293 -0.011472060632446882 0 8.2089986654770546e-05 -0.011432467070884429 0 0.00059619627518304357 -0.010988762915953715 0 8.2089986654770546e-05 -0.011432467070884429 0 0.00033988537121120685 -0.011575783163905035 0 9.158316141349186e-05 -0.011775435637548756 0 8.2089986654770546e-05 -0.011432467070884429 0 0.00065189513357720669 -0.011114024644733015 0 0.00063036520941698085 -0.011088182716527294 0 8.2089986654770546e-05 -0.011432467070884429 0 0.00063036520941698085 -0.011088182716527294 0 0.00059619627518304357 -0.010988762915953715 0 0.00016377097318240016 -0.011188618971027886 0 0.00099324072817955186 -0.010343749454001194 0 0.00099324072817955186 -0.010343749454001194 0 0.00099322508310910871 -0.01042543223646733 0 0.00087000073800577152 -0.01056870436071697 0 0.00059619627518304357 -0.010988762915953715 0 0.00081122277606715326 -0.010920952811214333 0 0.00087000073800577152 -0.01056870436071697 0 0.0010028493404982534 -0.010758179639878128 0 0.00081122277606715326 -0.010920952811214333 0 0.00087000073800577152 -0.01056870436071697 0 0.0011810039208098851 -0.010570765684886508 0 0.0010028493404982534 -0.010758179639878128 0 0.0010028493404982534 -0.010758179639878128 0 0.00093401076373393415 -0.010839342750007159 0 0.0009327212585088265 -0.01076376706805489 0 0.0010028493404982534 -0.010758179639878128 0 0.00093401076373393415 -0.010839342750007159 0 0.00081122277606715326 -0.010920952811214333 0 0.00067798791249377912 -0.011088392623486933 0 0.00093401076373393415 -0.010839342750007159 0 0.00081122277606715326 -0.010920952811214333 0 0.00063036520941698085 -0.011088182716527294 0 0.00059619627518304357 -0.010988762915953715 0 0.00081122277606715326 -0.010920952811214333 0 0.00067798791249377912 -0.011088392623486933 0 0.00063036520941698085 -0.011088182716527294 0 0.00081122277606715326 -0.010920952811214333 0 -3.241146329192949e-05 -0.0092354701744011801 0 0.00099324072817955186 -0.010343749454001194 0 0.00067798791249377912 -0.011088392623486933 0 0.00093401076373393415 -0.010839342750007159 0 0.0010378680070660322 -0.010694761279319918 0 0.0012117678452232986 -0.0068740763031636632 0 0.001559817497480516 -0.0085711109510772914 0 0.00024637186998494081 -0.0079713994608973781 0 0.00099324072817955186 -0.010343749454001194 0 0.00079491579328458883 -0.0095272151029610151 0 0.00041037759994190466 -0.012036648932544573 0 0.00033988537121120685 -0.011575783163905035 0 9.158316141349186e-05 -0.011775435637548756 0 0.00041037759994190466 -0.012036648932544573 0 -0.00016705402578173133 -0.012000347712349911 0 9.158316141349186e-05 -0.011775435637548756 0 -0.00030746144446115986 0.00083063286176553554 0 -0.0003818130672279051 0.00087071162787624842 0 -0.00041310514018853297 0.00091703588120132585 0 -0.00032466742273225751 0.0008152534952709647 0 -0.00030746144446115986 0.00083063286176553554 0 -0.00027411872572093144 0.00076331118562896947 0 -0.00032466742273225751 0.0008152534952709647 0 -0.00027411872572093144 0.00076331118562896947 0 -0.00031754600820631793 0.00079487774396770454 0 -0.00032466742273225751 0.0008152534952709647 0 -0.00031754600820631793 0.00079487774396770454 0 -0.00036122372205363529 0.00082743249833237083 0 -0.00032466742273225751 0.0008152534952709647 0 -0.00036122372205363529 0.00082743249833237083 0 -0.0003818130672279051 0.00087071162787624842 0 -0.00032466742273225751 0.0008152534952709647 0 -0.00030746144446115986 0.00083063286176553554 0 -0.0003818130672279051 0.00087071162787624842 0 0.00041317601520179622 -0.010097007349690695 0 0.0010378680070660322 -0.010694761279319918 0 0.00076598257893628608 -0.010699627665926857 0 -7.6116883828415336e-05 -0.0067540583253904796 0 -0.0010462562962840129 -0.007347593946445392 0 0.00024637186998494081 -0.0079713994608973781 0 -0.00044498913385529682 -0.005072312245163006 0 0.00079491579328458883 -0.0095272151029610151 0 0.00093401076373393415 -0.010839342750007159 0 0.0010378680070660322 -0.010694761279319918 0 0.0009327212585088265 -0.01076376706805489 0 0.0010378680070660322 -0.010694761279319918 0 0.0009327212585088265 -0.01076376706805489 0 0.00076598257893628608 -0.010699627665926857 0 -0.00044498913385529682 -0.005072312245163006 0 0.00070983969217668639 -0.0060541510711774327 0 0.00041317601520179622 -0.010097007349690695 0 0.00076598257893628608 -0.010699627665926857 0 0.00076039337058617844 -0.010765922902794057 0 0.0009327212585088265 -0.01076376706805489 0 0.00076598257893628608 -0.010699627665926857 0 0.00082257265646189194 -0.010758010027957038 0 0.00071283302066446868 -0.006414588832594624 0 0.00070983969217668639 -0.0060541510711774327 0 0.0011810039208098851 -0.010570765684886508 0 0.0009327212585088265 -0.01076376706805489 0 0.00082257265646189194 -0.010758010027957038 0 -0.00027411872572093144 0.00076331118562896947 0 -0.00031424608501359329 0.00077319062894322247 0 -0.00024484101052140724 0.00071811368930342395 0 0.0011810039208098851 -0.010570765684886508 0 0.0010028493404982534 -0.010758179639878128 0 0.0009327212585088265 -0.01076376706805489 0 0.0015105314948524299 -0.010257201645657132 0 0.00070983969217668639 -0.0060541510711774327 0 0.00070983969217668639 -0.0060541510711774327 0 0.00063412228621443527 -0.0034769012527023392 0 -0.00031424608501359329 0.00077319062894322247 0 -0.00031754600820631793 0.00079487774396770454 0 -0.00036122372205363529 0.00082743249833237083 0 -0.00027411872572093144 0.00076331118562896947 0 -0.00031424608501359329 0.00077319062894322247 0 -0.00031754600820631793 0.00079487774396770454 0 -0.00031424608501359329 0.00077319062894322247 0 -0.00036122372205363529 0.00082743249833237083 0 -0.00039401159110453418 0.00079911559227915539 0 -0.00033779066160454901 0.00075157304261110449 0 -0.00024484101052140724 0.00071811368930342395 0 -0.00040785779254212071 0.00070432750987332903 0 -0.00039401159110453418 0.00079911559227915539 0 -0.00033779066160454901 0.00075157304261110449 0 -0.00040785779254212071 0.00070432750987332903 0 -0.00031424608501359329 0.00077319062894322247 0 -0.00039401159110453418 0.00079911559227915539 0 -0.00033779066160454901 0.00075157304261110449 0 -0.00031424608501359329 0.00077319062894322247 0 -0.00033779066160454901 0.00075157304261110449 0 -0.00024484101052140724 0.00071811368930342395 0 0.0013568076472557568 -0.0087392671427054501 0 0.0014402521189171757 -0.0088706282208759289 0 0.0015281368074115604 -0.0086044354027256468 0 0.0015281368074115604 -0.0086044354027256468 0 0.0013806244918222405 -0.0082782374635284716 0 0.0017233822785449402 -0.0079117125353876088 0 -0.00024484101052140724 0.00071811368930342395 0 -0.00028336247259874687 0.00057285045368115262 0 -6.4504661872554408e-05 0.00036273442346416703 0 0.0010864184201359246 -0.008533492287392249 0 0.0015281368074115604 -0.0086044354027256468 0 0.0013806244918222405 -0.0082782374635284716 0 0.00063412228621443527 -0.0034769012527023392 0 0.00081618676906515715 -0.003883898648926758 0 -0.00024484101052140724 0.00071811368930342395 0 -0.00040785779254212071 0.00070432750987332903 0 -0.00028336247259874687 0.00057285045368115262 0 -0.00040785779254212071 0.00070432750987332903 0 -0.00028336247259874687 0.00057285045368115262 0 -0.00043232622774793376 0.00054062875407236925 0 -0.00040785779254212071 0.00070432750987332903 0 -0.00059369287150364913 0.00068851796050766454 0 -0.00060247693749555342 0.00076181589908687179 0 -0.00040785779254212071 0.00070432750987332903 0 -0.00059369287150364913 0.00068851796050766454 0 -0.00043232622774793376 0.00054062875407236925 0 -0.00039401159110453418 0.00079911559227915539 0 -0.00040785779254212071 0.00070432750987332903 0 -0.00051226487177975007 0.00081959439111642667 0 -0.00040785779254212071 0.00070432750987332903 0 -0.00051226487177975007 0.00081959439111642667 0 -0.00060247693749555342 0.00076181589908687179 0 -0.00063477296194436425 0.00084826285211436173 0 -0.00060247693749555342 0.00076181589908687179 0 -0.00070610712184045882 0.00074764196634269158 0 -0.00051226487177975007 0.00081959439111642667 0 -0.00063477296194436425 0.00084826285211436173 0 -0.00060247693749555342 0.00076181589908687179 0 -0.00059369287150364913 0.00068851796050766454 0 -0.00060247693749555342 0.00076181589908687179 0 -0.00070610712184045882 0.00074764196634269158 0 -0.00059369287150364913 0.00068851796050766454 0 -0.00070610712184045882 0.00074764196634269158 0 -0.00074297630275790686 0.00065326298301995758 0 -0.00070610712184045882 0.00074764196634269158 0 -0.00084985874379182435 0.00082530783876088394 0 -0.00077443089320369048 0.00069023194123669354 0 -0.00084985874379182435 0.00082530783876088394 0 -0.00075996701464534295 0.00086137585589764936 0 -0.00083558224231614748 0.00095723002084594324 0 -0.00063477296194436425 0.00084826285211436173 0 -0.00070610712184045882 0.00074764196634269158 0 -0.00075996701464534295 0.00086137585589764936 0 -0.00070610712184045882 0.00074764196634269158 0 -0.00084985874379182435 0.00082530783876088394 0 -0.00075996701464534295 0.00086137585589764936 0 -0.00063477296194436425 0.00084826285211436173 0 -0.00075996701464534295 0.00086137585589764936 0 -0.00072517970998584914 0.00099704227964107469 0 -0.00072517970998584914 0.00099704227964107469 0 -0.00083558224231614748 0.00095723002084594324 0 -0.00085997064502801662 0.0011067024143531687 0 -0.00075996701464534295 0.00086137585589764936 0 -0.00072517970998584914 0.00099704227964107469 0 -0.00083558224231614748 0.00095723002084594324 0 -0.00072517970998584914 0.00099704227964107469 0 -0.00085997064502801662 0.0011067024143531687 0 -0.00074020995201031111 0.0011241279314576828 0 -0.00072517970998584914 0.00099704227964107469 0 -0.00074020995201031111 0.0011241279314576828 0 -0.00065487621858366352 0.0011127143206130863 0 -0.00065487621858366352 0.0011127143206130863 0 -0.00051064262338245021 0.00092691879028684106 0 -0.0005626429523728398 0.0011821614346158844 0 -0.00072517970998584914 0.00099704227964107469 0 -0.00065487621858366352 0.0011127143206130863 0 -0.00051064262338245021 0.00092691879028684106 0 -0.00051064262338245021 0.00092691879028684106 0 -0.00045182250463300107 0.0011898925049624199 0 -0.0005626429523728398 0.0011821614346158844 0 -0.0003818130672279051 0.00087071162787624842 0 -0.00051064262338245021 0.00092691879028684106 0 -0.00041310514018853297 0.00091703588120132585 0 -0.00051064262338245021 0.00092691879028684106 0 -0.00039511505433569423 0.0011639823871282128 0 -0.00045182250463300107 0.0011898925049624199 0 -0.00036122372205363529 0.00082743249833237083 0 -0.0003818130672279051 0.00087071162787624842 0 -0.00051064262338245021 0.00092691879028684106 0 -0.00041746666348414595 0.001201034018958456 0 -0.00048496982684625414 0.00030030571143694463 0 -0.00036122372205363529 0.00082743249833237083 0 -0.00039401159110453418 0.00079911559227915539 0 -0.00051064262338245021 0.00092691879028684106 0 -0.00039401159110453418 0.00079911559227915539 0 -0.00051226487177975007 0.00081959439111642667 0 -0.00051064262338245021 0.00092691879028684106 0 -0.00063477296194436425 0.00084826285211436173 0 -0.00072517970998584914 0.00099704227964107469 0 -0.00051064262338245021 0.00092691879028684106 0 -0.00051226487177975007 0.00081959439111642667 0 -0.00063477296194436425 0.00084826285211436173 0 -0.00051064262338245021 0.00092691879028684106 0 -0.0017273689697599088 0.009938371944128865 0 -0.0017635893151030911 0.0099446254766856253 0 -0.0017850688904508048 0.0099157765585806117 0 -0.0017273689697599088 0.009938371944128865 0 -0.0017305132781999211 0.0099650282455727504 0 -0.0017635893151030911 0.0099446254766856253 0 -0.0017305132781999211 0.0099650282455727504 0 -0.0017635893151030911 0.0099446254766856253 0 -0.0017610438700385274 0.0099624706751267039 0 -0.0017635893151030911 0.0099446254766856253 0 -0.0017610438700385274 0.0099624706751267039 0 -0.0018165804809582378 0.0099403964632281475 0 -0.0012825908096394047 0.0056094807401387021 0 -0.0021555599826515418 0.0045618400681862251 0 -0.0017366211047022684 0.009979222261071112 0 -0.0017305132781999211 0.0099650282455727504 0 -0.0017610438700385274 0.0099624706751267039 0 -0.0017610438700385274 0.0099624706751267039 0 -0.0018165804809582378 0.0099403964632281475 0 -0.0017582423167910467 0.0099786052784136998 0 -0.0017366211047022684 0.009979222261071112 0 -0.0017610438700385274 0.0099624706751267039 0 -0.0017582423167910467 0.0099786052784136998 0 -0.0018165804809582378 0.0099403964632281475 0 -0.0019080116211019952 0.0098714956610282678 0 -0.0017850688904508048 0.0099157765585806117 0 -0.0017635893151030911 0.0099446254766856253 0 -0.0018165804809582378 0.0099403964632281475 0 -0.0017850688904508048 0.0099157765585806117 0 -0.0012825908096394047 0.0056094807401387021 0 -0.0014761270379009225 0.0054018659835608773 0 -0.0010666452196940804 0.00090660182845754729 0 -0.00097044795817914013 0.00084402304729231693 0 -0.00096296919422968587 0.00099003528678565556 0 -0.0010666452196940804 0.00090660182845754729 0 -0.00097044795817914013 0.00084402304729231693 0 -0.0010501374892469054 0.00078272985337160777 0 -0.00084985874379182435 0.00082530783876088394 0 -0.00097044795817914013 0.00084402304729231693 0 -0.00091293412004127001 0.00073044770932935324 0 -0.00084985874379182435 0.00082530783876088394 0 -0.00083558224231614748 0.00095723002084594324 0 -0.00096296919422968587 0.00099003528678565556 0 -0.00084985874379182435 0.00082530783876088394 0 -0.00097044795817914013 0.00084402304729231693 0 -0.00096296919422968587 0.00099003528678565556 0 -0.00083558224231614748 0.00095723002084594324 0 -0.00085997064502801662 0.0011067024143531687 0 -0.00096296919422968587 0.00099003528678565556 0 -0.0014111687764228702 0.0053550515577525252 0 -0.0014761270379009225 0.0054018659835608773 0 -0.0020374684912639728 0.0097559692708451985 0 -0.0019339867167109969 0.0097630381101303041 0 -0.0019080116211019952 0.0098714956610282678 0 -0.0019339867167109969 0.0097630381101303041 0 -0.0018657796736496863 0.0098101536289904867 0 -0.0019080116211019952 0.0098714956610282678 0 -0.0018657796736496863 0.0098101536289904867 0 -0.0019080116211019952 0.0098714956610282678 0 -0.0018075464791636896 0.0098612482096965028 0 -0.0019080116211019952 0.0098714956610282678 0 -0.0018075464791636896 0.0098612482096965028 0 -0.0017850688904508048 0.0099157765585806117 0 -0.0018657796736496863 0.0098101536289904867 0 -0.0018075464791636896 0.0098612482096965028 0 -0.0018138695574923408 0.0098092815732393479 0 -0.0018075464791636896 0.0098612482096965028 0 -0.0017606066022287086 0.0098513728938513234 0 -0.0018138695574923408 0.0098092815732393479 0 -0.0018075464791636896 0.0098612482096965028 0 -0.0017606066022287086 0.0098513728938513234 0 -0.0017513554069198071 0.0098890325000117827 0 -0.0017075387843191062 0.0098789110494265989 0 -0.0017606066022287086 0.0098513728938513234 0 -0.0017513554069198071 0.0098890325000117827 0 -0.0017273689697599088 0.009938371944128865 0 -0.0017513554069198071 0.0098890325000117827 0 -0.0017850688904508048 0.0099157765585806117 0 -0.0018075464791636896 0.0098612482096965028 0 -0.0017513554069198071 0.0098890325000117827 0 -0.0017850688904508048 0.0099157765585806117 0 -0.0017779486682026635 0.0097349838211154109 0 -0.0017611870651044782 0.0098108572271765442 0 -0.0018234642069286317 0.0097556910384110386 0 -0.0016995845434729438 0.009816999496019347 0 -0.0017779486682026635 0.0097349838211154109 0 -0.0017611870651044782 0.0098108572271765442 0 -0.0017222021116194198 0.0097391018370057043 0 -0.0016995845434729438 0.009816999496019347 0 -0.0017779486682026635 0.0097349838211154109 0 -0.0017075387843191062 0.0098789110494265989 0 -0.0017606066022287086 0.0098513728938513234 0 -0.0017611870651044782 0.0098108572271765442 0 -0.0017606066022287086 0.0098513728938513234 0 -0.0017611870651044782 0.0098108572271765442 0 -0.0018138695574923408 0.0098092815732393479 0 -0.0017611870651044782 0.0098108572271765442 0 -0.0018138695574923408 0.0098092815732393479 0 -0.0018234642069286317 0.0097556910384110386 0 -0.0018657796736496863 0.0098101536289904867 0 -0.0018138695574923408 0.0098092815732393479 0 -0.0018723896071861359 0.0097528481592074178 0 -0.0018234642069286317 0.0097556910384110386 0 -0.0018777853615714762 0.0097015034181435044 0 -0.0018723896071861359 0.0097528481592074178 0 -0.0018138695574923408 0.0098092815732393479 0 -0.0018234642069286317 0.0097556910384110386 0 -0.0018723896071861359 0.0097528481592074178 0 -0.0018234642069286317 0.0097556910384110386 0 -0.0018460340546015614 0.0096895419977833172 0 -0.0018777853615714762 0.0097015034181435044 0 -0.0017779486682026635 0.0097349838211154109 0 -0.0018234642069286317 0.0097556910384110386 0 -0.0018460340546015614 0.0096895419977833172 0 -0.001944137620616676 0.00968242089827695 0 -0.0019840662105958459 0.0096140578320366467 0 -0.0019104669126259175 0.0096249930611990338 0 -0.001944137620616676 0.00968242089827695 0 -0.0018777853615714762 0.0097015034181435044 0 -0.0019104669126259175 0.0096249930611990338 0 -0.0018460340546015614 0.0096895419977833172 0 -0.0018777853615714762 0.0097015034181435044 0 -0.0019104669126259175 0.0096249930611990338 0 -0.001944137620616676 0.00968242089827695 0 -0.0018777853615714762 0.0097015034181435044 0 -0.0018723896071861359 0.0097528481592074178 0 -0.001944137620616676 0.00968242089827695 0 -0.0018723896071861359 0.0097528481592074178 0 -0.0020801206418457618 0.0097077771435992617 0 -0.0018639329579460454 0.0096557517105069924 0 -0.0021193356970117226 0.010071182505531007 0 -0.0019339867167109969 0.0097630381101303041 0 -0.0018657796736496863 0.0098101536289904867 0 -0.0018723896071861359 0.0097528481592074178 0 -0.0020374684912639728 0.0097559692708451985 0 -0.0019339867167109969 0.0097630381101303041 0 -0.0020013371063803721 0.0096382423416237692 0 -0.0019339867167109969 0.0097630381101303041 0 -0.0018723896071861359 0.0097528481592074178 0 -0.0020013371063803721 0.0096382423416237692 0 -0.001944137620616676 0.00968242089827695 0 -0.0019840662105958459 0.0096140578320366467 0 -0.0020561885477569375 0.0096359884162783137 0 -0.001944137620616676 0.00968242089827695 0 -0.0020801206418457618 0.0097077771435992617 0 -0.002134486980062549 0.0095415232063865724 0 -0.0019558346959466233 0.0096660716534193256 0 -0.0021054325607392922 0.0095830262487805011 0 -0.0020389360509025498 0.0095615419333558889 0 -0.0019840662105958459 0.0096140578320366467 0 -0.0020561885477569375 0.0096359884162783137 0 -0.0020389360509025498 0.0095615419333558889 0 -0.0019840662105958459 0.0096140578320366467 0 -0.0019748169743879478 0.0095489027122727804 0 -0.0020389360509025498 0.0095615419333558889 0 -0.0019748169743879478 0.0095489027122727804 0 -0.0020421312469902047 0.0094786442655393835 0 -0.0020421312469902047 0.0094786442655393835 0 -0.0019873709061686007 0.0094600209572632214 0 -0.0020523388028277725 0.0093872177022599548 0 -0.0019748169743879478 0.0095489027122727804 0 -0.0020421312469902047 0.0094786442655393835 0 -0.0019873709061686007 0.0094600209572632214 0 -0.0019748169743879478 0.0095489027122727804 0 -0.0019873709061686007 0.0094600209572632214 0 -0.0019297405888929564 0.0095169278208296643 0 -0.0019873709061686007 0.0094600209572632214 0 -0.0019297405888929564 0.0095169278208296643 0 -0.001950442957232709 0.0094077851084748924 0 -0.0019297405888929564 0.0095169278208296643 0 -0.0018642299978021339 0.0094789357583525361 0 -0.001950442957232709 0.0094077851084748924 0 -0.0019748169743879478 0.0095489027122727804 0 -0.0019297405888929564 0.0095169278208296643 0 -0.0019104669126259175 0.0096249930611990338 0 -0.0019297405888929564 0.0095169278208296643 0 -0.0019104669126259175 0.0096249930611990338 0 -0.0018680503941588525 0.0095603192337174146 0 -0.0019840662105958459 0.0096140578320366467 0 -0.0019748169743879478 0.0095489027122727804 0 -0.0019104669126259175 0.0096249930611990338 0 -0.0019104669126259175 0.0096249930611990338 0 -0.0018279694381045087 0.009642358943064663 0 -0.0018680503941588525 0.0095603192337174146 0 -0.0018460340546015614 0.0096895419977833172 0 -0.0019104669126259175 0.0096249930611990338 0 -0.0018279694381045087 0.009642358943064663 0 -0.0017779486682026635 0.0097349838211154109 0 -0.0018460340546015614 0.0096895419977833172 0 -0.0018279694381045087 0.009642358943064663 0 -0.0018279694381045087 0.009642358943064663 0 -0.0018680503941588525 0.0095603192337174146 0 -0.001785356843136709 0.0095795607979362631 0 -0.0018680503941588525 0.0095603192337174146 0 -0.001785356843136709 0.0095795607979362631 0 -0.0018642299978021339 0.0094789357583525361 0 -0.0019297405888929564 0.0095169278208296643 0 -0.0018680503941588525 0.0095603192337174146 0 -0.0018642299978021339 0.0094789357583525361 0 -0.0017069753090830047 0.0096824072050445045 0 -0.001785356843136709 0.0095795607979362631 0 -0.0017689700871794261 0.0096686076849410545 0 -0.0017222021116194198 0.0097391018370057043 0 -0.0017069753090830047 0.0096824072050445045 0 -0.0017689700871794261 0.0096686076849410545 0 -0.0018279694381045087 0.009642358943064663 0 -0.001785356843136709 0.0095795607979362631 0 -0.0017689700871794261 0.0096686076849410545 0 -0.0017779486682026635 0.0097349838211154109 0 -0.0018279694381045087 0.009642358943064663 0 -0.0017689700871794261 0.0096686076849410545 0 -0.0017222021116194198 0.0097391018370057043 0 -0.0017779486682026635 0.0097349838211154109 0 -0.0017689700871794261 0.0096686076849410545 0 -0.0012745759190535917 0.0033422783763379124 0 -0.0011815139048257834 0.0033859401595947229 0 -0.0012781549228143107 0.003262627276445133 0 -0.0012745759190535917 0.0033422783763379124 0 -0.0013322544592693228 0.0032627704543874815 0 -0.0012781549228143107 0.003262627276445133 0 -0.00074850144156807144 0.0022658246025829393 0 -0.0011828121688185469 0.00064732810165343097 0 -0.0012745759190535917 0.0033422783763379124 0 -0.0013322544592693228 0.0032627704543874815 0 -0.0013594536920344727 0.0032987227098858342 0 -0.00054300838109975981 0.0012907953655206476 0 -0.00038643545094381888 0.0012806127015218239 0 -0.00043014560938622328 0.0012435778295510212 0 -0.0018656322678181831 0.0033270374177556835 0 -0.0011828121688185469 0.00064732810165343097 0 -0.0013537055901386476 0.0032443108955450858 0 -0.0013322544592693228 0.0032627704543874815 0 -0.0013462930456488939 0.0032482726630825342 0 -0.0013505076943832847 0.0032460558462548985 0 -0.0013537055901386476 0.0032443108955450858 0 -0.0013462930456488939 0.0032482726630825342 0 -0.00096603236571882222 -0.000515917425982294 0 -0.0003566525206294586 -0.00043733628977241567 0 -0.00066873426157249959 6.3606989386883741e-05 0 -0.00097713040222206218 -0.00083673311168993864 0 -0.0011828121688185469 0.00064732810165343097 0 -0.00038643545094381888 0.0012806127015218239 0 -0.00037362668561398925 0.0012562427693304553 0 -0.00043014560938622328 0.0012435778295510212 0 -0.0011828121688185469 0.00064732810165343097 0 -0.00078268828017882244 -0.0016325057185144177 0 -0.00043014560938622328 0.0012435778295510212 0 -0.00041665721592051489 0.0011697879342861749 0 -0.00045182250463300107 0.0011898925049624199 0 -0.00054300838109975981 0.0012907953655206476 0 -0.00043014560938622328 0.0012435778295510212 0 -0.00049319326125557843 0.001233749691534429 0 -0.00043014560938622328 0.0012435778295510212 0 -0.00045182250463300107 0.0011898925049624199 0 -0.00049319326125557843 0.001233749691534429 0 -0.00078268828017882244 -0.0016325057185144177 0 -0.00048496982684625414 0.00030030571143694463 0 -0.00037362668561398925 0.0012562427693304553 0 -0.00043014560938622328 0.0012435778295510212 0 -0.00041665721592051489 0.0011697879342861749 0 -0.00048496982684625414 0.00030030571143694463 0 -0.00059077110447797057 0.00057722112163014502 0 -0.00054300838109975981 0.0012907953655206476 0 -0.0005626429523728398 0.0011821614346158844 0 -0.0007193661054662303 0.0012871082923751073 0 -0.00045182250463300107 0.0011898925049624199 0 -0.00049319326125557843 0.001233749691534429 0 -0.0005626429523728398 0.0011821614346158844 0 -0.00054300838109975981 0.0012907953655206476 0 -0.00049319326125557843 0.001233749691534429 0 -0.0005626429523728398 0.0011821614346158844 0 -0.00074020995201031111 0.0011241279314576828 0 -0.00065487621858366352 0.0011127143206130863 0 -0.0007193661054662303 0.0012871082923751073 0 -0.00065487621858366352 0.0011127143206130863 0 -0.0005626429523728398 0.0011821614346158844 0 -0.0007193661054662303 0.0012871082923751073 0 -0.0021193356970117226 0.010071182505531007 0 -0.0017378253248877176 0.005939818512583633 0 -0.0014111687764228702 0.0053550515577525252 0 -0.0017378253248877176 0.005939818512583633 0 -0.0020374684912639728 0.0097559692708451985 0 -0.0020013371063803721 0.0096382423416237692 0 -0.0021928237680000871 0.0095531564650331163 0 -0.00085997064502801662 0.0011067024143531687 0 -0.00074020995201031111 0.0011241279314576828 0 -0.0007193661054662303 0.0012871082923751073 0 -0.0020561885477569375 0.0096359884162783137 0 -0.0021732253320165405 0.0095599779862239539 0 -0.0021028561907718646 0.0095519031872339927 0 -0.002134486980062549 0.0095415232063865724 0 -0.002424939930808665 0.0096276913303990162 0 -0.0024106985312245051 0.0094123638536219179 0 -0.0020801206418457618 0.0097077771435992617 0 -0.002134486980062549 0.0095415232063865724 0 -0.002424939930808665 0.0096276913303990162 0 -0.0021054325607392922 0.0095830262487805011 0 -0.0022663664715986361 0.0095728472420932176 0 -0.00074850144156807144 0.0022658246025829393 0 -0.0017378253248877176 0.005939818512583633 0 -0.0017378253248877176 0.005939818512583633 0 -0.0023133155912298314 0.0078954537454697122 0 -0.002424939930808665 0.0096276913303990162 0 -0.0024106985312245051 0.0094123638536219179 0 -0.0027054666216589389 0.009302134161588373 0 -0.0022663664715986361 0.0095728472420932176 0 -0.0023133155912298314 0.0078954537454697122 0 -0.0021732253320165405 0.0095599779862239539 0 -0.0021500846842667821 0.0094709912141566332 0 -0.002241161852437187 0.0094193189220243122 0 -0.0020389360509025498 0.0095615419333558889 0 -0.0021028561907718646 0.0095519031872339927 0 -0.0020871093273250271 0.0095018468119229572 0 -0.0020389360509025498 0.0095615419333558889 0 -0.0020561885477569375 0.0096359884162783137 0 -0.0021028561907718646 0.0095519031872339927 0 -0.0021732253320165405 0.0095599779862239539 0 -0.0021500846842667821 0.0094709912141566332 0 -0.0021028561907718646 0.0095519031872339927 0 -0.0021500846842667821 0.0094709912141566332 0 -0.0021028561907718646 0.0095519031872339927 0 -0.0020871093273250271 0.0095018468119229572 0 -0.0020389360509025498 0.0095615419333558889 0 -0.0020421312469902047 0.0094786442655393835 0 -0.0020871093273250271 0.0095018468119229572 0 -0.0020421312469902047 0.0094786442655393835 0 -0.0020871093273250271 0.0095018468119229572 0 -0.0021115304621101387 0.0094253162603009574 0 -0.0021500846842667821 0.0094709912141566332 0 -0.0020871093273250271 0.0095018468119229572 0 -0.0021115304621101387 0.0094253162603009574 0 -0.0020421312469902047 0.0094786442655393835 0 -0.0021115304621101387 0.0094253162603009574 0 -0.0020523388028277725 0.0093872177022599548 0 -0.0021823397157889179 0.0093886356415829163 0 -0.002241161852437187 0.0094193189220243122 0 -0.0022429080533058368 0.0093312195117958522 0 -0.0021500846842667821 0.0094709912141566332 0 -0.0021823397157889179 0.0093886356415829163 0 -0.002241161852437187 0.0094193189220243122 0 -0.0021500846842667821 0.0094709912141566332 0 -0.0021115304621101387 0.0094253162603009574 0 -0.0021823397157889179 0.0093886356415829163 0 -0.0021115304621101387 0.0094253162603009574 0 -0.0021823397157889179 0.0093886356415829163 0 -0.0021530827339199163 0.0093273743125837916 0 -0.0023032433086674804 0.0093495907493304602 0 -0.002241161852437187 0.0094193189220243122 0 -0.0022429080533058368 0.0093312195117958522 0 -0.0023032433086674804 0.0093495907493304602 0 -0.002241161852437187 0.0094193189220243122 0 -0.0023042264849460459 0.0094100719617882314 0 -0.0021732253320165405 0.0095599779862239539 0 -0.002241161852437187 0.0094193189220243122 0 -0.0022789464083728143 0.0094731565339476083 0 -0.002241161852437187 0.0094193189220243122 0 -0.0023042264849460459 0.0094100719617882314 0 -0.0022789464083728143 0.0094731565339476083 0 -0.0019202190859345146 0.0090323216271697201 0 -0.0023133155912298314 0.0078954537454697122 0 -0.0013700182441798577 0.0032132165555787298 0 -0.0013322544592693228 0.0032627704543874815 0 -0.0012781549228143107 0.003262627276445133 0 -0.0012896474913098028 0.0040728817876261592 0 -0.0023133155912298314 0.0078954537454697122 0 -0.0023676727684244152 0.0093590526653889658 0 -0.0023042264849460459 0.0094100719617882314 0 -0.0022873887702165047 0.0094317084550133434 0 -0.0013537055901386476 0.0032443108955450858 0 -0.0013700182441798577 0.0032132165555787298 0 -0.0013322544592693228 0.0032627704543874815 0 -0.0023676727684244152 0.0093590526653889658 0 -0.0023032433086674804 0.0093495907493304602 0 -0.0023427917859868705 0.0092688178458675222 0 -0.0023676727684244152 0.0093590526653889658 0 -0.0023032433086674804 0.0093495907493304602 0 -0.0023042264849460459 0.0094100719617882314 0 -0.0012896474913098028 0.0040728817876261592 0 -0.0023983393371041395 0.0062904202685026781 0 -0.0023983393371041395 0.0062904202685026781 0 -0.0016007806979498873 0.0051606410037199736 0 -0.0016007806979498873 0.0051606410037199736 0 -0.00027214624823247084 0.0015944857013903795 0 -0.0019090118209027006 0.0022812263455509497 0 -0.0024385642523120361 0.0035470404880763168 0 -0.0013811202501765227 0.0029323741543855718 0 -0.0022189318499689589 0.0092298277902188846 0 -0.0022044319120898301 0.0091573758866825283 0 -0.0022936735538952959 0.0091096152233183809 0 -0.0023427917859868705 0.0092688178458675222 0 -0.0022189318499689589 0.0092298277902188846 0 -0.0022936735538952959 0.0091096152233183809 0 -0.0023427917859868705 0.0092688178458675222 0 -0.0022429080533058368 0.0093312195117958522 0 -0.0022189318499689589 0.0092298277902188846 0 -0.0023032433086674804 0.0093495907493304602 0 -0.0023427917859868705 0.0092688178458675222 0 -0.0022429080533058368 0.0093312195117958522 0 -0.0022429080533058368 0.0093312195117958522 0 -0.0021530827339199163 0.0093273743125837916 0 -0.0022189318499689589 0.0092298277902188846 0 -0.0021823397157889179 0.0093886356415829163 0 -0.0022429080533058368 0.0093312195117958522 0 -0.0021530827339199163 0.0093273743125837916 0 -0.0021071776816456137 0.0092356938905618757 0 -0.0020523388028277725 0.0093872177022599548 0 -0.0020105663124273046 0.009312144887799325 0 -0.0021115304621101387 0.0094253162603009574 0 -0.0021530827339199163 0.0093273743125837916 0 -0.0020523388028277725 0.0093872177022599548 0 -0.0021530827339199163 0.0093273743125837916 0 -0.0021071776816456137 0.0092356938905618757 0 -0.0020523388028277725 0.0093872177022599548 0 -0.0021071776816456137 0.0092356938905618757 0 -0.0022189318499689589 0.0092298277902188846 0 -0.0022044319120898301 0.0091573758866825283 0 -0.0021530827339199163 0.0093273743125837916 0 -0.0021071776816456137 0.0092356938905618757 0 -0.0022189318499689589 0.0092298277902188846 0 -0.0021071776816456137 0.0092356938905618757 0 -0.0022044319120898301 0.0091573758866825283 0 -0.002145026753827016 0.0091225958224063989 0 -0.002145026753827016 0.0091225958224063989 0 -0.0021833394951673545 0.0090083645829885789 0 -0.0022497043322502485 0.009083587650186695 0 -0.0022044319120898301 0.0091573758866825283 0 -0.002145026753827016 0.0091225958224063989 0 -0.0022497043322502485 0.009083587650186695 0 -0.0021071776816456137 0.0092356938905618757 0 -0.0020787488251181848 0.0091520169388190388 0 -0.002002228198174577 0.009198984966993692 0 -0.0021071776816456137 0.0092356938905618757 0 -0.002145026753827016 0.0091225958224063989 0 -0.0020787488251181848 0.0091520169388190388 0 -0.002145026753827016 0.0091225958224063989 0 -0.0020787488251181848 0.0091520169388190388 0 -0.0020705464373926715 0.0090704487457107241 0 -0.0019154486273869375 0.0089948087967302529 0 -0.0021833394951673545 0.0090083645829885789 0 -0.0020663251502472976 0.0088249833296120562 0 -0.0020005019146020582 0.0090298643294525558 0 -0.0021707518155233327 0.0090176529971147598 0 -0.0021833394951673545 0.0090083645829885789 0 -0.0022561067181397533 0.0089001167148021754 0 -0.0022497043322502485 0.009083587650186695 0 -0.002145026753827016 0.0091225958224063989 0 -0.0020705464373926715 0.0090704487457107241 0 -0.0021833394951673545 0.0090083645829885789 0 -0.0021833394951673545 0.0090083645829885789 0 -0.0022561067181397533 0.0089001167148021754 0 -0.0020663251502472976 0.0088249833296120562 0 -0.00090589364161289168 0.0016173685414452065 0 -0.00022313417722661914 0.0012521855714160081 0 -0.00014945465670771692 0.0018118307408098891 0 -0.00090589364161289168 0.0016173685414452065 0 -0.00022313417722661914 0.0012521855714160081 0 -0.0004357980903670611 0.00056067789269711869 0 -0.0015346464367161476 0.0051821461565837645 0 -0.0016007806979498873 0.0051606410037199736 0 0.00031080189309621388 0.0014527107292967557 0 -0.00022313417722661914 0.0012521855714160081 0 -0.00014945465670771692 0.0018118307408098891 0 0.00031080189309621388 0.0014527107292967557 0 -0.00022313417722661914 0.0012521855714160081 0 0.00022249749854564844 0.00084432285073831692 0 0.00022249749854564844 0.00084432285073831692 0 -0.0004357980903670611 0.00056067789269711869 0 0.00050007297348961396 2.7206907065269026e-05 0 -0.00022313417722661914 0.0012521855714160081 0 0.00022249749854564844 0.00084432285073831692 0 -0.0004357980903670611 0.00056067789269711869 0 -0.0016007806979498873 0.0051606410037199736 0 -0.0030458876933829901 0.0079382059576277308 0 -0.0022561067181397533 0.0089001167148021754 0 -0.0023060739612540404 0.0091081078097065976 0 -0.0022497043322502485 0.009083587650186695 0 -0.0022044319120898301 0.0091573758866825283 0 -0.0022936735538952959 0.0091096152233183809 0 -0.0022497043322502485 0.009083587650186695 0 -0.001770596824584284 0.0094307106146030439 0 -0.0018214163193844492 0.0093011948626979951 0 -0.0017251030061484413 0.0092400515911346525 0 -0.0016686376646436168 0.0095877561543907617 0 -0.001785356843136709 0.0095795607979362631 0 -0.001770596824584284 0.0094307106146030439 0 -0.001785356843136709 0.0095795607979362631 0 -0.001770596824584284 0.0094307106146030439 0 -0.0018642299978021339 0.0094789357583525361 0 -0.001770596824584284 0.0094307106146030439 0 -0.0018642299978021339 0.0094789357583525361 0 -0.0018727078100640366 0.0093695888365111762 0 -0.001770596824584284 0.0094307106146030439 0 -0.0018727078100640366 0.0093695888365111762 0 -0.0018214163193844492 0.0093011948626979951 0 -0.0018727078100640366 0.0093695888365111762 0 -0.0018214163193844492 0.0093011948626979951 0 -0.0018950463882913189 0.0092620751402065164 0 -0.0019440909150622216 0.0093162611538301389 0 -0.002002228198174577 0.009198984966993692 0 -0.0018950463882913189 0.0092620751402065164 0 -0.0018727078100640366 0.0093695888365111762 0 -0.0019440909150622216 0.0093162611538301389 0 -0.0018950463882913189 0.0092620751402065164 0 -0.0018642299978021339 0.0094789357583525361 0 -0.0018727078100640366 0.0093695888365111762 0 -0.001950442957232709 0.0094077851084748924 0 -0.0018727078100640366 0.0093695888365111762 0 -0.0019440909150622216 0.0093162611538301389 0 -0.001950442957232709 0.0094077851084748924 0 -0.0019440909150622216 0.0093162611538301389 0 -0.001950442957232709 0.0094077851084748924 0 -0.0020105663124273046 0.009312144887799325 0 -0.001950442957232709 0.0094077851084748924 0 -0.0020523388028277725 0.0093872177022599548 0 -0.0020105663124273046 0.009312144887799325 0 -0.0019873709061686007 0.0094600209572632214 0 -0.001950442957232709 0.0094077851084748924 0 -0.0020523388028277725 0.0093872177022599548 0 -0.0021071776816456137 0.0092356938905618757 0 -0.0020105663124273046 0.009312144887799325 0 -0.002002228198174577 0.009198984966993692 0 -0.0019440909150622216 0.0093162611538301389 0 -0.0020105663124273046 0.009312144887799325 0 -0.002002228198174577 0.009198984966993692 0 -0.0020787488251181848 0.0091520169388190388 0 -0.0020705464373926715 0.0090704487457107241 0 -0.002002228198174577 0.009198984966993692 0 -0.0020705464373926715 0.0090704487457107241 0 -0.002002228198174577 0.009198984966993692 0 -0.0019629335962386882 0.0090965832973453273 0 -0.0020005019146020582 0.0090298643294525558 0 -0.0017970956523755206 0.0090396704663637407 0 -0.0019154486273869375 0.0089948087967302529 0 -0.001645201369829176 0.008976718589531904 0 -0.0018083650532368166 0.0088289617856651351 0 -0.0017970956523755206 0.0090396704663637407 0 -0.0016604454463643422 0.0089529375241202171 0 -0.0019629335962386882 0.0090965832973453273 0 -0.0019094789349774898 0.0091676245872239024 0 -0.0018425196526216203 0.0090977984038041037 0 -0.002002228198174577 0.009198984966993692 0 -0.0019629335962386882 0.0090965832973453273 0 -0.0019094789349774898 0.0091676245872239024 0 -0.002002228198174577 0.009198984966993692 0 -0.0019094789349774898 0.0091676245872239024 0 -0.0018950463882913189 0.0092620751402065164 0 -0.0018402294316436937 0.0092131235128391498 0 -0.0018425196526216203 0.0090977984038041037 0 -0.0017251030061484413 0.0092400515911346525 0 -0.0018214163193844492 0.0093011948626979951 0 -0.0018950463882913189 0.0092620751402065164 0 -0.0018402294316436937 0.0092131235128391498 0 -0.0019094789349774898 0.0091676245872239024 0 -0.0018950463882913189 0.0092620751402065164 0 -0.0018402294316436937 0.0092131235128391498 0 -0.0019094789349774898 0.0091676245872239024 0 -0.0018402294316436937 0.0092131235128391498 0 -0.0018425196526216203 0.0090977984038041037 0 -0.0015108819296223181 0.008843380866865121 0 -0.0016075285362016631 0.0089139232874690961 0 -0.0015337879516317432 0.0088384981967132761 0 -0.0016604454463643422 0.0089529375241202171 0 -0.0017335101022159258 0.0092013067643211405 0 -0.0016604454463643422 0.0089529375241202171 0 -0.0016158883736227989 0.0088988570127980001 0 -0.0018546819943764357 0.0089355109559016502 0 -0.0016075285362016631 0.0089139232874690961 0 -0.0016757501166586399 0.0091525534778276671 0 -0.0018214163193844492 0.0093011948626979951 0 -0.0018402294316436937 0.0092131235128391498 0 -0.0017251030061484413 0.0092400515911346525 0 -0.0012384275313943639 0.0085939523879039244 0 -0.0014568719690832407 0.0087413345195881658 0 -0.0012835736931989625 0.0085047697959777548 0 -0.0014233234693827512 0.0087312318885772473 0 -0.0014657286358416097 0.0087391333616881287 0 -0.0012418875317267454 0.0085425973347644339 0 -0.0012384275313943639 0.0085939523879039244 0 -0.0012835736931989625 0.0085047697959777548 0 -0.0016075285362016631 0.0089139232874690961 0 -0.0015734781072377819 0.008862289972101707 0 -0.0015337879516317432 0.0088384981967132761 0 -0.0015734781072377819 0.008862289972101707 0 -0.0015337879516317432 0.0088384981967132761 0 -0.0014568719690832407 0.0087413345195881658 0 -0.0015108819296223181 0.008843380866865121 0 -0.0015337879516317432 0.0088384981967132761 0 -0.0014568719690832407 0.0087413345195881658 0 -0.0015108819296223181 0.008843380866865121 0 -0.0014568719690832407 0.0087413345195881658 0 -0.0015800206167609868 0.0087668525066488916 0 -0.0014568719690832407 0.0087413345195881658 0 -0.0015315738035404358 0.0085768222872660196 0 -0.0012835736931989625 0.0085047697959777548 0 -0.0014568719690832407 0.0087413345195881658 0 -0.0015315738035404358 0.0085768222872660196 0 -0.0015800206167609868 0.0087668525066488916 0 -0.0015315738035404358 0.0085768222872660196 0 -0.0015800206167609868 0.0087668525066488916 0 -0.0018361017556182357 0.0085797778446053616 0 -0.001645201369829176 0.008976718589531904 0 -0.001393071281742237 0.0089535469311502729 0 -0.0015800206167609868 0.0087668525066488916 0 -0.0016604454463643422 0.0089529375241202171 0 -0.0015182094051122599 0.0087854371672348632 0 -0.0015800206167609868 0.0087668525066488916 0 -0.0018083650532368166 0.0088289617856651351 0 -0.0018361017556182357 0.0085797778446053616 0 -0.001645201369829176 0.008976718589531904 0 -0.0015800206167609868 0.0087668525066488916 0 -0.0018083650532368166 0.0088289617856651351 0 -0.0017153947877502924 0.0080345181531507569 0 -0.0015788261817142966 0.0083664058575377998 0 -0.0020625493484131533 0.0082471118107208113 0 -0.0018361017556182357 0.0085797778446053616 0 -0.0015788261817142966 0.0083664058575377998 0 -0.0020625493484131533 0.0082471118107208113 0 -0.0017153947877502924 0.0080345181531507569 0 -0.0015788261817142966 0.0083664058575377998 0 -0.0013922932918686457 0.0078432349287840143 0 -0.0015788261817142966 0.0083664058575377998 0 -0.001318560191508133 0.0082695376863848313 0 -0.0013922932918686457 0.0078432349287840143 0 -0.0015315738035404358 0.0085768222872660196 0 -0.0018361017556182357 0.0085797778446053616 0 -0.0015788261817142966 0.0083664058575377998 0 -0.0015315738035404358 0.0085768222872660196 0 -0.0015788261817142966 0.0083664058575377998 0 -0.001318560191508133 0.0082695376863848313 0 -0.0015315738035404358 0.0085768222872660196 0 -0.001318560191508133 0.0082695376863848313 0 -0.0012835736931989625 0.0085047697959777548 0 -0.001318560191508133 0.0082695376863848313 0 -0.0010921244782301958 0.0082902482111568195 0 -0.0012835736931989625 0.0085047697959777548 0 -0.0012418875317267454 0.0085425973347644339 0 -0.0010921244782301958 0.0082902482111568195 0 -0.0012835736931989625 0.0085047697959777548 0 -0.00044008155625563784 0.0026891400363532056 0 -0.0013869840355500496 0.0028630628617796121 0 -0.00092448474734682737 0.0036232571004639401 0 -0.00044008155625563784 0.0026891400363532056 0 0.00032214169267890552 0.0021921937599448816 0 0.000310137106078537 0.0032289157880248855 0 0.00031080189309621388 0.0014527107292967557 0 0.00032214169267890552 0.0021921937599448816 0 -0.00014945465670771692 0.0018118307408098891 0 -0.00044008155625563784 0.0026891400363532056 0 0.00032214169267890552 0.0021921937599448816 0 -0.00014945465670771692 0.0018118307408098891 0 -0.00090589364161289168 0.0016173685414452065 0 -0.00044008155625563784 0.0026891400363532056 0 -0.00014945465670771692 0.0018118307408098891 0 -0.00090589364161289168 0.0016173685414452065 0 -0.00044008155625563784 0.0026891400363532056 0 -0.0013869840355500496 0.0028630628617796121 0 -0.0015346464367161476 0.0051821461565837645 0 -0.0017721449186849031 0.0057369876094564417 0 -0.0022561067181397533 0.0089001167148021754 0 -0.0020663251502472976 0.0088249833296120562 0 -0.0021552825822459321 0.0085832052576122406 0 -0.0019154486273869375 0.0089948087967302529 0 -0.0018083650532368166 0.0088289617856651351 0 -0.0020663251502472976 0.0088249833296120562 0 -0.0018083650532368166 0.0088289617856651351 0 -0.0018361017556182357 0.0085797778446053616 0 -0.0020663251502472976 0.0088249833296120562 0 -0.0018361017556182357 0.0085797778446053616 0 -0.0020663251502472976 0.0088249833296120562 0 -0.0021552825822459321 0.0085832052576122406 0 -0.0013869840355500496 0.0028630628617796121 0 -0.00092448474734682737 0.0036232571004639401 0 -0.0017499850305834708 0.0042372999491417009 0 -0.0017721449186849031 0.0057369876094564417 0 -0.0018963160551805243 0.0062223260031383188 0 -0.0018361017556182357 0.0085797778446053616 0 -0.0021552825822459321 0.0085832052576122406 0 -0.0020625493484131533 0.0082471118107208113 0 -0.0017153947877502924 0.0080345181531507569 0 -0.0020625493484131533 0.0082471118107208113 0 -0.0019613360758520952 0.0077611148470302727 0 -0.0018963160551805243 0.0062223260031383188 0 -0.0018921152962439762 0.006662160211181563 0 -0.0017499850305834708 0.0042372999491417009 0 -0.00077004567420825142 0.0045598419497087867 0 -0.0012076860601013682 0.0055205831361151573 0 -0.00092448474734682737 0.0036232571004639401 0 -0.0017499850305834708 0.0042372999491417009 0 -0.00077004567420825142 0.0045598419497087867 0 -0.00018498314667325015 0.004488312563726656 0 -0.00032425696434435115 0.0049411179618872895 0 -3.5868751903552004e-05 0.0048733633988793153 0 -0.00077004567420825142 0.0045598419497087867 0 -0.00018498314667325015 0.004488312563726656 0 -0.00032425696434435115 0.0049411179618872895 0 -0.00077004567420825142 0.0045598419497087867 0 -0.00018498314667325015 0.004488312563726656 0 -0.00027300006775862593 0.0037515146119249361 0 -0.00092448474734682737 0.0036232571004639401 0 -0.00077004567420825142 0.0045598419497087867 0 -0.00027300006775862593 0.0037515146119249361 0 -0.00044008155625563784 0.0026891400363532056 0 -0.00092448474734682737 0.0036232571004639401 0 -0.00027300006775862593 0.0037515146119249361 0 -0.00044008155625563784 0.0026891400363532056 0 -0.00027300006775862593 0.0037515146119249361 0 0.000310137106078537 0.0032289157880248855 0 0.000310137106078537 0.0032289157880248855 0 0.00022079406699210266 0.0040747785857596494 0 0.0010652817376334851 0.0042495898736034593 0 -0.00027300006775862593 0.0037515146119249361 0 0.000310137106078537 0.0032289157880248855 0 0.00022079406699210266 0.0040747785857596494 0 0.00023682120284252019 0.0045761855861279543 0 0.0010652817376334851 0.0042495898736034593 0 0.00016586860753746603 0.0051771832584575246 0 0.00022079406699210266 0.0040747785857596494 0 0.00023682120284252019 0.0045761855861279543 0 0.0010652817376334851 0.0042495898736034593 0 -0.00018498314667325015 0.004488312563726656 0 0.00022079406699210266 0.0040747785857596494 0 0.00023682120284252019 0.0045761855861279543 0 -0.00018498314667325015 0.004488312563726656 0 -0.00027300006775862593 0.0037515146119249361 0 0.00022079406699210266 0.0040747785857596494 0 -0.00018498314667325015 0.004488312563726656 0 0.00023682120284252019 0.0045761855861279543 0 -3.5868751903552004e-05 0.0048733633988793153 0 -0.00030652245552311412 0.002940548388641601 0 -0.00083822294436948367 0.002939666333394144 0 -0.0013918708522021241 0.00067287580723559063 0 -0.0010230473523054194 0.00031002730921840185 0 -0.0010040148504027917 0.00085697736911003971 0 -0.0013918708522021241 0.00067287580723559063 0 -0.0010040148504027917 0.00085697736911003971 0 -0.0014296082764345625 0.00098455669645447367 0 -0.00030652245552311412 0.002940548388641601 0 0.00050303843583400195 -0.0011477589626110545 0 0.0010652817376334851 0.0042495898736034593 0 0.0020828927857921963 0.0032293280347693494 0 0.00094044891236683592 0.0025470667312879401 0 0.000310137106078537 0.0032289157880248855 0 0.0010652817376334851 0.0042495898736034593 0 0.00094044891236683592 0.0025470667312879401 0 -0.0010230473523054194 0.00031002730921840185 0 -0.00057601353173618243 0.00059229516754431865 0 -0.0010040148504027917 0.00085697736911003971 0 0.00050303843583400195 -0.0011477589626110545 0 -0.00037872239641479987 -0.0047906196120426339 0 0.0010645105974390271 -0.0086600986547247689 0 0.00023526765187535249 -0.0092566800942957342 0 0.00052213650598118997 -0.0082141706654583757 0 0.00023526765187535249 -0.0092566800942957342 0 0.00052213650598118997 -0.0082141706654583757 0 -9.4724124488701597e-05 -0.0087854141344456942 0 -9.7847611449300917e-06 -0.0082852882958347803 0 0.00052213650598118997 -0.0082141706654583757 0 -9.4724124488701597e-05 -0.0087854141344456942 0 0.0015156531241348912 0.0027304533639338473 0 0.0020355718982558043 0.0021391237825852671 0 0.0014394551987582317 0.0019329272483561315 0 0.00050303843583400195 -0.0011477589626110545 0 0.0015735007761279031 -0.0031232024373745969 0 0.0020355718982558043 0.0021391237825852671 0 0.0017894051968785085 0.0016552312493312222 0 0.0020886755069380323 0.0015459813093813743 0 0.0020355718982558043 0.0021391237825852671 0 0.0017894051968785085 0.0016552312493312222 0 0.0014394551987582317 0.0019329272483561315 0 0.0017894051968785085 0.0016552312493312222 0 0.0014394551987582317 0.0019329272483561315 0 0.0016205448466981532 0.0013133579978443716 0 0.0017894051968785085 0.0016552312493312222 0 0.0020886755069380323 0.0015459813093813743 0 0.0019020687881227075 0.0012924152067168662 0 0.0020355718982558043 0.0021391237825852671 0 0.0020886755069380323 0.0015459813093813743 0 0.0024800008935699147 0.001481123377279171 0 -9.7847611449300917e-06 -0.0082852882958347803 0 0.00052213650598118997 -0.0082141706654583757 0 -2.8595731413190264e-05 -0.0077168309005533151 0 0.0015735007761279031 -0.0031232024373745969 0 -0.00028041903637602601 -0.0053064455375384408 0 0.0020886755069380323 0.0015459813093813743 0 0.002191374546670153 0.0010924792428270091 0 0.0024800008935699147 0.001481123377279171 0 0.00032214169267890552 0.0021921937599448816 0 0.000310137106078537 0.0032289157880248855 0 0.00094044891236683592 0.0025470667312879401 0 0.00050303843583400195 -0.0011477589626110545 0 0.0018645501660176102 0.0036674587132730688 0 0.0015156531241348912 0.0027304533639338473 0 0.00094044891236683592 0.0025470667312879401 0 0.0014394551987582317 0.0019329272483561315 0 0.0014394551987582317 0.0019329272483561315 0 0.00088682475123176411 0.0017003420902725918 0 0.0012075715929939308 0.0011784206017510953 0 0.00094044891236683592 0.0025470667312879401 0 0.0014394551987582317 0.0019329272483561315 0 0.00088682475123176411 0.0017003420902725918 0 0.00031080189309621388 0.0014527107292967557 0 0.00032214169267890552 0.0021921937599448816 0 0.00088682475123176411 0.0017003420902725918 0 0.00032214169267890552 0.0021921937599448816 0 0.00094044891236683592 0.0025470667312879401 0 0.00088682475123176411 0.0017003420902725918 0 0.00031080189309621388 0.0014527107292967557 0 0.00088682475123176411 0.0017003420902725918 0 0.00072333606980000474 0.0011921720910982323 0 0.00088682475123176411 0.0017003420902725918 0 0.00072333606980000474 0.0011921720910982323 0 0.0012075715929939308 0.0011784206017510953 0 0.00072333606980000474 0.0011921720910982323 0 0.00076536294861951617 0.00070829369949956366 0 0.0012075715929939308 0.0011784206017510953 0 0.00031080189309621388 0.0014527107292967557 0 0.00022249749854564844 0.00084432285073831692 0 0.00072333606980000474 0.0011921720910982323 0 0.00022249749854564844 0.00084432285073831692 0 0.00076536294861951617 0.00070829369949956366 0 0.00050007297348961396 2.7206907065269026e-05 0 0.00022249749854564844 0.00084432285073831692 0 0.00072333606980000474 0.0011921720910982323 0 0.00076536294861951617 0.00070829369949956366 0 0.00076536294861951617 0.00070829369949956366 0 0.0010412088327552784 0.00048236408010981244 0 0.00050007297348961396 2.7206907065269026e-05 0 0.0014249969602056569 0.0004828257099067743 0 0.0010412088327552784 0.00048236408010981244 0 0.0012534124196454165 0.00018683759842901899 0 0.0014249969602056569 0.0004828257099067743 0 0.0010412088327552784 0.00048236408010981244 0 0.0012626207774413339 0.00074322266171992504 0 0.00076536294861951617 0.00070829369949956366 0 0.0010412088327552784 0.00048236408010981244 0 0.0012626207774413339 0.00074322266171992504 0 0.00076536294861951617 0.00070829369949956366 0 0.0012626207774413339 0.00074322266171992504 0 0.0012075715929939308 0.0011784206017510953 0 0.0014249969602056569 0.0004828257099067743 0 0.0012626207774413339 0.00074322266171992504 0 0.0015672795005240681 0.00083542447837179072 0 0.0012075715929939308 0.0011784206017510953 0 0.0016205448466981532 0.0013133579978443716 0 0.0015672795005240681 0.00083542447837179072 0 0.0012626207774413339 0.00074322266171992504 0 0.0012075715929939308 0.0011784206017510953 0 0.0015672795005240681 0.00083542447837179072 0 0.0014394551987582317 0.0019329272483561315 0 0.0012075715929939308 0.0011784206017510953 0 0.0016205448466981532 0.0013133579978443716 0 0.0016205448466981532 0.0013133579978443716 0 0.0019020687881227075 0.0012924152067168662 0 0.0018238014504520002 0.00098513646291496781 0 0.0017894051968785085 0.0016552312493312222 0 0.0016205448466981532 0.0013133579978443716 0 0.0019020687881227075 0.0012924152067168662 0 0.0018238014504520002 0.00098513646291496781 0 0.002191374546670153 0.0010924792428270091 0 0.0019835413600070655 0.00080726003945465782 0 0.0019020687881227075 0.0012924152067168662 0 0.0018238014504520002 0.00098513646291496781 0 0.002191374546670153 0.0010924792428270091 0 0.0016205448466981532 0.0013133579978443716 0 0.0018238014504520002 0.00098513646291496781 0 0.0015672795005240681 0.00083542447837179072 0 -0.0014262493869570197 -0.0086215160966968945 0 -0.0011774034789304934 -0.0085816369363508928 0 -0.0011367223797429332 -0.0083140021368809987 0 0.00048381413545774707 -0.0036263404834576346 0 -0.00028041903637602601 -0.0053064455375384408 0 -0.0014262493869570197 -0.0086215160966968945 0 -0.0011836459767070367 -0.0087226565570204962 0 -0.0011774034789304934 -0.0085816369363508928 0 0.0020886755069380323 0.0015459813093813743 0 0.0019020687881227075 0.0012924152067168662 0 0.002191374546670153 0.0010924792428270091 0 0.00048381413545774707 -0.0036263404834576346 0 0.00039583813951179613 -0.0031066898146594377 0 -0.0014262493869570197 -0.0086215160966968945 0 -0.0013533970070382425 -0.0088508641076922561 0 -0.0014794511375124002 -0.0088052591201013448 0 -0.0014262493869570197 -0.0086215160966968945 0 -0.0014794511375124002 -0.0088052591201013448 0 -0.0015723369527923506 -0.0088396321489972972 0 -0.0014262493869570197 -0.0086215160966968945 0 -0.0013533970070382425 -0.0088508641076922561 0 -0.0011836459767070367 -0.0087226565570204962 0 -0.0013533970070382425 -0.0088508641076922561 0 -0.0013615242366172716 -0.0090075253038672774 0 -0.0012430373170732015 -0.0089369006978190103 0 -0.0013533970070382425 -0.0088508641076922561 0 -0.0014981684784123222 -0.0088809172726329582 0 -0.0014852602849191796 -0.008970445779784595 0 -0.0013533970070382425 -0.0088508641076922561 0 -0.0014852602849191796 -0.008970445779784595 0 -0.0013615242366172716 -0.0090075253038672774 0 0.002191374546670153 0.0010924792428270091 0 0.0019835413600070655 0.00080726003945465782 0 0.0019234663589194475 0.00066424403482383916 0 -0.0014262493869570197 -0.0086215160966968945 0 -0.0015723369527923506 -0.0088396321489972972 0 -0.001724979730153331 -0.0088658460556529251 0 -0.0014981684784123222 -0.0088809172726329582 0 -0.0016022908334131602 -0.0089386911494286556 0 -0.0014852602849191796 -0.008970445779784595 0 -0.0013533970070382425 -0.0088508641076922561 0 -0.0014981684784123222 -0.0088809172726329582 0 -0.0014794511375124002 -0.0088052591201013448 0 -0.0014981684784123222 -0.0088809172726329582 0 -0.0014794511375124002 -0.0088052591201013448 0 -0.0015723369527923506 -0.0088396321489972972 0 -0.0014981684784123222 -0.0088809172726329582 0 -0.0015723369527923506 -0.0088396321489972972 0 -0.0016022908334131602 -0.0089386911494286556 0 -0.0015723369527923506 -0.0088396321489972972 0 -0.0016022908334131602 -0.0089386911494286556 0 -0.0016673130956802564 -0.0089164072932195488 0 -0.0016022908334131602 -0.0089386911494286556 0 -0.0016476312753529239 -0.0089902128971365933 0 -0.0016673130956802564 -0.0089164072932195488 0 -0.0016022908334131602 -0.0089386911494286556 0 -0.0016476312753529239 -0.0089902128971365933 0 -0.0015798892979293705 -0.0090291062172841319 0 -0.0015798892979293705 -0.0090291062172841319 0 -0.0016722048096848051 -0.0090622265056964149 0 -0.0016034219559778562 -0.0091164863331011856 0 -0.0016476312753529239 -0.0089902128971365933 0 -0.0015798892979293705 -0.0090291062172841319 0 -0.0016722048096848051 -0.0090622265056964149 0 -0.0015798892979293705 -0.0090291062172841319 0 -0.001489256038412722 -0.0090973839563993925 0 -0.0016034219559778562 -0.0091164863331011856 0 -0.0015798892979293705 -0.0090291062172841319 0 -0.0014852602849191796 -0.008970445779784595 0 -0.001489256038412722 -0.0090973839563993925 0 -0.0016022908334131602 -0.0089386911494286556 0 -0.0015798892979293705 -0.0090291062172841319 0 -0.0014852602849191796 -0.008970445779784595 0 -0.0014852602849191796 -0.008970445779784595 0 -0.001489256038412722 -0.0090973839563993925 0 -0.0013615242366172716 -0.0090075253038672774 0 -0.001489256038412722 -0.0090973839563993925 0 -0.0013615242366172716 -0.0090075253038672774 0 -0.0013550319299639026 -0.0091399065194494051 0 0.0014249969602056569 0.0004828257099067743 0 0.0015672795005240681 0.00083542447837179072 0 0.0016990844781761205 0.00055328408994488945 0 0.001766101451419772 0.00073765788929234101 0 0.0018036005989255511 0.00063417013751340765 0 0.0016990844781761205 0.00055328408994488945 0 0.0015672795005240681 0.00083542447837179072 0 0.001766101451419772 0.00073765788929234101 0 0.0016990844781761205 0.00055328408994488945 0 0.0018238014504520002 0.00098513646291496781 0 0.0015672795005240681 0.00083542447837179072 0 0.001766101451419772 0.00073765788929234101 0 0.0018238014504520002 0.00098513646291496781 0 0.001766101451419772 0.00073765788929234101 0 0.0018799084325915891 0.00077271782321489211 0 0.0018238014504520002 0.00098513646291496781 0 0.0018799084325915891 0.00077271782321489211 0 0.0019835413600070655 0.00080726003945465782 0 0.001766101451419772 0.00073765788929234101 0 0.0018799084325915891 0.00077271782321489211 0 0.0018540455178846663 0.00067435455635180388 0 0.0014609515437545954 -0.00085101276055023992 0 0.00039583813951179613 -0.0031066898146594377 0 0.0018799084325915891 0.00077271782321489211 0 0.0019835413600070655 0.00080726003945465782 0 0.0019276808012886866 0.00063850456370081522 0 -0.0015723369527923506 -0.0088396321489972972 0 -0.001724979730153331 -0.0088658460556529251 0 -0.0016673130956802564 -0.0089164072932195488 0 0.0019276808012886866 0.00063850456370081522 0 0.0018036005989255511 0.00063417013751340765 0 0.0016990844781761205 0.00055328408994488945 0 0.001766101451419772 0.00073765788929234101 0 0.0018540455178846663 0.00067435455635180388 0 0.0018036005989255511 0.00063417013751340765 0 0.0018799084325915891 0.00077271782321489211 0 0.0019276808012886866 0.00063850456370081522 0 0.0018540455178846663 0.00067435455635180388 0 0.0019276808012886866 0.00063850456370081522 0 0.0018540455178846663 0.00067435455635180388 0 0.0018036005989255511 0.00063417013751340765 0 -0.001724979730153331 -0.0088658460556529251 0 -0.0019365952890121536 -0.0091753544583457452 0 -0.00177736959828359 -0.0090975436394689045 0 0.00039583813951179613 -0.0031066898146594377 0 -0.00031721017643421062 -0.0049441804188540125 0 -0.001724979730153331 -0.0088658460556529251 0 -0.0017049794130874847 -0.0089888180752510129 0 -0.00177736959828359 -0.0090975436394689045 0 -0.001724979730153331 -0.0088658460556529251 0 -0.0016673130956802564 -0.0089164072932195488 0 -0.0017049794130874847 -0.0089888180752510129 0 -0.0016476312753529239 -0.0089902128971365933 0 -0.0016673130956802564 -0.0089164072932195488 0 -0.0017049794130874847 -0.0089888180752510129 0 -0.0017049794130874847 -0.0089888180752510129 0 -0.0016722048096848051 -0.0090622265056964149 0 -0.00177736959828359 -0.0090975436394689045 0 -0.0016476312753529239 -0.0089902128971365933 0 -0.0017049794130874847 -0.0089888180752510129 0 -0.0016722048096848051 -0.0090622265056964149 0 0.0019276808012886866 0.00063850456370081522 0 0.0016990844781761205 0.00055328408994488945 0 0.0016974161519075776 5.6056121081115681e-05 0 0.0014249969602056569 0.0004828257099067743 0 0.0016990844781761205 0.00055328408994488945 0 0.0016974161519075776 5.6056121081115681e-05 0 -0.00031721017643421062 -0.0049441804188540125 0 -0.0004735614282812431 -0.0033245591359551733 0 -0.0019365952890121536 -0.0091753544583457452 0 -0.0019273489407143614 -0.0093725948974368294 0 -0.002110242949118601 -0.0094939280251660051 0 -0.0019365952890121536 -0.0091753544583457452 0 -0.00177736959828359 -0.0090975436394689045 0 -0.0017738863646413333 -0.0092625324647378354 0 -0.00177736959828359 -0.0090975436394689045 0 -0.0016894614987840145 -0.0091537644394896252 0 -0.0017738863646413333 -0.0092625324647378354 0 -0.0016722048096848051 -0.0090622265056964149 0 -0.00177736959828359 -0.0090975436394689045 0 -0.0016894614987840145 -0.0091537644394896252 0 -0.0017738863646413333 -0.0092625324647378354 0 -0.0016518747755770735 -0.0093923232554566725 0 -0.0018194912198631495 -0.0094699158809795087 0 -0.0017738863646413333 -0.0092625324647378354 0 -0.0019273489407143614 -0.0093725948974368294 0 -0.0018194912198631495 -0.0094699158809795087 0 -0.0019365952890121536 -0.0091753544583457452 0 -0.0017738863646413333 -0.0092625324647378354 0 -0.0019273489407143614 -0.0093725948974368294 0 -0.0014538635172128027 -0.009214796621105437 0 -0.0014268078946758881 -0.0093243156994207311 0 -0.001321786613728528 -0.0092516347690930287 0 -0.001489256038412722 -0.0090973839563993925 0 -0.0013550319299639026 -0.0091399065194494051 0 -0.0014538635172128027 -0.009214796621105437 0 -0.0013550319299639026 -0.0091399065194494051 0 -0.0014538635172128027 -0.009214796621105437 0 -0.001321786613728528 -0.0092516347690930287 0 -0.001489256038412722 -0.0090973839563993925 0 -0.0014538635172128027 -0.009214796621105437 0 -0.0015935418525156173 -0.0092195650909971793 0 -0.0014538635172128027 -0.009214796621105437 0 -0.0015935418525156173 -0.0092195650909971793 0 -0.0015306253683914589 -0.0093242559661537022 0 -0.0016894614987840145 -0.0091537644394896252 0 -0.0017738863646413333 -0.0092625324647378354 0 -0.0015935418525156173 -0.0092195650909971793 0 -0.001489256038412722 -0.0090973839563993925 0 -0.0015935418525156173 -0.0092195650909971793 0 -0.0016034219559778562 -0.0091164863331011856 0 -0.0016722048096848051 -0.0090622265056964149 0 -0.0016894614987840145 -0.0091537644394896252 0 -0.0016034219559778562 -0.0091164863331011856 0 -0.0016894614987840145 -0.0091537644394896252 0 -0.0015935418525156173 -0.0092195650909971793 0 -0.0016034219559778562 -0.0091164863331011856 0 -0.0017738863646413333 -0.0092625324647378354 0 -0.0015935418525156173 -0.0092195650909971793 0 -0.0016518747755770735 -0.0093923232554566725 0 -0.0015935418525156173 -0.0092195650909971793 0 -0.0016518747755770735 -0.0093923232554566725 0 -0.0015306253683914589 -0.0093242559661537022 0 -0.0016518747755770735 -0.0093923232554566725 0 -0.0015306253683914589 -0.0093242559661537022 0 -0.0014938070615199254 -0.0094743500961926921 0 -0.0015306253683914589 -0.0093242559661537022 0 -0.0014268078946758881 -0.0093243156994207311 0 -0.0014938070615199254 -0.0094743500961926921 0 -0.0014538635172128027 -0.009214796621105437 0 -0.0015306253683914589 -0.0093242559661537022 0 -0.0014268078946758881 -0.0093243156994207311 0 -0.0014268078946758881 -0.0093243156994207311 0 -0.0014938070615199254 -0.0094743500961926921 0 -0.0013335813837300405 -0.0093659301639472531 0 -0.0014938070615199254 -0.0094743500961926921 0 -0.0015577204157568862 -0.009691844242842064 0 -0.0014245781651194096 -0.0095998167465130985 0 -0.0014938070615199254 -0.0094743500961926921 0 -0.0016675536034796911 -0.009560931415511148 0 -0.0015577204157568862 -0.009691844242842064 0 -0.0016518747755770735 -0.0093923232554566725 0 -0.0016675536034796911 -0.009560931415511148 0 -0.0018194912198631495 -0.0094699158809795087 0 -0.0016518747755770735 -0.0093923232554566725 0 -0.0014938070615199254 -0.0094743500961926921 0 -0.0016675536034796911 -0.009560931415511148 0 -0.0016675536034796911 -0.009560931415511148 0 -0.0018194912198631495 -0.0094699158809795087 0 -0.0018079091207327054 -0.0097754616766176951 0 -0.0016675536034796911 -0.009560931415511148 0 -0.0015577204157568862 -0.009691844242842064 0 -0.0018079091207327054 -0.0097754616766176951 0 -0.0015143105134886169 -0.010007606436704014 0 -0.0015577204157568862 -0.009691844242842064 0 -0.0013975465156321077 -0.0097620067701739612 0 -0.0015577204157568862 -0.009691844242842064 0 -0.0013975465156321077 -0.0097620067701739612 0 -0.0014245781651194096 -0.0095998167465130985 0 -0.0015143105134886169 -0.010007606436704014 0 -0.0015577204157568862 -0.009691844242842064 0 -0.0018079091207327054 -0.0097754616766176951 0 -0.0019704023910412133 -0.0095003334109307423 0 -0.0018079091207327054 -0.0097754616766176951 0 -0.002110242949118601 -0.0094939280251660051 0 -0.0022864794567571162 -0.010125479646268804 0 -0.0021718995260114034 -0.0097340599226952741 0 -0.0024706615819183701 -0.0093056076523056162 0 -0.0017883901564404246 -0.010705167845720181 0 -0.0004735614282812431 -0.0033245591359551733 0 -0.0018079091207327054 -0.0097754616766176951 0 -0.0021718995260114034 -0.0097340599226952741 0 -0.0024706615819183701 -0.0093056076523056162 0 -0.0019273489407143614 -0.0093725948974368294 0 -0.0019704023910412133 -0.0095003334109307423 0 -0.002110242949118601 -0.0094939280251660051 0 -0.0019273489407143614 -0.0093725948974368294 0 -0.0019704023910412133 -0.0095003334109307423 0 -0.0018194912198631495 -0.0094699158809795087 0 -0.0019704023910412133 -0.0095003334109307423 0 -0.0018194912198631495 -0.0094699158809795087 0 -0.0018079091207327054 -0.0097754616766176951 0 -0.0010998842235324675 -0.0071091247903745268 0 -0.0004735614282812431 -0.0033245591359551733 0 -0.00035443968588180183 0.0023135089307935765 0 -0.0011979260014989722 0.0019459051989314175 0 -0.0013811202501765227 0.0029323741543855718 0 -0.0019090118209027006 0.0022812263455509497 0 -0.0011979260014989722 0.0019459051989314175 0 -0.0013811202501765227 0.0029323741543855718 0 -0.0004735614282812431 -0.0033245591359551733 0 -0.00027214624823247084 0.0015944857013903795 0 -0.0004735614282812431 -0.0033245591359551733 0 0.0011973939825534387 0.00094947912288472663 0 0.0016974161519075776 5.6056121081115681e-05 0 0.0013328403571535598 -0.00070019768312481708 0 0.0012534124196454165 0.00018683759842901899 0 0.0013367457004922075 -0.00047884339032717489 0 0.00050007297348961396 2.7206907065269026e-05 0 0.0012534124196454165 0.00018683759842901899 0 0.0010412088327552784 0.00048236408010981244 0 0.00050007297348961396 2.7206907065269026e-05 0 0.0012534124196454165 0.00018683759842901899 0 0.0014249969602056569 0.0004828257099067743 0 0.0016974161519075776 5.6056121081115681e-05 0 0.0012534124196454165 0.00018683759842901899 0 -0.00064365675866070158 -0.0094249890969010305 0 -0.00080539980607138861 -0.0091676072042743764 0 -0.00077654718004275408 -0.0089100145084829926 0 -0.00091132874487304116 -0.012692286774491782 0 -0.00091942892775467356 -0.012607762067121294 0 -0.0010816703760067746 -0.012491089403018782 0 -0.00072396201509475626 -0.011201892972102794 0 -0.00093447688655582143 -0.01066665768336955 0 -0.00087325499848208657 -0.01267728620829946 0 -0.00091132874487304116 -0.012692286774491782 0 -0.00091942892775467356 -0.012607762067121294 0 -0.00087325499848208657 -0.01267728620829946 0 -0.00087793807735530921 -0.012689533340207192 0 -0.00083682109056353764 -0.012695911306527453 0 -0.00087325499848208657 -0.01267728620829946 0 -0.00087793807735530921 -0.012689533340207192 0 -0.00091132874487304116 -0.012692286774491782 0 -0.00087793807735530921 -0.012689533340207192 0 -0.00091132874487304116 -0.012692286774491782 0 -0.00083682109056353764 -0.012695911306527453 0 -0.00071072962204765558 -0.009484940054244358 0 -0.0007322607495332691 -0.0094017435066487687 0 -0.00064365675866070158 -0.0094249890969010305 0 -0.00071072962204765558 -0.009484940054244358 0 -0.0007322607495332691 -0.0094017435066487687 0 -0.00078421541594554797 -0.009506297175930432 0 -0.0007322607495332691 -0.0094017435066487687 0 -0.00078421541594554797 -0.009506297175930432 0 -0.0008638290419463536 -0.0093904900173452793 0 -0.0007322607495332691 -0.0094017435066487687 0 -0.00076765776685704167 -0.0093235107727786398 0 -0.0008638290419463536 -0.0093904900173452793 0 -0.0007322607495332691 -0.0094017435066487687 0 -0.00064365675866070158 -0.0094249890969010305 0 -0.00076765776685704167 -0.0093235107727786398 0 -0.00064365675866070158 -0.0094249890969010305 0 -0.00076765776685704167 -0.0093235107727786398 0 -0.00080539980607138861 -0.0091676072042743764 0 -0.00076765776685704167 -0.0093235107727786398 0 -0.00080539980607138861 -0.0091676072042743764 0 -0.00087083026861453552 -0.0092613231649272248 0 -0.00091942892775467356 -0.012607762067121294 0 -0.00081300507102163042 -0.012662706292925969 0 -0.00082672658778950474 -0.012611867415057453 0 -0.00091942892775467356 -0.012607762067121294 0 -0.00081300507102163042 -0.012662706292925969 0 -0.00082794165941840064 -0.012684938238208087 0 -0.00081300507102163042 -0.012662706292925969 0 -0.00082794165941840064 -0.012684938238208087 0 -0.00075543812632116153 -0.01271248374220014 0 -0.00087325499848208657 -0.01267728620829946 0 -0.00091942892775467356 -0.012607762067121294 0 -0.00082794165941840064 -0.012684938238208087 0 -0.00087325499848208657 -0.01267728620829946 0 -0.00082794165941840064 -0.012684938238208087 0 -0.00083682109056353764 -0.012695911306527453 0 -0.00077617548526939003 -0.012706947825637843 0 -0.00076622203963363036 -0.012702882963009853 0 -0.00083682109056353764 -0.012695911306527453 0 -0.00082794165941840064 -0.012684938238208087 0 -0.00077617548526939003 -0.012706947825637843 0 -0.00083682109056353764 -0.012695911306527453 0 -0.00075543812632116153 -0.01271248374220014 0 -0.00071835871293683662 -0.012724160616023899 0 -0.0007057576584439311 -0.012735974507047216 0 -0.00082794165941840064 -0.012684938238208087 0 -0.00077617548526939003 -0.012706947825637843 0 -0.00075543812632116153 -0.01271248374220014 0 -0.00077617548526939003 -0.012706947825637843 0 -0.00075543812632116153 -0.01271248374220014 0 -0.00071835871293683662 -0.012724160616023899 0 -0.00062761693381590254 -0.012702434310493796 0 -0.00071835871293683662 -0.012724160616023899 0 -0.00076622203963363036 -0.012702882963009853 0 -0.00077617548526939003 -0.012706947825637843 0 -0.00071835871293683662 -0.012724160616023899 0 -0.00076622203963363036 -0.012702882963009853 0 -0.00036205609236859891 -0.010175863095926026 0 -0.00064365675866070158 -0.0094249890969010305 0 -0.00067818653650788554 -0.0096102014586791837 0 -0.00062761693381590254 -0.012702434310493796 0 -0.00091132874487304116 -0.012692286774491782 0 -0.00076622203963363036 -0.012702882963009853 0 -0.00051985999346758219 -0.011382839272801882 0 -0.00072396201509475626 -0.011201892972102794 0 -0.00036205609236859891 -0.010175863095926026 0 -0.00067818653650788554 -0.0096102014586791837 0 -0.00065135145026431172 -0.0098339436596827957 0 -0.00091132874487304116 -0.012692286774491782 0 -0.00076622203963363036 -0.012702882963009853 0 -0.00083682109056353764 -0.012695911306527453 0 -0.00078421541594554797 -0.009506297175930432 0 -0.00067818653650788554 -0.0096102014586791837 0 -0.00080092442430036508 -0.0096386531533484594 0 -0.00071072962204765558 -0.009484940054244358 0 -0.00064365675866070158 -0.0094249890969010305 0 -0.00067818653650788554 -0.0096102014586791837 0 -0.00071072962204765558 -0.009484940054244358 0 -0.00078421541594554797 -0.009506297175930432 0 -0.00067818653650788554 -0.0096102014586791837 0 -0.00067818653650788554 -0.0096102014586791837 0 -0.00080092442430036508 -0.0096386531533484594 0 -0.00065135145026431172 -0.0098339436596827957 0 -0.00080092442430036508 -0.0096386531533484594 0 -0.00075519467485055905 -0.0099163675802678708 0 -0.00065135145026431172 -0.0098339436596827957 0 -0.00075519467485055905 -0.0099163675802678708 0 -0.0009166072390148788 -0.0097280196200046493 0 -0.00096857025095941013 -0.0099145223688453035 0 -0.00080092442430036508 -0.0096386531533484594 0 -0.00075519467485055905 -0.0099163675802678708 0 -0.0009166072390148788 -0.0097280196200046493 0 -0.0009166072390148788 -0.0097280196200046493 0 -0.00096857025095941013 -0.0099145223688453035 0 -0.0010335477636110629 -0.0097492676194383399 0 -0.00096857025095941013 -0.0099145223688453035 0 -0.001129229821660264 -0.0098538808861269485 0 -0.0010335477636110629 -0.0097492676194383399 0 -0.001129229821660264 -0.0098538808861269485 0 -0.0010335477636110629 -0.0097492676194383399 0 -0.001130957496180953 -0.0096533164259573982 0 -0.0009166072390148788 -0.0097280196200046493 0 -0.0010335477636110629 -0.0097492676194383399 0 -0.0010178038483589368 -0.0096013977755756968 0 -0.0010335477636110629 -0.0097492676194383399 0 -0.0010178038483589368 -0.0096013977755756968 0 -0.001130957496180953 -0.0096533164259573982 0 -0.0010178038483589368 -0.0096013977755756968 0 -0.001130957496180953 -0.0096533164259573982 0 -0.0011053615429539453 -0.0094780191952910948 0 -0.0010178038483589368 -0.0096013977755756968 0 -0.00099274100004688361 -0.0094486119790738489 0 -0.0011053615429539453 -0.0094780191952910948 0 -0.0010178038483589368 -0.0096013977755756968 0 -0.00089866226495470113 -0.0095473979605986848 0 -0.00099274100004688361 -0.0094486119790738489 0 -0.00078421541594554797 -0.009506297175930432 0 -0.00080092442430036508 -0.0096386531533484594 0 -0.00089866226495470113 -0.0095473979605986848 0 -0.00080092442430036508 -0.0096386531533484594 0 -0.0009166072390148788 -0.0097280196200046493 0 -0.00089866226495470113 -0.0095473979605986848 0 -0.0009166072390148788 -0.0097280196200046493 0 -0.0010178038483589368 -0.0096013977755756968 0 -0.00089866226495470113 -0.0095473979605986848 0 -0.0012827806073051424 -0.0099708865063781061 0 -0.0013975465156321077 -0.0097620067701739612 0 -0.0012481983831631545 -0.0097081286883537368 0 -0.0013975465156321077 -0.0097620067701739612 0 -0.0012481983831631545 -0.0097081286883537368 0 -0.0013280660080606636 -0.0096182492902161156 0 -0.0012827806073051424 -0.0099708865063781061 0 -0.001129229821660264 -0.0098538808861269485 0 -0.0012481983831631545 -0.0097081286883537368 0 -0.001129229821660264 -0.0098538808861269485 0 -0.001130957496180953 -0.0096533164259573982 0 -0.0012481983831631545 -0.0097081286883537368 0 -0.001130957496180953 -0.0096533164259573982 0 -0.0012481983831631545 -0.0097081286883537368 0 -0.0012273870116080066 -0.0095306655102716936 0 -0.001130957496180953 -0.0096533164259573982 0 -0.0012273870116080066 -0.0095306655102716936 0 -0.0011053615429539453 -0.0094780191952910948 0 -0.0012481983831631545 -0.0097081286883537368 0 -0.0012273870116080066 -0.0095306655102716936 0 -0.0013280660080606636 -0.0096182492902161156 0 -0.0012273870116080066 -0.0095306655102716936 0 -0.0013280660080606636 -0.0096182492902161156 0 -0.0013428876177299725 -0.0094946517937895998 0 -0.0014938070615199254 -0.0094743500961926921 0 -0.0013428876177299725 -0.0094946517937895998 0 -0.0014245781651194096 -0.0095998167465130985 0 -0.0013280660080606636 -0.0096182492902161156 0 -0.0013428876177299725 -0.0094946517937895998 0 -0.0014245781651194096 -0.0095998167465130985 0 -0.0013975465156321077 -0.0097620067701739612 0 -0.0013280660080606636 -0.0096182492902161156 0 -0.0014245781651194096 -0.0095998167465130985 0 -0.0014268078946758881 -0.0093243156994207311 0 -0.0013335813837300405 -0.0093659301639472531 0 -0.001321786613728528 -0.0092516347690930287 0 -0.0014938070615199254 -0.0094743500961926921 0 -0.0013428876177299725 -0.0094946517937895998 0 -0.0013335813837300405 -0.0093659301639472531 0 -0.0012273870116080066 -0.0095306655102716936 0 -0.0013428876177299725 -0.0094946517937895998 0 -0.0012620833555520832 -0.0094093165600278843 0 -0.0013428876177299725 -0.0094946517937895998 0 -0.0013335813837300405 -0.0093659301639472531 0 -0.0012620833555520832 -0.0094093165600278843 0 -0.0013335813837300405 -0.0093659301639472531 0 -0.0012620578493168053 -0.0093140531354889179 0 -0.001321786613728528 -0.0092516347690930287 0 -0.0013335813837300405 -0.0093659301639472531 0 -0.0012620833555520832 -0.0094093165600278843 0 -0.0012620578493168053 -0.0093140531354889179 0 -0.0012620833555520832 -0.0094093165600278843 0 -0.0011966826835770998 -0.0093226132795728323 0 -0.0011824750739751009 -0.0094182317837144258 0 -0.0012620833555520832 -0.0094093165600278843 0 -0.0012620578493168053 -0.0093140531354889179 0 -0.0011966826835770998 -0.0093226132795728323 0 -0.0012273870116080066 -0.0095306655102716936 0 -0.0012620833555520832 -0.0094093165600278843 0 -0.0011824750739751009 -0.0094182317837144258 0 -0.0011824750739751009 -0.0094182317837144258 0 -0.001123354238910668 -0.0093413477029491102 0 -0.0011053615429539453 -0.0094780191952910948 0 -0.0012273870116080066 -0.0095306655102716936 0 -0.0011824750739751009 -0.0094182317837144258 0 -0.0011053615429539453 -0.0094780191952910948 0 -0.0011966826835770998 -0.0093226132795728323 0 -0.0011824750739751009 -0.0094182317837144258 0 -0.001123354238910668 -0.0093413477029491102 0 -0.0011966826835770998 -0.0093226132795728323 0 -0.001123354238910668 -0.0093413477029491102 0 -0.001132750060384959 -0.0092211757896952986 0 -0.001123354238910668 -0.0093413477029491102 0 -0.001132750060384959 -0.0092211757896952986 0 -0.0010501762421336997 -0.0092486865826840164 0 -0.001132750060384959 -0.0092211757896952986 0 -0.0010690767283208873 -0.0091374438381346332 0 -0.0011495083506405399 -0.0090937523822184271 0 -0.0012161893659280677 -0.009227698575663159 0 -0.0012565441149862955 -0.0091542855003787348 0 -0.0011495083506405399 -0.0090937523822184271 0 -0.001132750060384959 -0.0092211757896952986 0 -0.0012161893659280677 -0.009227698575663159 0 -0.0011495083506405399 -0.0090937523822184271 0 -0.0012620578493168053 -0.0093140531354889179 0 -0.0011966826835770998 -0.0093226132795728323 0 -0.0012161893659280677 -0.009227698575663159 0 -0.0011966826835770998 -0.0093226132795728323 0 -0.001132750060384959 -0.0092211757896952986 0 -0.0012161893659280677 -0.009227698575663159 0 -0.0012620578493168053 -0.0093140531354889179 0 -0.0012161893659280677 -0.009227698575663159 0 -0.001321786613728528 -0.0092516347690930287 0 -0.0012161893659280677 -0.009227698575663159 0 -0.0012565441149862955 -0.0091542855003787348 0 -0.001321786613728528 -0.0092516347690930287 0 -0.0013550319299639026 -0.0091399065194494051 0 -0.0012565441149862955 -0.0091542855003787348 0 -0.001321786613728528 -0.0092516347690930287 0 -0.0008638290419463536 -0.0093904900173452793 0 -0.00099274100004688361 -0.0094486119790738489 0 -0.00096677676769688504 -0.0093011854299380591 0 -0.0008638290419463536 -0.0093904900173452793 0 -0.00096677676769688504 -0.0093011854299380591 0 -0.00087083026861453552 -0.0092613231649272248 0 -0.00076765776685704167 -0.0093235107727786398 0 -0.0008638290419463536 -0.0093904900173452793 0 -0.00087083026861453552 -0.0092613231649272248 0 -0.00078421541594554797 -0.009506297175930432 0 -0.00089866226495470113 -0.0095473979605986848 0 -0.0008638290419463536 -0.0093904900173452793 0 -0.00089866226495470113 -0.0095473979605986848 0 -0.0008638290419463536 -0.0093904900173452793 0 -0.00099274100004688361 -0.0094486119790738489 0 -0.00099274100004688361 -0.0094486119790738489 0 -0.0011053615429539453 -0.0094780191952910948 0 -0.0010483588112799901 -0.0093623802809594155 0 -0.001123354238910668 -0.0093413477029491102 0 -0.0011053615429539453 -0.0094780191952910948 0 -0.0010483588112799901 -0.0093623802809594155 0 -0.001123354238910668 -0.0093413477029491102 0 -0.0010483588112799901 -0.0093623802809594155 0 -0.0010501762421336997 -0.0092486865826840164 0 -0.00099274100004688361 -0.0094486119790738489 0 -0.0010483588112799901 -0.0093623802809594155 0 -0.00096677676769688504 -0.0093011854299380591 0 -0.0010483588112799901 -0.0093623802809594155 0 -0.0010501762421336997 -0.0092486865826840164 0 -0.00096677676769688504 -0.0093011854299380591 0 -0.0010501762421336997 -0.0092486865826840164 0 -0.0010690767283208873 -0.0091374438381346332 0 -0.00094790800639752868 -0.009146544810341245 0 -0.0010501762421336997 -0.0092486865826840164 0 -0.00094790800639752868 -0.009146544810341245 0 -0.00096677676769688504 -0.0093011854299380591 0 -0.001132750060384959 -0.0092211757896952986 0 -0.0010501762421336997 -0.0092486865826840164 0 -0.0010690767283208873 -0.0091374438381346332 0 -0.00080539980607138861 -0.0091676072042743764 0 -0.00094790800639752868 -0.009146544810341245 0 -0.00087083026861453552 -0.0092613231649272248 0 -0.00094790800639752868 -0.009146544810341245 0 -0.00096677676769688504 -0.0093011854299380591 0 -0.00087083026861453552 -0.0092613231649272248 0 -0.00094790800639752868 -0.009146544810341245 0 -0.0010190021211389057 -0.0090133259846826852 0 -0.00088936259795649041 -0.0089624924498877372 0 -0.00080539980607138861 -0.0091676072042743764 0 -0.00094790800639752868 -0.009146544810341245 0 -0.00088936259795649041 -0.0089624924498877372 0 -0.0010690767283208873 -0.0091374438381346332 0 -0.00094790800639752868 -0.009146544810341245 0 -0.0010190021211389057 -0.0090133259846826852 0 -0.0010190021211389057 -0.0090133259846826852 0 -0.0011089727939439143 -0.0089306800597563837 0 -0.00097703394134789718 -0.008857216885579321 0 -0.0010190021211389057 -0.0090133259846826852 0 -0.00088936259795649041 -0.0089624924498877372 0 -0.00097703394134789718 -0.008857216885579321 0 -0.0013615242366172716 -0.0090075253038672774 0 -0.0012534153483331834 -0.0090554565332001818 0 -0.0012430373170732015 -0.0089369006978190103 0 -0.0013550319299639026 -0.0091399065194494051 0 -0.0012565441149862955 -0.0091542855003787348 0 -0.0012534153483331834 -0.0090554565332001818 0 -0.0013615242366172716 -0.0090075253038672774 0 -0.0013550319299639026 -0.0091399065194494051 0 -0.0012534153483331834 -0.0090554565332001818 0 -0.0012565441149862955 -0.0091542855003787348 0 -0.0012534153483331834 -0.0090554565332001818 0 -0.0011495083506405399 -0.0090937523822184271 0 -0.0012534153483331834 -0.0090554565332001818 0 -0.0011495083506405399 -0.0090937523822184271 0 -0.0011089727939439143 -0.0089306800597563837 0 -0.0010190021211389057 -0.0090133259846826852 0 -0.0011495083506405399 -0.0090937523822184271 0 -0.0011089727939439143 -0.0089306800597563837 0 -0.0010690767283208873 -0.0091374438381346332 0 -0.0010190021211389057 -0.0090133259846826852 0 -0.0011495083506405399 -0.0090937523822184271 0 -0.0011089727939439143 -0.0089306800597563837 0 -0.0011548526911999643 -0.0088411100726189379 0 -0.0010409236090790713 -0.0087773925774986186 0 -0.0011089727939439143 -0.0089306800597563837 0 -0.0010409236090790713 -0.0087773925774986186 0 -0.00097703394134789718 -0.008857216885579321 0 -0.0013533970070382425 -0.0088508641076922561 0 -0.0011548526911999643 -0.0088411100726189379 0 -0.0012430373170732015 -0.0089369006978190103 0 -0.0011089727939439143 -0.0089306800597563837 0 -0.0011548526911999643 -0.0088411100726189379 0 -0.0012430373170732015 -0.0089369006978190103 0 -0.0012534153483331834 -0.0090554565332001818 0 -0.0011089727939439143 -0.0089306800597563837 0 -0.0012430373170732015 -0.0089369006978190103 0 -0.0011548526911999643 -0.0088411100726189379 0 -0.0011836459767070367 -0.0087226565570204962 0 -0.0010409236090790713 -0.0087773925774986186 0 -0.0013533970070382425 -0.0088508641076922561 0 -0.0011548526911999643 -0.0088411100726189379 0 -0.0011836459767070367 -0.0087226565570204962 0 -0.0010409236090790713 -0.0087773925774986186 0 -0.00097398510693706426 -0.0086479922995630794 0 -0.00095519480536522398 -0.0087490201053931817 0 -0.0011836459767070367 -0.0087226565570204962 0 -0.0010409236090790713 -0.0087773925774986186 0 -0.00097398510693706426 -0.0086479922995630794 0 -0.0011836459767070367 -0.0087226565570204962 0 -0.00097398510693706426 -0.0086479922995630794 0 -0.0011774034789304934 -0.0085816369363508928 0 -0.00097703394134789718 -0.008857216885579321 0 -0.00095519480536522398 -0.0087490201053931817 0 -0.00090789158036185251 -0.0088178202514904575 0 -0.00088936259795649041 -0.0089624924498877372 0 -0.00097703394134789718 -0.008857216885579321 0 -0.00090789158036185251 -0.0088178202514904575 0 -0.0010409236090790713 -0.0087773925774986186 0 -0.00097703394134789718 -0.008857216885579321 0 -0.00095519480536522398 -0.0087490201053931817 0 -0.00095519480536522398 -0.0087490201053931817 0 -0.00090789158036185251 -0.0088178202514904575 0 -0.00094191408036478999 -0.0088150831082201477 0 -0.00093447688655582143 -0.01066665768336955 0 -0.0011734788251773944 -0.010475410098379134 0 -0.00090789158036185251 -0.0088178202514904575 0 -0.00077654718004275408 -0.0089100145084829926 0 -0.001030185603321183 -0.0088134228102066184 0 -0.00088936259795649041 -0.0089624924498877372 0 -0.00090789158036185251 -0.0088178202514904575 0 -0.00077654718004275408 -0.0089100145084829926 0 -0.00080539980607138861 -0.0091676072042743764 0 -0.00088936259795649041 -0.0089624924498877372 0 -0.00077654718004275408 -0.0089100145084829926 0 -0.00091942892775467356 -0.012607762067121294 0 -0.00092875347258135463 -0.012538381264590403 0 -0.00082672658778950474 -0.012611867415057453 0 -0.00091942892775467356 -0.012607762067121294 0 -0.0010816703760067746 -0.012491089403018782 0 -0.00092875347258135463 -0.012538381264590403 0 -0.00092875347258135463 -0.012538381264590403 0 -0.0013113601635010991 -0.01213615897478953 0 -0.00082308175042702188 -0.012449342483053983 0 -0.0010816703760067746 -0.012491089403018782 0 -0.00092875347258135463 -0.012538381264590403 0 -0.0013113601635010991 -0.01213615897478953 0 -0.001030185603321183 -0.0088134228102066184 0 -0.00095945065027097567 -0.008976304666662582 0 -0.00094191408036478999 -0.0088150831082201477 0 -0.00090789158036185251 -0.0088178202514904575 0 -0.001030185603321183 -0.0088134228102066184 0 -0.00094191408036478999 -0.0088150831082201477 0 -0.00095945065027097567 -0.008976304666662582 0 -0.0012723954093417141 -0.0090977360675085391 0 -0.0010275490889575273 -0.009194781390227013 0 -0.001030185603321183 -0.0088134228102066184 0 -0.00095945065027097567 -0.008976304666662582 0 -0.0012723954093417141 -0.0090977360675085391 0 -0.0011734788251773944 -0.010475410098379134 0 -0.0013702037211485933 -0.0101997488708605 0 -0.0013113601635010991 -0.01213615897478953 0 -0.0015403929306025863 -0.011319972247076772 0 -0.0010863220071088352 -0.011757896665578393 0 -0.00085274519747833893 -0.0087226931572779512 0 -0.00091726171017992946 -0.0088042986930306072 0 -0.00084437764654275162 -0.0089594884902073312 0 -0.00028041903637602601 -0.0053064455375384408 0 -0.00086408947332390911 -0.0092548787580225104 0 -0.00097398510693706426 -0.0086479922995630794 0 -0.00085274519747833893 -0.0087226931572779512 0 -0.00091726171017992946 -0.0088042986930306072 0 -0.00097398510693706426 -0.0086479922995630794 0 -0.0011774034789304934 -0.0085816369363508928 0 -0.0011367223797429332 -0.0083140021368809987 0 -0.0001105679917474266 -0.0078794518561762956 0 -0.00028041903637602601 -0.0053064455375384408 0 -0.00097398510693706426 -0.0086479922995630794 0 -0.00095519480536522398 -0.0087490201053931817 0 -0.00091726171017992946 -0.0088042986930306072 0 -0.00095945065027097567 -0.008976304666662582 0 -0.00091726171017992946 -0.0088042986930306072 0 -0.00094191408036478999 -0.0088150831082201477 0 -0.00095519480536522398 -0.0087490201053931817 0 -0.00091726171017992946 -0.0088042986930306072 0 -0.00094191408036478999 -0.0088150831082201477 0 -0.00095945065027097567 -0.008976304666662582 0 -0.00084437764654275162 -0.0089594884902073312 0 -0.00085915472037005657 -0.0092530178863820083 0 -0.00095945065027097567 -0.008976304666662582 0 -0.00091726171017992946 -0.0088042986930306072 0 -0.00084437764654275162 -0.0089594884902073312 0 -9.7847611449300917e-06 -0.0082852882958347803 0 -2.8595731413190264e-05 -0.0077168309005533151 0 -0.00049606598410176423 -0.0084498482286023829 0 -9.7847611449300917e-06 -0.0082852882958347803 0 -0.00049606598410176423 -0.0084498482286023829 0 -9.4724124488701597e-05 -0.0087854141344456942 0 0.00023526765187535249 -0.0092566800942957342 0 -9.4724124488701597e-05 -0.0087854141344456942 0 -0.00043412392209865185 -0.0092747130898991354 0 -0.00049606598410176423 -0.0084498482286023829 0 -9.4724124488701597e-05 -0.0087854141344456942 0 -0.00043412392209865185 -0.0092747130898991354 0 -0.00049606598410176423 -0.0084498482286023829 0 -0.00085915472037005657 -0.0092530178863820083 0 -0.00043412392209865185 -0.0092747130898991354 0 -0.00086408947332390911 -0.0092548787580225104 0 -0.00075791819977718926 -0.009000196910654094 0 -0.00085915472037005657 -0.0092530178863820083 0 -0.00068845980215209127 -0.0094814989577732978 0 -0.00043412392209865185 -0.0092747130898991354 0 -0.00068845980215209127 -0.0094814989577732978 0 -0.00043412392209865185 -0.0092747130898991354 0 -0.00055500110647434514 -0.0096671530002918251 0 -0.00085915472037005657 -0.0092530178863820083 0 -0.00083411795557591061 -0.0094524515536805985 0 -0.00068845980215209127 -0.0094814989577732978 0 -0.00083411795557591061 -0.0094524515536805985 0 -0.00068845980215209127 -0.0094814989577732978 0 -0.0007885071953442445 -0.0096025424990178812 0 0.00023526765187535249 -0.0092566800942957342 0 -0.00043412392209865185 -0.0092747130898991354 0 -0.00055500110647434514 -0.0096671530002918251 0 -0.00037872239641479987 -0.0047906196120426339 0 -0.00028301027179633835 -0.0046661761659441666 0 -0.0012723954093417141 -0.0090977360675085391 0 -0.0011532748899619745 -0.0094956012969869344 0 -0.0013066729589769042 -0.0099669148597337394 0 -0.0015403929306025863 -0.011319972247076772 0 -0.0013066729589769042 -0.0099669148597337394 0 -0.0011657196783879744 -0.010609896574409517 0 -0.0013702037211485933 -0.0101997488708605 0 -0.0013253019874909582 -0.0099730772681076562 0 -0.0012723954093417141 -0.0090977360675085391 0 -0.0011532748899619745 -0.0094956012969869344 0 -0.0010275490889575273 -0.009194781390227013 0 -0.00095945065027097567 -0.008976304666662582 0 -0.00085915472037005657 -0.0092530178863820083 0 -0.0010275490889575273 -0.009194781390227013 0 -0.00085915472037005657 -0.0092530178863820083 0 -0.0010275490889575273 -0.009194781390227013 0 -0.0010461617603540723 -0.0094902449307543522 0 -0.0011532748899619745 -0.0094956012969869344 0 -0.0010275490889575273 -0.009194781390227013 0 -0.0010461617603540723 -0.0094902449307543522 0 -0.0011532748899619745 -0.0094956012969869344 0 -0.0010461617603540723 -0.0094902449307543522 0 -0.0012218976657401861 -0.0097416536832834327 0 -0.00085915472037005657 -0.0092530178863820083 0 -0.00083411795557591061 -0.0094524515536805985 0 -0.0010461617603540723 -0.0094902449307543522 0 -0.00084214605005352068 -0.009479928547838419 0 -0.0010792434707064739 -0.0097274210180833213 0 -0.00083411795557591061 -0.0094524515536805985 0 -0.0010461617603540723 -0.0094902449307543522 0 -0.0011605497273701984 -0.0098480880049804584 0 -0.00083411795557591061 -0.0094524515536805985 0 -0.0007885071953442445 -0.0096025424990178812 0 -0.00088457688231828493 -0.0095750457112036523 0 -0.0010461617603540723 -0.0094902449307543522 0 -0.0012218976657401861 -0.0097416536832834327 0 -0.0011605497273701984 -0.0098480880049804584 0 -0.0012218976657401861 -0.0097416536832834327 0 -0.0013168570698460999 -0.0098379739136335628 0 -0.0011605497273701984 -0.0098480880049804584 0 -0.0012218976657401861 -0.0097416536832834327 0 -0.0013066729589769042 -0.0099669148597337394 0 -0.0013168570698460999 -0.0098379739136335628 0 -0.0013066729589769042 -0.0099669148597337394 0 -0.0013168570698460999 -0.0098379739136335628 0 -0.00095683443293995433 -0.010092926836447214 0 -0.0011532748899619745 -0.0094956012969869344 0 -0.0012218976657401861 -0.0097416536832834327 0 -0.0013066729589769042 -0.0099669148597337394 0 -0.00082543544391484262 -0.0092406168695794589 0 -0.0010920065317788176 -0.01080860034945875 0 -0.0013168570698460999 -0.0098379739136335628 0 -0.001330293510845709 -0.0097143753489780139 0 -0.00095683443293995433 -0.010092926836447214 0 -0.0013168570698460999 -0.0098379739136335628 0 -0.001330293510845709 -0.0097143753489780139 0 -0.0011605497273701984 -0.0098480880049804584 0 -0.0005395660587416409 -0.0070369633028993144 0 -0.00021367072757356832 -0.0066893471442064515 0 -0.0011680681814384645 -0.0063892470629808261 0 -0.00097093088123518633 -0.0096568432202440765 0 -0.00091639014348859698 -0.0096553176360092679 0 -0.0009274750666274042 -0.0096969858800748602 0 -0.00082543544391484262 -0.0092406168695794589 0 -0.00074414981848920203 -0.0040551562284882924 0 -0.00082543544391484262 -0.0092406168695794589 0 -0.00072990986281519054 -0.00826157432232477 0 -0.0015754472722828558 -0.010674703470851277 0 -0.0014951433150068299 -0.010589143973096453 0 -0.0012409618386649078 -0.010824479962597453 0 -0.0007885071953442445 -0.0096025424990178812 0 -0.00087463600222793998 -0.0096456662072123417 0 -0.00090052141810969958 -0.0097104744338223688 0 -0.0007885071953442445 -0.0096025424990178812 0 -0.00088457688231828493 -0.0095750457112036523 0 -0.00087463600222793998 -0.0096456662072123417 0 -0.00082543544391484262 -0.0092406168695794589 0 -0.0010792434707064739 -0.0097274210180833213 0 -0.00088457688231828493 -0.0095750457112036523 0 -0.00091639014348859698 -0.0096553176360092679 0 -0.00087463600222793998 -0.0096456662072123417 0 -0.00090544244918994675 -0.0096776593123780053 0 -0.00087463600222793998 -0.0096456662072123417 0 -0.00090052141810969958 -0.0097104744338223688 0 -0.00097093088123518633 -0.0096568432202440765 0 -0.00088457688231828493 -0.0095750457112036523 0 -0.00091639014348859698 -0.0096553176360092679 0 -0.00091639014348859698 -0.0096553176360092679 0 -0.00090544244918994675 -0.0096776593123780053 0 -0.0009274750666274042 -0.0096969858800748602 0 -0.00091639014348859698 -0.0096553176360092679 0 -0.00090544244918994675 -0.0096776593123780053 0 -0.00087463600222793998 -0.0096456662072123417 0 0.00011504292417050761 0.0013513968200348323 0 0.00026104307340798111 0.0013153737298758177 0 6.38186999431726e-05 0.0015513699551864433 0 0.00018663394906981155 0.0012631707761555037 0 0.00016029905348472639 0.0012476130053311 0 0.00011504292417050761 0.0013513968200348323 0 -0.00073008512282846311 -0.0012710122576029452 0 -0.00071788870024846823 -0.0019814387190979933 0 -0.00090544244918994675 -0.0096776593123780053 0 -0.00090052141810969958 -0.0097104744338223688 0 -0.0009274750666274042 -0.0096969858800748602 0 -0.00071788870024846823 -0.0019814387190979933 0 -0.00074414981848920203 -0.0040551562284882924 0 -0.00093999232421329126 -0.0031801864048431596 0 -0.00076324310706693337 -0.0030667503543639158 0 -0.0011735001513392619 -0.0029478213855432893 0 -0.00073008512282846311 -0.0012710122576029452 0 -0.00066807258947127704 0.00020203606984415702 0 -0.0012951209278607365 -0.00026991299742573616 0 -0.0012430032845614945 -0.00032367647256687556 0 -0.001189177933525019 -0.00018890559026161382 0 -0.00073008512282846311 -0.0012710122576029452 0 -0.00074414981848920203 -0.0040551562284882924 0 0.00018595558460966625 0.0012666236582074589 0 0.00011504292417050761 0.0013513968200348323 0 0.00026104307340798111 0.0013153737298758177 0 -0.00073008512282846311 -0.0012710122576029452 0 -0.000785244401696979 0.00027688011284260653 0 -0.0010533314002162542 -0.00037817994326114337 0 -0.00097051163416161132 -1.3971717172232642e-05 0 -0.00085065128735778309 2.6825976856057026e-06 0 -0.0010533314002162542 -0.00037817994326114337 0 -0.0012430032845614945 -0.00032367647256687556 0 -0.00097051163416161132 -1.3971717172232642e-05 0 -0.00072990986281519054 -0.00826157432232477 0 -0.00074414981848920203 -0.0040551562284882924 0 -0.0012430032845614945 -0.00032367647256687556 0 -0.001189177933525019 -0.00018890559026161382 0 -0.00097051163416161132 -1.3971717172232642e-05 0 -0.00066807258947127704 0.00020203606984415702 0 -0.0011100538861640752 -0.00010221280053652206 0 -0.00097051163416161132 -1.3971717172232642e-05 0 -0.00095567510494064527 0.00010482910396816566 0 -0.0010552131526184768 0.00011299727866256591 0 -0.00095567510494064527 0.00010482910396816566 0 -0.00098677225986015414 0.0002588910654259809 0 -0.00088866475413388474 0.00015494783674707899 0 -0.00095567510494064527 0.00010482910396816566 0 -0.0010552131526184768 0.00011299727866256591 0 -0.00098677225986015414 0.0002588910654259809 0 -0.0010552131526184768 0.00011299727866256591 0 -0.0011109304952746186 0.00027035193611367898 0 -0.00098677225986015414 0.0002588910654259809 0 -0.0010554695416839567 -5.6131548279423817e-05 0 -0.00097051163416161132 -1.3971717172232642e-05 0 -0.0010552131526184768 0.00011299727866256591 0 -0.00066807258947127704 0.00020203606984415702 0 -0.00057675455067738072 0.00091022376200267194 0 -0.0010554695416839567 -5.6131548279423817e-05 0 -0.0010552131526184768 0.00011299727866256591 0 -0.0012157490349697382 0.00015635075317387676 0 -0.0010552131526184768 0.00011299727866256591 0 -0.0012157490349697382 0.00015635075317387676 0 -0.0011109304952746186 0.00027035193611367898 0 -0.0011109304952746186 0.00027035193611367898 0 -0.0010835485100824738 0.00052362385470141779 0 -0.00098677225986015414 0.0002588910654259809 0 -0.0012157490349697382 0.00015635075317387676 0 -0.0011109304952746186 0.00027035193611367898 0 -0.0012150208559099139 0.00041396227203451821 0 -0.0012150208559099139 0.00041396227203451821 0 -0.0010835485100824738 0.00052362385470141779 0 -0.0012726853553525169 0.00062791315022694126 0 -0.0011109304952746186 0.00027035193611367898 0 -0.0012150208559099139 0.00041396227203451821 0 -0.0010835485100824738 0.00052362385470141779 0 -0.0010835485100824738 0.00052362385470141779 0 -0.00098677225986015414 0.0002588910654259809 0 -0.00087340584709147894 0.00033468205843359189 0 -0.00098677225986015414 0.0002588910654259809 0 -0.00088866475413388474 0.00015494783674707899 0 -0.00087340584709147894 0.00033468205843359189 0 -0.00018446856179499778 0.0018662126329225125 0 -0.00034377889605152745 0.0019327448782949198 0 -0.000373740908873091 0.0022619797360464064 0 -0.00034377889605152745 0.0019327448782949198 0 -0.00050985377524505294 0.002013752365463761 0 -0.000373740908873091 0.0022619797360464064 0 -0.00020735971426541784 0.0017039002300247284 0 -0.00012923857297847123 0.0017580766071710308 0 -0.00035590688972767811 0.0019895212773186816 0 -0.0001535063348212958 0.0017671215989070637 0 -0.00092837222020128788 0.0020403955543298003 0 -0.00018446856179499778 0.0018662126329225125 0 -0.00028951242350141939 0.0017954803097044798 0 -0.00034377889605152745 0.0019327448782949198 0 -0.00040019598595699422 0.0017716908934036482 0 -0.00034377889605152745 0.0019327448782949198 0 -0.00050985377524505294 0.002013752365463761 0 -0.00028951242350141939 0.0017954803097044798 0 -0.00040019598595699422 0.0017716908934036482 0 -0.00034377889605152745 0.0019327448782949198 0 6.38186999431726e-05 0.0015513699551864433 0 -0.00012923857297847123 0.0017580766071710308 0 -7.9235263131719047e-05 0.0016119052141416374 0 -0.0012157490349697382 0.00015635075317387676 0 -0.0012150208559099139 0.00041396227203451821 0 -0.0014170798982263966 0.0004988704461800211 0 -0.00057675455067738072 0.00091022376200267194 0 -0.00072914163502226339 0.0010420937467665284 0 -0.0012150208559099139 0.00041396227203451821 0 -0.0014170798982263966 0.0004988704461800211 0 -0.0012726853553525169 0.00062791315022694126 0 -0.00020735971426541784 0.0017039002300247284 0 -0.00012923857297847123 0.0017580766071710308 0 -7.9235263131719047e-05 0.0016119052141416374 0 -0.00018446856179499778 0.0018662126329225125 0 -7.4065708561748137e-05 0.0014634729204185016 0 -0.00023055522462879933 0.0016156199936115364 0 -0.0001535063348212958 0.0017671215989070637 0 -9.1796770259732854e-05 0.0015062709387904565 0 -0.00020735971426541784 0.0017039002300247284 0 -7.9235263131719047e-05 0.0016119052141416374 0 -7.4065708561748137e-05 0.0014634729204185016 0 6.38186999431726e-05 0.0015513699551864433 0 -7.9235263131719047e-05 0.0016119052141416374 0 -7.4065708561748137e-05 0.0014634729204185016 0 0.00011504292417050761 0.0013513968200348323 0 6.38186999431726e-05 0.0015513699551864433 0 -7.4065708561748137e-05 0.0014634729204185016 0 -7.4065708561748137e-05 0.0014634729204185016 0 -0.00023055522462879933 0.0016156199936115364 0 -0.00018374250805380292 0.0013934992777130707 0 -0.00040019598595699422 0.0017716908934036482 0 -0.00023055522462879933 0.0016156199936115364 0 -0.00063658591807806448 0.0015415555441393488 0 -0.00023055522462879933 0.0016156199936115364 0 -0.00018374250805380292 0.0013934992777130707 0 -0.00063658591807806448 0.0015415555441393488 0 -6.0271120502792463e-05 0.0017628890153119205 0 -0.00064506611630624992 0.0014270838461661092 0 -0.00018446856179499778 0.0018662126329225125 0 -0.00028951242350141939 0.0017954803097044798 0 -0.00023055522462879933 0.0016156199936115364 0 -0.00028951242350141939 0.0017954803097044798 0 -0.00040019598595699422 0.0017716908934036482 0 -0.00023055522462879933 0.0016156199936115364 0 0.00016029905348472639 0.0012476130053311 0 0.00011504292417050761 0.0013513968200348323 0 -0.00018374250805380292 0.0013934992777130707 0 0.00028676561808519584 0.0011204967768415658 0 -0.00015712299541685638 0.0013165570100323505 0 -0.00013659120505188198 0.00086771959243893166 0 -0.00071788870024846823 -0.0019814387190979933 0 -6.0271120502792463e-05 0.0017628890153119205 0 0.00011504292417050761 0.0013513968200348323 0 -7.4065708561748137e-05 0.0014634729204185016 0 -0.00018374250805380292 0.0013934992777130707 0 -0.0007885071953442445 -0.0096025424990178812 0 -0.00090052141810969958 -0.0097104744338223688 0 -0.00055500110647434514 -0.0096671530002918251 0 -0.00071788870024846823 -0.0019814387190979933 0 -0.00028301027179633835 -0.0046661761659441666 0 -0.00068845980215209127 -0.0094814989577732978 0 -0.0007885071953442445 -0.0096025424990178812 0 -0.00055500110647434514 -0.0096671530002918251 0 -0.00015712299541685638 0.0013165570100323505 0 -0.00013659120505188198 0.00086771959243893166 0 -0.00055162214148994756 0.0010462858864047453 0 -0.00057601353173618243 0.00059229516754431865 0 -0.00013659120505188198 0.00086771959243893166 0 -0.00055162214148994756 0.0010462858864047453 0 -0.00057601353173618243 0.00059229516754431865 0 -0.00055162214148994756 0.0010462858864047453 0 -0.0010040148504027917 0.00085697736911003971 0 -0.00055162214148994756 0.0010462858864047453 0 -0.0010040148504027917 0.00085697736911003971 0 -0.000892747394499006 0.0012398368398136837 0 -0.000892747394499006 0.0012398368398136837 0 -0.0011305577080940137 0.001616590908975058 0 -0.00063658591807806448 0.0015415555441393488 0 -0.00055162214148994756 0.0010462858864047453 0 -0.000892747394499006 0.0012398368398136837 0 -0.00063658591807806448 0.0015415555441393488 0 -0.00015712299541685638 0.0013165570100323505 0 -0.00055162214148994756 0.0010462858864047453 0 -0.00063658591807806448 0.0015415555441393488 0 -0.0013918708522021241 0.00067287580723559063 0 -0.0014296082764345625 0.00098455669645447367 0 -0.0017812824768809929 0.0010353519678670117 0 -0.0014728427591795181 0.0011697853937668924 0 -0.0014296082764345625 0.00098455669645447367 0 -0.0017113593234782134 0.0011019798414245538 0 -0.0014728427591795181 0.0011697853937668924 0 -0.0014296082764345625 0.00098455669645447367 0 -0.0012211283609854543 0.0011752881076031506 0 -0.0010040148504027917 0.00085697736911003971 0 -0.0014296082764345625 0.00098455669645447367 0 -0.0012211283609854543 0.0011752881076031506 0 -0.0010040148504027917 0.00085697736911003971 0 -0.000892747394499006 0.0012398368398136837 0 -0.0012211283609854543 0.0011752881076031506 0 -0.0012211283609854543 0.0011752881076031506 0 -0.0015276306593519134 0.0014148476977228236 0 -0.0011305577080940137 0.001616590908975058 0 -0.000892747394499006 0.0012398368398136837 0 -0.0012211283609854543 0.0011752881076031506 0 -0.0011305577080940137 0.001616590908975058 0 -0.0014728427591795181 0.0011697853937668924 0 -0.0015276306593519134 0.0014148476977228236 0 -0.0017113593234782134 0.0011019798414245538 0 -0.0014728427591795181 0.0011697853937668924 0 -0.0012211283609854543 0.0011752881076031506 0 -0.0015276306593519134 0.0014148476977228236 0 -0.0015276306593519134 0.0014148476977228236 0 -0.0011305577080940137 0.001616590908975058 0 -0.0015714357807368284 0.0018851786441781177 0 -0.0011305577080940137 0.001616590908975058 0 -0.0011640044689770312 0.0019440951198508897 0 -0.0015714357807368284 0.0018851786441781177 0 -0.0011305577080940137 0.001616590908975058 0 -0.0011640044689770312 0.0019440951198508897 0 -0.00091934583349477354 0.001929685915825206 0 -0.0011640044689770312 0.0019440951198508897 0 -0.00091934583349477354 0.001929685915825206 0 -0.0010885972427717642 0.0021909519001181731 0 -0.0011640044689770312 0.0019440951198508897 0 -0.0012766407743266858 0.0021632273394628777 0 -0.0010885972427717642 0.0021909519001181731 0 -0.0014831182890533453 0.0034019782628899957 0 -0.0015962899159300856 0.0032855418451535677 0 -0.0014595108022836629 0.0033150900046427568 0 -0.0011640044689770312 0.0019440951198508897 0 -0.0015714357807368284 0.0018851786441781177 0 -0.0012766407743266858 0.0021632273394628777 0 -0.001623604488377714 0.0025225590578166284 0 -0.0012308286521429475 0.0025963684176767013 0 -0.00040019598595699422 0.0017716908934036482 0 -0.00063658591807806448 0.0015415555441393488 0 -0.00063985477901979857 0.0018744384438173472 0 -0.0011305577080940137 0.001616590908975058 0 -0.00063658591807806448 0.0015415555441393488 0 -0.00091934583349477354 0.001929685915825206 0 -0.00063658591807806448 0.0015415555441393488 0 -0.00091934583349477354 0.001929685915825206 0 -0.00063985477901979857 0.0018744384438173472 0 -0.00091934583349477354 0.001929685915825206 0 -0.00063985477901979857 0.0018744384438173472 0 -0.00073135893656152764 0.0021146458122209425 0 -0.00091934583349477354 0.001929685915825206 0 -0.00073135893656152764 0.0021146458122209425 0 -0.00087546417279157213 0.0022322672578258145 0 -0.00063985477901979857 0.0018744384438173472 0 -0.00050985377524505294 0.002013752365463761 0 -0.00073135893656152764 0.0021146458122209425 0 -0.00040019598595699422 0.0017716908934036482 0 -0.00063985477901979857 0.0018744384438173472 0 -0.00050985377524505294 0.002013752365463761 0 -0.00050985377524505294 0.002013752365463761 0 -0.00063050175140576519 0.0022744700361247046 0 -0.000373740908873091 0.0022619797360464064 0 -0.0010483227192080011 0.0027118489208970312 0 -0.00092837222020128788 0.0020403955543298003 0 -0.00063050175140576519 0.0022744700361247046 0 -0.00062238220836587847 0.0024668734371850859 0 -0.000373740908873091 0.0022619797360464064 0 -0.00063050175140576519 0.0022744700361247046 0 -0.00080024973602383764 0.002372484208676032 0 -0.00072038410072354942 0.0023926962031578717 0 -0.00063050175140576519 0.0022744700361247046 0 -0.00073135893656152764 0.0021146458122209425 0 -0.00080024973602383764 0.002372484208676032 0 -0.00050985377524505294 0.002013752365463761 0 -0.00063050175140576519 0.0022744700361247046 0 -0.00073135893656152764 0.0021146458122209425 0 -0.00073135893656152764 0.0021146458122209425 0 -0.00087546417279157213 0.0022322672578258145 0 -0.00080024973602383764 0.002372484208676032 0 -0.00091934583349477354 0.001929685915825206 0 -0.00087546417279157213 0.0022322672578258145 0 -0.0010885972427717642 0.0021909519001181731 0 -0.00087546417279157213 0.0022322672578258145 0 -0.00080024973602383764 0.002372484208676032 0 -0.00089180335846147734 0.0024471599968438041 0 -0.00080024973602383764 0.002372484208676032 0 -0.00080769927153796382 0.0024573940619475802 0 -0.0008518840071091515 0.0024921760460999962 0 -0.00080024973602383764 0.002372484208676032 0 -0.0008518840071091515 0.0024921760460999962 0 -0.00089180335846147734 0.0024471599968438041 0 -0.0008518840071091515 0.0024921760460999962 0 -0.00074770119949019577 0.0025177405124653944 0 -0.0008312391465720697 0.0024681542169928791 0 -0.0008518840071091515 0.0024921760460999962 0 -0.00094621284165894934 0.0025192593993047336 0 -0.0008312391465720697 0.0024681542169928791 0 -0.00080769927153796382 0.0024573940619475802 0 -0.0008518840071091515 0.0024921760460999962 0 -0.00094621284165894934 0.0025192593993047336 0 -0.0014279762516505965 0.0026907806967131952 0 -0.0013491883257812538 0.0028866289716169618 0 -0.00094621284165894934 0.0025192593993047336 0 -0.00080769927153796382 0.0024573940619475802 0 -0.00062238220836587847 0.0024668734371850859 0 -0.00094621284165894934 0.0025192593993047336 0 -0.0010483227192080011 0.0027118489208970312 0 -0.00090691266873728555 0.0025177739260038253 0 -0.0014279762516505965 0.0026907806967131952 0 -0.0013491883257812538 0.0028866289716169618 0 -0.0016292013351360329 0.0032012316465019654 0 -0.00080769927153796382 0.0024573940619475802 0 -0.00062238220836587847 0.0024668734371850859 0 -0.00072038410072354942 0.0023926962031578717 0 -0.00063050175140576519 0.0022744700361247046 0 -0.00062238220836587847 0.0024668734371850859 0 -0.00072038410072354942 0.0023926962031578717 0 -0.00080024973602383764 0.002372484208676032 0 -0.00080769927153796382 0.0024573940619475802 0 -0.00072038410072354942 0.0023926962031578717 0 -0.00087181414996605222 0.0024545412139774306 0 -0.00081930842263688505 0.0024298641157078069 0 -0.00093383195027075714 0.0023424472686400257 0 -0.0012308286521429475 0.0025963684176767013 0 -0.0012125690973993405 0.0028102682500120149 0 -0.00087181414996605222 0.0024545412139774306 0 -0.00081930842263688505 0.0024298641157078069 0 -0.00081853737498247924 0.0024749668738502425 0 -0.0012308286521429475 0.0025963684176767013 0 -0.00093107485358190107 0.0023936201813112429 0 -0.00081930842263688505 0.0024298641157078069 0 -0.00089180335846147734 0.0024471599968438041 0 -0.00081853737498247924 0.0024749668738502425 0 -0.0012308286521429475 0.0025963684176767013 0 -0.0011877109179926097 0.0023958330460873553 0 -0.0013208094103723859 0.0021723521366983534 0 -0.0010885972427717642 0.0021909519001181731 0 -0.00089180335846147734 0.0024471599968438041 0 -0.00087546417279157213 0.0022322672578258145 0 -0.0010885972427717642 0.0021909519001181731 0 -0.00089180335846147734 0.0024471599968438041 0 -0.0008518840071091515 0.0024921760460999962 0 -0.00089180335846147734 0.0024471599968438041 0 -0.00074770119949019577 0.0025177405124653944 0 -0.00089180335846147734 0.0024471599968438041 0 -0.00081853737498247924 0.0024749668738502425 0 -0.00074770119949019577 0.0025177405124653944 0 -0.00084785125154727438 0.0025921891048645358 0 -0.00081853737498247924 0.0024749668738502425 0 -0.00074770119949019577 0.0025177405124653944 0 -0.00087181414996605222 0.0024545412139774306 0 -0.00084785125154727438 0.0025921891048645358 0 -0.00081853737498247924 0.0024749668738502425 0 -0.00084785125154727438 0.0025921891048645358 0 -0.00071277984448753922 0.0026578099786364316 0 -0.00097214852224758582 0.0030835947462680971 0 -0.00084785125154727438 0.0025921891048645358 0 -0.00071277984448753922 0.0026578099786364316 0 -0.00074770119949019577 0.0025177405124653944 0 -0.00071277984448753922 0.0026578099786364316 0 -0.00074770119949019577 0.0025177405124653944 0 -0.00053564670973092353 0.0024493755149536047 0 -0.00074770119949019577 0.0025177405124653944 0 -0.00053564670973092353 0.0024493755149536047 0 -0.00079103133808843971 0.0023866683780873281 0 -0.00071277984448753922 0.0026578099786364316 0 -0.00053564670973092353 0.0024493755149536047 0 -0.00072009914076531074 0.0028287842411274943 0 -0.00071277984448753922 0.0026578099786364316 0 -0.00072009914076531074 0.0028287842411274943 0 -0.00097214852224758582 0.0030835947462680971 0 -0.0012564315461408594 0.0019954430651380256 0 -0.0014018681356621756 0.0016955601655921076 0 -0.001396638317547838 0.001711384524529181 0 -0.0015901255570129546 0.0014155359254271378 0 -0.0012564315461408594 0.0019954430651380256 0 -0.001396638317547838 0.001711384524529181 0 -0.0014279762516505965 0.0026907806967131952 0 -0.0012564315461408594 0.0019954430651380256 0 -0.00094621284165894934 0.0025192593993047336 0 -0.0015269551220137186 0.0020686728885653547 0 -0.0012847158919193722 0.0019245044187151564 0 -0.00094621284165894934 0.0025192593993047336 0 -0.0008312391465720697 0.0024681542169928791 0 -0.00093406185277220856 0.0023164521718581159 0 -0.0008312391465720697 0.0024681542169928791 0 -0.00079103133808843971 0.0023866683780873281 0 -0.00093406185277220856 0.0023164521718581159 0 -0.00074770119949019577 0.0025177405124653944 0 -0.0008312391465720697 0.0024681542169928791 0 -0.00079103133808843971 0.0023866683780873281 0 -0.00079103133808843971 0.0023866683780873281 0 -0.00093406185277220856 0.0023164521718581159 0 -0.00092740142659287832 0.0022141552333397518 0 -0.0012564315461408594 0.0019954430651380256 0 -0.00093406185277220856 0.0023164521718581159 0 -0.00092740142659287832 0.0022141552333397518 0 -0.0012564315461408594 0.0019954430651380256 0 -0.00094621284165894934 0.0025192593993047336 0 -0.00093406185277220856 0.0023164521718581159 0 -0.00053564670973092353 0.0024493755149536047 0 4.3930630914158961e-06 0.0021781407061280951 0 -0.00025164277891218665 0.0025232175208706555 0 -0.0012564315461408594 0.0019954430651380256 0 -0.00092740142659287832 0.0022141552333397518 0 -0.0011783436602589455 0.0019401861790726948 0 -0.00053564670973092353 0.0024493755149536047 0 -0.00092740142659287832 0.0022141552333397518 0 -0.0011783436602589455 0.0019401861790726948 0 -0.00056608590398766773 0.0023621057368062221 0 -0.00059992390896219721 0.0020958557012429888 0 -0.00053564670973092353 0.0024493755149536047 0 -0.00079103133808843971 0.0023866683780873281 0 -0.00092740142659287832 0.0022141552333397518 0 4.3930630914158961e-06 0.0021781407061280951 0 8.9410206060974923e-05 0.0022001534961313182 0 0.00013091522125580226 0.0021607483475081274 0 -0.00059992390896219721 0.0020958557012429888 0 -0.00065022589318217583 0.0019352839810245204 0 -0.0012564315461408594 0.0019954430651380256 0 -0.0011783436602589455 0.0019401861790726948 0 -0.0014018681356621756 0.0016955601655921076 0 4.3930630914158961e-06 0.0021781407061280951 0 8.9410206060974923e-05 0.0022001534961313182 0 -1.5794735180555229e-05 0.0023702934207269098 0 8.9410206060974923e-05 0.0022001534961313182 0 0.00013091522125580226 0.0021607483475081274 0 0.00011372191211429234 0.0020953056928619414 0 0.00013091522125580226 0.0021607483475081274 0 1.08022917261854e-05 0.0020466518901891945 0 0.00011372191211429234 0.0020953056928619414 0 -0.0014018681356621756 0.0016955601655921076 0 -0.001396638317547838 0.001711384524529181 0 -0.0013122512459142041 0.0014802057355384334 0 -0.001396638317547838 0.001711384524529181 0 -0.0013122512459142041 0.0014802057355384334 0 -0.0014259678738968878 0.0014276592495732561 0 -0.0015901255570129546 0.0014155359254271378 0 -0.001396638317547838 0.001711384524529181 0 -0.0014259678738968878 0.0014276592495732561 0 -0.0013122512459142041 0.0014802057355384334 0 -0.0011575651663145961 0.001582794927616452 0 -0.0010427848965526697 0.0012461144903983413 0 -0.0014018681356621756 0.0016955601655921076 0 -0.0013122512459142041 0.0014802057355384334 0 -0.0011575651663145961 0.001582794927616452 0 0.00013091522125580226 0.0021607483475081274 0 1.08022917261854e-05 0.0020466518901891945 0 -0.00014441814495337225 0.0022521069771576484 0 -0.00065022589318217583 0.0019352839810245204 0 -0.00062530447035975606 0.0019638158444692387 0 -0.00014441814495337225 0.0022521069771576484 0 -0.00034509112775330214 0.0020729136083246324 0 -0.00070245331213261513 0.0023514450032329176 0 1.08022917261854e-05 0.0020466518901891945 0 -0.00014441814495337225 0.0022521069771576484 0 -0.00034509112775330214 0.0020729136083246324 0 -0.00062530447035975606 0.0019638158444692387 0 -0.00092147621424696442 0.0014277286894596776 0 -0.00092147621424696442 0.0014277286894596776 0 -0.00082780801643300662 0.0016602562093778646 0 -0.0012109400431185801 0.0011988135775691361 0 -0.0010026522075584077 0.0013804116200821922 0 -0.0011135250032510815 0.001410412050368434 0 -0.00034509112775330214 0.0020729136083246324 0 -0.00070245331213261513 0.0023514450032329176 0 -0.00067196420254169061 0.0019245999129265043 0 -0.00075914194456179951 0.0015146477398114008 0 -0.0010427848965526697 0.0012461144903983413 0 -0.00071300614601896599 0.0010269309662738475 0 -0.00092147621424696442 0.0014277286894596776 0 -0.00090700549653565581 0.00068802100299319329 0 -0.0011984174959474914 0.00079204839264828038 0 -0.0010859133119299033 0.0004480566574424186 0 -0.0010232289758014606 0.00063658454950266347 0 -0.0011575651663145961 0.001582794927616452 0 -0.00075914194456179951 0.0015146477398114008 0 -0.0010427848965526697 0.0012461144903983413 0 -0.0010427848965526697 0.0012461144903983413 0 -0.00099464490266019858 0.00081753539322715362 0 -0.0012065510930348142 0.00097963941938448138 0 -0.0010427848965526697 0.0012461144903983413 0 -0.00071300614601896599 0.0010269309662738475 0 -0.00099464490266019858 0.00081753539322715362 0 -0.0010835485100824738 0.00052362385470141779 0 -0.00099464490266019858 0.00081753539322715362 0 -0.00087340584709147894 0.00033468205843359189 0 -0.00090700549653565581 0.00068802100299319329 0 -0.00087530798069163974 0.00041498689541357754 0 -0.00071300614601896599 0.0010269309662738475 0 -0.00099464490266019858 0.00081753539322715362 0 -0.00087340584709147894 0.00033468205843359189 0 -0.0010835485100824738 0.00052362385470141779 0 -0.0012726853553525169 0.00062791315022694126 0 -0.0012065510930348142 0.00097963941938448138 0 -0.0010835485100824738 0.00052362385470141779 0 -0.00099464490266019858 0.00081753539322715362 0 -0.0012065510930348142 0.00097963941938448138 0 -0.0012726853553525169 0.00062791315022694126 0 -0.0013718943595993711 0.00083992933636742328 0 -0.0012065510930348142 0.00097963941938448138 0 -0.0013718943595993711 0.00083992933636742328 0 -0.0013935539309275656 0.001171910880330309 0 -0.0012065510930348142 0.00097963941938448138 0 -0.0014170798982263966 0.0004988704461800211 0 -0.0012726853553525169 0.00062791315022694126 0 -0.0013718943595993711 0.00083992933636742328 0 -0.0014170798982263966 0.0004988704461800211 0 -0.0013718943595993711 0.00083992933636742328 0 -0.0015975842101407184 0.00091637616371876716 0 -0.00072914163502226339 0.0010420937467665284 0 -0.00092837222020128788 0.0020403955543298003 0 -0.0013718943595993711 0.00083992933636742328 0 -0.0015975842101407184 0.00091637616371876716 0 -0.0013935539309275656 0.001171910880330309 0 -0.0015975842101407184 0.00091637616371876716 0 -0.0013935539309275656 0.001171910880330309 0 -0.001500710456086465 0.001233943241155147 0 -0.0015269551220137186 0.0020686728885653547 0 -0.00092837222020128788 0.0020403955543298003 0 -0.0015901255570129546 0.0014155359254271378 0 -0.0015975842101407184 0.00091637616371876716 0 -0.001500710456086465 0.001233943241155147 0 -0.0013122512459142041 0.0014802057355384334 0 -0.0013935539309275656 0.001171910880330309 0 -0.0014259678738968878 0.0014276592495732561 0 -0.0015901255570129546 0.0014155359254271378 0 -0.001500710456086465 0.001233943241155147 0 -0.0014259678738968878 0.0014276592495732561 0 -0.0013935539309275656 0.001171910880330309 0 -0.001500710456086465 0.001233943241155147 0 -0.0014259678738968878 0.0014276592495732561 0 -0.0013122512459142041 0.0014802057355384334 0 -0.0013935539309275656 0.001171910880330309 0 -0.0012065510930348142 0.00097963941938448138 0 -0.0013122512459142041 0.0014802057355384334 0 -0.0010427848965526697 0.0012461144903983413 0 -0.0012065510930348142 0.00097963941938448138 0 -0.00080354312154599223 0.0072830250670147248 0 -0.00074902717775369152 0.0072013011340163859 0 -0.00081471803406012546 0.0071215961658317459 0 -0.00092324041156030003 0.0075256603581087033 0 -0.00080354312154599223 0.0072830250670147248 0 -0.00079343344695043745 0.0074327033079638703 0 -0.00080354312154599223 0.0072830250670147248 0 -0.00074902717775369152 0.0072013011340163859 0 -0.00079343344695043745 0.0074327033079638703 0 -0.00074902717775369152 0.0072013011340163859 0 -0.00067463785142442279 0.006889379044871035 0 -0.00081471803406012546 0.0071215961658317459 0 -0.00067463785142442279 0.006889379044871035 0 -0.00081471803406012546 0.0071215961658317459 0 -0.001053509145045002 0.0070205314433821435 0 -0.0010006911173012292 0.0072835329040553433 0 -0.00081471803406012546 0.0071215961658317459 0 -0.001053509145045002 0.0070205314433821435 0 -0.0010006911173012292 0.0072835329040553433 0 -0.00081471803406012546 0.0071215961658317459 0 -0.00082502488424214505 0.0072745516295584442 0 -0.00080354312154599223 0.0072830250670147248 0 -0.00081471803406012546 0.0071215961658317459 0 -0.00082502488424214505 0.0072745516295584442 0 -0.00072258758495152148 0.0075859670642848924 0 -0.00082502488424214505 0.0072745516295584442 0 -0.0010979265385989802 0.0076793983944427411 0 -0.00072258758495152148 0.0075859670642848924 0 -0.0010921244782301958 0.0082902482111568195 0 -0.0010979265385989802 0.0076793983944427411 0 -0.0010404684598830367 0.0081141144734676925 0 -0.0010848766111349445 0.0082752836044067482 0 -0.001318560191508133 0.0082695376863848313 0 -0.0010979265385989802 0.0076793983944427411 0 -0.0013922932918686457 0.0078432349287840143 0 -0.0010979265385989802 0.0076793983944427411 0 -0.0012344912056795659 0.0073844755709920268 0 -0.0013922932918686457 0.0078432349287840143 0 -0.001318560191508133 0.0082695376863848313 0 -0.0010921244782301958 0.0082902482111568195 0 -0.0010979265385989802 0.0076793983944427411 0 -0.0010006911173012292 0.0072835329040553433 0 -0.00082502488424214505 0.0072745516295584442 0 -0.0010979265385989802 0.0076793983944427411 0 -0.0010006911173012292 0.0072835329040553433 0 -0.0010979265385989802 0.0076793983944427411 0 -0.0012344912056795659 0.0073844755709920268 0 -0.0012344912056795659 0.0073844755709920268 0 -0.0015585752538457519 0.0075108220847766539 0 -0.00158865386949461 0.0069103447926881839 0 -0.0012344912056795659 0.0073844755709920268 0 -0.0013922932918686457 0.0078432349287840143 0 -0.0015585752538457519 0.0075108220847766539 0 -0.0017153947877502924 0.0080345181531507569 0 -0.0013922932918686457 0.0078432349287840143 0 -0.0015585752538457519 0.0075108220847766539 0 -0.0017153947877502924 0.0080345181531507569 0 -0.0015585752538457519 0.0075108220847766539 0 -0.0019613360758520952 0.0077611148470302727 0 -0.0015585752538457519 0.0075108220847766539 0 -0.00158865386949461 0.0069103447926881839 0 -0.0019613360758520952 0.0077611148470302727 0 -0.0016442381077711055 0.0068424532228671753 0 -0.0018921152962439762 0.006662160211181563 0 -0.00158865386949461 0.0069103447926881839 0 -0.0014112245617851455 0.006735776869862032 0 -0.0014246148654597471 0.0066868586193364896 0 -0.00158865386949461 0.0069103447926881839 0 -0.001053509145045002 0.0070205314433821435 0 -0.0011143219666192843 0.0067475393434286218 0 -0.0012344912056795659 0.0073844755709920268 0 -0.00158865386949461 0.0069103447926881839 0 -0.001053509145045002 0.0070205314433821435 0 -0.0010006911173012292 0.0072835329040553433 0 -0.0012344912056795659 0.0073844755709920268 0 -0.001053509145045002 0.0070205314433821435 0 -0.00067463785142442279 0.006889379044871035 0 -0.001053509145045002 0.0070205314433821435 0 -0.0011143219666192843 0.0067475393434286218 0 -0.00067463785142442279 0.006889379044871035 0 -0.0011143219666192843 0.0067475393434286218 0 -0.00068830014555901415 0.00635987894696318 0 -0.00158865386949461 0.0069103447926881839 0 -0.0011143219666192843 0.0067475393434286218 0 -0.0014112245617851455 0.006735776869862032 0 -0.0011143219666192843 0.0067475393434286218 0 -0.0014112245617851455 0.006735776869862032 0 -0.0011525823993388839 0.006166767253147072 0 -0.0014039826008202751 0.0067189629615829966 0 -0.0015424412551261492 0.0068286940531503294 0 -0.0014112245617851455 0.006735776869862032 0 -0.0019369972205285412 0.0065606345314072889 0 -0.0016326058395768933 0.0059020361743696535 0 -0.0014112245617851455 0.006735776869862032 0 -0.0011154004206999977 0.006857731796630212 0 -0.0011896234769990398 0.0066362007985024604 0 -0.0011154004206999977 0.006857731796630212 0 -0.0011896234769990398 0.0066362007985024604 0 -0.0008504988039236787 0.0066283650686917821 0 -0.0011896234769990398 0.0066362007985024604 0 -0.0010077258890462803 0.006505895905498587 0 -0.0008504988039236787 0.0066283650686917821 0 -0.0010077258890462803 0.006505895905498587 0 -0.0011140407822580053 0.0064131326542222018 0 -0.00088418802331522697 0.0063294208521039825 0 -0.0010077258890462803 0.006505895905498587 0 -0.00088418802331522697 0.0063294208521039825 0 -0.0008504988039236787 0.0066283650686917821 0 -0.0011896234769990398 0.0066362007985024604 0 -0.0011140407822580053 0.0064131326542222018 0 -0.0014154314086393513 0.006375249891873421 0 -0.0011896234769990398 0.0066362007985024604 0 -0.0010077258890462803 0.006505895905498587 0 -0.0011140407822580053 0.0064131326542222018 0 -0.00158865386949461 0.0069103447926881839 0 -0.0014246148654597471 0.0066868586193364896 0 -0.0014154314086393513 0.006375249891873421 0 -0.0014112245617851455 0.006735776869862032 0 -0.0011896234769990398 0.0066362007985024604 0 -0.0014246148654597471 0.0066868586193364896 0 -0.0011896234769990398 0.0066362007985024604 0 -0.0014246148654597471 0.0066868586193364896 0 -0.0014154314086393513 0.006375249891873421 0 -0.00158865386949461 0.0069103447926881839 0 -0.0014154314086393513 0.006375249891873421 0 -0.001911323884557821 0.0056082626958091153 0 -0.0014154314086393513 0.006375249891873421 0 -0.001911323884557821 0.0056082626958091153 0 -0.0012076860601013682 0.0055205831361151573 0 -0.0017499850305834708 0.0042372999491417009 0 -0.001911323884557821 0.0056082626958091153 0 -0.0012076860601013682 0.0055205831361151573 0 -0.00077004567420825142 0.0045598419497087867 0 -0.0012076860601013682 0.0055205831361151573 0 -0.00063842581375018602 0.0051936875609282195 0 -0.00087817369954582122 0.0059200638501573271 0 -0.00111086547050179 0.004731892387853532 0 -0.0014154314086393513 0.006375249891873421 0 -0.0012076860601013682 0.0055205831361151573 0 -0.0010781667106639003 0.006171849512026293 0 -0.0012076860601013682 0.0055205831361151573 0 -0.0010781667106639003 0.006171849512026293 0 -0.00065501652777323377 0.0061656844556992165 0 -0.0011140407822580053 0.0064131326542222018 0 -0.0014154314086393513 0.006375249891873421 0 -0.0010781667106639003 0.006171849512026293 0 -0.0011140407822580053 0.0064131326542222018 0 -0.0010781667106639003 0.006171849512026293 0 -0.00088418802331522697 0.0063294208521039825 0 -0.0010781667106639003 0.006171849512026293 0 -0.00088418802331522697 0.0063294208521039825 0 -0.00065501652777323377 0.0061656844556992165 0 -0.0028247233338421721 0.0019637375429420061 0 -0.0021967760066883835 0.0016129031223447729 0 -0.0017812824768809929 0.0010353519678670117 0 -0.0028247233338421721 0.0019637375429420061 0 -0.0021967760066883835 0.0016129031223447729 0 -0.0020270290688962455 0.0026973430969100464 0 -0.00088418802331522697 0.0063294208521039825 0 -0.00080498625894315353 0.0062518826779984034 0 -0.00058489834054595313 0.0064875887444229138 0 -0.00111086547050179 0.004731892387853532 0 -0.00083822294436948367 0.002939666333394144 0 -0.0012076860601013682 0.0055205831361151573 0 -0.00064624582560813908 0.0059412761477401436 0 -0.00048074081899159981 0.0055271031333601044 0 -0.0013036142941921011 0.0055418505272516886 0 -0.00111086547050179 0.004731892387853532 0 -0.00111086547050179 0.004731892387853532 0 -0.0015302590337127129 0.0036042159590527114 0 -0.00064624582560813908 0.0059412761477401436 0 -0.00048074081899159981 0.0055271031333601044 0 0.00016586860753746603 0.0051771832584575246 0 -0.0012076860601013682 0.0055205831361151573 0 -0.00048074081899159981 0.0055271031333601044 0 -0.00063842581375018602 0.0051936875609282195 0 -0.00048074081899159981 0.0055271031333601044 0 -0.00022690440435531173 0.0052537737509853718 0 -0.00063842581375018602 0.0051936875609282195 0 -0.00048074081899159981 0.0055271031333601044 0 -0.00022690440435531173 0.0052537737509853718 0 0.00016586860753746603 0.0051771832584575246 0 -0.00022690440435531173 0.0052537737509853718 0 -0.00032425696434435115 0.0049411179618872895 0 -0.00063842581375018602 0.0051936875609282195 0 -0.00022690440435531173 0.0052537737509853718 0 -0.00032425696434435115 0.0049411179618872895 0 -0.00010718302973166925 0.0050603504625058825 0 -0.00032425696434435115 0.0049411179618872895 0 -3.5868751903552004e-05 0.0048733633988793153 0 -0.00010718302973166925 0.0050603504625058825 0 -0.00077004567420825142 0.0045598419497087867 0 -0.00032425696434435115 0.0049411179618872895 0 -0.00063842581375018602 0.0051936875609282195 0 -0.0014296082764345625 0.00098455669645447367 0 -0.0017812824768809929 0.0010353519678670117 0 -0.0017113593234782134 0.0011019798414245538 0 0.00023682120284252019 0.0045761855861279543 0 -3.5868751903552004e-05 0.0048733633988793153 0 0.00016586860753746603 0.0051771832584575246 0 -0.00022690440435531173 0.0052537737509853718 0 -0.00010718302973166925 0.0050603504625058825 0 0.00016586860753746603 0.0051771832584575246 0 -3.5868751903552004e-05 0.0048733633988793153 0 -0.00010718302973166925 0.0050603504625058825 0 0.00016586860753746603 0.0051771832584575246 0 -0.0021967760066883835 0.0016129031223447729 0 -0.0017812824768809929 0.0010353519678670117 0 -0.001961316700175251 0.0014015147179844017 0 -0.0017812824768809929 0.0010353519678670117 0 -0.001961316700175251 0.0014015147179844017 0 -0.0017113593234782134 0.0011019798414245538 0 -0.0015276306593519134 0.0014148476977228236 0 -0.0017113593234782134 0.0011019798414245538 0 -0.0018470116873265919 0.0016257942216911362 0 -0.001961316700175251 0.0014015147179844017 0 -0.0017113593234782134 0.0011019798414245538 0 -0.0020270290688962455 0.0026973430969100464 0 -0.0021967760066883835 0.0016129031223447729 0 -0.001961316700175251 0.0014015147179844017 0 -0.0020270290688962455 0.0026973430969100464 0 -0.0017774422585652193 0.00055355774444459883 0 -0.0015302590337127129 0.0036042159590527114 0 -0.0015276306593519134 0.0014148476977228236 0 -0.0015714357807368284 0.0018851786441781177 0 -0.0018470116873265919 0.0016257942216911362 0 -0.001623604488377714 0.0025225590578166284 0 -0.0015302590337127129 0.0036042159590527114 0 -0.00088418802331522697 0.0063294208521039825 0 -0.00058489834054595313 0.0064875887444229138 0 -0.0008504988039236787 0.0066283650686917821 0 -0.0015424412551261492 0.0068286940531503294 0 -0.0014112593653067842 0.004826745180864944 0 -0.00058489834054595313 0.0064875887444229138 0 -0.0008504988039236787 0.0066283650686917821 0 -0.00069921752832333747 0.0069066733194116641 0 -0.0011154004206999977 0.006857731796630212 0 -0.0008504988039236787 0.0066283650686917821 0 -0.00069921752832333747 0.0069066733194116641 0 -0.0019369972205285412 0.0065606345314072889 0 -0.002690857132441932 0.0064527869188308806 0 -0.0021651969748603069 0.0060790076416021646 0 -0.0015302590337127129 0.0036042159590527114 0 -0.0014112593653067842 0.004826745180864944 0 -0.0014112593653067842 0.004826745180864944 0 -0.0012125690973993405 0.0028102682500120149 0 -0.0014831182890533453 0.0034019782628899957 0 -0.0013694507060182958 0.0035119541408489522 0 -0.0014043908333779636 0.0033881226260545926 0 -0.001324625950672206 0.0033459693640931652 0 -0.0014595108022836629 0.0033150900046427568 0 -0.0014043908333779636 0.0033881226260545926 0 -0.0013694507060182958 0.0035119541408489522 0 -0.001324625950672206 0.0033459693640931652 0 -0.0014043908333779636 0.0033881226260545926 0 -0.0014831182890533453 0.0034019782628899957 0 -0.0014595108022836629 0.0033150900046427568 0 -0.0014043908333779636 0.0033881226260545926 0 -0.0011529485939753689 0.0022853718301719499 0 -0.00093383195027075714 0.0023424472686400257 0 -0.0010053702385556362 0.0024505740023940924 0 -0.00087181414996605222 0.0024545412139774306 0 -0.00093383195027075714 0.0023424472686400257 0 -0.0010053702385556362 0.0024505740023940924 0 -0.002690857132441932 0.0064527869188308806 0 -0.0024255141919343119 0.005375782377431154 0 -0.0021651969748603069 0.0060790076416021646 0 -0.0011529485939753689 0.0022853718301719499 0 -0.0010053702385556362 0.0024505740023940924 0 -0.0013084454092398563 0.0026346155508603212 0 -0.0014112593653067842 0.004826745180864944 0 -0.0019058133492598213 0.0039230977571144071 0 -0.00087181414996605222 0.0024545412139774306 0 -0.00084785125154727438 0.0025921891048645358 0 -0.0010053702385556362 0.0024505740023940924 0 -0.00084785125154727438 0.0025921891048645358 0 -0.0010053702385556362 0.0024505740023940924 0 -0.0013084454092398563 0.0026346155508603212 0 -0.00084785125154727438 0.0025921891048645358 0 -0.0013084454092398563 0.0026346155508603212 0 -0.00097214852224758582 0.0030835947462680971 0 -0.00072009914076531074 0.0028287842411274943 0 -0.00097214852224758582 0.0030835947462680971 0 -0.00084195753623031151 0.0031243787760156321 0 -0.00097214852224758582 0.0030835947462680971 0 -0.0015528955890558355 0.0037151432085796663 0 -0.001231923872707394 0.0034675633039048274 0 -0.0013084454092398563 0.0026346155508603212 0 -0.00097214852224758582 0.0030835947462680971 0 -0.0015528955890558355 0.0037151432085796663 0 -0.0019058133492598213 0.0039230977571144071 0 -0.0015901299520093492 0.0037785793819836589 0 -0.0024255141919343119 0.005375782377431154 0 -0.0015258838264276995 0.0049117707596633446 0 -0.0015528955890558355 0.0037151432085796663 0 -0.0015258838264276995 0.0049117707596633446 0 -0.0015528955890558355 0.0037151432085796663 0 -0.001167612808550696 0.0044349670940863044 0 -0.0015528955890558355 0.0037151432085796663 0 -0.001167612808550696 0.0044349670940863044 0 -0.0011117528399732185 0.0039156248142435948 0 -0.001167612808550696 0.0044349670940863044 0 -0.0009936970383154838 0.0042623719185526333 0 -0.0011117528399732185 0.0039156248142435948 0 -0.0015258838264276995 0.0049117707596633446 0 -0.001167612808550696 0.0044349670940863044 0 -0.0011033626096264536 0.0052967838698090497 0 -0.0015258838264276995 0.0049117707596633446 0 -0.0016326058395768933 0.0059020361743696535 0 -0.0011033626096264536 0.0052967838698090497 0 -0.0016326058395768933 0.0059020361743696535 0 -0.0011525823993388839 0.006166767253147072 0 -0.0011033626096264536 0.0052967838698090497 0 -0.0024255141919343119 0.005375782377431154 0 -0.0015258838264276995 0.0049117707596633446 0 -0.0016326058395768933 0.0059020361743696535 0 -0.0024255141919343119 0.005375782377431154 0 -0.0021651969748603069 0.0060790076416021646 0 -0.0016326058395768933 0.0059020361743696535 0 -0.0019369972205285412 0.0065606345314072889 0 -0.0021651969748603069 0.0060790076416021646 0 -0.0016326058395768933 0.0059020361743696535 0 -0.0014112245617851455 0.006735776869862032 0 -0.0016326058395768933 0.0059020361743696535 0 -0.0011525823993388839 0.006166767253147072 0 -0.0011525823993388839 0.006166767253147072 0 -0.00068830014555901415 0.00635987894696318 0 -0.00078864496262434365 0.0058881739284332314 0 -0.0011143219666192843 0.0067475393434286218 0 -0.0011525823993388839 0.006166767253147072 0 -0.00068830014555901415 0.00635987894696318 0 -0.00068830014555901415 0.00635987894696318 0 -0.00078864496262434365 0.0058881739284332314 0 -0.00020740942484615289 0.0061261993727445875 0 -0.00078864496262434365 0.0058881739284332314 0 -0.00067077542742925494 0.0052599878035360093 0 -0.00020740942484615289 0.0061261993727445875 0 -0.0011525823993388839 0.006166767253147072 0 -0.00078864496262434365 0.0058881739284332314 0 -0.0011033626096264536 0.0052967838698090497 0 -0.00078864496262434365 0.0058881739284332314 0 -0.0011033626096264536 0.0052967838698090497 0 -0.00067077542742925494 0.0052599878035360093 0 -0.0011033626096264536 0.0052967838698090497 0 -0.00088791763637005052 0.0046916532355606748 0 -0.00067077542742925494 0.0052599878035360093 0 -0.001167612808550696 0.0044349670940863044 0 -0.0011033626096264536 0.0052967838698090497 0 -0.00088791763637005052 0.0046916532355606748 0 -0.00088791763637005052 0.0046916532355606748 0 -0.00078404063949317104 0.0044698337221014415 0 -0.0009936970383154838 0.0042623719185526333 0 -0.001167612808550696 0.0044349670940863044 0 -0.00088791763637005052 0.0046916532355606748 0 -0.0009936970383154838 0.0042623719185526333 0 -0.00059812784196122931 0.0047687818475156164 0 -0.00058662985307805944 0.0045728751309507864 0 -0.00078404063949317104 0.0044698337221014415 0 -0.00088791763637005052 0.0046916532355606748 0 -0.00059812784196122931 0.0047687818475156164 0 -0.00078404063949317104 0.0044698337221014415 0 -0.00059812784196122931 0.0047687818475156164 0 -0.00067077542742925494 0.0052599878035360093 0 -0.00020812162129319465 0.0048622421750380371 0 -0.00088791763637005052 0.0046916532355606748 0 -0.00059812784196122931 0.0047687818475156164 0 -0.00067077542742925494 0.0052599878035360093 0 -0.00024600544570825675 0.0066637594307354438 0 -0.00019904569117671131 0.0062451328107233292 0 -0.00067077542742925494 0.0052599878035360093 0 -0.00020812162129319465 0.0048622421750380371 0 -0.00020740942484615289 0.0061261993727445875 0 -0.00015160053587126267 0.0083838826595889464 0 -0.0011859142427107956 0.0069516382649723162 0 -0.00020740942484615289 0.0061261993727445875 0 -0.00020812162129319465 0.0048622421750380371 0 -0.00059045533392977883 0.0044690852415524727 0 -0.00054226529896968104 0.0045345491590143353 0 -0.00020812162129319465 0.0048622421750380371 0 -0.00058662985307805944 0.0045728751309507864 0 -0.00054226529896968104 0.0045345491590143353 0 -0.00059812784196122931 0.0047687818475156164 0 -0.00020812162129319465 0.0048622421750380371 0 -0.00058662985307805944 0.0045728751309507864 0 -0.00024600544570825675 0.0066637594307354438 0 -0.0007228446431463716 0.0074344732628414817 0 -0.00015160053587126267 0.0083838826595889464 0 -0.001017786223944665 0.0091702517181068022 0 -0.00081305206684490199 0.010348994050495648 0 -0.001558412516540974 0.010083044990763819 0 -0.001017786223944665 0.0091702517181068022 0 -0.00081305206684490199 0.010348994050495648 0 -0.00015160053587126267 0.0083838826595889464 0 -0.001017786223944665 0.0091702517181068022 0 -0.0011859142427107956 0.0069516382649723162 0 -0.0019398559133022983 0.0088681669692192763 0 -0.001017786223944665 0.0091702517181068022 0 -0.0011859142427107956 0.0069516382649723162 0 -0.0014035604743234675 0.0094838472259256654 0 -0.00075631710312159899 0.0081577094470608475 0 -0.00078854397869689496 0.0087565705172147814 0 -0.00039045554831867692 0.0093003494289636626 0 0.00013897557190291918 0.0085269292930385838 0 -0.00075631710312159899 0.0081577094470608475 0 -0.00032582819738474647 0.0072109944102800062 0 -0.0011859142427107956 0.0069516382649723162 0 -0.00020740942484615289 0.0061261993727445875 0 -0.00048488993126880693 0.0060434040307167352 0 -0.00068830014555901415 0.00635987894696318 0 -0.00020740942484615289 0.0061261993727445875 0 -0.00048488993126880693 0.0060434040307167352 0 -0.00060553235741472096 0.0063122833573678021 0 -0.00032582819738474647 0.0072109944102800062 0 -0.00067463785142442279 0.006889379044871035 0 -0.00068830014555901415 0.00635987894696318 0 -0.00016549929719565103 0.0062804349493619707 0 -0.0005880020397555784 0.0068597053445234651 0 -0.00032582819738474647 0.0072109944102800062 0 -0.00074902717775369152 0.0072013011340163859 0 -0.00067463785142442279 0.006889379044871035 0 -0.00066171378727374768 0.0074445998549360799 0 -0.00083407948574699552 0.0078067066150685153 0 -0.00066171378727374768 0.0074445998549360799 0 -0.00079343344695043745 0.0074327033079638703 0 -0.00084221291162369283 0.0083618635494904225 0 -0.00032582819738474647 0.0072109944102800062 0 -0.00074902717775369152 0.0072013011340163859 0 -0.00066171378727374768 0.0074445998549360799 0 -0.00079343344695043745 0.0074327033079638703 0 -0.0014453183885340185 0.0058725334623083566 0 -0.00069131854300762076 0.0059677312048242257 0 -0.00087683452933993381 0.0056875157737222371 0 -0.0018236081092168599 0.0089658066876180751 0 -0.00064072038233852814 0.0068879186394489485 0 -0.0019252815102855122 0.0086914601744761365 0 -0.00068865047936072263 0.0088593104795737579 0 -0.0012750040386282286 0.0097206845073665969 0 -0.00068865047936072263 0.0088593104795737579 0 -0.0001006811185680928 0.0097339272923760468 0 -0.0012750040386282286 0.0097206845073665969 0 -0.00064072038233852814 0.0068879186394489485 0 -0.0010123392503294656 0.0059286665247986941 0 -0.0011111362963436835 0.006774588393165879 0 -0.00060415706177492678 0.006843326571329052 0 -0.00081599556866954746 0.0072220273165587929 0 -0.00064072038233852814 0.0068879186394489485 0 -0.00035935083390944246 0.0086122255700390796 0 -0.00071410593180924146 0.0059238888024902283 0 -0.00015979288717092469 0.0060000484188480968 0 -0.00056981194600334547 0.0056291407460488723 0 -0.00064072038233852814 0.0068879186394489485 0 -0.0011579890185274353 0.0054445005445641608 0 -0.00085158838069678672 0.0044232613144214667 0 -0.000928345270827383 0.0044098324859797701 0 -0.00095687068448460915 0.0044615285601678698 0 -0.0011579890185274353 0.0054445005445641608 0 -0.00055385539646618011 0.0048282796136127591 0 -0.00099108754751772526 0.0044723121769928561 0 -0.00085158838069678672 0.0044232613144214667 0 -0.00095687068448460915 0.0044615285601678698 0 -0.00015979288717092469 0.0060000484188480968 0 -0.00056981194600334547 0.0056291407460488723 0 -0.00033760640384948945 0.0052484944808911353 0 -0.00056981194600334547 0.0056291407460488723 0 -0.00033760640384948945 0.0052484944808911353 0 -0.00070558757362880183 0.0052894297865405402 0 -0.00070558757362880183 0.0052894297865405402 0 -0.00087683452933993381 0.0056875157737222371 0 -0.0010473948862348341 0.005015958712461654 0 -0.0014453183885340185 0.0058725334623083566 0 -0.00087683452933993381 0.0056875157737222371 0 -0.0010473948862348341 0.005015958712461654 0 -0.00056981194600334547 0.0056291407460488723 0 -0.00070558757362880183 0.0052894297865405402 0 -0.00087683452933993381 0.0056875157737222371 0 -0.00071410593180924146 0.0059238888024902283 0 -0.00056981194600334547 0.0056291407460488723 0 -0.00087683452933993381 0.0056875157737222371 0 -0.001172771565032676 0.0078532170520618488 0 -0.0007228446431463716 0.0074344732628414817 0 -0.0010473948862348341 0.005015958712461654 0 -0.00068657113674131388 0.0048722612742736898 0 -0.00059045533392977883 0.0044690852415524727 0 -0.00070558757362880183 0.0052894297865405402 0 -0.0010473948862348341 0.005015958712461654 0 -0.00068657113674131388 0.0048722612742736898 0 -0.00068657113674131388 0.0048722612742736898 0 -0.00059045533392977883 0.0044690852415524727 0 -0.00057113150798202971 0.0045587516438756028 0 -0.0013967551662163785 0.010572100601197062 0 -0.0014635091639432262 0.010956245488866053 0 -0.00081305206684490199 0.010348994050495648 0 -0.0013967551662163785 0.010572100601197062 0 -0.001558412516540974 0.010083044990763819 0 -0.00081305206684490199 0.010348994050495648 0 -0.00058662985307805944 0.0045728751309507864 0 -0.00054226529896968104 0.0045345491590143353 0 -0.00073938075815108942 0.0044606915709029093 0 -0.00059045533392977883 0.0044690852415524727 0 -0.00054226529896968104 0.0045345491590143353 0 -0.00057113150798202971 0.0045587516438756028 0 -0.00054226529896968104 0.0045345491590143353 0 -0.00057113150798202971 0.0045587516438756028 0 -0.00073938075815108942 0.0044606915709029093 0 -0.00085158838069678672 0.0044232613144214667 0 -0.00073938075815108942 0.0044606915709029093 0 -0.000928345270827383 0.0044098324859797701 0 -0.00055385539646618011 0.0048282796136127591 0 -0.00058706887804222004 0.0046084230454068375 0 -0.00033760640384948945 0.0052484944808911353 0 -0.00068657113674131388 0.0048722612742736898 0 -0.00057113150798202971 0.0045587516438756028 0 -0.00085158838069678672 0.0044232613144214667 0 -0.00057113150798202971 0.0045587516438756028 0 -0.00073938075815108942 0.0044606915709029093 0 -0.00033760640384948945 0.0052484944808911353 0 -0.00070558757362880183 0.0052894297865405402 0 -0.00068657113674131388 0.0048722612742736898 0 -0.00073938075815108942 0.0044606915709029093 0 -0.000928345270827383 0.0044098324859797701 0 -0.00092751437898497496 0.0043412798514607534 0 -0.000928345270827383 0.0044098324859797701 0 -0.00092751437898497496 0.0043412798514607534 0 -0.00099701596076667951 0.0043981338169243782 0 -0.00073938075815108942 0.0044606915709029093 0 -0.00078404063949317104 0.0044698337221014415 0 -0.00092751437898497496 0.0043412798514607534 0 -0.00058662985307805944 0.0045728751309507864 0 -0.00073938075815108942 0.0044606915709029093 0 -0.00078404063949317104 0.0044698337221014415 0 -0.00078404063949317104 0.0044698337221014415 0 -0.00092751437898497496 0.0043412798514607534 0 -0.0009936970383154838 0.0042623719185526333 0 -0.00092751437898497496 0.0043412798514607534 0 -0.0009936970383154838 0.0042623719185526333 0 -0.0010135904852031758 0.0042247325965832569 0 -0.00092751437898497496 0.0043412798514607534 0 -0.00099701596076667951 0.0043981338169243782 0 -0.0010135904852031758 0.0042247325965832569 0 -0.00099701596076667951 0.0043981338169243782 0 -0.00089641223572699161 0.0044919681662933513 0 -0.0010135904852031758 0.0042247325965832569 0 -0.0010014874793938219 0.0045650349007734315 0 -0.00099701596076667951 0.0043981338169243782 0 -0.00089641223572699161 0.0044919681662933513 0 -0.0010014874793938219 0.0045650349007734315 0 -0.00099701596076667951 0.0043981338169243782 0 -0.0010186197610282609 0.0045022123377140792 0 -0.000928345270827383 0.0044098324859797701 0 -0.00099701596076667951 0.0043981338169243782 0 -0.0010186197610282609 0.0045022123377140792 0 -0.00099108754751772526 0.0044723121769928561 0 -0.00095687068448460915 0.0044615285601678698 0 -0.0010186197610282609 0.0045022123377140792 0 -0.000928345270827383 0.0044098324859797701 0 -0.00095687068448460915 0.0044615285601678698 0 -0.0010186197610282609 0.0045022123377140792 0 -0.00099108754751772526 0.0044723121769928561 0 -0.0010186197610282609 0.0045022123377140792 0 -0.0011202531527093561 0.0047750938673545695 0 -0.0026242772856750439 0.0045586382098301024 0 -0.0011202531527093561 0.0047750938673545695 0 -0.0017519718906818362 0.0052254546395679108 0 -0.0011579890185274353 0.0054445005445641608 0 -0.0014302746469027445 0.0044740435086732229 0 -0.0010014874793938219 0.0045650349007734315 0 -0.0011202531527093561 0.0047750938673545695 0 -0.00086442149387516481 0.0047046385851533491 0 -0.0010014874793938219 0.0045650349007734315 0 -0.0010186197610282609 0.0045022123377140792 0 -0.0011202531527093561 0.0047750938673545695 0 -0.00086442149387516481 0.0047046385851533491 0 -0.00059601912951597058 0.0047032692014681949 0 -0.00065573246210396806 0.0050813363538509959 0 -0.0011202531527093561 0.0047750938673545695 0 -0.00086442149387516481 0.0047046385851533491 0 -0.00065573246210396806 0.0050813363538509959 0 -0.00059601912951597058 0.0047032692014681949 0 -0.00023424693087655991 0.0049058345457890663 0 -0.00065573246210396806 0.0050813363538509959 0 -0.00088902289516176324 0.0039133015930842572 0 -0.00063919301872188898 0.0043354288168140492 0 -0.00059601912951597058 0.0047032692014681949 0 -0.00055917908844428708 0.0043526482767351736 0 -0.00023424693087655991 0.0049058345457890663 0 -0.00059601912951597058 0.0047032692014681949 0 -0.00089641223572699161 0.0044919681662933513 0 -0.00055917908844428708 0.0043526482767351736 0 -0.00086442149387516481 0.0047046385851533491 0 -0.00059601912951597058 0.0047032692014681949 0 -0.00089641223572699161 0.0044919681662933513 0 -0.0010014874793938219 0.0045650349007734315 0 -0.00086442149387516481 0.0047046385851533491 0 -0.00089641223572699161 0.0044919681662933513 0 -0.0010135904852031758 0.0042247325965832569 0 -0.0011117528399732185 0.0039156248142435948 0 -0.00055917908844428708 0.0043526482767351736 0 -0.00089641223572699161 0.0044919681662933513 0 -0.0010135904852031758 0.0042247325965832569 0 -0.00055917908844428708 0.0043526482767351736 0 -0.0009936970383154838 0.0042623719185526333 0 -0.0010135904852031758 0.0042247325965832569 0 -0.0011117528399732185 0.0039156248142435948 0 -0.0011117528399732185 0.0039156248142435948 0 -0.0011861334498165105 0.0034257835248939221 0 -0.001231923872707394 0.0034675633039048274 0 -0.0015528955890558355 0.0037151432085796663 0 -0.0011117528399732185 0.0039156248142435948 0 -0.001231923872707394 0.0034675633039048274 0 -0.0010679570320919216 0.0039018678253589772 0 -0.00088902289516176324 0.0039133015930842572 0 -0.0011861334498165105 0.0034257835248939221 0 -0.001231923872707394 0.0034675633039048274 0 -0.00080611817559034379 0.0033206301644037508 0 -0.00097214852224758582 0.0030835947462680971 0 -0.001231923872707394 0.0034675633039048274 0 -0.00084195753623031151 0.0031243787760156321 0 -0.001231923872707394 0.0034675633039048274 0 -0.00084195753623031151 0.0031243787760156321 0 -0.00080611817559034379 0.0033206301644037508 0 -0.00080611817559034379 0.0033206301644037508 0 -0.0010606648398666263 0.003754492924836299 0 -0.00036544608329391176 0.0036617977689763635 0 -0.0011861334498165105 0.0034257835248939221 0 -0.00080611817559034379 0.0033206301644037508 0 -0.0010606648398666263 0.003754492924836299 0 -0.0010606648398666263 0.003754492924836299 0 -0.00031882412570510555 0.0049384980562593387 0 -0.00036544608329391176 0.0036617977689763635 0 -0.00023424693087655991 0.0049058345457890663 0 -0.00031882412570510555 0.0049384980562593387 0 -0.00032606509093032669 0.0053524051078663913 0 -0.00063919301872188898 0.0043354288168140492 0 -0.00034641241482308169 0.0048935534976018037 0 -0.00031882412570510555 0.0049384980562593387 0 -0.00011412235988607353 0.0063048518911173468 0 -0.00032606509093032669 0.0053524051078663913 0 -0.00031882412570510555 0.0049384980562593387 0 -1.2210973903660361e-05 0.0056073418974616198 0 -0.00011412235988607353 0.0063048518911173468 0 -0.00031882412570510555 0.0049384980562593387 0 -1.2210973903660361e-05 0.0056073418974616198 0 2.330208053960773e-05 0.0046623189246626714 0 -1.2210973903660361e-05 0.0056073418974616198 0 -1.2082940428371521e-07 0.0068889638221781707 0 -0.00011412235988607353 0.0063048518911173468 0 -1.2210973903660361e-05 0.0056073418974616198 0 -1.2082940428371521e-07 0.0068889638221781707 0 1.9936698840144134e-07 0.0056109712180368015 0 -1.2082940428371521e-07 0.0068889638221781707 0 -0.00011412235988607353 0.0063048518911173468 0 8.2688735076914703e-07 0.0081674316127637245 0 -0.00011412235988607353 0.0063048518911173468 0 8.2688735076914703e-07 0.0081674316127637245 0 -0.00036428121402755224 0.007343623911371046 0 8.2688735076914703e-07 0.0081674316127637245 0 -0.00036428121402755224 0.007343623911371046 0 -3.643220451593291e-06 0.0094430352186651873 0 -0.00011412235988607353 0.0063048518911173468 0 -0.00036428121402755224 0.007343623911371046 0 -0.00070373007665757922 0.0059775099252842821 0 -0.00036428121402755224 0.007343623911371046 0 -0.00070373007665757922 0.0059775099252842821 0 -0.001112671620165468 0.0066933158140267133 0 -0.00011412235988607353 0.0063048518911173468 0 -0.00070373007665757922 0.0059775099252842821 0 -0.00032606509093032669 0.0053524051078663913 0 -0.00023424693087655991 0.0049058345457890663 0 -0.00032606509093032669 0.0053524051078663913 0 -0.00065573246210396806 0.0050813363538509959 0 -0.00070373007665757922 0.0059775099252842821 0 -0.00032606509093032669 0.0053524051078663913 0 -0.00065573246210396806 0.0050813363538509959 0 -0.0011202531527093561 0.0047750938673545695 0 -0.00065573246210396806 0.0050813363538509959 0 -0.0011032891758843474 0.0053936334242191842 0 -0.00070373007665757922 0.0059775099252842821 0 -0.00065573246210396806 0.0050813363538509959 0 -0.0011032891758843474 0.0053936334242191842 0 -0.0011032891758843474 0.0053936334242191842 0 -0.0017519718906818362 0.0052254546395679108 0 -0.0014915181627398848 0.0059976709400803149 0 -0.0011202531527093561 0.0047750938673545695 0 -0.0011032891758843474 0.0053936334242191842 0 -0.0017519718906818362 0.0052254546395679108 0 -0.0026242772856750439 0.0045586382098301024 0 -0.0017519718906818362 0.0052254546395679108 0 -0.0023465707898686237 0.0056978385683501701 0 -0.0017519718906818362 0.0052254546395679108 0 -0.0019927916823705839 0.0057915502552127159 0 -0.0014915181627398848 0.0059976709400803149 0 -0.0017558034441680832 0.0054209636763099924 0 -0.0012995905326412098 0.0071099881564261769 0 -0.0012995905326412098 0.0071099881564261769 0 -0.00056974589452319843 0.0089935624437496049 0 -0.0017519718906818362 0.0052254546395679108 0 -0.0024531752597095296 0.0056792184487161413 0 -0.0019927916823705839 0.0057915502552127159 0 -0.0019927916823705839 0.0057915502552127159 0 -0.0023601812954764005 0.0062165497963714992 0 -0.0014915181627398848 0.0059976709400803149 0 5.7580919972428099e-05 0.01100768961497146 0 5.9804332491924122e-05 0.011023222377328704 0 -5.1890493579760599e-05 0.010814510951264646 0 -0.0023601812954764005 0.0062165497963714992 0 -0.0014915181627398848 0.0059976709400803149 0 -0.0017426661233196409 0.0073799802785476385 0 -0.0024531752597095296 0.0056792184487161413 0 -0.0019927916823705839 0.0057915502552127159 0 -0.0023601812954764005 0.0062165497963714992 0 -0.0012995905326412098 0.0071099881564261769 0 -0.00099581976062618335 0.0086682734282675696 0 -0.0012093806582497261 0.0082637176650951476 0 -0.0011236491101977086 0.0086299265259911235 0 -0.0013128328536341765 0.0083444534705508361 0 -0.00099581976062618335 0.0086682734282675696 0 -0.00056974589452319843 0.0089935624437496049 0 5.7580919972428099e-05 0.01100768961497146 0 5.9449550974482638e-05 0.010979591974227895 0 5.821945013687779e-05 0.011000875746736364 0 5.7580919972428099e-05 0.01100768961497146 0 5.9893998771283096e-05 0.010994079895087439 0 5.821945013687779e-05 0.011000875746736364 0 -0.00093231305203344411 0.0088840806229607307 0 -0.00099581976062618335 0.0086682734282675696 0 -0.00070373007665757922 0.0059775099252842821 0 -0.0014915181627398848 0.0059976709400803149 0 -0.001112671620165468 0.0066933158140267133 0 -0.00070373007665757922 0.0059775099252842821 0 -0.0011032891758843474 0.0053936334242191842 0 -0.0014915181627398848 0.0059976709400803149 0 -0.00036428121402755224 0.007343623911371046 0 -0.0017426661233196409 0.0073799802785476385 0 -0.001112671620165468 0.0066933158140267133 0 -0.0014915181627398848 0.0059976709400803149 0 -0.0017426661233196409 0.0073799802785476385 0 -0.001112671620165468 0.0066933158140267133 0 -0.00084513303376033044 0.0090719915580786872 0 -2.4654124291510103e-07 0.0094461989031399893 0 -0.00036428121402755224 0.007343623911371046 0 -0.0017426661233196409 0.0073799802785476385 0 -3.643220451593291e-06 0.0094430352186651873 0 -5.1890493579760599e-05 0.010814510951264646 0 -7.743923321125535e-07 0.0094479905477317001 0 3.8934967640650653e-07 0.010515671715698491 0 -5.1890493579760599e-05 0.010814510951264646 0 3.8934967640650653e-07 0.010515671715698491 0 0.00010724040930904064 0.011005260551369741 0 -0.00099581976062618335 0.0086682734282675696 0 -0.00084513303376033044 0.0090719915580786872 0 5.7580919972428099e-05 0.01100768961497146 0 -5.1890493579760599e-05 0.010814510951264646 0 5.9449550974482638e-05 0.010979591974227895 0 -5.1890493579760599e-05 0.010814510951264646 0 5.9449550974482638e-05 0.010979591974227895 0 0.00010724040930904064 0.011005260551369741 0 5.9449550974482638e-05 0.010979591974227895 0 4.6797091702565672e-05 0.011057039402254696 0 5.821945013687779e-05 0.011000875746736364 0 4.6797091702565672e-05 0.011057039402254696 0 0.00010724040930904064 0.011005260551369741 0 -7.2674658605405241e-05 0.011236627472760507 0 -0.00011796309909729334 0.012204748721191866 0 -0.00018648511222721882 0.011488765484939196 0 4.6797091702565672e-05 0.011057039402254696 0 -7.2674658605405241e-05 0.011236627472760507 0 1.9435665234272693e-05 0.010952597211624435 0 5.9449550974482638e-05 0.010979591974227895 0 4.6797091702565672e-05 0.011057039402254696 0 0.00010724040930904064 0.011005260551369741 0 3.8934967640650653e-07 0.010515671715698491 0 3.8403225718479973e-07 0.011586591608420179 0 0.00010724040930904064 0.011005260551369741 0 3.8403225718479973e-07 0.011586591608420179 0 0.00010724040930904064 0.011005260551369741 0 -7.2674658605405241e-05 0.011236627472760507 0 -8.1732025528535713e-07 0.012654145448797945 0 3.8403225718479973e-07 0.011586591608420179 0 -7.2674658605405241e-05 0.011236627472760507 0 2.8270723223897493e-08 0.012655719101034748 0 -0.00011796309909729334 0.012204748721191866 0 4.6215276971993033e-05 0.012950548532686864 0 -0.0002194957373804453 0.012993601379059331 0 -0.00020104323838138907 0.013074451786905056 0 -0.0002194957373804453 0.012993601379059331 0 -0.00022062258880015462 0.013024768840814537 0 -0.00026488773021056075 0.013089451764361791 0 -0.0002194957373804453 0.012993601379059331 0 -0.00022062258880015462 0.013024768840814537 0 -0.00020104323838138907 0.013074451786905056 0 -0.00051117212436390443 0.013331849264566559 0 -0.00055132960962357138 0.013443357364241385 0 -0.0015944778097529929 0.010839310285464015 0 -0.00092561429089545481 0.011716116674987068 0 -0.00086241961939322119 0.010982792989403989 0 -0.0011292979448064868 0.011679343664973254 0 -0.00055132960962357138 0.013443357364241385 0 -0.0016045129261860623 0.010828577643209044 0 -0.00086241961939322119 0.010982792989403989 0 -0.00084877376825805476 0.010384599069844725 0 -0.0011292979448064868 0.011679343664973254 0 -0.001170885427081279 0.011132340869067859 0 -0.00086241961939322119 0.010982792989403989 0 -0.0002223356360131331 0.010603519242997113 0 -0.00084877376825805476 0.010384599069844725 0 -0.00022062258880015462 0.013024768840814537 0 -0.00020861057908771533 0.013040426581072974 0 -0.00026488773021056075 0.013089451764361791 0 -0.00092561429089545481 0.011716116674987068 0 -0.00086241961939322119 0.010982792989403989 0 1.9951751244336415e-05 0.010975311172456622 0 -0.00055132960962357138 0.013443357364241385 0 -0.00018648511222721882 0.011488765484939196 0 4.6797091702565672e-05 0.011057039402254696 0 5.821945013687779e-05 0.011000875746736364 0 1.9435665234272693e-05 0.010952597211624435 0 5.9893998771283096e-05 0.010994079895087439 0 5.821945013687779e-05 0.011000875746736364 0 1.9435665234272693e-05 0.010952597211624435 0 5.9893998771283096e-05 0.010994079895087439 0 4.2690278290672149e-05 0.010939115100323658 0 1.9435665234272693e-05 0.010952597211624435 0 0.00048577036840366424 0.010607942432261337 0 -0.0002223356360131331 0.010603519242997113 0 1.9951751244336415e-05 0.010975311172456622 0 -0.00056974589452319843 0.0089935624437496049 0 -0.00018648511222721882 0.011488765484939196 0 -0.00086241961939322119 0.010982792989403989 0 -0.0002223356360131331 0.010603519242997113 0 1.9951751244336415e-05 0.010975311172456622 0 -0.00060415706177492678 0.006843326571329052 0 -0.00042672006170393738 0.007597697674980709 0 -0.00081599556866954746 0.0072220273165587929 0 -0.0011579890185274353 0.0054445005445641608 0 -0.0012995905326412098 0.0071099881564261769 0 -0.0002223356360131331 0.010603519242997113 0 -0.0001006811185680928 0.0097339272923760468 0 -0.00084877376825805476 0.010384599069844725 0 0.00048577036840366424 0.010607942432261337 0 -0.0002223356360131331 0.010603519242997113 0 -0.0001006811185680928 0.0097339272923760468 0 -0.00042672006170393738 0.007597697674980709 0 -0.00051995850299748031 0.0076713365078895385 0 -0.00081599556866954746 0.0072220273165587929 0 -0.00056974589452319843 0.0089935624437496049 0 -0.00035935083390944246 0.0086122255700390796 0 -0.0001006811185680928 0.0097339272923760468 0 -0.0012750040386282286 0.0097206845073665969 0 -0.00084877376825805476 0.010384599069844725 0 -0.0016045129261860623 0.010828577643209044 0 -0.0012750040386282286 0.0097206845073665969 0 -0.00084877376825805476 0.010384599069844725 0 6.2774855758729415e-05 0.0018189911876705051 0 -4.5953752126861774e-05 0.0014498435680729482 0 8.331211999282868e-05 0.0020380858658513102 0 6.2774855758729415e-05 0.0018189911876705051 0 -4.5953752126861774e-05 0.0014498435680729482 0 -6.8579724519603026e-05 0.0013925427320089249 0 6.2774855758729415e-05 0.0018189911876705051 0 0.00010726217145747722 0.0022248931826417437 0 8.331211999282868e-05 0.0020380858658513102 0 0.00010726217145747722 0.0022248931826417437 0 8.331211999282868e-05 0.0020380858658513102 0 0.00013529012566141569 0.0024666729385895043 0 8.331211999282868e-05 0.0020380858658513102 0 0.00012230655304398073 0.0023091893923144111 0 2.7597944765670255e-05 0.0018611363470669626 0 8.331211999282868e-05 0.0020380858658513102 0 0.00012230655304398073 0.0023091893923144111 0 0.00013529012566141569 0.0024666729385895043 0 -4.5953752126861774e-05 0.0014498435680729482 0 8.331211999282868e-05 0.0020380858658513102 0 2.7597944765670255e-05 0.0018611363470669626 0 -4.5953752126861774e-05 0.0014498435680729482 0 2.7597944765670255e-05 0.0018611363470669626 0 -5.2982064062596741e-05 0.0013826263381778447 0 -4.5953752126861774e-05 0.0014498435680729482 0 -5.2982064062596741e-05 0.0013826263381778447 0 -0.00012419492170995808 0.00069192203355948612 0 -5.2982064062596741e-05 0.0013826263381778447 0 -0.00012419492170995808 0.00069192203355948612 0 0.00010573385248031744 0.0013622447008774512 0 -0.00015478271447405426 0.00057382133812118434 0 -0.00055703282339730027 -0.00030849656456651475 0 -0.00012419492170995808 0.00069192203355948612 0 -0.0012127531447765085 -0.0020460319771368183 0 -0.0012231065765684378 -0.00076994502169287814 0 -0.00012419492170995808 0.00069192203355948612 0 -0.0012231065765684378 -0.00076994502169287814 0 -0.001356811124797177 -0.00014902830742989106 0 -0.00012419492170995808 0.00069192203355948612 0 -0.00098723611544536687 0.00066722652017080686 0 -0.001356811124797177 -0.00014902830742989106 0 -4.5953752126861774e-05 0.0014498435680729482 0 -0.00012419492170995808 0.00069192203355948612 0 -6.8579724519603026e-05 0.0013925427320089249 0 -6.8579724519603026e-05 0.0013925427320089249 0 -0.00060487553442824791 0.0012117584334571856 0 -0.00020914723507131126 0.0017539618456420892 0 -0.00012419492170995808 0.00069192203355948612 0 -6.8579724519603026e-05 0.0013925427320089249 0 -0.00060487553442824791 0.0012117584334571856 0 -0.00012419492170995808 0.00069192203355948612 0 -0.00098723611544536687 0.00066722652017080686 0 -0.00060487553442824791 0.0012117584334571856 0 -0.00098723611544536687 0.00066722652017080686 0 -0.00060487553442824791 0.0012117584334571856 0 -0.0010835979999937286 0.0011712879597891288 0 -0.00060487553442824791 0.0012117584334571856 0 -0.00067196420254169061 0.0019245999129265043 0 -0.00020914723507131126 0.0017539618456420892 0 -0.00065932235697225129 0.0012137181566755498 0 -0.00082780801643300662 0.0016602562093778646 0 -0.00060487553442824791 0.0012117584334571856 0 -0.0010026522075584077 0.0013804116200821922 0 -0.0010835979999937286 0.0011712879597891288 0 -0.0010026522075584077 0.0013804116200821922 0 -0.0010835979999937286 0.0011712879597891288 0 -0.0011135250032510815 0.001410412050368434 0 1.08022917261854e-05 0.0020466518901891945 0 -0.00034509112775330214 0.0020729136083246324 0 -0.00020914723507131126 0.0017539618456420892 0 -0.00034509112775330214 0.0020729136083246324 0 -0.00067196420254169061 0.0019245999129265043 0 -0.00020914723507131126 0.0017539618456420892 0 1.08022917261854e-05 0.0020466518901891945 0 5.1660909057953733e-05 0.0018468859413000576 0 0.00011372191211429234 0.0020953056928619414 0 1.08022917261854e-05 0.0020466518901891945 0 -0.00020914723507131126 0.0017539618456420892 0 5.1660909057953733e-05 0.0018468859413000576 0 6.2774855758729415e-05 0.0018189911876705051 0 -6.8579724519603026e-05 0.0013925427320089249 0 5.1660909057953733e-05 0.0018468859413000576 0 -6.8579724519603026e-05 0.0013925427320089249 0 -0.00020914723507131126 0.0017539618456420892 0 5.1660909057953733e-05 0.0018468859413000576 0 6.2774855758729415e-05 0.0018189911876705051 0 0.00010726217145747722 0.0022248931826417437 0 0.00010815874374053611 0.00209001823256796 0 6.2774855758729415e-05 0.0018189911876705051 0 5.1660909057953733e-05 0.0018468859413000576 0 0.00010815874374053611 0.00209001823256796 0 0.00010815874374053611 0.00209001823256796 0 0.00011372191211429234 0.0020953056928619414 0 8.819085281092162e-05 0.0022354276073184923 0 5.1660909057953733e-05 0.0018468859413000576 0 0.00010815874374053611 0.00209001823256796 0 0.00011372191211429234 0.0020953056928619414 0 8.9410206060974923e-05 0.0022001534961313182 0 0.00011372191211429234 0.0020953056928619414 0 8.819085281092162e-05 0.0022354276073184923 0 8.9410206060974923e-05 0.0022001534961313182 0 8.819085281092162e-05 0.0022354276073184923 0 -1.5794735180555229e-05 0.0023702934207269098 0 8.819085281092162e-05 0.0022354276073184923 0 -1.5794735180555229e-05 0.0023702934207269098 0 6.5612243466069728e-05 0.002354784051106376 0 4.3930630914158961e-06 0.0021781407061280951 0 -1.5794735180555229e-05 0.0023702934207269098 0 -0.00025164277891218665 0.0025232175208706555 0 -1.5794735180555229e-05 0.0023702934207269098 0 -0.00025164277891218665 0.0025232175208706555 0 -9.4462009079980004e-05 0.0025871756422285942 0 -1.5794735180555229e-05 0.0023702934207269098 0 -9.4462009079980004e-05 0.0025871756422285942 0 6.5612243466069728e-05 0.002354784051106376 0 -9.4462009079980004e-05 0.0025871756422285942 0 -0.00010979495757731085 0.0028699711400338402 0 5.4660241549049617e-05 0.0025635998478103815 0 -9.4462009079980004e-05 0.0025871756422285942 0 6.5612243466069728e-05 0.002354784051106376 0 5.4660241549049617e-05 0.0025635998478103815 0 0.00010726217145747722 0.0022248931826417437 0 6.5612243466069728e-05 0.002354784051106376 0 5.4660241549049617e-05 0.0025635998478103815 0 0.00010726217145747722 0.0022248931826417437 0 0.00010815874374053611 0.00209001823256796 0 6.5612243466069728e-05 0.002354784051106376 0 0.00010815874374053611 0.00209001823256796 0 8.819085281092162e-05 0.0022354276073184923 0 6.5612243466069728e-05 0.002354784051106376 0 -0.00072009914076531074 0.0028287842411274943 0 -0.00084195753623031151 0.0031243787760156321 0 -0.00045895642349847533 0.00286847072018052 0 -0.00053564670973092353 0.0024493755149536047 0 -0.00025164277891218665 0.0025232175208706555 0 -0.00045895642349847533 0.00286847072018052 0 -0.00053564670973092353 0.0024493755149536047 0 -0.00072009914076531074 0.0028287842411274943 0 -0.00045895642349847533 0.00286847072018052 0 -0.00025164277891218665 0.0025232175208706555 0 -9.4462009079980004e-05 0.0025871756422285942 0 -0.00045895642349847533 0.00286847072018052 0 -0.00045895642349847533 0.00286847072018052 0 -0.00032952108705128067 0.0032080120883953593 0 -0.00010979495757731085 0.0028699711400338402 0 -9.4462009079980004e-05 0.0025871756422285942 0 -0.00045895642349847533 0.00286847072018052 0 -0.00010979495757731085 0.0028699711400338402 0 -0.00080611817559034379 0.0033206301644037508 0 -0.00045895642349847533 0.00286847072018052 0 -0.00032952108705128067 0.0032080120883953593 0 -0.00084195753623031151 0.0031243787760156321 0 -0.00080611817559034379 0.0033206301644037508 0 -0.00045895642349847533 0.00286847072018052 0 -0.00080611817559034379 0.0033206301644037508 0 -0.00032952108705128067 0.0032080120883953593 0 -0.00036544608329391176 0.0036617977689763635 0 -0.00032952108705128067 0.0032080120883953593 0 -0.00010979495757731085 0.0028699711400338402 0 -3.5851785136225897e-05 0.0032441914927995655 0 -3.5851785136225897e-05 0.0032441914927995655 0 -0.00036544608329391176 0.0036617977689763635 0 -5.4665826078567326e-05 0.0037714193465845521 0 -0.00032952108705128067 0.0032080120883953593 0 -3.5851785136225897e-05 0.0032441914927995655 0 -0.00036544608329391176 0.0036617977689763635 0 5.4660241549049617e-05 0.0025635998478103815 0 0.00010752208360526456 0.0028457734137696173 0 0.00013529012566141569 0.0024666729385895043 0 0.00010726217145747722 0.0022248931826417437 0 5.4660241549049617e-05 0.0025635998478103815 0 0.00013529012566141569 0.0024666729385895043 0 -0.00010979495757731085 0.0028699711400338402 0 -3.5851785136225897e-05 0.0032441914927995655 0 0.00010752208360526456 0.0028457734137696173 0 -0.00010979495757731085 0.0028699711400338402 0 5.4660241549049617e-05 0.0025635998478103815 0 0.00010752208360526456 0.0028457734137696173 0 -3.5851785136225897e-05 0.0032441914927995655 0 0.00010752208360526456 0.0028457734137696173 0 0.00032248993727008475 0.0033010307922357075 0 0.00010752208360526456 0.0028457734137696173 0 0.00013529012566141569 0.0024666729385895043 0 0.00021024560112196071 0.0027132610978084235 0 0.00012230655304398073 0.0023091893923144111 0 0.00013529012566141569 0.0024666729385895043 0 0.00021024560112196071 0.0027132610978084235 0 0.00021024560112196071 0.0027132610978084235 0 0.00032248993727008475 0.0033010307922357075 0 0.00010559184669060143 0.0022253566304387142 0 0.00012230655304398073 0.0023091893923144111 0 0.00021024560112196071 0.0027132610978084235 0 0.00010559184669060143 0.0022253566304387142 0 0.00010752208360526456 0.0028457734137696173 0 0.00021024560112196071 0.0027132610978084235 0 0.00032248993727008475 0.0033010307922357075 0 0.00032248993727008475 0.0033010307922357075 0 0.00033522568190824556 0.0039752767480071118 0 0.00020144637542264803 0.0043037405578053353 0 0.00032248993727008475 0.0033010307922357075 0 9.0770414912608286e-05 0.0039810760953042012 0 0.00020144637542264803 0.0043037405578053353 0 0.00032248993727008475 0.0033010307922357075 0 0.00023189845274740548 0.0019647511606985567 0 0.00010559184669060143 0.0022253566304387142 0 0.00028711923107784725 0.0031961064367710748 0 0.00023143768488819889 0.0029386259024489604 0 -0.00031882412570510555 0.0049384980562593387 0 -5.4665826078567326e-05 0.0037714193465845521 0 2.330208053960773e-05 0.0046623189246626714 0 -0.00031882412570510555 0.0049384980562593387 0 -0.00036544608329391176 0.0036617977689763635 0 -5.4665826078567326e-05 0.0037714193465845521 0 -3.5851785136225897e-05 0.0032441914927995655 0 0.00032248993727008475 0.0033010307922357075 0 -5.4665826078567326e-05 0.0037714193465845521 0 0.00032248993727008475 0.0033010307922357075 0 -5.4665826078567326e-05 0.0037714193465845521 0 9.0770414912608286e-05 0.0039810760953042012 0 -5.4665826078567326e-05 0.0037714193465845521 0 9.0770414912608286e-05 0.0039810760953042012 0 2.330208053960773e-05 0.0046623189246626714 0 9.0770414912608286e-05 0.0039810760953042012 0 2.330208053960773e-05 0.0046623189246626714 0 0.00020144637542264803 0.0043037405578053353 0 -1.2210973903660361e-05 0.0056073418974616198 0 2.330208053960773e-05 0.0046623189246626714 0 0.0001001609506751294 0.0049412906279673414 0 2.330208053960773e-05 0.0046623189246626714 0 0.0001001609506751294 0.0049412906279673414 0 0.00020144637542264803 0.0043037405578053353 0 0.0001001609506751294 0.0049412906279673414 0 1.9936698840144134e-07 0.0056109712180368015 0 3.9729777182002218e-07 0.0043330880172355608 0 -1.2210973903660361e-05 0.0056073418974616198 0 0.0001001609506751294 0.0049412906279673414 0 1.9936698840144134e-07 0.0056109712180368015 0 0.00033522568190824556 0.0039752767480071118 0 0.00020582503694428476 0.0038590215629080277 0 -7.9800910537136603e-05 0.0033731700566157316 0 0.00033522568190824556 0.0039752767480071118 0 0.00020144637542264803 0.0043037405578053353 0 0.00020582503694428476 0.0038590215629080277 0 0.00020144637542264803 0.0043037405578053353 0 3.9729777182002218e-07 0.0043330880172355608 0 0.00020582503694428476 0.0038590215629080277 0 0.0001001609506751294 0.0049412906279673414 0 0.00020144637542264803 0.0043037405578053353 0 3.9729777182002218e-07 0.0043330880172355608 0 3.9729777182002218e-07 0.0043330880172355608 0 0.00020582503694428476 0.0038590215629080277 0 4.6960811496399895e-07 0.0030547737417834248 0 4.6960811496399895e-07 0.0030547737417834248 0 -9.0324001143362906e-07 0.0017778627543270527 0 -7.9800910537136603e-05 0.0033731700566157316 0 0.00020582503694428476 0.0038590215629080277 0 4.6960811496399895e-07 0.0030547737417834248 0 -7.9800910537136603e-05 0.0033731700566157316 0 4.0388023016517376e-08 0.0017742074954878581 0 3.7309708695634124e-05 0.0013413697990531128 0 -1.2463454820021266e-05 0.001506091781804531 0 8.0580665074319757e-08 0.0017767841513577898 0 3.2883274225501631e-05 0.0024589708730081519 0 3.7309708695634124e-05 0.0013413697990531128 0 -1.2463454820021266e-05 0.001506091781804531 0 3.7159020178366371e-05 0.0017081942561707768 0 0.00023143768488819889 0.0029386259024489604 0 3.2883274225501631e-05 0.0024589708730081519 0 0.00023189845274740548 0.0019647511606985567 0 -1.2463454820021266e-05 0.001506091781804531 0 3.7159020178366371e-05 0.0017081942561707768 0 3.7159020178366371e-05 0.0017081942561707768 0 9.7326246932908409e-06 0.0015948339711880147 0 0.00010559184669060143 0.0022253566304387142 0 0.00023189845274740548 0.0019647511606985567 0 3.7159020178366371e-05 0.0017081942561707768 0 0.00010559184669060143 0.0022253566304387142 0 3.7309708695634124e-05 0.0013413697990531128 0 3.7159020178366371e-05 0.0017081942561707768 0 9.7326246932908409e-06 0.0015948339711880147 0 2.7597944765670255e-05 0.0018611363470669626 0 -5.2982064062596741e-05 0.0013826263381778447 0 9.7326246932908409e-06 0.0015948339711880147 0 2.7597944765670255e-05 0.0018611363470669626 0 9.7326246932908409e-06 0.0015948339711880147 0 0.00010559184669060143 0.0022253566304387142 0 0.00012230655304398073 0.0023091893923144111 0 2.7597944765670255e-05 0.0018611363470669626 0 0.00010559184669060143 0.0022253566304387142 0 -5.2982064062596741e-05 0.0013826263381778447 0 6.5895025250776654e-05 0.0013212810787104027 0 0.00010573385248031744 0.0013622447008774512 0 6.5895025250776654e-05 0.0013212810787104027 0 5.8467299890073862e-05 0.0010661841208762755 0 0.00010573385248031744 0.0013622447008774512 0 -5.2982064062596741e-05 0.0013826263381778447 0 9.7326246932908409e-06 0.0015948339711880147 0 6.5895025250776654e-05 0.0013212810787104027 0 3.7309708695634124e-05 0.0013413697990531128 0 9.7326246932908409e-06 0.0015948339711880147 0 0.00010696393419102415 0.0011348408154822568 0 9.7326246932908409e-06 0.0015948339711880147 0 6.5895025250776654e-05 0.0013212810787104027 0 0.00010696393419102415 0.0011348408154822568 0 6.5895025250776654e-05 0.0013212810787104027 0 0.00010696393419102415 0.0011348408154822568 0 5.8467299890073862e-05 0.0010661841208762755 0 0.00010696393419102415 0.0011348408154822568 0 0.00011754166941168695 0.00099901727391786608 0 0.00010955781970814222 0.00048355676617299343 0 0.00010696393419102415 0.0011348408154822568 0 5.8467299890073862e-05 0.0010661841208762755 0 0.00010955781970814222 0.00048355676617299343 0 3.7309708695634124e-05 0.0013413697990531128 0 0.00010696393419102415 0.0011348408154822568 0 0.00011754166941168695 0.00099901727391786608 0 4.0388023016517376e-08 0.0017742074954878581 0 0.00011754166941168695 0.00099901727391786608 0 4.4520087884723904e-07 0.00042148065539493495 0 4.0388023016517376e-08 0.0017742074954878581 0 3.7309708695634124e-05 0.0013413697990531128 0 0.00011754166941168695 0.00099901727391786608 0 0.00011754166941168695 0.00099901727391786608 0 4.4520087884723904e-07 0.00042148065539493495 0 0.00010955781970814222 0.00048355676617299343 0 4.4520087884723904e-07 0.00042148065539493495 0 -1.4685525107894052e-07 -0.000934376243167604 0 0.00010955781970814222 0.00048355676617299343 0 -1.4685525107894052e-07 -0.000934376243167604 0 -0.00010929398935412481 -3.5608339710895593e-06 0 0.00010955781970814222 0.00048355676617299343 0 -0.00012050633720634319 -0.00070546267078160302 0 -0.00010929398935412481 -3.5608339710895593e-06 0 -0.00060914358424617469 -0.00050762238433661679 0 -1.4685525107894052e-07 -0.000934376243167604 0 -0.00012050633720634319 -0.00070546267078160302 0 -0.00010929398935412481 -3.5608339710895593e-06 0 -1.4685525107894052e-07 -0.000934376243167604 0 -0.00012050633720634319 -0.00070546267078160302 0 -6.9359445175413173e-05 -0.0016358961289875673 0 -0.00010929398935412481 -3.5608339710895593e-06 0 -0.00060914358424617469 -0.00050762238433661679 0 -0.00022572148809338146 0.00082519955869107407 0 -0.00096170410861539963 -0.0020710694687890319 0 -0.0012493686256293138 -0.0011193463650328252 0 -0.00010929398935412481 -3.5608339710895593e-06 0 0.00010955781970814222 0.00048355676617299343 0 -0.00022572148809338146 0.00082519955869107407 0 -1.3324895372103708e-07 -0.0026802941207424969 0 -0.00014009844112699077 -0.0035687127431694664 0 3.6708098153689876e-07 -0.0026764885894412786 0 -3.9699709451762031e-07 -0.0022940959695985645 0 -6.3226448550514208e-06 -0.0026258775753108367 0 -1.7009227953083531e-06 -0.0026827427093454623 0 -0.00054270202341895465 -0.004393441125767463 0 3.581867499998529e-05 -0.0039922804640364767 0 -3.9699709451762031e-07 -0.0022940959695985645 0 -0.00016020112190221386 -0.0024624536043848211 0 -6.3226448550514208e-06 -0.0026258775753108367 0 -1.4685525107894052e-07 -0.000934376243167604 0 -9.3394172599840326e-07 -0.0022890322554568764 0 -6.9359445175413173e-05 -0.0016358961289875673 0 1.7024177751779146e-07 -0.0022898107875183055 0 -0.00096170410861539963 -0.0020710694687890319 0 -9.3394172599840326e-07 -0.0022890322554568764 0 -6.9359445175413173e-05 -0.0016358961289875673 0 -8.4514881616317978e-05 -0.0015725666222404318 0 -0.00046429551432533654 -0.001362944601667086 0 -0.00096170410861539963 -0.0020710694687890319 0 -0.00012050633720634319 -0.00070546267078160302 0 -6.9359445175413173e-05 -0.0016358961289875673 0 -0.00060914358424617469 -0.00050762238433661679 0 -0.00096170410861539963 -0.0020710694687890319 0 -0.0015044331753020278 -0.0029873179333236499 0 -0.0027105045743076573 -0.0037699113481381732 0 -0.0028295010069030188 -0.0031468173593208492 0 -0.0020860733521316861 -0.0029775058032424744 0 -0.00016020112190221386 -0.0024624536043848211 0 -6.3226448550514208e-06 -0.0026258775753108367 0 -0.00015420026477952785 -0.0027379292203014074 0 -0.00054270202341895465 -0.004393441125767463 0 -5.4149783716043742e-05 -0.0046734244043897082 0 3.581867499998529e-05 -0.0039922804640364767 0 -0.00054270202341895465 -0.004393441125767463 0 -0.00025045404181460261 -0.004710844011094846 0 -5.4149783716043742e-05 -0.0046734244043897082 0 -0.00054270202341895465 -0.004393441125767463 0 -0.00025045404181460261 -0.004710844011094846 0 -0.00038747495272081176 -0.0047458465641379548 0 -0.00014009844112699077 -0.0035687127431694664 0 -0.001313576725831049 -0.0034452082878320854 0 -0.0015044331753020278 -0.0029873179333236499 0 -0.001313576725831049 -0.0034452082878320854 0 -6.3226448550514208e-06 -0.0026258775753108367 0 -0.00015420026477952785 -0.0027379292203014074 0 -0.00011743276173715305 -0.0030676483689596355 0 -0.0028295010069030188 -0.0031468173593208492 0 -0.002983544756540348 -0.0024519359483284142 0 -0.0020860733521316861 -0.0029775058032424744 0 -0.001313576725831049 -0.0034452082878320854 0 -0.0028182498337319659 -0.0024811749586970684 0 -0.001313576725831049 -0.0034452082878320854 0 -0.0025229786583434604 -0.0035759414132576152 0 -0.002983544756540348 -0.0024519359483284142 0 -0.0023736429814777789 -0.0021695862574872549 0 -0.0028371379327278923 -0.0016886474962097479 0 -0.00038747495272081176 -0.0047458465641379548 0 -0.00023926268461262209 -0.004755348028882821 0 -0.00031205022531377059 -0.004806239006801296 0 -0.00025045404181460261 -0.004710844011094846 0 -0.00038747495272081176 -0.0047458465641379548 0 -0.00023926268461262209 -0.004755348028882821 0 5.8467299890073862e-05 0.0010661841208762755 0 -0.00022572148809338146 0.00082519955869107407 0 0.00010573385248031744 0.0013622447008774512 0 5.8467299890073862e-05 0.0010661841208762755 0 0.00010955781970814222 0.00048355676617299343 0 -0.00022572148809338146 0.00082519955869107407 0 -0.002983544756540348 -0.0024519359483284142 0 -0.0020860733521316861 -0.0029775058032424744 0 -0.0023736429814777789 -0.0021695862574872549 0 -0.0020860733521316861 -0.0029775058032424744 0 -0.0023736429814777789 -0.0021695862574872549 0 -0.0012127531447765085 -0.0020460319771368183 0 -0.0012493686256293138 -0.0011193463650328252 0 -0.00055703282339730027 -0.00030849656456651475 0 -0.0023736429814777789 -0.0021695862574872549 0 -0.0012127531447765085 -0.0020460319771368183 0 -0.0020952240380977382 -0.0015890251344226037 0 -0.0012127531447765085 -0.0020460319771368183 0 -0.0012231065765684378 -0.00076994502169287814 0 -0.0020952240380977382 -0.0015890251344226037 0 -0.001356811124797177 -0.00014902830742989106 0 -0.0024146425082426227 -0.0010574097183321729 0 -0.0020952240380977382 -0.0015890251344226037 0 -0.0012231065765684378 -0.00076994502169287814 0 -0.001356811124797177 -0.00014902830742989106 0 -0.0020952240380977382 -0.0015890251344226037 0 -0.001356811124797177 -0.00014902830742989106 0 -0.0024146425082426227 -0.0010574097183321729 0 -0.0022946077633023763 -0.00025060321569580238 0 -0.0024146425082426227 -0.0010574097183321729 0 -0.0031254514040124802 -0.0013113216619908355 0 -0.0022946077633023763 -0.00025060321569580238 0 -0.0024146425082426227 -0.0010574097183321729 0 -0.0030939713806793982 -0.0017111647586090803 0 -0.0031254514040124802 -0.0013113216619908355 0 -0.0023733902951231759 -0.0016634191366525577 0 -0.0028182498337319659 -0.0024811749586970684 0 -0.0020952240380977382 -0.0015890251344226037 0 -0.0035502245275019139 -0.0024182120523595758 0 -0.0034966201035203136 -0.0021743729417353129 0 -0.0020952240380977382 -0.0015890251344226037 0 -0.0034966201035203136 -0.0021743729417353129 0 -0.0030939713806793982 -0.0017111647586090803 0 -0.0023736429814777789 -0.0021695862574872549 0 -0.0020952240380977382 -0.0015890251344226037 0 -0.0028371379327278923 -0.0016886474962097479 0 -0.0024146425082426227 -0.0010574097183321729 0 -0.0020952240380977382 -0.0015890251344226037 0 -0.0030939713806793982 -0.0017111647586090803 0 -0.0021907885844726564 -0.0033648500997590582 0 -0.0021304976376986993 -0.0030614884402809339 0 -0.0022455930987168625 -0.0030693810372453578 0 -0.0036279958053235402 -0.002173473444003292 0 -0.0037579683995932586 -0.0022157143033524783 0 -0.0043820154877421066 -0.0025289982368368355 0 -0.0025229786583434604 -0.0035759414132576152 0 -0.0043338398489262443 -0.0021319649087005446 0 -0.0028182498337319659 -0.0024811749586970684 0 -0.0025229786583434604 -0.0035759414132576152 0 -0.003576625679242679 -0.0022567700345265101 0 -0.0036279958053235402 -0.002173473444003292 0 -0.0037579683995932586 -0.0022157143033524783 0 -0.0037579683995932586 -0.0022157143033524783 0 -0.0035554891812982865 -0.0020591479407097773 0 -0.0034966201035203136 -0.0021743729417353129 0 -0.0035554891812982865 -0.0020591479407097773 0 -0.0034966201035203136 -0.0021743729417353129 0 -0.0030939713806793982 -0.0017111647586090803 0 -0.003576625679242679 -0.0022567700345265101 0 -0.0037579683995932586 -0.0022157143033524783 0 -0.0034966201035203136 -0.0021743729417353129 0 -0.0028182498337319659 -0.0024811749586970684 0 -0.0028913235745054475 -0.0024218825823823422 0 -0.0025229786583434604 -0.0035759414132576152 0 -0.0019084615662227846 -0.0039455968160760323 0 -0.00023926268461262209 -0.004755348028882821 0 -0.00031205022531377059 -0.004806239006801296 0 -0.00016898038373229521 -0.004708086040255609 0 -0.0044004296161881968 -0.0034460443673138964 0 -0.0042045927925785671 -0.0032946290775595472 0 -0.0037247824086270409 -0.0030522591256835312 0 -0.0044004296161881968 -0.0034460443673138964 0 -0.0044106494407623433 -0.0032177807173929224 0 -0.0045656273133147726 -0.0028328897825070478 0 -0.0044004296161881968 -0.0034460443673138964 0 -0.0044106494407623433 -0.0032177807173929224 0 -0.0042045927925785671 -0.0032946290775595472 0 -0.0042045927925785671 -0.0032946290775595472 0 -0.0037571322433158634 -0.0035979068144013087 0 -0.0037247824086270409 -0.0030522591256835312 0 -0.0045656273133147726 -0.0028328897825070478 0 -0.0043820154877421066 -0.0025289982368368355 0 -0.0046880029681482874 0.00019548139461295937 0 -0.0044004296161881968 -0.0034460443673138964 0 -0.0045656273133147726 -0.0028328897825070478 0 -0.0043820154877421066 -0.0025289982368368355 0 -0.0042466419994943291 -0.0034505703481062977 0 -0.0037712242225254244 -0.0041072549470424508 0 -0.0037571322433158634 -0.0035979068144013087 0 -0.0042045927925785671 -0.0032946290775595472 0 -0.0042466419994943291 -0.0034505703481062977 0 -0.0037571322433158634 -0.0035979068144013087 0 -0.0042466419994943291 -0.0034505703481062977 0 -0.0042544897621362224 -0.0037202692997935151 0 -0.0037712242225254244 -0.0041072549470424508 0 -0.0042466419994943291 -0.0034505703481062977 0 -0.0045656273133147726 -0.0028328897825070478 0 -0.0042544897621362224 -0.0037202692997935151 0 -0.0044106494407623433 -0.0032177807173929224 0 -0.0042466419994943291 -0.0034505703481062977 0 -0.0045656273133147726 -0.0028328897825070478 0 -0.0044106494407623433 -0.0032177807173929224 0 -0.0042045927925785671 -0.0032946290775595472 0 -0.0042466419994943291 -0.0034505703481062977 0 -0.0045656273133147726 -0.0028328897825070478 0 -0.0042544897621362224 -0.0037202692997935151 0 -0.0044007395084704722 -0.0046608139401026968 0 -0.0042544897621362224 -0.0037202692997935151 0 -0.0044007395084704722 -0.0046608139401026968 0 -0.0037712242225254244 -0.0041072549470424508 0 -0.0035554891812982865 -0.0020591479407097773 0 -0.0030939713806793982 -0.0017111647586090803 0 -0.003673662960472052 -0.0020499146034009038 0 -0.0030939713806793982 -0.0017111647586090803 0 -0.003673662960472052 -0.0020499146034009038 0 -0.0031254514040124802 -0.0013113216619908355 0 -0.003673662960472052 -0.0020499146034009038 0 -0.003930677494847986 -0.0021888091369675999 0 -0.0037581020853724558 -0.001579188456818967 0 -0.0037579683995932586 -0.0022157143033524783 0 -0.0035554891812982865 -0.0020591479407097773 0 -0.003673662960472052 -0.0020499146034009038 0 -0.0037579683995932586 -0.0022157143033524783 0 -0.003673662960472052 -0.0020499146034009038 0 -0.003930677494847986 -0.0021888091369675999 0 -0.0037579683995932586 -0.0022157143033524783 0 -0.0043820154877421066 -0.0025289982368368355 0 -0.003930677494847986 -0.0021888091369675999 0 -0.0043820154877421066 -0.0025289982368368355 0 -0.003930677494847986 -0.0021888091369675999 0 -0.0037581020853724558 -0.001579188456818967 0 -0.003673662960472052 -0.0020499146034009038 0 -0.0037581020853724558 -0.001579188456818967 0 -0.0031254514040124802 -0.0013113216619908355 0 -0.0037581020853724558 -0.001579188456818967 0 -0.0031254514040124802 -0.0013113216619908355 0 -0.0031926067376537677 -0.00019182056829157869 0 -0.0043820154877421066 -0.0025289982368368355 0 -0.0037581020853724558 -0.001579188456818967 0 -0.0046880029681482874 0.00019548139461295937 0 -0.0037581020853724558 -0.001579188456818967 0 -0.0031926067376537677 -0.00019182056829157869 0 -0.0046880029681482874 0.00019548139461295937 0 -0.0031926067376537677 -0.00019182056829157869 0 -0.0046880029681482874 0.00019548139461295937 0 -0.0034727442095373929 0.00092599595663647835 0 -0.0031926067376537677 -0.00019182056829157869 0 -0.0034727442095373929 0.00092599595663647835 0 -0.0024219731454901273 0.00074136911566467084 0 -0.0046468128424226388 -0.0029623778855234276 0 -0.0049660402731316047 -0.0029225198617171223 0 -0.0045656273133147726 -0.0028328897825070478 0 -0.0044007395084704722 -0.0046608139401026968 0 -0.0051507694954983614 -0.006220850746076278 0 -0.0044007395084704722 -0.0046608139401026968 0 -0.0051507694954983614 -0.006220850746076278 0 -0.0035434639798786805 -0.0066670064524800912 0 -0.0049660402731316047 -0.0029225198617171223 0 -0.0028617000490533521 -0.0036908512446351166 0 -0.0051507694954983614 -0.006220850746076278 0 -0.0035434639798786805 -0.0066670064524800912 0 -0.0049406200378588469 -0.0083418613210654354 0 -0.0046880029681482874 0.00019548139461295937 0 -0.0034727442095373929 0.00092599595663647835 0 -0.0046553039385675149 0.001892616342385929 0 -0.0034727442095373929 0.00092599595663647835 0 -0.0025541380797837743 0.0018430623521414923 0 -0.0046553039385675149 0.001892616342385929 0 -0.0034727442095373929 0.00092599595663647835 0 -0.0024219731454901273 0.00074136911566467084 0 -0.0025541380797837743 0.0018430623521414923 0 -0.0024219731454901273 0.00074136911566467084 0 -0.0016686735575212189 0.00116882069515538 0 -0.0025541380797837743 0.0018430623521414923 0 -0.0024219731454901273 0.00074136911566467084 0 -0.0016686735575212189 0.00116882069515538 0 -0.0015776212555516805 0.00061917085094599406 0 -0.0016686735575212189 0.00116882069515538 0 -0.0025541380797837743 0.0018430623521414923 0 -0.0011135250032510815 0.001410412050368434 0 -0.0010835979999937286 0.0011712879597891288 0 -0.0016686735575212189 0.00116882069515538 0 -0.0011135250032510815 0.001410412050368434 0 -0.0010835979999937286 0.0011712879597891288 0 -0.0016686735575212189 0.00116882069515538 0 -0.0015776212555516805 0.00061917085094599406 0 -0.00098723611544536687 0.00066722652017080686 0 -0.001356811124797177 -0.00014902830742989106 0 -0.0015776212555516805 0.00061917085094599406 0 -0.001356811124797177 -0.00014902830742989106 0 -0.0015776212555516805 0.00061917085094599406 0 -0.0022946077633023763 -0.00025060321569580238 0 -0.00098723611544536687 0.00066722652017080686 0 -0.0010835979999937286 0.0011712879597891288 0 -0.0015776212555516805 0.00061917085094599406 0 -0.0031254514040124802 -0.0013113216619908355 0 -0.0031926067376537677 -0.00019182056829157869 0 -0.0022946077633023763 -0.00025060321569580238 0 -0.0031926067376537677 -0.00019182056829157869 0 -0.0024219731454901273 0.00074136911566467084 0 -0.0022946077633023763 -0.00025060321569580238 0 -0.0024219731454901273 0.00074136911566467084 0 -0.0015776212555516805 0.00061917085094599406 0 -0.0022946077633023763 -0.00025060321569580238 0 -0.00058309529358080946 -0.0061723357542617149 0 -0.0017308249922642135 -0.0069419804982247639 0 -0.0015208012758729109 -0.0053156945553618556 0 -0.00058309529358080946 -0.0061723357542617149 0 -0.00037590275631513526 -0.0080572046516147536 0 -0.0017308249922642135 -0.0069419804982247639 0 -0.00034434396750937339 -0.0090129279783635226 0 -0.0003238782652200987 -0.0087265590460287347 0 -0.00037590275631513526 -0.0080572046516147536 0 0.00016064438655288851 -0.0074553846921754903 0 -0.00035934230893364165 -0.0080707855097409166 0 -0.00058309529358080946 -0.0061723357542617149 0 0.00080609232878169849 -0.0058363443908967102 0 -0.00037590275631513526 -0.0080572046516147536 0 -0.00025145154216867614 -0.0089977468088533932 0 -0.00075132465261374163 -0.0087955397404100681 0 -0.0003238782652200987 -0.0087265590460287347 0 -0.00024270549212667946 -0.0090455337996116613 0 -0.00037590275631513526 -0.0080572046516147536 0 -0.00024270549212667946 -0.0090455337996116613 0 -0.00091832102290556833 -0.008549309270329682 0 -0.00037590275631513526 -0.0080572046516147536 0 -0.00091832102290556833 -0.008549309270329682 0 -0.00037590275631513526 -0.0080572046516147536 0 -0.0017308249922642135 -0.0069419804982247639 0 -0.00091832102290556833 -0.008549309270329682 0 -0.0017308249922642135 -0.0069419804982247639 0 -0.0027497228090858404 -0.0083183945013995137 0 -0.0035434639798786805 -0.0066670064524800912 0 -0.0017308249922642135 -0.0069419804982247639 0 -0.0027497228090858404 -0.0083183945013995137 0 -0.0035434639798786805 -0.0066670064524800912 0 -0.0049406200378588469 -0.0083418613210654354 0 -0.0027497228090858404 -0.0083183945013995137 0 -0.0044007395084704722 -0.0046608139401026968 0 -0.0035434639798786805 -0.0066670064524800912 0 -0.0028475526138888553 -0.0052849693916498979 0 -0.0035434639798786805 -0.0066670064524800912 0 -0.0028475526138888553 -0.0052849693916498979 0 -0.0017308249922642135 -0.0069419804982247639 0 -0.0028475526138888553 -0.0052849693916498979 0 -0.0017308249922642135 -0.0069419804982247639 0 -0.0015208012758729109 -0.0053156945553618556 0 -0.0028475526138888553 -0.0052849693916498979 0 -0.0015208012758729109 -0.0053156945553618556 0 -0.0028245363830658446 -0.0040735498412068838 0 -0.0015208012758729109 -0.0053156945553618556 0 -0.0028245363830658446 -0.0040735498412068838 0 -0.0011191471232353911 -0.0043227746097261686 0 -0.0044007395084704722 -0.0046608139401026968 0 -0.0028475526138888553 -0.0052849693916498979 0 -0.0037712242225254244 -0.0041072549470424508 0 -0.0028475526138888553 -0.0052849693916498979 0 -0.0037712242225254244 -0.0041072549470424508 0 -0.0028245363830658446 -0.0040735498412068838 0 -0.0037712242225254244 -0.0041072549470424508 0 -0.0028245363830658446 -0.0040735498412068838 0 -0.0037571322433158634 -0.0035979068144013087 0 -0.0028245363830658446 -0.0040735498412068838 0 -0.0037247824086270409 -0.0030522591256835312 0 -0.0019018170240373349 -0.0033988410179067383 0 -0.0019084615662227846 -0.0039455968160760323 0 -0.0011369332807913662 -0.003930589248036959 0 -0.0028245363830658446 -0.0040735498412068838 0 -0.0037571322433158634 -0.0035979068144013087 0 -0.0037247824086270409 -0.0030522591256835312 0 -0.0028245363830658446 -0.0040735498412068838 0 -0.0019018170240373349 -0.0033988410179067383 0 -0.0011191471232353911 -0.0043227746097261686 0 -0.0011369332807913662 -0.003930589248036959 0 -0.00037280348632659808 -0.0040292983994227941 0 -0.0019018170240373349 -0.0033988410179067383 0 -0.0011191471232353911 -0.0043227746097261686 0 -0.00022893456973318847 -0.0040816893411612055 0 -0.0011191471232353911 -0.0043227746097261686 0 -0.00022893456973318847 -0.0040816893411612055 0 6.9338792394707852e-05 -0.0049020470790397154 0 -0.0015208012758729109 -0.0053156945553618556 0 -0.0011191471232353911 -0.0043227746097261686 0 6.9338792394707852e-05 -0.0049020470790397154 0 -0.00058309529358080946 -0.0061723357542617149 0 -0.0015208012758729109 -0.0053156945553618556 0 6.9338792394707852e-05 -0.0049020470790397154 0 -0.00058309529358080946 -0.0061723357542617149 0 0.00080609232878169849 -0.0058363443908967102 0 6.9338792394707852e-05 -0.0049020470790397154 0 0.00080609232878169849 -0.0058363443908967102 0 6.9338792394707852e-05 -0.0049020470790397154 0 0.001301705930118469 -0.0047065559581110673 0 -0.00022893456973318847 -0.0040816893411612055 0 0.00043999609041461509 -0.0043153170073251005 0 0.00063718181557061561 -0.0037371257650500264 0 6.9338792394707852e-05 -0.0049020470790397154 0 0.00043999609041461509 -0.0043153170073251005 0 0.001301705930118469 -0.0047065559581110673 0 -0.00022893456973318847 -0.0040816893411612055 0 6.9338792394707852e-05 -0.0049020470790397154 0 0.00043999609041461509 -0.0043153170073251005 0 -0.00022893456973318847 -0.0040816893411612055 0 -0.00029686536924573154 -0.00409827446070398 0 0.00063718181557061561 -0.0037371257650500264 0 0.00016142003722118006 -0.0054290517539184483 0 0.00018264240726075757 -0.0053714296727309556 0 0.00029114392953580954 -0.0058533170757562071 0 -3.2726063109034205e-05 -0.0047839625846587339 0 0.00063571675295830935 -0.0046861356070141882 0 -0.00025558772366390733 -0.0044183701545525518 0 -0.00022893456973318847 -0.0040816893411612055 0 -0.00029686536924573154 -0.00409827446070398 0 0.00016142003722118006 -0.0054290517539184483 0 0.00018264240726075757 -0.0053714296727309556 0 3.2315916414684201e-05 -0.0050124265036369815 0 0.00023153906289561732 -0.0056832947515832359 0 0.00029114392953580954 -0.0058533170757562071 0 0.00025940706736472281 -0.0059654107201159677 0 0.00018264240726075757 -0.0053714296727309556 0 0.00023153906289561732 -0.0056832947515832359 0 0.00029114392953580954 -0.0058533170757562071 0 -0.00023926268461262209 -0.004755348028882821 0 -0.00016898038373229521 -0.004708086040255609 0 -0.00012381823890370499 -0.0047962862050739841 0 -0.00016898038373229521 -0.004708086040255609 0 -0.00025558772366390733 -0.0044183701545525518 0 -0.00012381823890370499 -0.0047962862050739841 0 -0.00025045404181460261 -0.004710844011094846 0 -0.00023926268461262209 -0.004755348028882821 0 -0.00012381823890370499 -0.0047962862050739841 0 0.00016142003722118006 -0.0054290517539184483 0 -0.00012381823890370499 -0.0047962862050739841 0 3.2315916414684201e-05 -0.0050124265036369815 0 -3.2726063109034205e-05 -0.0047839625846587339 0 -4.7475085021598501e-05 -0.004792547538194086 0 -0.00025558772366390733 -0.0044183701545525518 0 -0.00029686536924573154 -0.00409827446070398 0 -0.00012381823890370499 -0.0047962862050739841 0 3.2315916414684201e-05 -0.0050124265036369815 0 -5.4149783716043742e-05 -0.0046734244043897082 0 9.45107368127025e-05 -0.0048315851347242493 0 0.00018264240726075757 -0.0053714296727309556 0 3.2315916414684201e-05 -0.0050124265036369815 0 9.45107368127025e-05 -0.0048315851347242493 0 -0.00025045404181460261 -0.004710844011094846 0 -0.00012381823890370499 -0.0047962862050739841 0 -5.4149783716043742e-05 -0.0046734244043897082 0 -0.00012381823890370499 -0.0047962862050739841 0 3.2315916414684201e-05 -0.0050124265036369815 0 -5.4149783716043742e-05 -0.0046734244043897082 0 -5.4149783716043742e-05 -0.0046734244043897082 0 9.45107368127025e-05 -0.0048315851347242493 0 3.581867499998529e-05 -0.0039922804640364767 0 9.45107368127025e-05 -0.0048315851347242493 0 7.4729026194237705e-07 -0.0039947612131945916 0 0.000152608029460031 -0.0052981216387894209 0 9.45107368127025e-05 -0.0048315851347242493 0 7.4729026194237705e-07 -0.0039947612131945916 0 3.581867499998529e-05 -0.0039922804640364767 0 -1.7009227953083531e-06 -0.0026827427093454623 0 7.4729026194237705e-07 -0.0039947612131945916 0 3.581867499998529e-05 -0.0039922804640364767 0 0.00023153906289561732 -0.0056832947515832359 0 0.00016718010469400448 -0.0060310089876201281 0 0.000152608029460031 -0.0052981216387894209 0 0.00018264240726075757 -0.0053714296727309556 0 0.00023153906289561732 -0.0056832947515832359 0 0.000152608029460031 -0.0052981216387894209 0 0.00018264240726075757 -0.0053714296727309556 0 9.45107368127025e-05 -0.0048315851347242493 0 0.000152608029460031 -0.0052981216387894209 0 7.4729026194237705e-07 -0.0039947612131945916 0 0.000152608029460031 -0.0052981216387894209 0 1.8882025536600171e-07 -0.0053095690234306906 0 0.00016718010469400448 -0.0060310089876201281 0 1.8882025536600171e-07 -0.0053095690234306906 0 2.857826068058611e-07 -0.0066237669653706989 0 0.00016718010469400448 -0.0060310089876201281 0 0.000152608029460031 -0.0052981216387894209 0 1.8882025536600171e-07 -0.0053095690234306906 0 0.00016718010469400448 -0.0060310089876201281 0 2.857826068058611e-07 -0.0066237669653706989 0 0.00012359950262667271 -0.007042068595515167 0 0.00023153906289561732 -0.0056832947515832359 0 0.00016718010469400448 -0.0060310089876201281 0 0.00022069815283241523 -0.0063078017412898108 0 0.00016718010469400448 -0.0060310089876201281 0 0.00022069815283241523 -0.0063078017412898108 0 0.00012359950262667271 -0.007042068595515167 0 0.00022069815283241523 -0.0063078017412898108 0 0.00012359950262667271 -0.007042068595515167 0 7.8942202636362311e-05 -0.0064425286835391683 0 2.857826068058611e-07 -0.0066237669653706989 0 0.00012359950262667271 -0.007042068595515167 0 7.0949911760834374e-07 -0.0079387040170481264 0 0.00012359950262667271 -0.007042068595515167 0 -4.4903180721691288e-05 -0.0076992113960904843 0 7.0949911760834374e-07 -0.0079387040170481264 0 -4.4903180721691288e-05 -0.0076992113960904843 0 7.0949911760834374e-07 -0.0079387040170481264 0 -2.2294805002502203e-06 -0.0092507820980631539 0 -4.4903180721691288e-05 -0.0076992113960904843 0 -2.2294805002502203e-06 -0.0092507820980631539 0 -0.00085769331788745093 -0.0070008296010888316 0 -2.3924242233504178e-07 -0.0092532447067208961 0 -0.00060044661528906149 -0.0088753496231841686 0 -4.4903180721691288e-05 -0.0076992113960904843 0 -0.00085769331788745093 -0.0070008296010888316 0 -0.00010492436740432932 -0.0068297676942548433 0 0.00012359950262667271 -0.007042068595515167 0 -4.4903180721691288e-05 -0.0076992113960904843 0 -0.00010492436740432932 -0.0068297676942548433 0 0.00012359950262667271 -0.007042068595515167 0 -0.00010492436740432932 -0.0068297676942548433 0 7.8942202636362311e-05 -0.0064425286835391683 0 -0.00010492436740432932 -0.0068297676942548433 0 -0.00015434864190716081 -0.0061584877277170609 0 7.8942202636362311e-05 -0.0064425286835391683 0 -0.00010492436740432932 -0.0068297676942548433 0 -0.00048436512587345337 -0.0064733240077638546 0 -0.00015434864190716081 -0.0061584877277170609 0 -3.0496847891681471e-05 -0.0061609336563972468 0 -0.00015434864190716081 -0.0061584877277170609 0 7.8942202636362311e-05 -0.0064425286835391683 0 -0.00085769331788745093 -0.0070008296010888316 0 -0.00010492436740432932 -0.0068297676942548433 0 -0.00048436512587345337 -0.0064733240077638546 0 -0.00085769331788745093 -0.0070008296010888316 0 -0.00048436512587345337 -0.0064733240077638546 0 -0.0008473911408634951 -0.0059150749248781213 0 -0.00060044661528906149 -0.0088753496231841686 0 -0.00043539196427251777 -0.0086057443828103739 0 -0.00048436512587345337 -0.0064733240077638546 0 -0.0008473911408634951 -0.0059150749248781213 0 -0.00015434864190716081 -0.0061584877277170609 0 -0.00016507507281511246 -0.0089440132890284633 0 -0.00018500336491873324 -0.0074322009664800955 0 -0.0003592857033413263 -0.00611312366245892 0 -0.00015434864190716081 -0.0061584877277170609 0 -0.00017684846074241006 -0.006048583474868259 0 8.9618145626508026e-05 -0.0088437201992825534 0 -8.3699980814532632e-05 -0.0088231214652581842 0 -1.7009170472910449e-05 -0.0088819753273925266 0 -0.00043539196427251777 -0.0086057443828103739 0 -0.00046684249540495493 -0.0057823321504064948 0 -0.0003595143976832106 -0.00606613778947733 0 -0.0003592857033413263 -0.00611312366245892 0 -0.00017684846074241006 -0.006048583474868259 0 -0.00016507507281511246 -0.0089440132890284633 0 -0.00043539196427251777 -0.0086057443828103739 0 -3.0496847891681471e-05 -0.0061609336563972468 0 -0.00017684846074241006 -0.006048583474868259 0 6.1336378476237028e-05 -0.0060499881594391416 0 -0.00018500336491873324 -0.0074322009664800955 0 0.00028869013043735946 -0.0060410206308615533 0 -3.0496847891681471e-05 -0.0061609336563972468 0 -0.00015434864190716081 -0.0061584877277170609 0 -0.00017684846074241006 -0.006048583474868259 0 1.6250374297961456e-05 -0.0061787102319444016 0 0.00028869013043735946 -0.0060410206308615533 0 0.00010139971128851795 -0.00599906391474587 0 9.4802153197540284e-05 -0.0061539715343910031 0 0.00019899805783914497 -0.0060844172548108833 0 -3.0496847891681471e-05 -0.0061609336563972468 0 0.00010139971128851795 -0.00599906391474587 0 9.4802153197540284e-05 -0.0061539715343910031 0 0.00028869013043735946 -0.0060410206308615533 0 0.00063571675295830935 -0.0046861356070141882 0 0.00010139971128851795 -0.00599906391474587 0 0.00029114392953580954 -0.0058533170757562071 0 0.00019899805783914497 -0.0060844172548108833 0 0.00029114392953580954 -0.0058533170757562071 0 0.00025940706736472281 -0.0059654107201159677 0 0.00019899805783914497 -0.0060844172548108833 0 0.00022069815283241523 -0.0063078017412898108 0 0.00025940706736472281 -0.0059654107201159677 0 0.00019899805783914497 -0.0060844172548108833 0 0.00023153906289561732 -0.0056832947515832359 0 0.00022069815283241523 -0.0063078017412898108 0 0.00025940706736472281 -0.0059654107201159677 0 0.00022069815283241523 -0.0063078017412898108 0 7.8942202636362311e-05 -0.0064425286835391683 0 0.00019899805783914497 -0.0060844172548108833 0 -3.0496847891681471e-05 -0.0061609336563972468 0 9.4802153197540284e-05 -0.0061539715343910031 0 7.8942202636362311e-05 -0.0064425286835391683 0 9.4802153197540284e-05 -0.0061539715343910031 0 7.8942202636362311e-05 -0.0064425286835391683 0 0.00019899805783914497 -0.0060844172548108833 0 0.0001134717710624354 -0.011220950315358134 0 9.1282429875737896e-05 -0.011033417277072043 0 9.8809363484727488e-05 -0.011108310198260987 0 0.0001134717710624354 -0.011220950315358134 0 0.00011320961204603886 -0.011049790670674972 0 9.1282429875737896e-05 -0.011033417277072043 0 0.00010452736338663022 -0.012379153484859224 0 4.8006039213978935e-08 -0.011750570565408737 0 1.0395130999248183e-07 -0.01299541350605396 0 0.00013602811953672718 -0.011662447682225923 0 4.2046587406170461e-05 -0.01104391145741716 0 0.00010452736338663022 -0.012379153484859224 0 4.8006039213978935e-08 -0.011750570565408737 0 7.3203142955599895e-06 -0.010885917272980775 0 4.8006039213978935e-08 -0.011750570565408737 0 7.3203142955599895e-06 -0.010885917272980775 0 5.1449667080717009e-07 -0.010500678910507088 0 0.00011320961204603886 -0.011049790670674972 0 5.6656099293260105e-05 -0.01087379974989815 0 7.3203142955599895e-06 -0.010885917272980775 0 0.00011320961204603886 -0.011049790670674972 0 5.6656099293260105e-05 -0.01087379974989815 0 9.1282429875737896e-05 -0.011033417277072043 0 5.6656099293260105e-05 -0.01087379974989815 0 9.1282429875737896e-05 -0.011033417277072043 0 7.5103291458522114e-05 -0.010989239127698015 0 9.1282429875737896e-05 -0.011033417277072043 0 7.5103291458522114e-05 -0.010989239127698015 0 9.8809363484727488e-05 -0.011108310198260987 0 5.6656099293260105e-05 -0.01087379974989815 0 7.5103291458522114e-05 -0.010989239127698015 0 6.3247360256445877e-05 -0.010867717321589587 0 6.3247360256445877e-05 -0.010867717321589587 0 -7.0913631375899903e-05 -0.010885186861725011 0 9.9850894769229928e-05 -0.010535430399319611 0 7.5103291458522114e-05 -0.010989239127698015 0 6.3247360256445877e-05 -0.010867717321589587 0 6.0207422485744334e-05 -0.011017267347031064 0 5.6656099293260105e-05 -0.01087379974989815 0 6.3247360256445877e-05 -0.010867717321589587 0 9.9850894769229928e-05 -0.010535430399319611 0 5.6656099293260105e-05 -0.01087379974989815 0 7.3203142955599895e-06 -0.010885917272980775 0 9.9850894769229928e-05 -0.010535430399319611 0 7.3203142955599895e-06 -0.010885917272980775 0 5.1449667080717009e-07 -0.010500678910507088 0 9.9850894769229928e-05 -0.010535430399319611 0 -1.2303631831066343e-06 -0.0092560141922471521 0 -0.00039298894709308954 -0.010772485446101616 0 9.9850894769229928e-05 -0.010535430399319611 0 -1.2303631831066343e-06 -0.0092560141922471521 0 5.1449667080717009e-07 -0.010500678910507088 0 9.9850894769229928e-05 -0.010535430399319611 0 -0.00039298894709308954 -0.010772485446101616 0 -7.0913631375899903e-05 -0.010885186861725011 0 9.9850894769229928e-05 -0.010535430399319611 0 -0.00039298894709308954 -0.010772485446101616 0 -7.0913631375899903e-05 -0.010885186861725011 0 -6.8573085559335667e-05 -0.011184779642993531 0 -0.00039298894709308954 -0.010772485446101616 0 -0.00039442429039122261 -0.011285526016014144 0 -6.8573085559335667e-05 -0.011184779642993531 0 -0.00039442429039122261 -0.011285526016014144 0 -6.8573085559335667e-05 -0.011184779642993531 0 -7.8290699982515877e-05 -0.011411526683107147 0 -0.0006456602201358149 -0.010602079772494879 0 -0.00045055160524486414 -0.010796292132094014 0 -4.0498448173869487e-05 -0.010840068056440817 0 -0.00043539196427251777 -0.0086057443828103739 0 2.636827776749674e-05 -0.011177787598033352 0 -0.00016507507281511246 -0.0089440132890284633 0 -0.00033360721715323548 -0.0094276577113432611 0 -0.0006432073283299918 -0.010769756986239136 0 -0.0006456602201358149 -0.010602079772494879 0 -0.00045055160524486414 -0.010796292132094014 0 -6.8573085559335667e-05 -0.011184779642993531 0 4.1160356563227388e-05 -0.011248695134395274 0 7.0666475762712569e-05 -0.011329683268800173 0 -6.0228576562297783e-05 -0.010804941977448735 0 -0.00018481179500390665 -0.012729645320520134 0 -6.8573085559335667e-05 -0.011184779642993531 0 0.00022997508903032133 -0.011530221945450893 0 -7.8290699982515877e-05 -0.011411526683107147 0 -6.8573085559335667e-05 -0.011184779642993531 0 0.00026561410956032897 -0.011516778184818515 0 0.00022997508903032133 -0.011530221945450893 0 -6.8573085559335667e-05 -0.011184779642993531 0 2.2264589353976902e-05 -0.01117042577747265 0 4.1160356563227388e-05 -0.011248695134395274 0 2.2264589353976902e-05 -0.01117042577747265 0 3.7360595177440571e-06 -0.011046080909323616 0 5.2652693451136733e-05 -0.011125844950952766 0 -7.0913631375899903e-05 -0.010885186861725011 0 -6.8573085559335667e-05 -0.011184779642993531 0 3.7360595177440571e-06 -0.011046080909323616 0 -6.8573085559335667e-05 -0.011184779642993531 0 2.2264589353976902e-05 -0.01117042577747265 0 3.7360595177440571e-06 -0.011046080909323616 0 6.3247360256445877e-05 -0.010867717321589587 0 -7.0913631375899903e-05 -0.010885186861725011 0 3.7360595177440571e-06 -0.011046080909323616 0 3.7360595177440571e-06 -0.011046080909323616 0 6.0207422485744334e-05 -0.011017267347031064 0 5.2652693451136733e-05 -0.011125844950952766 0 6.3247360256445877e-05 -0.010867717321589587 0 3.7360595177440571e-06 -0.011046080909323616 0 6.0207422485744334e-05 -0.011017267347031064 0 6.0207422485744334e-05 -0.011017267347031064 0 7.8201604952105424e-05 -0.01108781117079052 0 5.2652693451136733e-05 -0.011125844950952766 0 7.5103291458522114e-05 -0.010989239127698015 0 6.0207422485744334e-05 -0.011017267347031064 0 7.8201604952105424e-05 -0.01108781117079052 0 7.8201604952105424e-05 -0.01108781117079052 0 9.8809363484727488e-05 -0.011108310198260987 0 9.8674626108242059e-05 -0.011157850397434268 0 7.5103291458522114e-05 -0.010989239127698015 0 7.8201604952105424e-05 -0.01108781117079052 0 9.8809363484727488e-05 -0.011108310198260987 0 9.8809363484727488e-05 -0.011108310198260987 0 9.8674626108242059e-05 -0.011157850397434268 0 0.00011164468446692208 -0.011206150410387724 0 7.8201604952105424e-05 -0.01108781117079052 0 9.8674626108242059e-05 -0.011157850397434268 0 8.498280687396488e-05 -0.011176488467747622 0 9.8674626108242059e-05 -0.011157850397434268 0 0.00010595285628719107 -0.011217844926411992 0 0.00011164468446692208 -0.011206150410387724 0 9.8674626108242059e-05 -0.011157850397434268 0 0.00010595285628719107 -0.011217844926411992 0 8.498280687396488e-05 -0.011176488467747622 0 7.8201604952105424e-05 -0.01108781117079052 0 8.498280687396488e-05 -0.011176488467747622 0 5.2652693451136733e-05 -0.011125844950952766 0 8.498280687396488e-05 -0.011176488467747622 0 5.2652693451136733e-05 -0.011125844950952766 0 6.3738441408486103e-05 -0.011216655838271607 0 2.2264589353976902e-05 -0.01117042577747265 0 6.3738441408486103e-05 -0.011216655838271607 0 4.1160356563227388e-05 -0.011248695134395274 0 2.2264589353976902e-05 -0.01117042577747265 0 5.2652693451136733e-05 -0.011125844950952766 0 6.3738441408486103e-05 -0.011216655838271607 0 8.498280687396488e-05 -0.011176488467747622 0 6.3738441408486103e-05 -0.011216655838271607 0 9.451748488849515e-05 -0.011240055475744954 0 6.3738441408486103e-05 -0.011216655838271607 0 8.2987712897426255e-05 -0.011266207133267554 0 9.451748488849515e-05 -0.011240055475744954 0 4.1160356563227388e-05 -0.011248695134395274 0 7.4747428802862027e-05 -0.011291400989564687 0 7.0666475762712569e-05 -0.011329683268800173 0 6.3738441408486103e-05 -0.011216655838271607 0 4.1160356563227388e-05 -0.011248695134395274 0 8.2987712897426255e-05 -0.011266207133267554 0 4.1160356563227388e-05 -0.011248695134395274 0 7.4747428802862027e-05 -0.011291400989564687 0 8.2987712897426255e-05 -0.011266207133267554 0 9.7555219548246537e-05 -0.011288854458788701 0 0.00010221686741957406 -0.011265437134374294 0 0.00011689856952621443 -0.011275975431887606 0 7.4747428802862027e-05 -0.011291400989564687 0 9.7555219548246537e-05 -0.011288854458788701 0 8.2987712897426255e-05 -0.011266207133267554 0 9.7555219548246537e-05 -0.011288854458788701 0 8.2987712897426255e-05 -0.011266207133267554 0 0.00010221686741957406 -0.011265437134374294 0 8.2987712897426255e-05 -0.011266207133267554 0 0.00010221686741957406 -0.011265437134374294 0 9.451748488849515e-05 -0.011240055475744954 0 0.00010221686741957406 -0.011265437134374294 0 9.451748488849515e-05 -0.011240055475744954 0 0.0001122745220582902 -0.011258772559750236 0 0.00010595285628719107 -0.011217844926411992 0 9.451748488849515e-05 -0.011240055475744954 0 0.0001122745220582902 -0.011258772559750236 0 0.00010595285628719107 -0.011217844926411992 0 8.498280687396488e-05 -0.011176488467747622 0 9.451748488849515e-05 -0.011240055475744954 0 0.00010595285628719107 -0.011217844926411992 0 0.0001122745220582902 -0.011258772559750236 0 0.00011663444582082512 -0.011259275216165902 0 0.0001103961735609601 -0.011273979289192005 0 0.0001129208000452065 -0.011288971097483435 0 8.8823383094313447e-05 -0.011384106006086222 0 0.0001122745220582902 -0.011258772559750236 0 0.0001129208000452065 -0.011288971097483435 0 0.00011663444582082512 -0.011259275216165902 0 9.7555219548246537e-05 -0.011288854458788701 0 0.00013216579827970683 -0.011286046496736441 0 0.00011689856952621443 -0.011275975431887606 0 0.0001122745220582902 -0.011258772559750236 0 0.00011689856952621443 -0.011275975431887606 0 0.0001129208000452065 -0.011288971097483435 0 0.00010221686741957406 -0.011265437134374294 0 0.0001122745220582902 -0.011258772559750236 0 0.00011689856952621443 -0.011275975431887606 0 0.0001103961735609601 -0.011273979289192005 0 0.00011689856952621443 -0.011275975431887606 0 0.0001129208000452065 -0.011288971097483435 0 -0.0013232771924776292 -0.013283574474635051 0 -0.00095980685839145645 -0.01293405675498477 0 0.0001129208000452065 -0.011288971097483435 0 0.00011363136358718009 -0.011292214217687573 0 0.00011663444582082512 -0.011259275216165902 0 0.00011363136358718009 -0.011292214217687573 0 0.00011909049038621539 -0.011291178480333904 0 0.00011663444582082512 -0.011259275216165902 0 0.00010595285628719107 -0.011217844926411992 0 0.00011663444582082512 -0.011259275216165902 0 0.00011164468446692208 -0.011206150410387724 0 0.00011909049038621539 -0.011291178480333904 0 0.00011663444582082512 -0.011259275216165902 0 0.00011164468446692208 -0.011206150410387724 0 0.0001134717710624354 -0.011220950315358134 0 9.8809363484727488e-05 -0.011108310198260987 0 0.00011164468446692208 -0.011206150410387724 0 0.0001134717710624354 -0.011220950315358134 0 0.00011909049038621539 -0.011291178480333904 0 0.00011164468446692208 -0.011206150410387724 0 0.00024385272998349785 -0.015529431957061818 0 -0.0005184327893785998 -0.014792057835009578 0 0.0005729957300210373 -0.015187762343371202 0 0.0005350262524254296 -0.015406123570505059 0 0.00030053211549342488 -0.01530543205878125 0 0.00012894615066486308 -0.015026451827917321 0 0.00043963166816684461 -0.015642569720155201 0 -0.00014835886702318444 -0.01383827711791741 0 0.0005350262524254296 -0.015406123570505059 0 0.00024918970697514198 -0.015506907961671514 0 0.00051094309310501245 -0.016062925152500011 0 0.0005350262524254296 -0.015406123570505059 0 0.00024918970697514198 -0.015506907961671514 0 0.00030053211549342488 -0.01530543205878125 0 0.00077850235198545785 -0.013357239388022893 0 0.0008888810266986086 -0.013267771935868781 0 0.00024918970697514198 -0.015506907961671514 0 0.00024851700416344473 -0.015364543273696313 0 0.00019670390004949344 -0.015508452769621973 0 0.00024918970697514198 -0.015506907961671514 0 0.00024851700416344473 -0.015364543273696313 0 0.00030053211549342488 -0.01530543205878125 0 -0.00051884411629384822 -0.013989945505515609 0 -0.0013071744643498113 -0.014487001315804719 0 0.000131972428020673 -0.01501418928965503 0 -0.00014835886702318444 -0.01383827711791741 0 0.00022054536577439189 -0.015196872937021558 0 -0.00051884411629384822 -0.013989945505515609 0 -0.0014441084913844643 -0.014355170867941549 0 -0.0013071744643498113 -0.014487001315804719 0 0.00030053211549342488 -0.01530543205878125 0 0.00012894615066486308 -0.015026451827917321 0 0.00018377959411691288 -0.015193839631313655 0 9.7555219548246537e-05 -0.011288854458788701 0 0.00013216579827970683 -0.011286046496736441 0 7.0666475762712569e-05 -0.011329683268800173 0 -0.0013232771924776292 -0.013283574474635051 0 -0.00018481179500390665 -0.012729645320520134 0 7.4747428802862027e-05 -0.011291400989564687 0 9.7555219548246537e-05 -0.011288854458788701 0 7.0666475762712569e-05 -0.011329683268800173 0 -0.00014835886702318444 -0.01383827711791741 0 3.3641929734541788e-05 -0.012693343077686287 0 -0.00021997720859246345 -0.013228545126671458 0 -0.00017714440901315262 -0.01327104376665432 0 -0.00025450243738433566 -0.013241499572448136 0 -0.00018481179500390665 -0.012729645320520134 0 3.3641929734541788e-05 -0.012693343077686287 0 -0.00018481179500390665 -0.012729645320520134 0 -0.00014835886702318444 -0.01383827711791741 0 0.00012894615066486308 -0.015026451827917321 0 0.00010545749744151841 -0.015125578823316051 0 0.00018377959411691288 -0.015193839631313655 0 0.00012894615066486308 -0.015026451827917321 0 9.8570165231075295e-05 -0.015043379230940028 0 0.00010545749744151841 -0.015125578823316051 0 9.5532936662364525e-05 -0.015195928689100807 0 0.00018377959411691288 -0.015193839631313655 0 0.00016071139065688614 -0.015266288552470107 0 0.00010545749744151841 -0.015125578823316051 0 9.5532936662364525e-05 -0.015195928689100807 0 0.00018377959411691288 -0.015193839631313655 0 0.00023971681812348468 -0.015351736246859258 0 0.00016071139065688614 -0.015266288552470107 0 3.2512480369505875e-05 -0.015215103957266945 0 0.0008888810266986086 -0.013267771935868781 0 0.0011098538202966809 -0.012272382109675494 0 0.00030053211549342488 -0.01530543205878125 0 0.00018377959411691288 -0.015193839631313655 0 0.00021575901746408272 -0.015284589405326158 0 0.00024851700416344473 -0.015364543273696313 0 0.00030053211549342488 -0.01530543205878125 0 0.00021575901746408272 -0.015284589405326158 0 0.00024851700416344473 -0.015364543273696313 0 0.00021575901746408272 -0.015284589405326158 0 0.00021682409831463821 -0.015318627914263678 0 0.00021575901746408272 -0.015284589405326158 0 0.00021682409831463821 -0.015318627914263678 0 0.00016071139065688614 -0.015266288552470107 0 0.00018377959411691288 -0.015193839631313655 0 0.00021575901746408272 -0.015284589405326158 0 0.00016071139065688614 -0.015266288552470107 0 0.00021682409831463821 -0.015318627914263678 0 0.00023971681812348468 -0.015351736246859258 0 0.00016071139065688614 -0.015266288552470107 0 0.00075342375801534908 -0.014227365469101579 0 0.0008888810266986086 -0.013267771935868781 0 0.00024851700416344473 -0.015364543273696313 0 0.00021682409831463821 -0.015318627914263678 0 0.00023971681812348468 -0.015351736246859258 0 9.5532936662364525e-05 -0.015195928689100807 0 0.00016071139065688614 -0.015266288552470107 0 3.2512480369505875e-05 -0.015215103957266945 0 9.5532936662364525e-05 -0.015195928689100807 0 3.2512480369505875e-05 -0.015215103957266945 0 -2.3211446458136943e-06 -0.015119448063427132 0 0.00010545749744151841 -0.015125578823316051 0 9.5532936662364525e-05 -0.015195928689100807 0 -2.3211446458136943e-06 -0.015119448063427132 0 3.2512480369505875e-05 -0.015215103957266945 0 -2.3211446458136943e-06 -0.015119448063427132 0 -1.168876077115723e-05 -0.015151995563987383 0 0.00054434390528027433 -0.011063043213995677 0 -4.0498448173869487e-05 -0.010840068056440817 0 -3.2948333203183513e-05 -0.011281834900353321 0 9.8570165231075295e-05 -0.015043379230940028 0 0.00010545749744151841 -0.015125578823316051 0 -2.3211446458136943e-06 -0.015119448063427132 0 3.3641929734541788e-05 -0.012693343077686287 0 2.636827776749674e-05 -0.011177787598033352 0 3.3641929734541788e-05 -0.012693343077686287 0 -7.2930579210747447e-05 -0.013284017350323809 0 -0.00064469478040304852 -0.010776068043812792 0 -0.00040375952623001601 -0.011106695929616973 0 -0.00062747613326494299 -0.011518622685412549 0 -3.2948333203183513e-05 -0.011281834900353321 0 -0.00023101648447291137 -0.011007341261857565 0 -0.00040375952623001601 -0.011106695929616973 0 -3.2948333203183513e-05 -0.011281834900353321 0 -0.00040375952623001601 -0.011106695929616973 0 -0.00062747613326494299 -0.011518622685412549 0 -0.00045055160524486414 -0.010796292132094014 0 -4.0498448173869487e-05 -0.010840068056440817 0 -0.00023101648447291137 -0.011007341261857565 0 -4.0498448173869487e-05 -0.010840068056440817 0 -3.2948333203183513e-05 -0.011281834900353321 0 -0.00023101648447291137 -0.011007341261857565 0 -0.00064469478040304852 -0.010776068043812792 0 -0.00045055160524486414 -0.010796292132094014 0 -0.00040375952623001601 -0.011106695929616973 0 -0.00045055160524486414 -0.010796292132094014 0 -0.00023101648447291137 -0.011007341261857565 0 -0.00040375952623001601 -0.011106695929616973 0 3.2512480369505875e-05 -0.015215103957266945 0 -1.168876077115723e-05 -0.015151995563987383 0 -3.5349410850791237e-05 -0.01513449529376998 0 -7.2930579210747447e-05 -0.013284017350323809 0 -0.00035901600274276167 -0.01160251143264688 0 -2.3211446458136943e-06 -0.015119448063427132 0 -1.168876077115723e-05 -0.015151995563987383 0 -3.6200611142238438e-05 -0.015121663919513473 0 -1.168876077115723e-05 -0.015151995563987383 0 -3.6200611142238438e-05 -0.015121663919513473 0 -3.5349410850791237e-05 -0.01513449529376998 0 0.0019836311543500475 -0.0092299425441143348 0 0.0014113791047778625 -0.0097296540929183821 0 0.00092703598612274552 -0.0093489511568981536 0 0.0014113791047778625 -0.0097296540929183821 0 0.00092703598612274552 -0.0093489511568981536 0 0.00090702654712934401 -0.01020151797043378 0 0.0011098538202966809 -0.012272382109675494 0 0.00074426463500264087 -0.010673749984621268 0 0.0018631125038242314 -0.010118638837163026 0 0.00090702654712934401 -0.01020151797043378 0 0.0018526010026790787 -0.010929814584474317 0 0.0014113791047778625 -0.0097296540929183821 0 0.0018631125038242314 -0.010118638837163026 0 0.00090702654712934401 -0.01020151797043378 0 0.0018631125038242314 -0.010118638837163026 0 0.0024691941444952817 -0.010692317652098139 0 0.0018526010026790787 -0.010929814584474317 0 0.0018631125038242314 -0.010118638837163026 0 0.002593015715373596 -0.0097374921828081475 0 0.0024691941444952817 -0.010692317652098139 0 0.0019836311543500475 -0.0092299425441143348 0 0.0014113791047778625 -0.0097296540929183821 0 0.0018631125038242314 -0.010118638837163026 0 0.0019836311543500475 -0.0092299425441143348 0 0.0018631125038242314 -0.010118638837163026 0 0.002593015715373596 -0.0097374921828081475 0 0.0008888810266986086 -0.013267771935868781 0 0.0016859634309149814 -0.013275644144726012 0 0.0030958880949485544 -0.0091412195496359903 0 0.0019836311543500475 -0.0092299425441143348 0 0.002593015715373596 -0.0097374921828081475 0 0.0030958880949485544 -0.0091412195496359903 0 0.002593015715373596 -0.0097374921828081475 0 0.0030817044761869404 -0.010321790457530103 0 0.002593015715373596 -0.0097374921828081475 0 0.0030817044761869404 -0.010321790457530103 0 0.0024691941444952817 -0.010692317652098139 0 0.00010488048622139744 -0.016606960588767108 0 0.00051094309310501245 -0.016062925152500011 0 0.00078213129245293083 -0.017059947195084846 0 0.00016277656947140016 -0.015522151859621292 0 0.00010488048622139744 -0.016606960588767108 0 0.00051094309310501245 -0.016062925152500011 0 0.00024918970697514198 -0.015506907961671514 0 0.00016277656947140016 -0.015522151859621292 0 0.00051094309310501245 -0.016062925152500011 0 -0.00024564922494947508 -0.0090571581577264509 0 -0.00035598690374557721 -0.0089909842380094633 0 -0.00035108636191436791 -0.0091043200905454591 0 -0.00024564922494947508 -0.0090571581577264509 0 -0.00025366672626914454 -0.0092248361000411942 0 -0.00035108636191436791 -0.0091043200905454591 0 0.00016064438655288851 -0.0074553846921754903 0 0.00054881440182778741 -0.0068721929792941224 0 -0.00034434396750937339 -0.0090129279783635226 0 -0.00035598690374557721 -0.0089909842380094633 0 -0.00035108636191436791 -0.0091043200905454591 0 0.0019484844087638514 -0.0038597061235652215 0 0.00063718181557061561 -0.0037371257650500264 0 0.001301705930118469 -0.0047065559581110673 0 0.00043999609041461509 -0.0043153170073251005 0 0.00063718181557061561 -0.0037371257650500264 0 0.001301705930118469 -0.0047065559581110673 0 0.00028869013043735946 -0.0060410206308615533 0 0.00054881440182778741 -0.0068721929792941224 0 -0.00024564922494947508 -0.0090571581577264509 0 -0.00035598690374557721 -0.0089909842380094633 0 -0.00019419443819433034 -0.008924437696164399 0 -0.00024164991822640466 -0.0088049970839161346 0 -0.00035598690374557721 -0.0089909842380094633 0 -0.00019419443819433034 -0.008924437696164399 0 -8.3699980814532632e-05 -0.0088231214652581842 0 -0.00024164991822640466 -0.0088049970839161346 0 -0.00019419443819433034 -0.008924437696164399 0 -8.3699980814532632e-05 -0.0088231214652581842 0 -8.868712125051298e-05 -0.0089209231196082147 0 -1.7009170472910449e-05 -0.0088819753273925266 0 -8.3699980814532632e-05 -0.0088231214652581842 0 -0.00019419443819433034 -0.008924437696164399 0 -8.868712125051298e-05 -0.0089209231196082147 0 -8.868712125051298e-05 -0.0089209231196082147 0 -0.00013250676305119507 -0.0090029924415898303 0 -5.8633433251809523e-05 -0.0089835924630593689 0 -0.00024564922494947508 -0.0090571581577264509 0 -0.00019419443819433034 -0.008924437696164399 0 -0.00013250676305119507 -0.0090029924415898303 0 -0.00019419443819433034 -0.008924437696164399 0 -8.868712125051298e-05 -0.0089209231196082147 0 -0.00013250676305119507 -0.0090029924415898303 0 8.9618145626508026e-05 -0.0088437201992825534 0 3.2623883810637166e-05 -0.0089512189780817323 0 9.6396985222269683e-05 -0.0090752096438282415 0 -0.00016507507281511246 -0.0089440132890284633 0 -0.00035901600274276167 -0.01160251143264688 0 8.9618145626508026e-05 -0.0088437201992825534 0 -1.7009170472910449e-05 -0.0088819753273925266 0 3.2623883810637166e-05 -0.0089512189780817323 0 -1.7009170472910449e-05 -0.0088819753273925266 0 -1.9902679708333807e-05 -0.008939729153985344 0 3.2623883810637166e-05 -0.0089512189780817323 0 -8.868712125051298e-05 -0.0089209231196082147 0 -1.7009170472910449e-05 -0.0088819753273925266 0 -1.9902679708333807e-05 -0.008939729153985344 0 -8.868712125051298e-05 -0.0089209231196082147 0 -5.8633433251809523e-05 -0.0089835924630593689 0 -1.9902679708333807e-05 -0.008939729153985344 0 -5.8633433251809523e-05 -0.0089835924630593689 0 -1.9902679708333807e-05 -0.008939729153985344 0 1.6438625340623048e-05 -0.0090170764268563009 0 -1.9902679708333807e-05 -0.008939729153985344 0 1.6438625340623048e-05 -0.0090170764268563009 0 3.2623883810637166e-05 -0.0089512189780817323 0 1.6438625340623048e-05 -0.0090170764268563009 0 3.2623883810637166e-05 -0.0089512189780817323 0 9.6396985222269683e-05 -0.0090752096438282415 0 -0.00035901600274276167 -0.01160251143264688 0 0.00014918890284895916 -0.010976787595389776 0 1.6438625340623048e-05 -0.0090170764268563009 0 9.6396985222269683e-05 -0.0090752096438282415 0 5.3560357381059332e-05 -0.0090898691386032734 0 5.3560357381059332e-05 -0.0090898691386032734 0 9.2195620331161312e-07 -0.0090720092528883724 0 -1.5298189123023182e-05 -0.0091295227676623167 0 1.6438625340623048e-05 -0.0090170764268563009 0 9.2195620331161312e-07 -0.0090720092528883724 0 -5.0711522973042174e-05 -0.009050702961937369 0 1.6438625340623048e-05 -0.0090170764268563009 0 5.3560357381059332e-05 -0.0090898691386032734 0 9.2195620331161312e-07 -0.0090720092528883724 0 -5.8633433251809523e-05 -0.0089835924630593689 0 1.6438625340623048e-05 -0.0090170764268563009 0 -5.0711522973042174e-05 -0.009050702961937369 0 9.2195620331161312e-07 -0.0090720092528883724 0 -5.0711522973042174e-05 -0.009050702961937369 0 -1.5298189123023182e-05 -0.0091295227676623167 0 -0.00035901600274276167 -0.01160251143264688 0 0.00074426463500264087 -0.010673749984621268 0 9.5586430046922283e-05 -0.0090778819423371435 0 5.3560357381059332e-05 -0.0090898691386032734 0 0.00010257132325112802 -0.0092082971002547028 0 5.3560357381059332e-05 -0.0090898691386032734 0 -1.5298189123023182e-05 -0.0091295227676623167 0 0.00010257132325112802 -0.0092082971002547028 0 -0.00024564922494947508 -0.0090571581577264509 0 -0.00013250676305119507 -0.0090029924415898303 0 -0.00012629113983271342 -0.0091107638513162684 0 -0.00013250676305119507 -0.0090029924415898303 0 -5.0711522973042174e-05 -0.009050702961937369 0 -0.00012629113983271342 -0.0091107638513162684 0 -0.00013250676305119507 -0.0090029924415898303 0 -5.8633433251809523e-05 -0.0089835924630593689 0 -5.0711522973042174e-05 -0.009050702961937369 0 -1.5298189123023182e-05 -0.0091295227676623167 0 -0.00012629113983271342 -0.0091107638513162684 0 -6.8284988094779946e-05 -0.0092148131485877988 0 -5.0711522973042174e-05 -0.009050702961937369 0 -1.5298189123023182e-05 -0.0091295227676623167 0 -0.00012629113983271342 -0.0091107638513162684 0 -0.00024564922494947508 -0.0090571581577264509 0 -0.00012629113983271342 -0.0091107638513162684 0 -0.00025366672626914454 -0.0092248361000411942 0 -0.00012629113983271342 -0.0091107638513162684 0 -6.8284988094779946e-05 -0.0092148131485877988 0 -0.00025366672626914454 -0.0092248361000411942 0 4.2386052793741997e-05 -0.0092218236703741595 0 -0.00021730616326329547 -0.0092263414648396068 0 0.0001578790850152773 -0.0091982761724682793 0 -7.333003329786985e-05 -0.0096297681126995723 0 -0.00025366672626914454 -0.0092248361000411942 0 0.0001578790850152773 -0.0091982761724682793 0 0.00047944762000247821 -0.0095539049542100619 0 -7.333003329786985e-05 -0.0096297681126995723 0 0.00091538053310605695 -0.0090739850061176252 0 0.00047944762000247821 -0.0095539049542100619 0 0.00090702654712934401 -0.01020151797043378 0 -1.5298189123023182e-05 -0.0091295227676623167 0 -6.8284988094779946e-05 -0.0092148131485877988 0 0.00010257132325112802 -0.0092082971002547028 0 4.2386052793741997e-05 -0.0092218236703741595 0 0.00074426463500264087 -0.010673749984621268 0 0.00074426463500264087 -0.010673749984621268 0 0.00093130031404805701 -0.0095597258142550226 0 0.0001578790850152773 -0.0091982761724682793 0 0.00091538053310605695 -0.0090739850061176252 0 0.00047944762000247821 -0.0095539049542100619 0 0.00047944762000247821 -0.0095539049542100619 0 0.00090702654712934401 -0.01020151797043378 0 -7.333003329786985e-05 -0.0096297681126995723 0 -7.333003329786985e-05 -0.0096297681126995723 0 -0.00032105353549591298 -0.0094130300734539037 0 -0.00029228827287285645 -0.010300992800981221 0 0.00090702654712934401 -0.01020151797043378 0 -7.333003329786985e-05 -0.0096297681126995723 0 -0.00029228827287285645 -0.010300992800981221 0 -0.00030029075547698835 -0.0094755929371741227 0 -0.00032105353549591298 -0.0094130300734539037 0 -0.00029228827287285645 -0.010300992800981221 0 -0.00030029075547698835 -0.0094755929371741227 0 -0.00032105353549591298 -0.0094130300734539037 0 -0.00034804317556452502 -0.0091224834620776615 0 -7.333003329786985e-05 -0.0096297681126995723 0 -0.00032105353549591298 -0.0094130300734539037 0 -0.00025366672626914454 -0.0092248361000411942 0 -0.00032105353549591298 -0.0094130300734539037 0 -0.00025366672626914454 -0.0092248361000411942 0 -0.00035108636191436791 -0.0091043200905454591 0 -0.00032105353549591298 -0.0094130300734539037 0 -0.00035108636191436791 -0.0091043200905454591 0 -0.00034804317556452502 -0.0091224834620776615 0 -0.00034434396750937339 -0.0090129279783635226 0 -0.00035108636191436791 -0.0091043200905454591 0 -0.00034804317556452502 -0.0091224834620776615 0 -0.00034434396750937339 -0.0090129279783635226 0 -0.0003238782652200987 -0.0087265590460287347 0 -0.00034804317556452502 -0.0091224834620776615 0 -0.0003238782652200987 -0.0087265590460287347 0 -0.00024270549212667946 -0.0090455337996116613 0 -0.00034804317556452502 -0.0091224834620776615 0 -0.00024270549212667946 -0.0090455337996116613 0 -0.00030029075547698835 -0.0094755929371741227 0 -0.00034804317556452502 -0.0091224834620776615 0 -0.00024270549212667946 -0.0090455337996116613 0 -0.00030029075547698835 -0.0094755929371741227 0 -0.00019398234877059697 -0.0093845578839659403 0 -0.0017963946056475855 -0.01177305161341617 0 -0.0019726602070073416 -0.012797306008324585 0 -0.0025406570592505606 -0.012814807682147759 0 -0.0017963946056475855 -0.01177305161341617 0 -0.00084428386946010605 -0.012316507583978932 0 -0.0019726602070073416 -0.012797306008324585 0 -0.00030029075547698835 -0.0094755929371741227 0 -0.00019398234877059697 -0.0093845578839659403 0 -0.00029228827287285645 -0.010300992800981221 0 -0.00093446001332412698 -0.010591666902470893 0 -0.00027229614009300273 -0.010266423668933846 0 -0.0017963946056475855 -0.01177305161341617 0 -0.00084428386946010605 -0.012316507583978932 0 -0.00029228827287285645 -0.010300992800981221 0 -0.00029228827287285645 -0.010300992800981221 0 0.00023891599650410555 -0.012208407337000293 0 0.00098678892021223014 -0.011262822820865779 0 0.00090702654712934401 -0.01020151797043378 0 -0.00029228827287285645 -0.010300992800981221 0 0.00098678892021223014 -0.011262822820865779 0 -0.00084428386946010605 -0.012316507583978932 0 -0.00029228827287285645 -0.010300992800981221 0 0.00023891599650410555 -0.012208407337000293 0 -0.00084428386946010605 -0.012316507583978932 0 0.00023891599650410555 -0.012208407337000293 0 -0.00065580629995019011 -0.013173256577500318 0 0.00023891599650410555 -0.012208407337000293 0 -0.00065580629995019011 -0.013173256577500318 0 -1.6313332068286254e-05 -0.013489844552505289 0 0.00023891599650410555 -0.012208407337000293 0 -1.6313332068286254e-05 -0.013489844552505289 0 0.0007231009994139321 -0.013066078247942384 0 -1.6313332068286254e-05 -0.013489844552505289 0 0.00043160827814645963 -0.01423695964142687 0 0.0007231009994139321 -0.013066078247942384 0 -1.6313332068286254e-05 -0.013489844552505289 0 0.00043160827814645963 -0.01423695964142687 0 -0.00018254980443763321 -0.014760226504069421 0 -1.6313332068286254e-05 -0.013489844552505289 0 -0.00077779938000244013 -0.014068874854249779 0 -0.00018254980443763321 -0.014760226504069421 0 -0.00065580629995019011 -0.013173256577500318 0 -1.6313332068286254e-05 -0.013489844552505289 0 -0.00077779938000244013 -0.014068874854249779 0 -0.00077779938000244013 -0.014068874854249779 0 -0.0015441704008955874 -0.014081595359507303 0 -0.0010967486414817736 -0.014604801203806392 0 -0.00077779938000244013 -0.014068874854249779 0 -0.0015441704008955874 -0.014081595359507303 0 -0.0013964979624520256 -0.013348479901510831 0 -0.00065580629995019011 -0.013173256577500318 0 -0.00077779938000244013 -0.014068874854249779 0 -0.0013964979624520256 -0.013348479901510831 0 -0.0015441704008955874 -0.014081595359507303 0 -0.0013964979624520256 -0.013348479901510831 0 -0.0023102778228877357 -0.013542585413833432 0 -0.0015441704008955874 -0.014081595359507303 0 -0.0019729794965929392 -0.014231574594579209 0 -0.0023102778228877357 -0.013542585413833432 0 -0.0019726602070073416 -0.012797306008324585 0 -0.0013964979624520256 -0.013348479901510831 0 -0.0023102778228877357 -0.013542585413833432 0 -0.00084428386946010605 -0.012316507583978932 0 -0.0019726602070073416 -0.012797306008324585 0 -0.0013964979624520256 -0.013348479901510831 0 -0.00084428386946010605 -0.012316507583978932 0 -0.00065580629995019011 -0.013173256577500318 0 -0.0013964979624520256 -0.013348479901510831 0 0.00055350534772414509 -0.017937241758499454 0 0.00073073069621076446 -0.017962203847232731 0 0.00099722306454124755 -0.017603549012485838 0 0.00055350534772414509 -0.017937241758499454 0 0.00073073069621076446 -0.017962203847232731 0 0.00071322980057675551 -0.0181787523724205 0 0.00026447922556876188 -0.018131079814760368 0 0.00087466614660796401 -0.016922447250900439 0 0.00040463330817054464 -0.017500585904214251 0 0.00016915239890409327 -0.017386395450942761 0 0.00078213129245293083 -0.017059947195084846 0 0.00010488048622139744 -0.016606960588767108 0 0.00016915239890409327 -0.017386395450942761 0 0.00078213129245293083 -0.017059947195084846 0 0.0024691941444952817 -0.010692317652098139 0 0.0031089594516628548 -0.011666094921843931 0 0.0023514632936966246 -0.011530713967250956 0 0.0030817044761869404 -0.010321790457530103 0 0.0024691941444952817 -0.010692317652098139 0 0.0031089594516628548 -0.011666094921843931 0 0.0016859634309149814 -0.013275644144726012 0 0.0016451483644686199 -0.014474206218206356 0 0.0031089594516628548 -0.011666094921843931 0 0.0023044204467664413 -0.012320823151241479 0 0.0030450149196540252 -0.01323809170306497 0 0.0031089594516628548 -0.011666094921843931 0 0.0023044204467664413 -0.012320823151241479 0 0.0023514632936966246 -0.011530713967250956 0 0.00040463330817054464 -0.017500585904214251 0 0.00016915239890409327 -0.017386395450942761 0 0.0002066877266921288 -0.017835638829479323 0 0.0016451483644686199 -0.014474206218206356 0 0.001438225048581488 -0.015959461515458712 0 0.0023044204467664413 -0.012320823151241479 0 0.0017326174410049603 -0.011616164230590552 0 0.0014077781389979773 -0.012303256775629469 0 0.0023044204467664413 -0.012320823151241479 0 0.0017326174410049603 -0.011616164230590552 0 0.0023514632936966246 -0.011530713967250956 0 0.0024691941444952817 -0.010692317652098139 0 0.0023514632936966246 -0.011530713967250956 0 0.0018526010026790787 -0.010929814584474317 0 0.0017326174410049603 -0.011616164230590552 0 0.0023514632936966246 -0.011530713967250956 0 0.0018526010026790787 -0.010929814584474317 0 0.00090702654712934401 -0.01020151797043378 0 0.0018526010026790787 -0.010929814584474317 0 0.00098678892021223014 -0.011262822820865779 0 0.0017326174410049603 -0.011616164230590552 0 0.0018526010026790787 -0.010929814584474317 0 0.00098678892021223014 -0.011262822820865779 0 0.0017326174410049603 -0.011616164230590552 0 0.00098678892021223014 -0.011262822820865779 0 0.0014077781389979773 -0.012303256775629469 0 0.00023891599650410555 -0.012208407337000293 0 0.0014077781389979773 -0.012303256775629469 0 0.0007231009994139321 -0.013066078247942384 0 0.00023891599650410555 -0.012208407337000293 0 0.00098678892021223014 -0.011262822820865779 0 0.0014077781389979773 -0.012303256775629469 0 0.0014077781389979773 -0.012303256775629469 0 0.0007231009994139321 -0.013066078247942384 0 0.0012788978573127895 -0.01312426018519083 0 0.0012788978573127895 -0.01312426018519083 0 0.0010873533211681809 -0.013837619328521003 0 0.001927076166825178 -0.013305652299084257 0 0.0007231009994139321 -0.013066078247942384 0 0.0012788978573127895 -0.01312426018519083 0 0.0010873533211681809 -0.013837619328521003 0 0.00043160827814645963 -0.01423695964142687 0 0.0010873533211681809 -0.013837619328521003 0 0.00080677291819245965 -0.014962030586735014 0 0.00043160827814645963 -0.01423695964142687 0 0.0007231009994139321 -0.013066078247942384 0 0.0010873533211681809 -0.013837619328521003 0 0.0010873533211681809 -0.013837619328521003 0 0.0015940740801438102 -0.014292128171232347 0 0.00080677291819245965 -0.014962030586735014 0 0.0010873533211681809 -0.013837619328521003 0 0.0015940740801438102 -0.014292128171232347 0 0.001927076166825178 -0.013305652299084257 0 0.0015940740801438102 -0.014292128171232347 0 0.0024954027237687466 -0.014151523465208113 0 0.0016372436054485321 -0.015155398174468033 0 0.0024347148833397917 -0.014023182856220841 0 0.0016983346420341146 -0.015157431952822084 0 0.0015940740801438102 -0.014292128171232347 0 0.001927076166825178 -0.013305652299084257 0 0.0024954027237687466 -0.014151523465208113 0 0.0023044204467664413 -0.012320823151241479 0 0.0014077781389979773 -0.012303256775629469 0 0.001927076166825178 -0.013305652299084257 0 0.0014077781389979773 -0.012303256775629469 0 0.0012788978573127895 -0.01312426018519083 0 0.001927076166825178 -0.013305652299084257 0 0.001927076166825178 -0.013305652299084257 0 0.0030450149196540252 -0.01323809170306497 0 0.0024954027237687466 -0.014151523465208113 0 0.0023044204467664413 -0.012320823151241479 0 0.001927076166825178 -0.013305652299084257 0 0.0030450149196540252 -0.01323809170306497 0 0.001438225048581488 -0.015959461515458712 0 0.0016151625331742949 -0.016935885511380575 0 0.00064589832444309067 -0.018288158004738993 0 0.00083809267815101898 -0.018442192298645764 0 0.00099580531928397903 -0.018521484836063515 0 0.001438225048581488 -0.015959461515458712 0 0.0024347148833397917 -0.014023182856220841 0 0.0023287949871297641 -0.014031424529821571 0 0.0020157716733764683 -0.014606278744542881 0 0.0023062979261116736 -0.015304834589299392 0 0.00064589832444309067 -0.018288158004738993 0 0.00083809267815101898 -0.018442192298645764 0 0.0008353531958869352 -0.018350410615029598 0 0.00083809267815101898 -0.018442192298645764 0 0.0008353531958869352 -0.018350410615029598 0 0.00087195963742454029 -0.018459937328084413 0 0.00064589832444309067 -0.018288158004738993 0 0.0008353531958869352 -0.018350410615029598 0 0.00071322980057675551 -0.0181787523724205 0 0.00026447922556876188 -0.018131079814760368 0 0.001438225048581488 -0.015959461515458712 0 0.00055350534772414509 -0.017937241758499454 0 0.00064589832444309067 -0.018288158004738993 0 0.00071322980057675551 -0.0181787523724205 0 0.0008666448185899201 -0.018415567906521348 0 0.001322878125700679 -0.017663923679851534 0 0.00089649865545714453 -0.018393219214606172 0 0.0008666448185899201 -0.018415567906521348 0 0.00087177076873523379 -0.018486444160888019 0 0.00099580531928397903 -0.018521484836063515 0 0.0008666448185899201 -0.018415567906521348 0 0.00087177076873523379 -0.018486444160888019 0 0.00086554286200198126 -0.018519204421677534 0 0.00083809267815101898 -0.018442192298645764 0 0.00087177076873523379 -0.018486444160888019 0 0.00087195963742454029 -0.018459937328084413 0 0.00083809267815101898 -0.018442192298645764 0 0.00087177076873523379 -0.018486444160888019 0 0.00099580531928397903 -0.018521484836063515 0 0.0020157716733764683 -0.014606278744542881 0 0.0023062979261116736 -0.015304834589299392 0 0.0016372436054485321 -0.015155398174468033 0 0.0023062979261116736 -0.015304834589299392 0 0.0014222709662976975 -0.016021836707376513 0 0.0016372436054485321 -0.015155398174468033 0 0.0023062979261116736 -0.015304834589299392 0 0.0014222709662976975 -0.016021836707376513 0 0.001322878125700679 -0.017663923679851534 0 0.0016151625331742949 -0.016935885511380575 0 0.0013803362189388059 -0.017557791373788118 0 0.0008666448185899201 -0.018415567906521348 0 0.00099580531928397903 -0.018521484836063515 0 0.001322878125700679 -0.017663923679851534 0 0.00091920348641827735 -0.016445278589680756 0 0.0014222709662976975 -0.016021836707376513 0 0.001322878125700679 -0.017663923679851534 0 0.00091920348641827735 -0.016445278589680756 0 0.0014222709662976975 -0.016021836707376513 0 0.0010457783659301291 -0.015637156418787358 0 0.0015940740801438102 -0.014292128171232347 0 0.0016372436054485321 -0.015155398174468033 0 0.00080677291819245965 -0.014962030586735014 0 0.0016372436054485321 -0.015155398174468033 0 0.0010457783659301291 -0.015637156418787358 0 0.00080677291819245965 -0.014962030586735014 0 0.0014222709662976975 -0.016021836707376513 0 0.0016372436054485321 -0.015155398174468033 0 0.0010457783659301291 -0.015637156418787358 0 0.0010457783659301291 -0.015637156418787358 0 0.00080677291819245965 -0.014962030586735014 0 0.00044651494327705636 -0.015800417154917545 0 0.00043160827814645963 -0.01423695964142687 0 0.00080677291819245965 -0.014962030586735014 0 0.00028108217989248864 -0.015130398219191146 0 0.00080677291819245965 -0.014962030586735014 0 0.00044651494327705636 -0.015800417154917545 0 0.00028108217989248864 -0.015130398219191146 0 0.00091920348641827735 -0.016445278589680756 0 0.00044651494327705636 -0.015800417154917545 0 0.00034330061267827215 -0.016513300618359924 0 0.00091920348641827735 -0.016445278589680756 0 0.0010457783659301291 -0.015637156418787358 0 0.00044651494327705636 -0.015800417154917545 0 0.00063317992075128575 -0.017155181923600531 0 0.00034330061267827215 -0.016513300618359924 0 3.123454833743868e-05 -0.016871057671037162 0 0.00091920348641827735 -0.016445278589680756 0 0.00063317992075128575 -0.017155181923600531 0 0.00034330061267827215 -0.016513300618359924 0 0.00063317992075128575 -0.017155181923600531 0 0.00033421087587301663 -0.017416871368020736 0 3.123454833743868e-05 -0.016871057671037162 0 0.00033421087587301663 -0.017416871368020736 0 0.00073713248060175527 -0.017883103249544587 0 0.00030255510854314954 -0.017731877884950623 0 0.00063317992075128575 -0.017155181923600531 0 0.00073713248060175527 -0.017883103249544587 0 0.001322878125700679 -0.017663923679851534 0 0.00063317992075128575 -0.017155181923600531 0 0.00033421087587301663 -0.017416871368020736 0 0.00073713248060175527 -0.017883103249544587 0 0.00091920348641827735 -0.016445278589680756 0 0.00063317992075128575 -0.017155181923600531 0 0.001322878125700679 -0.017663923679851534 0 0.00073713248060175527 -0.017883103249544587 0 0.001322878125700679 -0.017663923679851534 0 0.0010132907427456556 -0.018185882291167493 0 0.001322878125700679 -0.017663923679851534 0 0.0010132907427456556 -0.018185882291167493 0 0.00096124820462808829 -0.018387265934408027 0 0.0010132907427456556 -0.018185882291167493 0 0.0009393253079465183 -0.018598014829431242 0 0.00096124820462808829 -0.018387265934408027 0 0.0009393253079465183 -0.018598014829431242 0 0.00096124820462808829 -0.018387265934408027 0 0.00089607698934865095 -0.018837229584530012 0 0.001322878125700679 -0.017663923679851534 0 0.00096124820462808829 -0.018387265934408027 0 0.00089649865545714453 -0.018393219214606172 0 -0.0010285798173884043 -0.015203791846210122 0 -0.00063645954805856785 -0.015779351864830524 0 -0.001225031461447825 -0.015693225822331774 0 -0.0010285798173884043 -0.015203791846210122 0 -0.0015233208672243439 -0.014875292904794897 0 -0.001225031461447825 -0.015693225822331774 0 -0.0015233208672243439 -0.014875292904794897 0 -0.001225031461447825 -0.015693225822331774 0 -0.001800435231998495 -0.015417719000417201 0 -0.0015233208672243439 -0.014875292904794897 0 -0.001800435231998495 -0.015417719000417201 0 -0.0020342086825072682 -0.014751319658402382 0 -0.0015441704008955874 -0.014081595359507303 0 -0.0015233208672243439 -0.014875292904794897 0 -0.0019729794965929392 -0.014231574594579209 0 -0.0015441704008955874 -0.014081595359507303 0 -0.0015233208672243439 -0.014875292904794897 0 -0.0010967486414817736 -0.014604801203806392 0 -0.0015233208672243439 -0.014875292904794897 0 -0.0020342086825072682 -0.014751319658402382 0 -0.0019729794965929392 -0.014231574594579209 0 -0.00077779938000244013 -0.014068874854249779 0 -0.0010967486414817736 -0.014604801203806392 0 -0.00064080982873227096 -0.015035477730378947 0 -0.0010285798173884043 -0.015203791846210122 0 -0.0015233208672243439 -0.014875292904794897 0 -0.0010967486414817736 -0.014604801203806392 0 -0.0010285798173884043 -0.015203791846210122 0 -0.0010967486414817736 -0.014604801203806392 0 -0.00064080982873227096 -0.015035477730378947 0 -0.00077779938000244013 -0.014068874854249779 0 -0.00064080982873227096 -0.015035477730378947 0 -0.00018254980443763321 -0.014760226504069421 0 -0.00064080982873227096 -0.015035477730378947 0 -0.00018254980443763321 -0.014760226504069421 0 -9.9057672837248872e-05 -0.015510904546424875 0 0.00043160827814645963 -0.01423695964142687 0 -0.00018254980443763321 -0.014760226504069421 0 0.00028108217989248864 -0.015130398219191146 0 -0.00018254980443763321 -0.014760226504069421 0 0.00028108217989248864 -0.015130398219191146 0 -9.9057672837248872e-05 -0.015510904546424875 0 0.00044651494327705636 -0.015800417154917545 0 0.00028108217989248864 -0.015130398219191146 0 -9.9057672837248872e-05 -0.015510904546424875 0 0.00044651494327705636 -0.015800417154917545 0 -9.9057672837248872e-05 -0.015510904546424875 0 -9.5116740267743021e-05 -0.016183513676467736 0 0.00044651494327705636 -0.015800417154917545 0 0.00034330061267827215 -0.016513300618359924 0 -9.5116740267743021e-05 -0.016183513676467736 0 -9.9057672837248872e-05 -0.015510904546424875 0 -0.00063645954805856785 -0.015779351864830524 0 -9.5116740267743021e-05 -0.016183513676467736 0 -0.0010285798173884043 -0.015203791846210122 0 -0.00064080982873227096 -0.015035477730378947 0 -0.00063645954805856785 -0.015779351864830524 0 -0.00064080982873227096 -0.015035477730378947 0 -9.9057672837248872e-05 -0.015510904546424875 0 -0.00063645954805856785 -0.015779351864830524 0 -0.00063645954805856785 -0.015779351864830524 0 -0.00047500811980133743 -0.016410616511403398 0 -0.0008858177950606008 -0.016215872298280181 0 -0.00063645954805856785 -0.015779351864830524 0 -0.00047500811980133743 -0.016410616511403398 0 -9.5116740267743021e-05 -0.016183513676467736 0 -0.00047500811980133743 -0.016410616511403398 0 -9.5116740267743021e-05 -0.016183513676467736 0 3.123454833743868e-05 -0.016871057671037162 0 0.00034330061267827215 -0.016513300618359924 0 -9.5116740267743021e-05 -0.016183513676467736 0 3.123454833743868e-05 -0.016871057671037162 0 3.123454833743868e-05 -0.016871057671037162 0 -0.00034032135964100777 -0.01693119675025153 0 -1.6408241246007914e-05 -0.017382491513249488 0 0.00033421087587301663 -0.017416871368020736 0 3.123454833743868e-05 -0.016871057671037162 0 -1.6408241246007914e-05 -0.017382491513249488 0 -0.00047500811980133743 -0.016410616511403398 0 3.123454833743868e-05 -0.016871057671037162 0 -0.00034032135964100777 -0.01693119675025153 0 -0.00047500811980133743 -0.016410616511403398 0 -0.00034032135964100777 -0.01693119675025153 0 -0.00072992866088708824 -0.016786699522719967 0 -0.00034032135964100777 -0.01693119675025153 0 -0.00072992866088708824 -0.016786699522719967 0 -0.00033029728180701957 -0.017259848555327365 0 -0.00072992866088708824 -0.016786699522719967 0 -0.0014436859634370687 -0.01627669476172753 0 -0.0011573081137180067 -0.016966274909650345 0 -0.00072992866088708824 -0.016786699522719967 0 -0.0008858177950606008 -0.016215872298280181 0 -0.0014436859634370687 -0.01627669476172753 0 -0.00047500811980133743 -0.016410616511403398 0 -0.00072992866088708824 -0.016786699522719967 0 -0.0008858177950606008 -0.016215872298280181 0 -0.00063645954805856785 -0.015779351864830524 0 -0.001225031461447825 -0.015693225822331774 0 -0.0008858177950606008 -0.016215872298280181 0 -0.001225031461447825 -0.015693225822331774 0 -0.0008858177950606008 -0.016215872298280181 0 -0.0014436859634370687 -0.01627669476172753 0 -0.001225031461447825 -0.015693225822331774 0 -0.001800435231998495 -0.015417719000417201 0 -0.0014436859634370687 -0.01627669476172753 0 -0.0014436859634370687 -0.01627669476172753 0 -0.0015725575615129265 -0.016711151269895294 0 -0.0011573081137180067 -0.016966274909650345 0 -0.0014436859634370687 -0.01627669476172753 0 -0.0015725575615129265 -0.016711151269895294 0 -0.0019020858902016437 -0.016432966644835779 0 -0.0015725575615129265 -0.016711151269895294 0 -0.0019020858902016437 -0.016432966644835779 0 -0.0017579801102982279 -0.017086243803429619 0 -0.0014436859634370687 -0.01627669476172753 0 -0.0019020858902016437 -0.016432966644835779 0 -0.0021514717485239376 -0.015775935640318102 0 -0.0015028984738130926 -0.015561900849517417 0 -0.0013855239935436077 -0.01670239528410843 0 -0.0019020858902016437 -0.016432966644835779 0 -0.0025804776676893225 -0.016311005876699734 0 -0.0017579801102982279 -0.017086243803429619 0 -0.0019020858902016437 -0.016432966644835779 0 -0.0025804776676893225 -0.016311005876699734 0 -0.0021514717485239376 -0.015775935640318102 0 -0.00070403353102129645 -0.01530619596722073 0 -0.0020655598133994201 -0.014241951273545501 0 -0.0017703002808657485 -0.01526116938854334 0 -0.00070403353102129645 -0.01530619596722073 0 -0.0017703002808657485 -0.01526116938854334 0 -0.0012439107328867482 -0.015925298922410212 0 -0.002933492580995403 -0.015207425785839526 0 -0.0021514717485239376 -0.015775935640318102 0 -0.0023545828434396749 -0.015043833731961481 0 -0.0015028984738130926 -0.015561900849517417 0 -0.0019650724695869128 -0.014149903481083515 0 -0.0016562452195031038 -0.014613480153348429 0 -0.0019036656298335138 -0.014140260814883929 0 -0.0020655598133994201 -0.014241951273545501 0 -0.0015028984738130926 -0.015561900849517417 0 -0.0024648003419161114 -0.01464427989701265 0 -0.0025804776676893225 -0.016311005876699734 0 -0.002933492580995403 -0.015207425785839526 0 -0.0021514717485239376 -0.015775935640318102 0 -0.001800435231998495 -0.015417719000417201 0 -0.0021514717485239376 -0.015775935640318102 0 -0.0023545828434396749 -0.015043833731961481 0 -0.001800435231998495 -0.015417719000417201 0 -0.0014436859634370687 -0.01627669476172753 0 -0.0021514717485239376 -0.015775935640318102 0 -0.001800435231998495 -0.015417719000417201 0 -0.0020342086825072682 -0.014751319658402382 0 -0.0023545828434396749 -0.015043833731961481 0 -0.0020342086825072682 -0.014751319658402382 0 -0.0023545828434396749 -0.015043833731961481 0 -0.002436369228202501 -0.014459422991806054 0 -0.002933492580995403 -0.015207425785839526 0 -0.0023545828434396749 -0.015043833731961481 0 -0.0026547110812519784 -0.014477274830485052 0 -0.0026547110812519784 -0.014477274830485052 0 -0.002436369228202501 -0.014459422991806054 0 -0.0026756179506148021 -0.0140316030025875 0 -0.0023545828434396749 -0.015043833731961481 0 -0.0026547110812519784 -0.014477274830485052 0 -0.002436369228202501 -0.014459422991806054 0 -0.002436369228202501 -0.014459422991806054 0 -0.0026756179506148021 -0.0140316030025875 0 -0.0023844474592196107 -0.014002929782105057 0 -0.0026756179506148021 -0.0140316030025875 0 -0.0023844474592196107 -0.014002929782105057 0 -0.0027101013146195634 -0.013696081140680621 0 -0.0020342086825072682 -0.014751319658402382 0 -0.002436369228202501 -0.014459422991806054 0 -0.0023844474592196107 -0.014002929782105057 0 -0.0020342086825072682 -0.014751319658402382 0 -0.0023844474592196107 -0.014002929782105057 0 -0.0019729794965929392 -0.014231574594579209 0 -0.0027247625032684182 -0.013535016918641028 0 -0.0027073623654134491 -0.013838542529856465 0 -0.0027252241425721811 -0.01343109821479165 0 -0.0027247625032684182 -0.013535016918641028 0 -0.0024966452199149574 -0.013273968867029846 0 -0.0025578872799461899 -0.013419198751581299 0 -0.0027247625032684182 -0.013535016918641028 0 -0.0027252241425721811 -0.01343109821479165 0 -0.0024966452199149574 -0.013273968867029846 0 -0.0027247625032684182 -0.013535016918641028 0 -0.0027282776314530304 -0.013584939680958674 0 -0.0025578872799461899 -0.013419198751581299 0 -0.0027247625032684182 -0.013535016918641028 0 -0.0027282776314530304 -0.013584939680958674 0 -0.002758103669274042 -0.013707442437719953 0 -0.0026756179506148021 -0.0140316030025875 0 -0.002758103669274042 -0.013707442437719953 0 -0.0027101013146195634 -0.013696081140680621 0 -0.0026756179506148021 -0.0140316030025875 0 -0.002758103669274042 -0.013707442437719953 0 -0.0027073623654134491 -0.013838542529856465 0 -0.0027247625032684182 -0.013535016918641028 0 -0.002758103669274042 -0.013707442437719953 0 -0.0027073623654134491 -0.013838542529856465 0 -0.002933492580995403 -0.015207425785839526 0 -0.0026547110812519784 -0.014477274830485052 0 -0.0027073623654134491 -0.013838542529856465 0 -0.0019036656298335138 -0.014140260814883929 0 -0.0027073623654134491 -0.013838542529856465 0 -0.0024167655174290809 -0.013952196839666522 0 -0.0024648003419161114 -0.01464427989701265 0 -0.0026409261772720651 -0.014027843581817934 0 -0.0027073623654134491 -0.013838542529856465 0 -0.0024167655174290809 -0.013952196839666522 0 -0.0027252241425721811 -0.01343109821479165 0 -0.0026547110812519784 -0.014477274830485052 0 -0.0026756179506148021 -0.0140316030025875 0 -0.0027073623654134491 -0.013838542529856465 0 -0.0027252241425721811 -0.01343109821479165 0 -0.0025464060673804547 -0.012752795166708438 0 -0.0024078826904191429 -0.012959063449521637 0 -0.0024167655174290809 -0.013952196839666522 0 -0.0027252241425721811 -0.01343109821479165 0 -0.002705505686757299 -0.014641321944822027 0 -0.0027252241425721811 -0.01343109821479165 0 -0.0024078826904191429 -0.012959063449521637 0 -0.0024966452199149574 -0.013273968867029846 0 -0.0026856230713788762 -0.013538272777047076 0 -0.0028883503056994493 -0.013407760490377812 0 -0.0027252241425721811 -0.01343109821479165 0 -0.0027702891614136286 -0.012557679628128243 0 -0.0025464060673804547 -0.012752795166708438 0 -0.0027702891614136286 -0.012557679628128243 0 -0.0025464060673804547 -0.012752795166708438 0 -0.0025597460509928266 -0.012406951217925524 0 -0.002705505686757299 -0.014641321944822027 0 -0.0020655598133994201 -0.014241951273545501 0 -0.0017703002808657485 -0.01526116938854334 0 -0.0024167655174290809 -0.013952196839666522 0 -0.002705505686757299 -0.014641321944822027 0 -0.0020655598133994201 -0.014241951273545501 0 -0.0019036656298335138 -0.014140260814883929 0 -0.0024167655174290809 -0.013952196839666522 0 -0.0020655598133994201 -0.014241951273545501 0 -0.002705505686757299 -0.014641321944822027 0 -0.0017703002808657485 -0.01526116938854334 0 -0.0023025601704995836 -0.016291403245170762 0 -0.0027702891614136286 -0.012557679628128243 0 -0.0025597460509928266 -0.012406951217925524 0 -0.0027623264408279443 -0.012100069936531937 0 -0.0028883503056994493 -0.013407760490377812 0 -0.0013450337574219691 -0.014979281266253039 0 -0.002335062752434306 -0.012394670134239751 0 -0.0021898395580089614 -0.012246167434899839 0 -0.0024915307776702117 -0.012167895424049448 0 -0.0025597460509928266 -0.012406951217925524 0 -0.002335062752434306 -0.012394670134239751 0 -0.0024915307776702117 -0.012167895424049448 0 -0.0025597460509928266 -0.012406951217925524 0 -0.002335062752434306 -0.012394670134239751 0 -0.0023708624535423678 -0.012614723233384579 0 -0.002335062752434306 -0.012394670134239751 0 -0.0021892233084078627 -0.01253816330563718 0 -0.0023708624535423678 -0.012614723233384579 0 -0.002335062752434306 -0.012394670134239751 0 -0.0021258257411111035 -0.01238002563816148 0 -0.0021892233084078627 -0.01253816330563718 0 -0.002335062752434306 -0.012394670134239751 0 -0.0021258257411111035 -0.01238002563816148 0 -0.0021898395580089614 -0.012246167434899839 0 -0.0018927183813147047 -0.012236904157151236 0 -0.0014424360171988223 -0.012618001701246695 0 -0.00131769380932647 -0.011886195975890948 0 -0.0014424360171988223 -0.012618001701246695 0 -0.0021258257411111035 -0.01238002563816148 0 -0.001764627333148631 -0.012349750225210081 0 -0.0021781756534193131 -0.012270732217046951 0 -0.0021258257411111035 -0.01238002563816148 0 -0.0020027395486662929 -0.012485049829257097 0 -0.001764627333148631 -0.012349750225210081 0 -0.0021258257411111035 -0.01238002563816148 0 -0.0020027395486662929 -0.012485049829257097 0 -0.0021892233084078627 -0.01253816330563718 0 -0.0021892233084078627 -0.01253816330563718 0 -0.002050954462548253 -0.012621033973560982 0 -0.0021882196800865131 -0.01271505264252081 0 -0.0020027395486662929 -0.012485049829257097 0 -0.0021892233084078627 -0.01253816330563718 0 -0.002050954462548253 -0.012621033973560982 0 -0.0020027395486662929 -0.012485049829257097 0 -0.002050954462548253 -0.012621033973560982 0 -0.0018919996848151474 -0.01254076237589077 0 -0.002050954462548253 -0.012621033973560982 0 -0.0020444823712523906 -0.012767256530637826 0 -0.001919062131582413 -0.012709784832719184 0 -0.0020444823712523906 -0.012767256530637826 0 -0.0021882196800865131 -0.01271505264252081 0 -0.0021554596825348609 -0.012889877577165971 0 -0.002050954462548253 -0.012621033973560982 0 -0.0020444823712523906 -0.012767256530637826 0 -0.0021882196800865131 -0.01271505264252081 0 -0.0021882196800865131 -0.01271505264252081 0 -0.0023708624535423678 -0.012614723233384579 0 -0.0024078826904191429 -0.012959063449521637 0 -0.0025464060673804547 -0.012752795166708438 0 -0.0025597460509928266 -0.012406951217925524 0 -0.0023708624535423678 -0.012614723233384579 0 -0.0025464060673804547 -0.012752795166708438 0 -0.0023708624535423678 -0.012614723233384579 0 -0.0024078826904191429 -0.012959063449521637 0 -0.0021892233084078627 -0.01253816330563718 0 -0.0021882196800865131 -0.01271505264252081 0 -0.0023708624535423678 -0.012614723233384579 0 -0.00072990986281519054 -0.00826157432232477 0 -0.00131769380932647 -0.011886195975890948 0 -0.0012409618386649078 -0.010824479962597453 0 -0.00082110022721561347 -0.01082093365238164 0 -0.0010726877344599188 -0.011212894902957682 0 -0.0013131580820077474 -0.012406476881328388 0 -0.001764627333148631 -0.012349750225210081 0 -0.0015957606511084895 -0.01251563242876213 0 -0.0015754472722828558 -0.010674703470851277 0 -0.0012409618386649078 -0.010824479962597453 0 -0.0010726877344599188 -0.011212894902957682 0 -0.0014951433150068299 -0.010589143973096453 0 -0.0012409618386649078 -0.010824479962597453 0 -0.00082110022721561347 -0.01082093365238164 0 -0.0020027395486662929 -0.012485049829257097 0 -0.001764627333148631 -0.012349750225210081 0 -0.0018919996848151474 -0.01254076237589077 0 -0.001764627333148631 -0.012349750225210081 0 -0.0018919996848151474 -0.01254076237589077 0 -0.0017573773973293561 -0.012594898642819593 0 -0.002050954462548253 -0.012621033973560982 0 -0.0018919996848151474 -0.01254076237589077 0 -0.001919062131582413 -0.012709784832719184 0 -0.0018919996848151474 -0.01254076237589077 0 -0.001919062131582413 -0.012709784832719184 0 -0.0017573773973293561 -0.012594898642819593 0 -0.001919062131582413 -0.012709784832719184 0 -0.0017573773973293561 -0.012594898642819593 0 -0.0018516835766445464 -0.012776873929091909 0 -0.0017573773973293561 -0.012594898642819593 0 -0.0015731966730468782 -0.012708259972920525 0 -0.0018516835766445464 -0.012776873929091909 0 -0.001764627333148631 -0.012349750225210081 0 -0.0017573773973293561 -0.012594898642819593 0 -0.0015957606511084895 -0.01251563242876213 0 -0.0013131580820077474 -0.012406476881328388 0 -0.0015957606511084895 -0.01251563242876213 0 -0.0015731966730468782 -0.012708259972920525 0 -0.00072990986281519054 -0.00826157432232477 0 -0.0011664939735576709 -0.0061029561809744573 0 -0.0017573773973293561 -0.012594898642819593 0 -0.0015957606511084895 -0.01251563242876213 0 -0.0015731966730468782 -0.012708259972920525 0 -0.00085065128735778309 2.6825976856057026e-06 0 -0.00089056036887553286 2.7538939561447812e-05 0 -0.00088866475413388474 0.00015494783674707899 0 -0.00095567510494064527 0.00010482910396816566 0 -0.00085065128735778309 2.6825976856057026e-06 0 -0.00088866475413388474 0.00015494783674707899 0 -0.00097051163416161132 -1.3971717172232642e-05 0 -0.00095567510494064527 0.00010482910396816566 0 -0.00085065128735778309 2.6825976856057026e-06 0 -0.0015731966730468782 -0.012708259972920525 0 -0.0018516835766445464 -0.012776873929091909 0 -0.0019623601322437583 -0.012986764547463279 0 -0.0011664939735576709 -0.0061029561809744573 0 -0.0014719711094408471 -0.0065304376160802736 0 -0.001919062131582413 -0.012709784832719184 0 -0.0018516835766445464 -0.012776873929091909 0 -0.0019952501016774812 -0.012870692218520574 0 -0.0019623601322437583 -0.012986764547463279 0 -0.0019952501016774812 -0.012870692218520574 0 -0.0019954354105602432 -0.012898012774621107 0 -0.0018516835766445464 -0.012776873929091909 0 -0.0019623601322437583 -0.012986764547463279 0 -0.0019952501016774812 -0.012870692218520574 0 -0.00089056036887553286 2.7538939561447812e-05 0 -0.00071361090707298741 4.8498543035797951e-05 0 -0.00083940666340332458 0.00014836443368709321 0 -0.0019623601322437583 -0.012986764547463279 0 -0.0019954354105602432 -0.012898012774621107 0 -0.0019555470002575815 -0.012596784361573561 0 -0.00089056036887553286 2.7538939561447812e-05 0 -0.00087913294027464333 0.00018803817725562843 0 -0.00083940666340332458 0.00014836443368709321 0 -0.00089056036887553286 2.7538939561447812e-05 0 -0.00087913294027464333 0.00018803817725562843 0 -0.00088866475413388474 0.00015494783674707899 0 -0.00087913294027464333 0.00018803817725562843 0 -0.00088866475413388474 0.00015494783674707899 0 -0.00087340584709147894 0.00033468205843359189 0 -0.0022778745445074839 -0.013053002504883967 0 -0.0024078826904191429 -0.012959063449521637 0 -0.0024966452199149574 -0.013273968867029846 0 -0.0022778745445074839 -0.013053002504883967 0 -0.0024078826904191429 -0.012959063449521637 0 -0.0021554596825348609 -0.012889877577165971 0 -0.0021882196800865131 -0.01271505264252081 0 -0.0024078826904191429 -0.012959063449521637 0 -0.0021554596825348609 -0.012889877577165971 0 -0.0020444823712523906 -0.012767256530637826 0 -0.001919062131582413 -0.012709784832719184 0 -0.0019952501016774812 -0.012870692218520574 0 -0.0020444823712523906 -0.012767256530637826 0 -0.0021554596825348609 -0.012889877577165971 0 -0.0019952501016774812 -0.012870692218520574 0 -0.0019952501016774812 -0.012870692218520574 0 -0.0020971311996664092 -0.012946615473791227 0 -0.0019954354105602432 -0.012898012774621107 0 -0.0021554596825348609 -0.012889877577165971 0 -0.0019952501016774812 -0.012870692218520574 0 -0.0020971311996664092 -0.012946615473791227 0 -0.0022778745445074839 -0.013053002504883967 0 -0.0021554596825348609 -0.012889877577165971 0 -0.0020971311996664092 -0.012946615473791227 0 -0.0020971311996664092 -0.012946615473791227 0 -0.0020787976926072041 -0.012922120348302429 0 -0.0019954354105602432 -0.012898012774621107 0 -0.0020971311996664092 -0.012946615473791227 0 -0.0020787976926072041 -0.012922120348302429 0 -0.0022734219183550581 -0.013117195792733356 0 -0.0019623601322437583 -0.012986764547463279 0 -0.0019555470002575815 -0.012596784361573561 0 -0.0019872027932762988 -0.012146171794206346 0 -0.0014719711094408471 -0.0065304376160802736 0 -0.0011721561393771638 -0.00570703086140497 0 -0.0020787976926072041 -0.012922120348302429 0 -0.0019954354105602432 -0.012898012774621107 0 -0.0019555470002575815 -0.012596784361573561 0 -0.0020787976926072041 -0.012922120348302429 0 -0.0022270224988237943 -0.013087267366328216 0 -0.0022734219183550581 -0.013117195792733356 0 -0.0020787976926072041 -0.012922120348302429 0 -0.0019555470002575815 -0.012596784361573561 0 -0.0022270224988237943 -0.013087267366328216 0 -0.0022270224988237943 -0.013087267366328216 0 -0.0022734219183550581 -0.013117195792733356 0 -0.0024001917093433045 -0.013311600763802877 0 -0.0022778745445074839 -0.013053002504883967 0 -0.0022734219183550581 -0.013117195792733356 0 -0.0024966452199149574 -0.013273968867029846 0 -0.0022778745445074839 -0.013053002504883967 0 -0.0020971311996664092 -0.012946615473791227 0 -0.0022734219183550581 -0.013117195792733356 0 -0.0022734219183550581 -0.013117195792733356 0 -0.0024966452199149574 -0.013273968867029846 0 -0.0025578872799461899 -0.013419198751581299 0 -0.0022734219183550581 -0.013117195792733356 0 -0.0024001917093433045 -0.013311600763802877 0 -0.0025578872799461899 -0.013419198751581299 0 -0.0024001917093433045 -0.013311600763802877 0 -0.0025578872799461899 -0.013419198751581299 0 -0.002540131427224339 -0.013490349589439782 0 -0.0024001917093433045 -0.013311600763802877 0 -0.002540131427224339 -0.013490349589439782 0 -0.002520760417515902 -0.013689720965509493 0 -0.0011721561393771638 -0.00570703086140497 0 -0.0012610498021447915 -0.0072405027859068077 0 -0.0019555470002575815 -0.012596784361573561 0 -0.0022270224988237943 -0.013087267366328216 0 -0.002520760417515902 -0.013689720965509493 0 -0.0018405204545953833 -0.011408987256780027 0 -0.0019872027932762988 -0.012146171794206346 0 -0.0019049752488511213 -0.011050007159099425 0 -0.0018405204545953833 -0.011408987256780027 0 -0.0017478902335098846 -0.011423340478565393 0 -0.0019872027932762988 -0.012146171794206346 0 -0.002540131427224339 -0.013490349589439782 0 -0.002520760417515902 -0.013689720965509493 0 -0.0026395150048992688 -0.013573670362569196 0 -0.0018405204545953833 -0.011408987256780027 0 -0.0017478902335098846 -0.011423340478565393 0 -0.0015640410457664678 -0.010847259147645779 0 -0.0014537266884344748 -0.011312336582937677 0 -0.0012610498021447915 -0.0072405027859068077 0 -0.0022270224988237943 -0.013087267366328216 0 -0.0024001917093433045 -0.013311600763802877 0 -0.002520760417515902 -0.013689720965509493 0 -0.0019555470002575815 -0.012596784361573561 0 -0.0017478902335098846 -0.011423340478565393 0 -0.0019872027932762988 -0.012146171794206346 0 -0.00071361090707298741 4.8498543035797951e-05 0 -0.00060912892396927383 0.00030255021704328082 0 -0.00033527395865639171 0.00028611462047404564 0 -0.0020499318465596215 -0.012631957225075759 0 -0.002165280064755751 -0.012546013454602994 0 -0.00071361090707298741 4.8498543035797951e-05 0 -0.00060912892396927383 0.00030255021704328082 0 -0.00077454426524720035 0.00026079285182568121 0 -0.00060912892396927383 0.00030255021704328082 0 -0.0005268242672196293 0.00049316853575915448 0 -0.00033527395865639171 0.00028611462047404564 0 -0.00060912892396927383 0.00030255021704328082 0 -0.00069903523962900282 0.00047497485837176681 0 -0.00077454426524720035 0.00026079285182568121 0 -0.00060912892396927383 0.00030255021704328082 0 -0.00069903523962900282 0.00047497485837176681 0 -0.0005268242672196293 0.00049316853575915448 0 -0.0005268242672196293 0.00049316853575915448 0 -0.00033527395865639171 0.00028611462047404564 0 -0.00033947280733686067 0.00067207515425951408 0 -0.0012610498021447915 -0.0072405027859068077 0 -0.00090997310682424109 -0.0040144075420016599 0 -0.0018405204545953833 -0.011408987256780027 0 -0.0020220991243372157 -0.01074132725187173 0 -0.0015640410457664678 -0.010847259147645779 0 -0.0010859133119299033 0.0004480566574424186 0 -0.00087340584709147894 0.00033468205843359189 0 -0.00089357460884623911 0.00027343148938674682 0 -0.00087913294027464333 0.00018803817725562843 0 -0.00087340584709147894 0.00033468205843359189 0 -0.00089357460884623911 0.00027343148938674682 0 -0.00089357460884623911 0.00027343148938674682 0 -0.00083940666340332458 0.00014836443368709321 0 -0.00077454426524720035 0.00026079285182568121 0 -0.00087913294027464333 0.00018803817725562843 0 -0.00089357460884623911 0.00027343148938674682 0 -0.00083940666340332458 0.00014836443368709321 0 -0.00071361090707298741 4.8498543035797951e-05 0 -0.00083940666340332458 0.00014836443368709321 0 -0.00077454426524720035 0.00026079285182568121 0 -0.00089357460884623911 0.00027343148938674682 0 -0.00077454426524720035 0.00026079285182568121 0 -0.00090322565080297543 0.00048144294231788117 0 -0.00069903523962900282 0.00047497485837176681 0 -0.00077454426524720035 0.00026079285182568121 0 -0.00090322565080297543 0.00048144294231788117 0 -0.0010859133119299033 0.0004480566574424186 0 -0.00089357460884623911 0.00027343148938674682 0 -0.00090322565080297543 0.00048144294231788117 0 -0.0010859133119299033 0.0004480566574424186 0 -0.00090322565080297543 0.00048144294231788117 0 -0.0010232289758014606 0.00063658454950266347 0 -0.0011984174959474914 0.00079204839264828038 0 -0.0010232289758014606 0.00063658454950266347 0 -0.00084177307658058387 0.00082998430453469886 0 -0.00090322565080297543 0.00048144294231788117 0 -0.0010232289758014606 0.00063658454950266347 0 -0.00084177307658058387 0.00082998430453469886 0 -0.00092147621424696442 0.0014277286894596776 0 -0.00094209603122542363 0.00075495140158648197 0 -0.00069903523962900282 0.00047497485837176681 0 -0.00084177307658058387 0.00082998430453469886 0 -0.0006163597662194023 0.00073792432254460088 0 -0.00069903523962900282 0.00047497485837176681 0 -0.00090322565080297543 0.00048144294231788117 0 -0.00084177307658058387 0.00082998430453469886 0 -0.00084177307658058387 0.00082998430453469886 0 -0.00073463492553639618 0.0011249956100635244 0 -0.0006163597662194023 0.00073792432254460088 0 -0.00084177307658058387 0.00082998430453469886 0 -0.00073463492553639618 0.0011249956100635244 0 -0.0011135250032510815 0.001410412050368434 0 -0.0015774870615873292 0.0020265109241345025 0 -0.0012285046241521712 0.0013108677961852003 0 -0.0012109400431185801 0.0011988135775691361 0 -0.00084177307658058387 0.00082998430453469886 0 -0.0011135250032510815 0.001410412050368434 0 -0.001629521452498444 -0.0097758125771246623 0 -0.0016655555776665804 -0.0094986346636021391 0 -0.0012625896149736639 -0.0096069287391457973 0 -0.0005268242672196293 0.00049316853575915448 0 -0.00033947280733686067 0.00067207515425951408 0 -0.0006163597662194023 0.00073792432254460088 0 -0.00069903523962900282 0.00047497485837176681 0 -0.0005268242672196293 0.00049316853575915448 0 -0.0006163597662194023 0.00073792432254460088 0 -0.0015774870615873292 0.0020265109241345025 0 -0.0028617000490533521 -0.0036908512446351166 0 -0.00073463492553639618 0.0011249956100635244 0 -0.0006163597662194023 0.00073792432254460088 0 -0.00036340874820216658 0.0010253669649143507 0 -0.00033947280733686067 0.00067207515425951408 0 -0.0006163597662194023 0.00073792432254460088 0 -0.00036340874820216658 0.0010253669649143507 0 -0.00090997310682424109 -0.0040144075420016599 0 -0.0028617000490533521 -0.0036908512446351166 0 -0.0016655555776665804 -0.0094986346636021391 0 -0.0017524161912101342 -0.0090432081676989524 0 -0.0014822046868811735 -0.0093103491101223894 0 -0.0017524161912101342 -0.0090432081676989524 0 -0.0014822046868811735 -0.0093103491101223894 0 -0.0012210549125386194 -0.0090626939869202314 0 -0.0028617000490533521 -0.0036908512446351166 0 -0.0021005902902838142 -0.0091346470224284246 0 -0.0014822046868811735 -0.0093103491101223894 0 -0.0012210549125386194 -0.0090626939869202314 0 -0.0012625896149736639 -0.0096069287391457973 0 -0.0016655555776665804 -0.0094986346636021391 0 -0.0014822046868811735 -0.0093103491101223894 0 -0.0012625896149736639 -0.0096069287391457973 0 -0.0012625896149736639 -0.0096069287391457973 0 -0.0007667469523820852 -0.0094900484101747493 0 -0.00086251391250644549 -0.010366164198753998 0 -0.0012210549125386194 -0.0090626939869202314 0 -0.0012625896149736639 -0.0096069287391457973 0 -0.0007667469523820852 -0.0094900484101747493 0 -0.000652888423190174 -0.0090937081871634851 0 -0.0012210549125386194 -0.0090626939869202314 0 -0.0007667469523820852 -0.0094900484101747493 0 -0.00075132465261374163 -0.0087955397404100681 0 -0.0021005902902838142 -0.0091346470224284246 0 -0.000652888423190174 -0.0090937081871634851 0 -0.0007667469523820852 -0.0094900484101747493 0 -0.0004214975897327545 -0.0093422877897921704 0 -0.00024270549212667946 -0.0090455337996116613 0 -0.000652888423190174 -0.0090937081871634851 0 -0.0004214975897327545 -0.0093422877897921704 0 -0.00024270549212667946 -0.0090455337996116613 0 -0.00019398234877059697 -0.0093845578839659403 0 -0.0004214975897327545 -0.0093422877897921704 0 -0.00093446001332412698 -0.010591666902470893 0 -0.0014540010803119757 -0.01124884382865639 0 -0.00019398234877059697 -0.0093845578839659403 0 -0.0004214975897327545 -0.0093422877897921704 0 -0.00037217333232427959 -0.0096946034770324756 0 -0.0007667469523820852 -0.0094900484101747493 0 -0.0004214975897327545 -0.0093422877897921704 0 -0.00037217333232427959 -0.0096946034770324756 0 -0.0007667469523820852 -0.0094900484101747493 0 -0.00037217333232427959 -0.0096946034770324756 0 -0.00086251391250644549 -0.010366164198753998 0 -0.0014540010803119757 -0.01124884382865639 0 -0.0018559768579056487 -0.011931974247074468 0 -0.0025406570592505606 -0.012814807682147759 0 -0.0026313983509720375 -0.013398300514984227 0 -0.0028594568365919323 -0.013491354297673097 0 -0.0025406570592505606 -0.012814807682147759 0 -0.0026313983509720375 -0.013398300514984227 0 -0.0023102778228877357 -0.013542585413833432 0 -0.0019726602070073416 -0.012797306008324585 0 -0.0025406570592505606 -0.012814807682147759 0 -0.0023102778228877357 -0.013542585413833432 0 -0.0023844474592196107 -0.014002929782105057 0 -0.0019729794965929392 -0.014231574594579209 0 -0.0023102778228877357 -0.013542585413833432 0 -0.0026313983509720375 -0.013398300514984227 0 -0.0027101013146195634 -0.013696081140680621 0 -0.0028594568365919323 -0.013491354297673097 0 -0.0023844474592196107 -0.014002929782105057 0 -0.0023102778228877357 -0.013542585413833432 0 -0.0027101013146195634 -0.013696081140680621 0 -0.0026313983509720375 -0.013398300514984227 0 -0.0023102778228877357 -0.013542585413833432 0 -0.0027101013146195634 -0.013696081140680621 0 -0.002758103669274042 -0.013707442437719953 0 -0.0027101013146195634 -0.013696081140680621 0 -0.0027757148837147414 -0.013586071025567178 0 -0.0027101013146195634 -0.013696081140680621 0 -0.0027757148837147414 -0.013586071025567178 0 -0.0028594568365919323 -0.013491354297673097 0 -0.0027282776314530304 -0.013584939680958674 0 -0.002758103669274042 -0.013707442437719953 0 -0.0027757148837147414 -0.013586071025567178 0 -0.002165280064755751 -0.012546013454602994 0 -0.0018559768579056487 -0.011931974247074468 0 -0.002520760417515902 -0.013689720965509493 0 -0.0027757148837147414 -0.013586071025567178 0 -0.0028594568365919323 -0.013491354297673097 0 -0.002520760417515902 -0.013689720965509493 0 -0.0027757148837147414 -0.013586071025567178 0 -0.0026395150048992688 -0.013573670362569196 0 -0.0027282776314530304 -0.013584939680958674 0 -0.0027757148837147414 -0.013586071025567178 0 -0.0026395150048992688 -0.013573670362569196 0 -0.0027282776314530304 -0.013584939680958674 0 -0.0025578872799461899 -0.013419198751581299 0 -0.0026395150048992688 -0.013573670362569196 0 -0.0025578872799461899 -0.013419198751581299 0 -0.002540131427224339 -0.013490349589439782 0 -0.0026395150048992688 -0.013573670362569196 0 -0.0017478902335098846 -0.011423340478565393 0 -0.0015640410457664678 -0.010847259147645779 0 -0.00086251391250644549 -0.010366164198753998 0 -0.0013880668285733615 -0.01035009899669311 0 -0.0015640410457664678 -0.010847259147645779 0 -0.00086251391250644549 -0.010366164198753998 0 -0.0020220991243372157 -0.01074132725187173 0 -0.0013880668285733615 -0.01035009899669311 0 -0.0015640410457664678 -0.010847259147645779 0 -0.0012610498021447915 -0.0072405027859068077 0 -0.0017141498756522101 -0.010744409505317572 0 -0.0012625896149736639 -0.0096069287391457973 0 -0.0013880668285733615 -0.01035009899669311 0 -0.00086251391250644549 -0.010366164198753998 0 -0.0020220991243372157 -0.01074132725187173 0 -0.0012625896149736639 -0.0096069287391457973 0 -0.0013880668285733615 -0.01035009899669311 0 0.00049263670620137967 -0.022813494102693652 0 -0.00026155757219591483 -0.022650405217832768 0 0.00012409630121911898 -0.023016319793595662 0 0.00049263670620137967 -0.022813494102693652 0 0.00071895181658286069 -0.023033105904331982 0 0.00012409630121911898 -0.023016319793595662 0 0.00016924234341645936 -0.02315649220715732 0 1.9030588206727983e-05 -0.024178124672707038 0 6.4413790940646409e-08 -0.024999803939852985 0 -8.922022040252773e-06 -0.024997236261405327 0 -1.9331907755671878e-05 -0.024956471313706308 0 -8.0981314367863043e-05 -0.023671019507264246 0 0.00021400500539724431 -0.023714556710678528 0 4.6132003569357718e-05 -0.023923725503788008 0 1.631272266050769e-07 -0.024998302477971242 0 1.9030588206727983e-05 -0.024178124672707038 0 1.9030588206727983e-05 -0.024178124672707038 0 0.00012558497533162876 -0.024608328793506985 0 7.8447564988726169e-11 -0.024999991295581326 0 8.20319573090291e-10 -0.02499999692436463 0 1.2227731676084942e-07 -0.024999646551113787 0 7.8447564988726169e-11 -0.024999991295581326 0 7.0329526565704833e-08 -0.024998673891460634 0 1.2227731676084942e-07 -0.024999646551113787 0 0.00021400500539724431 -0.023714556710678528 0 4.6132003569357718e-05 -0.023923725503788008 0 0.00027533053422365181 -0.024153501571772325 0 4.6132003569357718e-05 -0.023923725503788008 0 1.946655742807511e-05 -0.02430578673515214 0 0.00027533053422365181 -0.024153501571772325 0 4.6132003569357718e-05 -0.023923725503788008 0 -0.00012650449840905832 -0.02411973850810676 0 1.946655742807511e-05 -0.02430578673515214 0 4.6132003569357718e-05 -0.023923725503788008 0 -0.00010357942890001487 -0.023797437343022452 0 -0.00012650449840905832 -0.02411973850810676 0 -8.0981314367863043e-05 -0.023671019507264246 0 4.6132003569357718e-05 -0.023923725503788008 0 -0.00010357942890001487 -0.023797437343022452 0 -0.00010357942890001487 -0.023797437343022452 0 -8.7893177109865152e-05 -0.023637683404708613 0 -8.919923761399384e-05 -0.023640514362887218 0 -0.00025819705835321494 -0.02391462980642748 0 -9.281462627228907e-05 -0.024074129041339393 0 -0.00010357942890001487 -0.023797437343022452 0 -8.7893177109865152e-05 -0.023637683404708613 0 -0.00012650449840905832 -0.02411973850810676 0 -0.00041843081706706214 -0.024053936053169963 0 -0.00059385974021276431 -0.023970930364204536 0 -0.00057198654916869708 -0.024081642388965749 0 -0.00025819705835321494 -0.02391462980642748 0 -0.0001454400658997834 -0.02329093193079149 0 -8.7893177109865152e-05 -0.023637683404708613 0 -4.1185850015820486e-05 -0.023524755143205563 0 -5.4518213418240486e-05 -0.023463774623180292 0 -8.7893177109865152e-05 -0.023637683404708613 0 -4.1185850015820486e-05 -0.023524755143205563 0 -8.919923761399384e-05 -0.023640514362887218 0 0.00032282199456102619 -0.023293311884592847 0 0.00017855289328041893 -0.023185953378588833 0 -4.1185850015820486e-05 -0.023524755143205563 0 -5.5302290579659977e-05 -0.023551164299998442 0 0.00020343027105578274 -0.0231571659453426 0 -4.1185850015820486e-05 -0.023524755143205563 0 -5.5302290579659977e-05 -0.023551164299998442 0 -8.919923761399384e-05 -0.023640514362887218 0 0.00049263670620137967 -0.022813494102693652 0 0.00075994079999320413 -0.023076518751704928 0 0.00071895181658286069 -0.023033105904331982 0 0.00016924234341645936 -0.02315649220715732 0 0.00032282199456102619 -0.023293311884592847 0 -8.0981314367863043e-05 -0.023671019507264246 0 -5.5302290579659977e-05 -0.023551164299998442 0 -8.919923761399384e-05 -0.023640514362887218 0 -8.0981314367863043e-05 -0.023671019507264246 0 -0.00010357942890001487 -0.023797437343022452 0 -8.919923761399384e-05 -0.023640514362887218 0 0.00071895181658286069 -0.023033105904331982 0 0.00083920261574389266 -0.023090334272745424 0 0.00039387511500041936 -0.02353611357404408 0 0.00075994079999320413 -0.023076518751704928 0 0.00071895181658286069 -0.023033105904331982 0 0.00083920261574389266 -0.023090334272745424 0 0.00075994079999320413 -0.023076518751704928 0 0.00055589959723278861 -0.022885537952932317 0 0.00083920261574389266 -0.023090334272745424 0 0.00075994079999320413 -0.023076518751704928 0 0.00055589959723278861 -0.022885537952932317 0 0.00020343027105578274 -0.0231571659453426 0 0.00055589959723278861 -0.022885537952932317 0 0.00048533785157386651 -0.022532392505665778 0 0.00083920261574389266 -0.023090334272745424 0 0.00048533785157386651 -0.022532392505665778 0 0.00083920261574389266 -0.023090334272745424 0 0.00049057020971271569 -0.02209662369197983 0 0.00081367225734709197 -0.023159036746462615 0 0.00064714522198434574 -0.023421497100449537 0 0.00083920261574389266 -0.023090334272745424 0 0.00039387511500041936 -0.02353611357404408 0 0.00069875121346852644 -0.024637709680207814 0 0.00039387511500041936 -0.02353611357404408 0 -8.9229259931863288e-05 -0.024809589882685154 0 0.00069875121346852644 -0.024637709680207814 0 6.4413790940646409e-08 -0.024999803939852985 0 -1.9331907755671878e-05 -0.024956471313706308 0 -2.969147546062054e-07 -0.024999663728058587 0 0.00071895181658286069 -0.023033105904331982 0 0.00039387511500041936 -0.02353611357404408 0 0.00012409630121911898 -0.023016319793595662 0 -0.00026155757219591483 -0.022650405217832768 0 0.00012409630121911898 -0.023016319793595662 0 -0.00027491070019569467 -0.02339994777978854 0 1.9030588206727983e-05 -0.024178124672707038 0 -0.00015707956731184447 -0.024120974347512543 0 0.00039387511500041936 -0.02353611357404408 0 0.00012409630121911898 -0.023016319793595662 0 -0.00027491070019569467 -0.02339994777978854 0 0.00039387511500041936 -0.02353611357404408 0 -0.00027491070019569467 -0.02339994777978854 0 -8.9229259931863288e-05 -0.024809589882685154 0 -0.00015707956731184447 -0.024120974347512543 0 -9.059574467481546e-05 -0.024780167454901008 0 -8.9229259931863288e-05 -0.024809589882685154 0 -2.9335187784274485e-06 -0.02500490840132448 0 0.00010972195415656888 -0.025000313271782391 0 -8.9229259931863288e-05 -0.024809589882685154 0 -2.969147546062054e-07 -0.024999663728058587 0 -2.9335187784274485e-06 -0.02500490840132448 0 -1.9331907755671878e-05 -0.024956471313706308 0 -8.9229259931863288e-05 -0.024809589882685154 0 -2.969147546062054e-07 -0.024999663728058587 0 -8.9229259931863288e-05 -0.024809589882685154 0 0.00027160486728561821 -0.024931009061245173 0 0.00010972195415656888 -0.025000313271782391 0 -8.9229259931863288e-05 -0.024809589882685154 0 0.00027160486728561821 -0.024931009061245173 0 0.00069875121346852644 -0.024637709680207814 0 0.0002234022715714172 -0.02375258289431072 0 0.00064714522198434574 -0.023421497100449537 0 0.00027160486728561821 -0.024931009061245173 0 0.00035181519709358484 -0.025275978724632778 0 0.00069875121346852644 -0.024637709680207814 0 0.00027160486728561821 -0.024931009061245173 0 0.00035181519709358484 -0.025275978724632778 0 0.00014395398611881938 -0.025162819455076705 0 -2.969147546062054e-07 -0.024999663728058587 0 -2.9335187784274485e-06 -0.02500490840132448 0 3.5139227204755741e-07 -0.024972750835955508 0 -9.8212104828263262e-06 -0.024986971913821029 0 7.8256470794392001e-05 -0.025291374682851055 0 -2.9335187784274485e-06 -0.02500490840132448 0 0.00014395398611881938 -0.025162819455076705 0 8.0425418658970505e-05 -0.025368929201668621 0 -2.9335187784274485e-06 -0.02500490840132448 0 0.00010972195415656888 -0.025000313271782391 0 0.00014395398611881938 -0.025162819455076705 0 0.00027160486728561821 -0.024931009061245173 0 0.00010972195415656888 -0.025000313271782391 0 0.00014395398611881938 -0.025162819455076705 0 0.00035181519709358484 -0.025275978724632778 0 0.00014395398611881938 -0.025162819455076705 0 8.0425418658970505e-05 -0.025368929201668621 0 7.8256470794392001e-05 -0.025291374682851055 0 1.1597916987932914e-05 -0.024481068314848194 0 -2.969147546062054e-07 -0.024999663728058587 0 3.5139227204755741e-07 -0.024972750835955508 0 4.877353225905641e-07 -0.024998989165147985 0 0.00035181519709358484 -0.025275978724632778 0 8.0425418658970505e-05 -0.025368929201668621 0 0.00016329935653673852 -0.025649737311009654 0 7.380578035590655e-05 -0.022167000357871083 0 -0.00039228483647422416 -0.023264697914649496 0 0.00016867141226847336 -0.022677954992393379 0 0.0002234022715714172 -0.02375258289431072 0 1.1597916987932914e-05 -0.024481068314848194 0 -1.325023708137054e-06 -0.02413290617610386 0 -0.00039228483647422416 -0.023264697914649496 0 0.00016867141226847336 -0.022677954992393379 0 -1.8052129534911926e-07 -0.024134864038095682 0 1.1597916987932914e-05 -0.024481068314848194 0 3.5139227204755741e-07 -0.024972750835955508 0 4.877353225905641e-07 -0.024998989165147985 0 -1.7054921207568706e-05 -0.024857323224568559 0 -7.1301124578912016e-07 -0.024463310523361072 0 4.877353225905641e-07 -0.024998989165147985 0 -1.7054921207568706e-05 -0.024857323224568559 0 -3.1659026689265951e-09 -0.024136611272973323 0 3.8004974461180619e-09 -0.024460002738275269 0 4.7369678596748934e-07 -0.024278486837370394 0 1.2888251557022652e-08 -0.02446146151340808 0 1.1597916987932914e-05 -0.024481068314848194 0 9.9876918502772783e-07 -0.022742996765512724 0 0.00026520840769630457 -0.02209294996672936 0 2.6147938163854644e-07 -0.021350767752394046 0 -1.325023708137054e-06 -0.02413290617610386 0 9.9876918502772783e-07 -0.022742996765512724 0 0.00016867141226847336 -0.022677954992393379 0 9.9876918502772783e-07 -0.022742996765512724 0 0.00016867141226847336 -0.022677954992393379 0 0.00026520840769630457 -0.02209294996672936 0 7.380578035590655e-05 -0.022167000357871083 0 0.00016867141226847336 -0.022677954992393379 0 0.00039997462619134605 -0.022059755684375539 0 0.00016867141226847336 -0.022677954992393379 0 0.00026520840769630457 -0.02209294996672936 0 0.00039997462619134605 -0.022059755684375539 0 0.00026520840769630457 -0.02209294996672936 0 0.00037452570012646099 -0.021870635384856625 0 0.00024914657338054693 -0.021534496338378679 0 0.00026520840769630457 -0.02209294996672936 0 0.00037452570012646099 -0.021870635384856625 0 0.00039997462619134605 -0.022059755684375539 0 0.00037452570012646099 -0.021870635384856625 0 0.00039997462619134605 -0.022059755684375539 0 0.00049057020971271569 -0.02209662369197983 0 0.00037452570012646099 -0.021870635384856625 0 0.00049057020971271569 -0.02209662369197983 0 0.00029835093044929456 -0.021705106086073903 0 7.380578035590655e-05 -0.022167000357871083 0 0.00039997462619134605 -0.022059755684375539 0 0.00068262633517473929 -0.022165469892174786 0 0.00083920261574389266 -0.023090334272745424 0 0.00068262633517473929 -0.022165469892174786 0 0.00049057020971271569 -0.02209662369197983 0 0.00039997462619134605 -0.022059755684375539 0 0.00068262633517473929 -0.022165469892174786 0 0.00049057020971271569 -0.02209662369197983 0 0.00048533785157386651 -0.022532392505665778 0 0.00049057020971271569 -0.02209662369197983 0 0.00030772332553917947 -0.022130565386785726 0 0.00049057020971271569 -0.02209662369197983 0 0.00030772332553917947 -0.022130565386785726 0 0.00029835093044929456 -0.021705106086073903 0 0.00030772332553917947 -0.022130565386785726 0 0.00010723195516779623 -0.021705407695346405 0 0.00029835093044929456 -0.021705106086073903 0 0.00030772332553917947 -0.022130565386785726 0 0.00010723195516779623 -0.021705407695346405 0 0.00012353365320840395 -0.022165943515850856 0 0.00010723195516779623 -0.021705407695346405 0 -0.00011681123808760585 -0.022137679199345266 0 0.00012353365320840395 -0.022165943515850856 0 0.00010723195516779623 -0.021705407695346405 0 0.00017861208275741998 -0.021247382320414444 0 -3.5618423909432835e-05 -0.021233590906442189 0 0.00010723195516779623 -0.021705407695346405 0 0.00017861208275741998 -0.021247382320414444 0 0.00029835093044929456 -0.021705106086073903 0 0.00037452570012646099 -0.021870635384856625 0 0.00029835093044929456 -0.021705106086073903 0 0.00024914657338054693 -0.021534496338378679 0 0.00017861208275741998 -0.021247382320414444 0 0.00029835093044929456 -0.021705106086073903 0 0.00024914657338054693 -0.021534496338378679 0 0.00017861208275741998 -0.021247382320414444 0 0.00014032372283477343 -0.020938578421307946 0 4.6241375174927922e-05 -0.020573686718940273 0 0.00017861208275741998 -0.021247382320414444 0 0.00024914657338054693 -0.021534496338378679 0 0.00014032372283477343 -0.020938578421307946 0 0.00014032372283477343 -0.020938578421307946 0 2.6147938163854644e-07 -0.021350767752394046 0 5.0533090068381819e-07 -0.019959015498586172 0 0.00024914657338054693 -0.021534496338378679 0 0.00014032372283477343 -0.020938578421307946 0 2.6147938163854644e-07 -0.021350767752394046 0 0.00026520840769630457 -0.02209294996672936 0 0.00024914657338054693 -0.021534496338378679 0 2.6147938163854644e-07 -0.021350767752394046 0 5.0533090068381819e-07 -0.019959015498586172 0 -7.2260772183163957e-05 -0.019687868845808414 0 -1.0757958338805652e-06 -0.018566732228352291 0 5.0533090068381819e-07 -0.019959015498586172 0 4.6241375174927922e-05 -0.020573686718940273 0 -7.2260772183163957e-05 -0.019687868845808414 0 0.00014032372283477343 -0.020938578421307946 0 5.0533090068381819e-07 -0.019959015498586172 0 4.6241375174927922e-05 -0.020573686718940273 0 4.6241375174927922e-05 -0.020573686718940273 0 -7.2260772183163957e-05 -0.019687868845808414 0 -0.00010569463229787653 -0.020612887759868141 0 -7.2260772183163957e-05 -0.019687868845808414 0 -0.00010569463229787653 -0.020612887759868141 0 -0.00053559259027848006 -0.020898482781465295 0 -0.00010569463229787653 -0.020612887759868141 0 -0.00027289800625889259 -0.021212613394466076 0 -0.00053559259027848006 -0.020898482781465295 0 0.00017861208275741998 -0.021247382320414444 0 4.6241375174927922e-05 -0.020573686718940273 0 -3.5618423909432835e-05 -0.021233590906442189 0 4.6241375174927922e-05 -0.020573686718940273 0 -0.00010569463229787653 -0.020612887759868141 0 -3.5618423909432835e-05 -0.021233590906442189 0 -0.00010569463229787653 -0.020612887759868141 0 -0.00027289800625889259 -0.021212613394466076 0 -3.5618423909432835e-05 -0.021233590906442189 0 0.00010723195516779623 -0.021705407695346405 0 -0.00024276790636491849 -0.021692311779668814 0 -0.00011681123808760585 -0.022137679199345266 0 -0.00027289800625889259 -0.021212613394466076 0 -3.5618423909432835e-05 -0.021233590906442189 0 -0.00024276790636491849 -0.021692311779668814 0 0.00010723195516779623 -0.021705407695346405 0 -3.5618423909432835e-05 -0.021233590906442189 0 -0.00024276790636491849 -0.021692311779668814 0 -0.00024276790636491849 -0.021692311779668814 0 -0.000525449002654674 -0.021495069014257823 0 -0.00030057206034589889 -0.021857458236306412 0 -0.00027289800625889259 -0.021212613394466076 0 -0.00024276790636491849 -0.021692311779668814 0 -0.000525449002654674 -0.021495069014257823 0 -0.00027289800625889259 -0.021212613394466076 0 -0.000525449002654674 -0.021495069014257823 0 -0.00053559259027848006 -0.020898482781465295 0 -0.00030057206034589889 -0.021857458236306412 0 -0.00045540782225411339 -0.022180550374935017 0 -0.001000327043488464 -0.021810523831221392 0 -0.00064510997122262949 -0.022321936244435518 0 -0.00084754193066430565 -0.022777662745493969 0 -0.00034086691215855084 -0.022661749043553767 0 0.00035951284092335985 -0.021095349027721262 0 0.00041156337512771783 -0.020985530321556076 0 0.00080741698110545343 -0.021276656036767878 0 0.0016610079066678122 -0.01972563031615359 0 0.00038753036842149966 -0.021884441671090805 0 -0.00053789290293595527 -0.022271109659488367 0 0.0002168046711643976 -0.021497925504674303 0 0.0002168046711643976 -0.021497925504674303 0 0.00038753036842149966 -0.021884441671090805 0 0.0016610079066678122 -0.01972563031615359 0 0.0002168046711643976 -0.021497925504674303 0 -0.00034086691215855084 -0.022661749043553767 0 -1.8141623526502696e-05 -0.022912838361567201 0 -0.00041063255288228056 -0.02308539338285898 0 -0.00084754193066430565 -0.022777662745493969 0 -0.00034086691215855084 -0.022661749043553767 0 -0.00041063255288228056 -0.02308539338285898 0 -0.00034086691215855084 -0.022661749043553767 0 -0.00011681123808760585 -0.022137679199345266 0 -3.3631843797183623e-06 -0.022488984114293984 0 -0.00064510997122262949 -0.022321936244435518 0 -0.00034086691215855084 -0.022661749043553767 0 -0.00011681123808760585 -0.022137679199345266 0 -0.00024276790636491849 -0.021692311779668814 0 -0.00064510997122262949 -0.022321936244435518 0 -0.00011681123808760585 -0.022137679199345266 0 -0.00025978944892094102 -0.02169919773765273 0 -0.00053789290293595527 -0.022271109659488367 0 -0.00011681123808760585 -0.022137679199345266 0 0.00012353365320840395 -0.022165943515850856 0 -3.3631843797183623e-06 -0.022488984114293984 0 0.00012353365320840395 -0.022165943515850856 0 -3.3631843797183623e-06 -0.022488984114293984 0 0.00024848584376984322 -0.022612326155907744 0 0.00048533785157386651 -0.022532392505665778 0 0.00030772332553917947 -0.022130565386785726 0 0.00024848584376984322 -0.022612326155907744 0 0.00030772332553917947 -0.022130565386785726 0 0.00012353365320840395 -0.022165943515850856 0 0.00024848584376984322 -0.022612326155907744 0 0.00055589959723278861 -0.022885537952932317 0 0.00048533785157386651 -0.022532392505665778 0 0.00024848584376984322 -0.022612326155907744 0 0.00055589959723278861 -0.022885537952932317 0 0.00024848584376984322 -0.022612326155907744 0 0.00020343027105578274 -0.0231571659453426 0 0.00024848584376984322 -0.022612326155907744 0 0.00020343027105578274 -0.0231571659453426 0 -1.8141623526502696e-05 -0.022912838361567201 0 -0.00034086691215855084 -0.022661749043553767 0 -3.3631843797183623e-06 -0.022488984114293984 0 -1.8141623526502696e-05 -0.022912838361567201 0 -3.3631843797183623e-06 -0.022488984114293984 0 0.00024848584376984322 -0.022612326155907744 0 -1.8141623526502696e-05 -0.022912838361567201 0 0.00021134561717644151 -0.02250716374930814 0 0.00021029168874099759 -0.022504982284997931 0 0.00022321637845706602 -0.022499461546431558 0 9.035889475171077e-05 -0.022874736299310354 0 -0.0001454400658997834 -0.02329093193079149 0 0.00021134561717644151 -0.02250716374930814 0 0.00021029168874099759 -0.022504982284997931 0 0.00019482782602520511 -0.022515381058426459 0 -1.8141623526502696e-05 -0.022912838361567201 0 -2.7461279487651067e-05 -0.023245201536656723 0 -0.00041063255288228056 -0.02308539338285898 0 0.00020343027105578274 -0.0231571659453426 0 -1.8141623526502696e-05 -0.022912838361567201 0 -2.7461279487651067e-05 -0.023245201536656723 0 0.00054950139249457003 -0.02205412506486229 0 -0.0001454400658997834 -0.02329093193079149 0 4.0825359385367423e-05 -0.023475686936226321 0 -0.0001454400658997834 -0.02329093193079149 0 0.00020343027105578274 -0.0231571659453426 0 -2.7461279487651067e-05 -0.023245201536656723 0 0.00012935503332054676 -0.023324501111243442 0 -4.1185850015820486e-05 -0.023524755143205563 0 0.00020343027105578274 -0.0231571659453426 0 0.00012935503332054676 -0.023324501111243442 0 0.00054950139249457003 -0.02205412506486229 0 0.0007737713374244042 -0.02275580491236651 0 -0.0006814112618081196 -0.023951035741280876 0 -0.00059385974021276431 -0.023970930364204536 0 -0.00057198654916869708 -0.024081642388965749 0 0.0015905798373998671 -0.020989423293416309 0 0.0021313665161602339 -0.021317395167281653 0 0.001660370037702109 -0.021428745804875766 0 0.0015905798373998671 -0.020989423293416309 0 0.0012004883155067282 -0.021280981432520725 0 0.001660370037702109 -0.021428745804875766 0 0.0015905798373998671 -0.020989423293416309 0 0.0012004883155067282 -0.021280981432520725 0 0.0011143001514942457 -0.021075786982990147 0 0.0012004883155067282 -0.021280981432520725 0 0.0010493328446839984 -0.021181753134974928 0 0.00094882748575194232 -0.021069688873765237 0 0.0010493328446839984 -0.021181753134974928 0 0.0011143001514942457 -0.021075786982990147 0 0.0012414148563153211 -0.021334811701982502 0 0.0012004883155067282 -0.021280981432520725 0 0.0010493328446839984 -0.021181753134974928 0 0.0011143001514942457 -0.021075786982990147 0 0.0014361394714005114 -0.020812537135433833 0 0.0012603530693919933 -0.020577709572883646 0 0.0018365713710588039 -0.020564785070987794 0 0.0016610079066678122 -0.01972563031615359 0 0.0022716101004048813 -0.01968375232357682 0 0.0015985518030032075 -0.021057074068866623 0 0.0014361394714005114 -0.020812537135433833 0 0.0011483680182911528 -0.020898129735108517 0 0.0015985518030032075 -0.021057074068866623 0 0.0014361394714005114 -0.020812537135433833 0 0.0018365713710588039 -0.020564785070987794 0 0.0011875022265298062 -0.020838031242778075 0 0.0022716101004048813 -0.01968375232357682 0 9.035889475171077e-05 -0.022874736299310354 0 0.00038753036842149966 -0.021884441671090805 0 0.00069469622907555016 -0.020596522623647383 0 0.0011483680182911528 -0.020898129735108517 0 0.0012603530693919933 -0.020577709572883646 0 0.0014361394714005114 -0.020812537135433833 0 0.0011483680182911528 -0.020898129735108517 0 0.0012603530693919933 -0.020577709572883646 0 0.00054950139249457003 -0.02205412506486229 0 0.00038753036842149966 -0.021884441671090805 0 0.00054950139249457003 -0.02205412506486229 0 0.0011875022265298062 -0.020838031242778075 0 0.0025528727632770157 -0.018240505207020238 0 0.0029553435337546516 -0.018433159501587627 0 0.002525675177283197 -0.018740432528279692 0 0.0025528727632770157 -0.018240505207020238 0 0.0028909723054001573 -0.0181331883534839 0 0.0029553435337546516 -0.018433159501587627 0 0.0025528727632770157 -0.018240505207020238 0 0.0020857324636339575 -0.018413311853717491 0 0.0021800079032437305 -0.01794595287424261 0 0.0025528727632770157 -0.018240505207020238 0 0.002248283798651037 -0.018668969849266949 0 0.0020857324636339575 -0.018413311853717491 0 0.0025528727632770157 -0.018240505207020238 0 0.0021800079032437305 -0.01794595287424261 0 0.0025644920647059448 -0.017747577724584008 0 0.0025528727632770157 -0.018240505207020238 0 0.0028914897544212747 -0.017815093205770568 0 0.0028909723054001573 -0.0181331883534839 0 0.0025528727632770157 -0.018240505207020238 0 0.0028914897544212747 -0.017815093205770568 0 0.0025644920647059448 -0.017747577724584008 0 0.0036180917214343991 -0.017721374241450736 0 0.0031587626342330405 -0.018046662041517322 0 0.0033097482040258365 -0.018415146112104437 0 0.0028914897544212747 -0.017815093205770568 0 0.0028909723054001573 -0.0181331883534839 0 0.0031587626342330405 -0.018046662041517322 0 0.0022716101004048813 -0.01968375232357682 0 0.0030383527044507623 -0.019100352459141431 0 0.0031587626342330405 -0.018046662041517322 0 0.0033097482040258365 -0.018415146112104437 0 0.0029553435337546516 -0.018433159501587627 0 0.0028909723054001573 -0.0181331883534839 0 0.0031587626342330405 -0.018046662041517322 0 0.0029553435337546516 -0.018433159501587627 0 0.0029553435337546516 -0.018433159501587627 0 0.002878039379110246 -0.019098118703227591 0 0.002525675177283197 -0.018740432528279692 0 0.0010493328446839984 -0.021181753134974928 0 0.0012414148563153211 -0.021334811701982502 0 0.0016482304602052193 -0.021068401041530845 0 0.0032962212992916451 -0.01843943917249017 0 0.0029553435337546516 -0.018433159501587627 0 0.002878039379110246 -0.019098118703227591 0 0.0010493328446839984 -0.021181753134974928 0 0.0016482304602052193 -0.021068401041530845 0 0.00094882748575194232 -0.021069688873765237 0 0.0022716101004048813 -0.01968375232357682 0 0.0022362132051289272 -0.020043639482931447 0 0.002878039379110246 -0.019098118703227591 0 0.002525675177283197 -0.018740432528279692 0 0.0021358913355899942 -0.019114307995669873 0 0.0025528727632770157 -0.018240505207020238 0 0.002525675177283197 -0.018740432528279692 0 0.002248283798651037 -0.018668969849266949 0 0.002525675177283197 -0.018740432528279692 0 0.002248283798651037 -0.018668969849266949 0 0.0021358913355899942 -0.019114307995669873 0 0.002248283798651037 -0.018668969849266949 0 0.0021358913355899942 -0.019114307995669873 0 0.00196492584347639 -0.018806918226683733 0 0.0021358913355899942 -0.019114307995669873 0 0.00196492584347639 -0.018806918226683733 0 0.0017228058306097201 -0.019116736999602164 0 0.00196492584347639 -0.018806918226683733 0 0.0016585057476517021 -0.018692756174504884 0 0.0017228058306097201 -0.019116736999602164 0 0.00196492584347639 -0.018806918226683733 0 0.0016585057476517021 -0.018692756174504884 0 0.0020857324636339575 -0.018413311853717491 0 0.002248283798651037 -0.018668969849266949 0 0.00196492584347639 -0.018806918226683733 0 0.0020857324636339575 -0.018413311853717491 0 0.0013667137087585456 -0.018810030374609505 0 0.0016585057476517021 -0.018692756174504884 0 0.0017228058306097201 -0.019116736999602164 0 0.0013667137087585456 -0.018810030374609505 0 0.0016585057476517021 -0.018692756174504884 0 0.0012511855348173015 -0.01843676488855173 0 0.0016585057476517021 -0.018692756174504884 0 0.0012511855348173015 -0.01843676488855173 0 0.0017201028215316268 -0.018189066030325492 0 0.0012511855348173015 -0.01843676488855173 0 0.0013865080017354578 -0.017890214507019338 0 0.0017201028215316268 -0.018189066030325492 0 0.0013865080017354578 -0.017890214507019338 0 0.0017201028215316268 -0.018189066030325492 0 0.0018100677455903545 -0.017558565628220953 0 0.0012511855348173015 -0.01843676488855173 0 0.0013865080017354578 -0.017890214507019338 0 0.0008961983511931057 -0.017770180423407878 0 0.0020857324636339575 -0.018413311853717491 0 0.0017201028215316268 -0.018189066030325492 0 0.0021800079032437305 -0.01794595287424261 0 0.0016585057476517021 -0.018692756174504884 0 0.0020857324636339575 -0.018413311853717491 0 0.0017201028215316268 -0.018189066030325492 0 0.0017201028215316268 -0.018189066030325492 0 0.0021800079032437305 -0.01794595287424261 0 0.0018100677455903545 -0.017558565628220953 0 0.0022693471744541708 -0.017423626949086796 0 0.0018100677455903545 -0.017558565628220953 0 0.0018805071598448201 -0.016438570776543728 0 0.0021800079032437305 -0.01794595287424261 0 0.0022693471744541708 -0.017423626949086796 0 0.0018100677455903545 -0.017558565628220953 0 0.0018100677455903545 -0.017558565628220953 0 0.0013076265027909552 -0.01728857084820928 0 0.0018805071598448201 -0.016438570776543728 0 0.0013076265027909552 -0.01728857084820928 0 0.0018805071598448201 -0.016438570776543728 0 0.00067933385349694874 -0.016516150801648397 0 0.0008961983511931057 -0.017770180423407878 0 0.0013076265027909552 -0.01728857084820928 0 0.00065522409766996233 -0.017203712313627786 0 0.0013865080017354578 -0.017890214507019338 0 0.0008961983511931057 -0.017770180423407878 0 0.0013076265027909552 -0.01728857084820928 0 0.0013865080017354578 -0.017890214507019338 0 0.0018100677455903545 -0.017558565628220953 0 0.0013076265027909552 -0.01728857084820928 0 0.0013076265027909552 -0.01728857084820928 0 0.00067933385349694874 -0.016516150801648397 0 0.00065522409766996233 -0.017203712313627786 0 0.0021814047212997292 -0.01606156356716805 0 3.1456348294809184e-05 -0.015170953149243199 0 0.0018805071598448201 -0.016438570776543728 0 2.2675949084919269e-05 -0.015100749239591345 0 0.00067933385349694874 -0.016516150801648397 0 0.0023402393374695545 -0.015845880472178487 0 0.0015388725386647126 -0.014575451316082368 0 2.2675949084919269e-05 -0.015100749239591345 0 0.0023402393374695545 -0.015845880472178487 0 0.0035874646059620495 -0.01571107519028167 0 0.0030162553386940344 -0.014600483215603767 0 0.0023402393374695545 -0.015845880472178487 0 0.0035874646059620495 -0.01571107519028167 0 0.0044889966913640531 -0.016660735923452588 0 0.0035874646059620495 -0.01571107519028167 0 0.0044961841213347307 -0.015726389649922769 0 0.0030162553386940344 -0.014600483215603767 0 0.0011282058928454273 -0.018363061434556349 0 0.0015442079458279092 -0.015054054059052637 0 0.0021814047212997292 -0.01606156356716805 0 0.0031441161778099419 -0.017409771631634176 0 0.0035874646059620495 -0.01571107519028167 0 0.0044961841213347307 -0.015726389649922769 0 0.0044889966913640531 -0.016660735923452588 0 0.0011282058928454273 -0.018363061434556349 0 0.0031441161778099419 -0.017409771631634176 0 0.0022693471744541708 -0.017423626949086796 0 0.0018805071598448201 -0.016438570776543728 0 0.0029909886768405333 -0.017279773564295706 0 0.0022693471744541708 -0.017423626949086796 0 0.0029909886768405333 -0.017279773564295706 0 0.0025644920647059448 -0.017747577724584008 0 0.0028914897544212747 -0.017815093205770568 0 0.0029909886768405333 -0.017279773564295706 0 0.0025644920647059448 -0.017747577724584008 0 0.0029755487499955576 -0.017690779227124611 0 0.0031441161778099419 -0.017409771631634176 0 0.0021800079032437305 -0.01794595287424261 0 0.0022693471744541708 -0.017423626949086796 0 0.0025644920647059448 -0.017747577724584008 0 0.0018327200844268357 -0.019414513495250835 0 0.0018783380753302551 -0.019317506491271268 0 0.0013364742659382222 -0.019207623572672052 0 0.0028914897544212747 -0.017815093205770568 0 0.0031587626342330405 -0.018046662041517322 0 0.0028834413420157148 -0.01742135568839907 0 0.0016610079066678122 -0.01972563031615359 0 0.0031441161778099419 -0.017409771631634176 0 0.0018783380753302551 -0.019317506491271268 0 0.0013377042312192457 -0.018912489633599757 0 0.0013364742659382222 -0.019207623572672052 0 0.0036180917214343991 -0.017721374241450736 0 0.0031587626342330405 -0.018046662041517322 0 0.0028834413420157148 -0.01742135568839907 0 -0.000525449002654674 -0.021495069014257823 0 -0.00030057206034589889 -0.021857458236306412 0 -0.001000327043488464 -0.021810523831221392 0 0.0002168046711643976 -0.021497925504674303 0 0.0011282058928454273 -0.018363061434556349 0 -0.000525449002654674 -0.021495069014257823 0 -0.0010749368919119348 -0.021238032128894968 0 -0.00053559259027848006 -0.020898482781465295 0 -0.000525449002654674 -0.021495069014257823 0 -0.001000327043488464 -0.021810523831221392 0 -0.0010749368919119348 -0.021238032128894968 0 -0.00030414975945215674 -0.016189867704729341 0 -3.5515391651072333e-05 -0.016316072953437708 0 1.2893918704402043e-05 -0.016105630274442544 0 0.0011282058928454273 -0.018363061434556349 0 -0.0007806714593105137 -0.018808591266253158 0 -0.00027172658279886214 -0.015936436286146254 0 -0.00030414975945215674 -0.016189867704729341 0 1.2893918704402043e-05 -0.016105630274442544 0 -3.5515391651072333e-05 -0.016316072953437708 0 -0.00042258752928148196 -0.016590766103850893 0 0.00014914595630845066 -0.016516480381291335 0 -0.00030414975945215674 -0.016189867704729341 0 -3.5515391651072333e-05 -0.016316072953437708 0 -0.00042258752928148196 -0.016590766103850893 0 -0.0007806714593105137 -0.018808591266253158 0 -0.00067457478652999266 -0.018390061521507066 0 -0.0010749368919119348 -0.021238032128894968 0 -0.00053559259027848006 -0.020898482781465295 0 -0.0010468979447677133 -0.020183568665838109 0 -0.00067457478652999266 -0.018390061521507066 0 -0.00049445987672193891 -0.018209614384666298 0 -7.2260772183163957e-05 -0.019687868845808414 0 -0.0010468979447677133 -0.020183568665838109 0 -0.0003987838734205183 -0.01814209163650727 0 -7.2260772183163957e-05 -0.019687868845808414 0 -0.00053559259027848006 -0.020898482781465295 0 -0.0010468979447677133 -0.020183568665838109 0 -0.00042258752928148196 -0.016590766103850893 0 8.3867890637451958e-07 -0.017161141505214635 0 0.00014914595630845066 -0.016516480381291335 0 -0.00042258752928148196 -0.016590766103850893 0 8.3867890637451958e-07 -0.017161141505214635 0 -0.0003987838734205183 -0.01814209163650727 0 8.3867890637451958e-07 -0.017161141505214635 0 -0.0003987838734205183 -0.01814209163650727 0 -1.2181480756612185e-07 -0.017174386368462802 0 -1.0757958338805652e-06 -0.018566732228352291 0 -0.0003987838734205183 -0.01814209163650727 0 -1.2181480756612185e-07 -0.017174386368462802 0 -7.2260772183163957e-05 -0.019687868845808414 0 -1.0757958338805652e-06 -0.018566732228352291 0 -0.0003987838734205183 -0.01814209163650727 0 4.9353063637297294e-07 -0.015782213664899732 0 0.00011300933046119311 -0.016570690359774359 0 0.00016658512444116743 -0.016066871134784434 0 4.9353063637297294e-07 -0.015782213664899732 0 -1.2181480756612185e-07 -0.017174386368462802 0 0.00011300933046119311 -0.016570690359774359 0 8.3867890637451958e-07 -0.017161141505214635 0 -1.2181480756612185e-07 -0.017174386368462802 0 0.00011300933046119311 -0.016570690359774359 0 0.00011300933046119311 -0.016570690359774359 0 0.00014914595630845066 -0.016516480381291335 0 0.00016658512444116743 -0.016066871134784434 0 8.3867890637451958e-07 -0.017161141505214635 0 0.00011300933046119311 -0.016570690359774359 0 0.00014914595630845066 -0.016516480381291335 0 0.00014914595630845066 -0.016516480381291335 0 0.00016658512444116743 -0.016066871134784434 0 0.00021711021019402314 -0.016235226661951714 0 -3.5515391651072333e-05 -0.016316072953437708 0 0.00021711021019402314 -0.016235226661951714 0 1.2893918704402043e-05 -0.016105630274442544 0 -3.5515391651072333e-05 -0.016316072953437708 0 0.00014914595630845066 -0.016516480381291335 0 0.00021711021019402314 -0.016235226661951714 0 0.0023402393374695545 -0.015845880472178487 0 0.0030162553386940344 -0.014600483215603767 0 0.0015388725386647126 -0.014575451316082368 0 0.00079912308606269343 -0.014791271130419666 0 0.0015442079458279092 -0.015054054059052637 0 0.0013746180946244237 -0.013296823932680652 0 0.0030162553386940344 -0.014600483215603767 0 0.0015388725386647126 -0.014575451316082368 0 0.0013746180946244237 -0.013296823932680652 0 0.0015388725386647126 -0.014575451316082368 0 0.00054768492796530063 -0.013867722498381951 0 0.0015388725386647126 -0.014575451316082368 0 2.2675949084919269e-05 -0.015100749239591345 0 0.00054768492796530063 -0.013867722498381951 0 2.2675949084919269e-05 -0.015100749239591345 0 -0.00042243982535838893 -0.013947241142633557 0 0.00054768492796530063 -0.013867722498381951 0 -0.0012359255917894245 -0.014554704488738569 0 -0.0021263499510381693 -0.014634977499279755 0 -0.0017858202999718404 -0.015344638600220067 0 -0.0012359255917894245 -0.014554704488738569 0 -0.0017858202999718404 -0.015344638600220067 0 -0.00097916582183578816 -0.015503122238475059 0 2.2675949084919269e-05 -0.015100749239591345 0 -0.00042243982535838893 -0.013947241142633557 0 -0.0012359255917894245 -0.014554704488738569 0 2.2675949084919269e-05 -0.015100749239591345 0 -0.0012359255917894245 -0.014554704488738569 0 -0.00097916582183578816 -0.015503122238475059 0 -0.00042243982535838893 -0.013947241142633557 0 -0.0012359255917894245 -0.014554704488738569 0 -0.0016187562274749812 -0.013630750305708846 0 -0.0012359255917894245 -0.014554704488738569 0 -0.0016187562274749812 -0.013630750305708846 0 -0.0021263499510381693 -0.014634977499279755 0 -9.4005970383805447e-06 -0.011798750268215549 0 3.9368147854466849e-05 -0.012242156510622803 0 0.00010507644520281914 -0.011459424509919049 0 8.9017568803232069e-06 -0.01217342504716833 0 -2.2653760612520499e-05 -0.011924678146682513 0 -9.4005970383805447e-06 -0.011798750268215549 0 3.9368147854466849e-05 -0.012242156510622803 0 0.00022008986140539607 -0.01269472102426609 0 -0.00042243982535838893 -0.013947241142633557 0 -0.0016187562274749812 -0.013630750305708846 0 0.00022008986140539607 -0.01269472102426609 0 -0.000700340016797395 -0.012710855604034996 0 0.00016616221131410133 -0.012621601085522483 0 0.00079912308606269343 -0.014791271130419666 0 2.1875511681901395e-05 -0.014035468958591412 0 0.0013746180946244237 -0.013296823932680652 0 0.00022008986140539607 -0.01269472102426609 0 -7.5179385960424881e-05 -0.012185038405583631 0 0.0013746180946244237 -0.013296823932680652 0 0.00054768492796530063 -0.013867722498381951 0 0.00022008986140539607 -0.01269472102426609 0 -0.00042243982535838893 -0.013947241142633557 0 0.00054768492796530063 -0.013867722498381951 0 0.00022008986140539607 -0.01269472102426609 0 3.9368147854466849e-05 -0.012242156510622803 0 0.00022008986140539607 -0.01269472102426609 0 -7.5179385960424881e-05 -0.012185038405583631 0 0.00016658512444116743 -0.016066871134784434 0 0.00021711021019402314 -0.016235226661951714 0 3.5577297876599419e-05 -0.01585007433309843 0 0.00016658512444116743 -0.016066871134784434 0 3.5577297876599419e-05 -0.01585007433309843 0 6.509826139680472e-05 -0.015327223841497055 0 -7.5179385960424881e-05 -0.012185038405583631 0 -6.6016613078316398e-05 -0.012317951776125099 0 -0.00014670443484801035 -0.012516498925636931 0 3.9368147854466849e-05 -0.012242156510622803 0 -6.6016613078316398e-05 -0.012317951776125099 0 -9.1804820650608074e-05 -0.012375145713345536 0 2.1875511681901395e-05 -0.014035468958591412 0 -5.1504353324674707e-05 -0.013648451153505343 0 3.5577297876599419e-05 -0.01585007433309843 0 6.509826139680472e-05 -0.015327223841497055 0 -0.00015969000327452964 -0.014721074558720609 0 3.9368147854466849e-05 -0.012242156510622803 0 -7.5179385960424881e-05 -0.012185038405583631 0 -6.6016613078316398e-05 -0.012317951776125099 0 -1.1143660387729027e-08 -0.014390400884285432 0 6.509826139680472e-05 -0.015327223841497055 0 -0.00015969000327452964 -0.014721074558720609 0 4.9353063637297294e-07 -0.015782213664899732 0 0.00016658512444116743 -0.016066871134784434 0 6.509826139680472e-05 -0.015327223841497055 0 4.9353063637297294e-07 -0.015782213664899732 0 -1.1143660387729027e-08 -0.014390400884285432 0 6.509826139680472e-05 -0.015327223841497055 0 0.00010452736338663022 -0.012379153484859224 0 1.0395130999248183e-07 -0.01299541350605396 0 -9.1804820650608074e-05 -0.012375145713345536 0 1.0395130999248183e-07 -0.01299541350605396 0 -0.00014670443484801035 -0.012516498925636931 0 -9.1804820650608074e-05 -0.012375145713345536 0 -1.1143660387729027e-08 -0.014390400884285432 0 -6.8010060670672822e-07 -0.01299888711473042 0 -0.00015969000327452964 -0.014721074558720609 0 1.4250317486613863e-07 -0.012998176438365453 0 -5.1504353324674707e-05 -0.013648451153505343 0 -6.6016613078316398e-05 -0.012317951776125099 0 -0.00014670443484801035 -0.012516498925636931 0 -9.1804820650608074e-05 -0.012375145713345536 0 0.00013602811953672718 -0.011662447682225923 0 -2.2653760612520499e-05 -0.011924678146682513 0 0.0001134717710624354 -0.011220950315358134 0 0.00010507644520281914 -0.011459424509919049 0 9.9799054447837675e-05 -0.011404716934060042 0 0.0001134717710624354 -0.011220950315358134 0 0.00011320961204603886 -0.011049790670674972 0 0.00010507644520281914 -0.011459424509919049 0 0.0001134717710624354 -0.011220950315358134 0 0.00011909049038621539 -0.011291178480333904 0 9.9799054447837675e-05 -0.011404716934060042 0 9.9799054447837675e-05 -0.011404716934060042 0 6.5400188826348957e-05 -0.011532062632081183 0 8.8823383094313447e-05 -0.011384106006086222 0 0.00011363136358718009 -0.011292214217687573 0 0.00011909049038621539 -0.011291178480333904 0 8.8823383094313447e-05 -0.011384106006086222 0 0.00011909049038621539 -0.011291178480333904 0 9.9799054447837675e-05 -0.011404716934060042 0 8.8823383094313447e-05 -0.011384106006086222 0 0.00010507644520281914 -0.011459424509919049 0 9.9799054447837675e-05 -0.011404716934060042 0 6.5400188826348957e-05 -0.011532062632081183 0 -9.4005970383805447e-06 -0.011798750268215549 0 6.5400188826348957e-05 -0.011532062632081183 0 8.8823383094313447e-05 -0.011384106006086222 0 -9.4005970383805447e-06 -0.011798750268215549 0 0.00010507644520281914 -0.011459424509919049 0 6.5400188826348957e-05 -0.011532062632081183 0 -0.0016187562274749812 -0.013630750305708846 0 -0.0021263499510381693 -0.014634977499279755 0 -0.0032295158922602042 -0.014409964771318571 0 -0.000700340016797395 -0.012710855604034996 0 -0.0017468337154472094 -0.012929688684164694 0 -0.0021263499510381693 -0.014634977499279755 0 -0.0032295158922602042 -0.014409964771318571 0 -0.0027113820684267031 -0.015237693448920342 0 -0.0021263499510381693 -0.014634977499279755 0 -0.0027113820684267031 -0.015237693448920342 0 -0.0017858202999718404 -0.015344638600220067 0 -0.0047607771399217347 -0.015040786324774921 0 -0.0032295158922602042 -0.014409964771318571 0 -0.0034914324266059889 -0.015170722481601796 0 -0.0013232771924776292 -0.013283574474635051 0 -0.0017468337154472094 -0.012929688684164694 0 0.0001129208000452065 -0.011288971097483435 0 0.00011363136358718009 -0.011292214217687573 0 8.8823383094313447e-05 -0.011384106006086222 0 -0.0032295158922602042 -0.014409964771318571 0 -0.0034914324266059889 -0.015170722481601796 0 -0.0027113820684267031 -0.015237693448920342 0 -0.0047607771399217347 -0.015040786324774921 0 -0.0034914324266059889 -0.015170722481601796 0 -0.0032437666334590954 -0.01599637235063241 0 -0.0013232771924776292 -0.013283574474635051 0 -0.0014807018899872907 -0.015437055851261995 0 -0.00051884411629384822 -0.013989945505515609 0 0.00065390993349987293 -0.014676610341063677 0 0.000131972428020673 -0.01501418928965503 0 -0.0034914324266059889 -0.015170722481601796 0 -0.0032437666334590954 -0.01599637235063241 0 -0.0027113820684267031 -0.015237693448920342 0 0.00065390993349987293 -0.014676610341063677 0 0.000131972428020673 -0.01501418928965503 0 0.0016411897839595097 -0.015563125693595111 0 0.00024385272998349785 -0.015529431957061818 0 0.0005729957300210373 -0.015187762343371202 0 0.0010126940159062895 -0.015627123034269361 0 0.0005729957300210373 -0.015187762343371202 0 0.0010126940159062895 -0.015627123034269361 0 0.0016411897839595097 -0.015563125693595111 0 0.00022054536577439189 -0.015196872937021558 0 0.001633197301974972 -0.015520586178706011 0 0.00065390993349987293 -0.014676610341063677 0 0.0016411897839595097 -0.015563125693595111 0 0.0018457987026328979 -0.01541275153397245 0 -0.0014807018899872907 -0.015437055851261995 0 0.00021628853730818587 -0.016204911016969244 0 0.0016411897839595097 -0.015563125693595111 0 0.0017609457638204475 -0.015965042471705885 0 0.001369129377882618 -0.01580545497413105 0 0.0010126940159062895 -0.015627123034269361 0 0.0016411897839595097 -0.015563125693595111 0 0.001369129377882618 -0.01580545497413105 0 -0.0023145902143689584 -0.016136838821723867 0 -0.0015800476175703117 -0.017076720359212341 0 -0.0016901406184179923 -0.016514753369328294 0 -0.0023145902143689584 -0.016136838821723867 0 -0.0014042748602966912 -0.016172896054163055 0 -0.0016901406184179923 -0.016514753369328294 0 -0.0023145902143689584 -0.016136838821723867 0 -0.0017858202999718404 -0.015344638600220067 0 -0.0014042748602966912 -0.016172896054163055 0 -0.0032437666334590954 -0.01599637235063241 0 -0.0023145902143689584 -0.016136838821723867 0 -0.0015800476175703117 -0.017076720359212341 0 -0.0032437666334590954 -0.01599637235063241 0 -0.0023145902143689584 -0.016136838821723867 0 -0.0027113820684267031 -0.015237693448920342 0 -0.0023145902143689584 -0.016136838821723867 0 -0.0027113820684267031 -0.015237693448920342 0 -0.0017858202999718404 -0.015344638600220067 0 -0.0017858202999718404 -0.015344638600220067 0 -0.00097916582183578816 -0.015503122238475059 0 -0.0014042748602966912 -0.016172896054163055 0 2.2675949084919269e-05 -0.015100749239591345 0 -0.00097916582183578816 -0.015503122238475059 0 -0.00046806613283455298 -0.016325513730775284 0 -0.00097916582183578816 -0.015503122238475059 0 -0.0014042748602966912 -0.016172896054163055 0 -0.00046806613283455298 -0.016325513730775284 0 -0.0014042748602966912 -0.016172896054163055 0 -0.00046806613283455298 -0.016325513730775284 0 -0.001074688036419757 -0.016671653546429174 0 -0.0014042748602966912 -0.016172896054163055 0 -0.0014369863337665672 -0.016608041958511115 0 -0.001074688036419757 -0.016671653546429174 0 -0.0014042748602966912 -0.016172896054163055 0 -0.0014369863337665672 -0.016608041958511115 0 -0.0016901406184179923 -0.016514753369328294 0 2.2675949084919269e-05 -0.015100749239591345 0 -0.00046806613283455298 -0.016325513730775284 0 0.00067933385349694874 -0.016516150801648397 0 0.00067933385349694874 -0.016516150801648397 0 8.6469464329170994e-05 -0.016928860564475321 0 0.00065522409766996233 -0.017203712313627786 0 -0.00046806613283455298 -0.016325513730775284 0 0.00067933385349694874 -0.016516150801648397 0 8.6469464329170994e-05 -0.016928860564475321 0 -0.00046806613283455298 -0.016325513730775284 0 8.6469464329170994e-05 -0.016928860564475321 0 -0.00047228867274391251 -0.01711196166292599 0 0.00022411367473357968 -0.01749798787388181 0 -0.00047228867274391251 -0.01711196166292599 0 0.00014762827734684511 -0.018087191891295287 0 8.6469464329170994e-05 -0.016928860564475321 0 0.00022411367473357968 -0.01749798787388181 0 -0.00047228867274391251 -0.01711196166292599 0 0.0008961983511931057 -0.017770180423407878 0 0.00022411367473357968 -0.01749798787388181 0 0.00065522409766996233 -0.017203712313627786 0 8.6469464329170994e-05 -0.016928860564475321 0 0.00022411367473357968 -0.01749798787388181 0 0.00065522409766996233 -0.017203712313627786 0 0.00021628853730818587 -0.016204911016969244 0 0.0010010416577224909 -0.017430168603868451 0 -0.0015800476175703117 -0.017076720359212341 0 -0.00047228867274391251 -0.01711196166292599 0 0.00014762827734684511 -0.018087191891295287 0 0.0018457987026328979 -0.01541275153397245 0 0.0022442574125589778 -0.015926247521802706 0 0.0027014349069778751 -0.015973721396753189 0 -0.0015800476175703117 -0.017076720359212341 0 -0.0014369863337665672 -0.016608041958511115 0 -0.0016901406184179923 -0.016514753369328294 0 -0.0015800476175703117 -0.017076720359212341 0 -0.0014369863337665672 -0.016608041958511115 0 -0.001074688036419757 -0.016671653546429174 0 -0.00046806613283455298 -0.016325513730775284 0 -0.00047228867274391251 -0.01711196166292599 0 -0.001074688036419757 -0.016671653546429174 0 -0.0015800476175703117 -0.017076720359212341 0 -0.00047228867274391251 -0.01711196166292599 0 -0.001074688036419757 -0.016671653546429174 0 0.0016411897839595097 -0.015563125693595111 0 0.0018457987026328979 -0.01541275153397245 0 0.0019628131175189567 -0.015798078991498148 0 0.0016411897839595097 -0.015563125693595111 0 0.0017609457638204475 -0.015965042471705885 0 0.0019628131175189567 -0.015798078991498148 0 0.0018457987026328979 -0.01541275153397245 0 0.0019628131175189567 -0.015798078991498148 0 0.0022442574125589778 -0.015926247521802706 0 0.0017609457638204475 -0.015965042471705885 0 0.0019628131175189567 -0.015798078991498148 0 0.0020897346655776661 -0.01605660313657449 0 0.0022442574125589778 -0.015926247521802706 0 0.0020897346655776661 -0.01605660313657449 0 0.002299503296187091 -0.016353856369192388 0 0.0019628131175189567 -0.015798078991498148 0 0.0022442574125589778 -0.015926247521802706 0 0.0020897346655776661 -0.01605660313657449 0 0.0020897346655776661 -0.01605660313657449 0 0.002299503296187091 -0.016353856369192388 0 0.0018780279755630897 -0.016359674951370373 0 0.0017609457638204475 -0.015965042471705885 0 0.0020897346655776661 -0.01605660313657449 0 0.0018780279755630897 -0.016359674951370373 0 0.0013667137087585456 -0.018810030374609505 0 0.0012511855348173015 -0.01843676488855173 0 0.001037768500359412 -0.018304047699231669 0 0.0012511855348173015 -0.01843676488855173 0 0.0008961983511931057 -0.017770180423407878 0 0.00018840910750150475 -0.018010517182583678 0 0.0008961983511931057 -0.017770180423407878 0 0.00022411367473357968 -0.01749798787388181 0 0.00018840910750150475 -0.018010517182583678 0 0.0011879673567309805 -0.018305666060282496 0 0.0010010416577224909 -0.017430168603868451 0 0.00067045951786950605 -0.017693715577243824 0 0.0010010416577224909 -0.017430168603868451 0 0.0022442574125589778 -0.015926247521802706 0 0.002299503296187091 -0.016353856369192388 0 0.0027014349069778751 -0.015973721396753189 0 0.0010010416577224909 -0.017430168603868451 0 0.0020070375723881769 -0.017962218520055431 0 0.002299503296187091 -0.016353856369192388 0 0.0027014349069778751 -0.015973721396753189 0 0.0025378790541369526 -0.017108372662167082 0 0.0013667137087585456 -0.018810030374609505 0 0.001037768500359412 -0.018304047699231669 0 0.0012130546103265912 -0.019010834702250148 0 0.0021656788695169167 -0.016670084993239118 0 0.0018214236626866857 -0.016964129245547473 0 0.0025378790541369526 -0.017108372662167082 0 0.002299503296187091 -0.016353856369192388 0 0.0021656788695169167 -0.016670084993239118 0 0.0025378790541369526 -0.017108372662167082 0 0.0018780279755630897 -0.016359674951370373 0 0.0021656788695169167 -0.016670084993239118 0 0.0018214236626866857 -0.016964129245547473 0 0.002299503296187091 -0.016353856369192388 0 0.0018780279755630897 -0.016359674951370373 0 0.0021656788695169167 -0.016670084993239118 0 0.0018780279755630897 -0.016359674951370373 0 0.0018214236626866857 -0.016964129245547473 0 0.0010032045150473318 -0.016253625570808904 0 0.0017857941730450464 -0.016920007027749834 0 0.0011004312130259764 -0.016202488693422383 0 0.0018214236626866857 -0.016964129245547473 0 0.0012309849118414891 -0.016209512510613731 0 0.0013562046329910254 -0.017170837600506795 0 0.00051094309310501245 -0.016062925152500011 0 0.0012309849118414891 -0.016209512510613731 0 0.00078213129245293083 -0.017059947195084846 0 0.0012309849118414891 -0.016209512510613731 0 0.00078213129245293083 -0.017059947195084846 0 0.0013562046329910254 -0.017170837600506795 0 0.00024385272998349785 -0.015529431957061818 0 0.0010126940159062895 -0.015627123034269361 0 0.0010032045150473318 -0.016253625570808904 0 0.00043963166816684461 -0.015642569720155201 0 0.0011004312130259764 -0.016202488693422383 0 0.0005350262524254296 -0.015406123570505059 0 0.00051094309310501245 -0.016062925152500011 0 0.0012309849118414891 -0.016209512510613731 0 0.0018780279755630897 -0.016359674951370373 0 0.0010032045150473318 -0.016253625570808904 0 0.0015116993190263585 -0.016077458979990536 0 0.0010126940159062895 -0.015627123034269361 0 0.0010032045150473318 -0.016253625570808904 0 0.001369129377882618 -0.01580545497413105 0 0.0010032045150473318 -0.016253625570808904 0 0.001369129377882618 -0.01580545497413105 0 0.0015116993190263585 -0.016077458979990536 0 0.0017609457638204475 -0.015965042471705885 0 0.001369129377882618 -0.01580545497413105 0 0.0015116993190263585 -0.016077458979990536 0 0.0017609457638204475 -0.015965042471705885 0 0.0018780279755630897 -0.016359674951370373 0 0.0015116993190263585 -0.016077458979990536 0 0.0015335566336980504 -0.018016321632639047 0 0.0010911470560351136 -0.018050737949320172 0 0.001131853259942356 -0.018604443116909408 0 0.00073073069621076446 -0.017962203847232731 0 0.0010911470560351136 -0.018050737949320172 0 0.001131853259942356 -0.018604443116909408 0 0.0015335566336980504 -0.018016321632639047 0 0.0010911470560351136 -0.018050737949320172 0 0.00099722306454124755 -0.017603549012485838 0 0.00073073069621076446 -0.017962203847232731 0 0.0010911470560351136 -0.018050737949320172 0 0.00099722306454124755 -0.017603549012485838 0 0.00099722306454124755 -0.017603549012485838 0 0.00078213129245293083 -0.017059947195084846 0 0.0013562046329910254 -0.017170837600506795 0 0.00055350534772414509 -0.017937241758499454 0 0.00099722306454124755 -0.017603549012485838 0 0.00078213129245293083 -0.017059947195084846 0 0.0018214236626866857 -0.016964129245547473 0 0.0013562046329910254 -0.017170837600506795 0 0.0019090671271577129 -0.017497798932988726 0 0.0015335566336980504 -0.018016321632639047 0 0.00099722306454124755 -0.017603549012485838 0 0.0013562046329910254 -0.017170837600506795 0 0.0015335566336980504 -0.018016321632639047 0 0.0013562046329910254 -0.017170837600506795 0 0.0019090671271577129 -0.017497798932988726 0 0.0018214236626866857 -0.016964129245547473 0 0.0019090671271577129 -0.017497798932988726 0 0.0025378790541369526 -0.017108372662167082 0 0.0019090671271577129 -0.017497798932988726 0 0.0025378790541369526 -0.017108372662167082 0 0.0023354968397906301 -0.018229362500699158 0 0.0013667137087585456 -0.018810030374609505 0 0.0012130546103265912 -0.019010834702250148 0 0.0014975826858541618 -0.019196837802608519 0 0.0012130546103265912 -0.019010834702250148 0 0.0014975826858541618 -0.019196837802608519 0 0.0015717414666023275 -0.019445636133719607 0 0.0020070375723881769 -0.017962218520055431 0 0.0019231356676074002 -0.018831784021759081 0 0.0014975826858541618 -0.019196837802608519 0 0.0015717414666023275 -0.019445636133719607 0 0.0017239367992296314 -0.019413095051907889 0 0.0015335566336980504 -0.018016321632639047 0 0.0019090671271577129 -0.017497798932988726 0 0.0023354968397906301 -0.018229362500699158 0 0.0019231356676074002 -0.018831784021759081 0 0.0019017011108381061 -0.019277526120032119 0 0.0015335566336980504 -0.018016321632639047 0 0.0023354968397906301 -0.018229362500699158 0 0.0017153588919403032 -0.018717765385251127 0 0.0023354968397906301 -0.018229362500699158 0 0.0017153588919403032 -0.018717765385251127 0 0.0018854535632325362 -0.01933490510500668 0 0.0015717414666023275 -0.019445636133719607 0 0.0017865968789794252 -0.01941954777037367 0 0.0017912113553664633 -0.01947972986492599 0 0.0015717414666023275 -0.019445636133719607 0 0.0017865968789794252 -0.01941954777037367 0 0.0018854535632325362 -0.01933490510500668 0 0.0017865968789794252 -0.01941954777037367 0 0.0018854535632325362 -0.01933490510500668 0 0.0018792306639927915 -0.01940925984590848 0 0.0017153588919403032 -0.018717765385251127 0 0.0018854535632325362 -0.01933490510500668 0 0.0016422748591082483 -0.019278897339121154 0 0.0010651503757356585 -0.018407488871425976 0 0.0009758789651941257 -0.018262392482106031 0 0.00094208077321662515 -0.018400885073684658 0 0.0010651503757356585 -0.018407488871425976 0 0.00094208077321662515 -0.018400885073684658 0 0.00095554377139735636 -0.018494453456162459 0 0.0013415786558175634 -0.018781759042989354 0 0.0010592535708368921 -0.01843706974151858 0 0.0015335566336980504 -0.018016321632639047 0 0.0017153588919403032 -0.018717765385251127 0 0.001131853259942356 -0.018604443116909408 0 0.0017153588919403032 -0.018717765385251127 0 0.0016422748591082483 -0.019278897339121154 0 0.001131853259942356 -0.018604443116909408 0 0.00073073069621076446 -0.017962203847232731 0 0.00071322980057675551 -0.0181787523724205 0 0.0009758789651941257 -0.018262392482106031 0 0.00074677271375960777 -0.0180066737792536 0 0.0010592535708368921 -0.01843706974151858 0 0.0008353531958869352 -0.018350410615029598 0 0.00071322980057675551 -0.0181787523724205 0 0.0009758789651941257 -0.018262392482106031 0 0.0008353531958869352 -0.018350410615029598 0 0.0009758789651941257 -0.018262392482106031 0 0.00094208077321662515 -0.018400885073684658 0 0.00094208077321662515 -0.018400885073684658 0 0.00087195963742454029 -0.018459937328084413 0 0.00095554377139735636 -0.018494453456162459 0 0.0008353531958869352 -0.018350410615029598 0 0.00094208077321662515 -0.018400885073684658 0 0.00087195963742454029 -0.018459937328084413 0 0.00086554286200198126 -0.018519204421677534 0 0.00095554377139735636 -0.018494453456162459 0 0.00088654410252423906 -0.018676487317494148 0 0.00087177076873523379 -0.018486444160888019 0 0.00087195963742454029 -0.018459937328084413 0 0.00086554286200198126 -0.018519204421677534 0 0.00087195963742454029 -0.018459937328084413 0 0.00086554286200198126 -0.018519204421677534 0 0.00095554377139735636 -0.018494453456162459 0 0.00095554377139735636 -0.018494453456162459 0 0.0010727129503226164 -0.018612278223034739 0 0.00088654410252423906 -0.018676487317494148 0 0.0010651503757356585 -0.018407488871425976 0 0.0010762912058110256 -0.018517101777173594 0 0.00095554377139735636 -0.018494453456162459 0 0.0010762912058110256 -0.018517101777173594 0 0.00095554377139735636 -0.018494453456162459 0 0.0010727129503226164 -0.018612278223034739 0 0.00088654410252423906 -0.018676487317494148 0 0.00088901270791699012 -0.018903169024110395 0 0.00087372273092112241 -0.018929335341483142 0 0.00088595144118039793 -0.018894062563363973 0 0.00088654410252423906 -0.018676487317494148 0 0.00088901270791699012 -0.018903169024110395 0 0.0009585446099076955 -0.018766921304280218 0 0.00089675627533985331 -0.01871547234315624 0 0.0008666448185899201 -0.018415567906521348 0 0.00086554286200198126 -0.018519204421677534 0 0.00088654410252423906 -0.018676487317494148 0 0.0008666448185899201 -0.018415567906521348 0 0.00089649865545714453 -0.018393219214606172 0 0.00088654410252423906 -0.018676487317494148 0 0.00089649865545714453 -0.018393219214606172 0 0.00088654410252423906 -0.018676487317494148 0 0.00088295398785242802 -0.018691136091066159 0 0.00096124820462808829 -0.018387265934408027 0 0.00089649865545714453 -0.018393219214606172 0 0.00088295398785242802 -0.018691136091066159 0 0.00088654410252423906 -0.018676487317494148 0 0.00088295398785242802 -0.018691136091066159 0 0.00087372273092112241 -0.018929335341483142 0 0.00088901270791699012 -0.018903169024110395 0 0.00087372273092112241 -0.018929335341483142 0 0.00092327014933356018 -0.019108408361940186 0 0.00087372273092112241 -0.018929335341483142 0 0.00086922249136459431 -0.019126210511882069 0 0.00091510331892748599 -0.01928559865864423 0 0.00088295398785242802 -0.018691136091066159 0 0.00087372273092112241 -0.018929335341483142 0 0.00086370985648576593 -0.018997464132390736 0 0.00087372273092112241 -0.018929335341483142 0 0.00086370985648576593 -0.018997464132390736 0 0.00086922249136459431 -0.019126210511882069 0 0.00083694521639600926 -0.019244146988562544 0 0.00085950792951837668 -0.01934904977341723 0 0.00080840864233455636 -0.019430762258249117 0 0.00086922249136459431 -0.019126210511882069 0 0.00083694521639600926 -0.019244146988562544 0 0.00085950792951837668 -0.01934904977341723 0 0.00086370985648576593 -0.018997464132390736 0 0.00086922249136459431 -0.019126210511882069 0 0.00083694521639600926 -0.019244146988562544 0 0.00086370985648576593 -0.018997464132390736 0 0.00083694521639600926 -0.019244146988562544 0 0.00084055776830753144 -0.019173641171713551 0 0.00086370985648576593 -0.018997464132390736 0 0.00089607698934865095 -0.018837229584530012 0 0.00084055776830753144 -0.019173641171713551 0 0.00088295398785242802 -0.018691136091066159 0 0.00086370985648576593 -0.018997464132390736 0 0.00089607698934865095 -0.018837229584530012 0 0.00096124820462808829 -0.018387265934408027 0 0.00088295398785242802 -0.018691136091066159 0 0.00089607698934865095 -0.018837229584530012 0 0.0010293485070763898 -0.019652326926412448 0 0.00091410191178467127 -0.019491469780576486 0 0.0010204652483653703 -0.019446284757713202 0 0.0010293485070763898 -0.019652326926412448 0 0.0010204652483653703 -0.019446284757713202 0 0.0012194853146846622 -0.019634967575159239 0 0.0010293485070763898 -0.019652326926412448 0 0.0012194853146846622 -0.019634967575159239 0 0.0011634204502721801 -0.019789972937621015 0 0.0010293485070763898 -0.019652326926412448 0 0.0011634204502721801 -0.019789972937621015 0 0.0010262988876704358 -0.019892783421260277 0 0.0010293485070763898 -0.019652326926412448 0 0.00091410191178467127 -0.019491469780576486 0 0.00087187166265873515 -0.019739608535012991 0 0.00091410191178467127 -0.019491469780576486 0 0.00085950792951837668 -0.01934904977341723 0 0.00083933773843604105 -0.019523978741009668 0 0.00091410191178467127 -0.019491469780576486 0 0.00085950792951837668 -0.01934904977341723 0 0.00091510331892748599 -0.01928559865864423 0 0.00086922249136459431 -0.019126210511882069 0 0.00085950792951837668 -0.01934904977341723 0 0.00091510331892748599 -0.01928559865864423 0 0.00091410191178467127 -0.019491469780576486 0 0.00091510331892748599 -0.01928559865864423 0 0.0010204652483653703 -0.019446284757713202 0 0.00091510331892748599 -0.01928559865864423 0 0.00092327014933356018 -0.019108408361940186 0 0.0010204652483653703 -0.019446284757713202 0 0.00087372273092112241 -0.018929335341483142 0 0.00091510331892748599 -0.01928559865864423 0 0.00092327014933356018 -0.019108408361940186 0 0.00092327014933356018 -0.019108408361940186 0 0.0010869284310354289 -0.01933130540401546 0 0.00095555927168178149 -0.019006467192679295 0 0.00092327014933356018 -0.019108408361940186 0 0.0010869284310354289 -0.01933130540401546 0 0.0010204652483653703 -0.019446284757713202 0 0.0010869284310354289 -0.01933130540401546 0 0.0010204652483653703 -0.019446284757713202 0 0.0012194853146846622 -0.019634967575159239 0 0.0010869284310354289 -0.01933130540401546 0 0.0012194853146846622 -0.019634967575159239 0 0.0014386364868696055 -0.019704227048259745 0 0.0015169160083465675 -0.0196228213390044 0 0.0014458983101955599 -0.019643352513617422 0 0.0010869284310354289 -0.01933130540401546 0 0.0011974042053500792 -0.019072368805665287 0 0.0014386364868696055 -0.019704227048259745 0 0.0010869284310354289 -0.01933130540401546 0 0.0011974042053500792 -0.019072368805665287 0 0.00095555927168178149 -0.019006467192679295 0 0.0011974042053500792 -0.019072368805665287 0 0.00095555927168178149 -0.019006467192679295 0 0.0010246969488488201 -0.018854087059959963 0 0.0015169160083465675 -0.0196228213390044 0 0.0014995325073959122 -0.019308979654947062 0 0.00088901270791699012 -0.018903169024110395 0 0.00092327014933356018 -0.019108408361940186 0 0.00095555927168178149 -0.019006467192679295 0 0.00088595144118039793 -0.018894062563363973 0 0.00088901270791699012 -0.018903169024110395 0 0.00095555927168178149 -0.019006467192679295 0 0.00088595144118039793 -0.018894062563363973 0 0.00095555927168178149 -0.019006467192679295 0 0.0010246969488488201 -0.018854087059959963 0 0.0013415786558175634 -0.018781759042989354 0 0.0014995325073959122 -0.019308979654947062 0 0.0010651503757356585 -0.018407488871425976 0 0.0010762912058110256 -0.018517101777173594 0 0.0012088274342662408 -0.018557313433197279 0 0.0018854535632325362 -0.01933490510500668 0 0.0016422748591082483 -0.019278897339121154 0 0.0018792306639927915 -0.01940925984590848 0 0.0010762912058110256 -0.018517101777173594 0 0.0010727129503226164 -0.018612278223034739 0 0.0012088274342662408 -0.018557313433197279 0 0.0009585446099076955 -0.018766921304280218 0 0.0014995325073959122 -0.019308979654947062 0 0.0018168969275293269 -0.020106481301194898 0 0.0020303220212020997 -0.020335402635279651 0 0.0016369466144348377 -0.020511850745394231 0 0.0017865968789794252 -0.01941954777037367 0 0.0018792306639927915 -0.01940925984590848 0 0.0017957997798234845 -0.019438225823174789 0 0.0014995325073959122 -0.019308979654947062 0 0.0017660430282335237 -0.020017759076634323 0 0.0018168969275293269 -0.020106481301194898 0 0.0016369466144348377 -0.020511850745394231 0 0.0014736785239069827 -0.02022537974945765 0 0.0016369466144348377 -0.020511850745394231 0 0.0014631498812266643 -0.020479069159428168 0 0.0014736785239069827 -0.02022537974945765 0 0.0016369466144348377 -0.020511850745394231 0 0.0014631498812266643 -0.020479069159428168 0 0.0014482773512088905 -0.020569432095502486 0 0.0014631498812266643 -0.020479069159428168 0 0.0014797978719904268 -0.020638207778647485 0 0.0014482773512088905 -0.020569432095502486 0 0.0014631498812266643 -0.020479069159428168 0 0.0014136907996598845 -0.020294167850169586 0 0.0014797978719904268 -0.020638207778647485 0 0.0014136907996598845 -0.020294167850169586 0 0.0014736785239069827 -0.02022537974945765 0 0.0013932646879263946 -0.020003310038097431 0 0.0014631498812266643 -0.020479069159428168 0 0.0014136907996598845 -0.020294167850169586 0 0.0014736785239069827 -0.02022537974945765 0 0.0014136907996598845 -0.020294167850169586 0 0.0013932646879263946 -0.020003310038097431 0 0.0013583254641043119 -0.020057918156278588 0 0.0018168969275293269 -0.020106481301194898 0 0.0014736785239069827 -0.02022537974945765 0 0.0014386364868696055 -0.019704227048259745 0 0.0014736785239069827 -0.02022537974945765 0 0.0014386364868696055 -0.019704227048259745 0 0.0013932646879263946 -0.020003310038097431 0 0.0012194853146846622 -0.019634967575159239 0 0.0014386364868696055 -0.019704227048259745 0 0.0013290343889679737 -0.019853575727862265 0 0.0014386364868696055 -0.019704227048259745 0 0.0013290343889679737 -0.019853575727862265 0 0.0013932646879263946 -0.020003310038097431 0 0.0013290343889679737 -0.019853575727862265 0 0.0013861468954004604 -0.020014491734614993 0 0.0013583254641043119 -0.020057918156278588 0 0.0013290343889679737 -0.019853575727862265 0 0.0013932646879263946 -0.020003310038097431 0 0.0013583254641043119 -0.020057918156278588 0 0.0013290343889679737 -0.019853575727862265 0 0.0013861468954004604 -0.020014491734614993 0 0.0011912896255047208 -0.020047560991118766 0 0.0011634204502721801 -0.019789972937621015 0 0.0011912896255047208 -0.020047560991118766 0 0.0010262988876704358 -0.019892783421260277 0 0.0012194853146846622 -0.019634967575159239 0 0.0013290343889679737 -0.019853575727862265 0 0.0011634204502721801 -0.019789972937621015 0 0.0013290343889679737 -0.019853575727862265 0 0.0011634204502721801 -0.019789972937621015 0 0.0011912896255047208 -0.020047560991118766 0 0.0012152047100372507 -0.023344061859308554 0 0.0011728807695084275 -0.023204362971242152 0 0.0015108125485032765 -0.02292706255638376 0 0.0011766333891116234 -0.02170132557567131 0 0.001571325714914236 -0.021594377502196102 0 0.0013861468954004604 -0.020014491734614993 0 0.0011429809145923596 -0.020017548991891981 0 0.0016982752433081347 -0.020221156675932068 0 0.0013861468954004604 -0.020014491734614993 0 0.0013583254641043119 -0.020057918156278588 0 0.0011429809145923596 -0.020017548991891981 0 0.0013583254641043119 -0.020057918156278588 0 0.0011429809145923596 -0.020017548991891981 0 0.0012165785215997157 -0.020405815603731989 0 0.0011766333891116234 -0.02170132557567131 0 0.00075193899434857956 -0.022102883491542501 0 0.0011429809145923596 -0.020017548991891981 0 0.0012165785215997157 -0.020405815603731989 0 0.00052802219717882877 -0.020841642038510064 0 0.0014136907996598845 -0.020294167850169586 0 0.0013583254641043119 -0.020057918156278588 0 0.0012165785215997157 -0.020405815603731989 0 0.0014136907996598845 -0.020294167850169586 0 0.0012165785215997157 -0.020405815603731989 0 0.0014797978719904268 -0.020638207778647485 0 0.0014797978719904268 -0.020638207778647485 0 0.0010297829581234097 -0.021067361039695552 0 0.0011439333661028837 -0.021522554419987575 0 0.0012165785215997157 -0.020405815603731989 0 0.0014797978719904268 -0.020638207778647485 0 0.0010297829581234097 -0.021067361039695552 0 0.0010297829581234097 -0.021067361039695552 0 0.00082488921784372015 -0.021838118163645375 0 0.00052802219717882877 -0.020841642038510064 0 0.0012165785215997157 -0.020405815603731989 0 0.0010297829581234097 -0.021067361039695552 0 0.00052802219717882877 -0.020841642038510064 0 0.0010297829581234097 -0.021067361039695552 0 0.00082488921784372015 -0.021838118163645375 0 0.0011439333661028837 -0.021522554419987575 0 0.00082488921784372015 -0.021838118163645375 0 0.0011439333661028837 -0.021522554419987575 0 0.00094724151999929799 -0.022122514392061306 0 0.0011439333661028837 -0.021522554419987575 0 0.00094724151999929799 -0.022122514392061306 0 0.0013328071355356676 -0.021972993326777105 0 0.00093044790723783915 -0.02149179603543757 0 0.0015158078466485242 -0.020886494193454085 0 0.00082488921784372015 -0.021838118163645375 0 0.00094724151999929799 -0.022122514392061306 0 0.00071887155966864698 -0.022291827161823735 0 0.00094724151999929799 -0.022122514392061306 0 0.0010391507140136685 -0.022123756149930264 0 0.00058820526862371437 -0.022123185628049429 0 0.0015158078466485242 -0.020886494193454085 0 0.0011998946123336876 -0.020769704549203006 0 0.00094724151999929799 -0.022122514392061306 0 0.00071887155966864698 -0.022291827161823735 0 0.00058820526862371437 -0.022123185628049429 0 0.0019454307248602913 -0.019469559347344473 0 0.0019438074966299393 -0.019476182531720593 0 0.001779611016360841 -0.019433744633697628 0 0.0019454307248602913 -0.019469559347344473 0 0.0019274902705360064 -0.01947885996625881 0 0.0019438074966299393 -0.019476182531720593 0 0.0019454307248602913 -0.019469559347344473 0 0.0019274902705360064 -0.01947885996625881 0 0.0019323898219563572 -0.019510605774410841 0 0.0019274902705360064 -0.01947885996625881 0 0.0019438074966299393 -0.019476182531720593 0 0.0019042282936428104 -0.019486357264816335 0 0.0014409490119632353 -0.020861110676957145 0 0.0015158078466485242 -0.020886494193454085 0 0.0019438074966299393 -0.019476182531720593 0 0.0018545682075955647 -0.019510042333181103 0 0.0019042282936428104 -0.019486357264816335 0 0.0015158078466485242 -0.020886494193454085 0 0.0017296308424102594 -0.019942494618509742 0 0.0014797978719904268 -0.020638207778647485 0 0.0011439333661028837 -0.021522554419987575 0 0.0013328071355356676 -0.021972993326777105 0 0.0014797978719904268 -0.020638207778647485 0 0.0015323162403414123 -0.020539883067545915 0 0.0014482773512088905 -0.020569432095502486 0 0.0018545682075955647 -0.019510042333181103 0 0.0017912113553664633 -0.01947972986492599 0 0.0019042282936428104 -0.019486357264816335 0 0.0017660430282335237 -0.020017759076634323 0 0.0017296308424102594 -0.019942494618509742 0 0.0017865968789794252 -0.01941954777037367 0 0.0017957997798234845 -0.019438225823174789 0 0.0017912113553664633 -0.01947972986492599 0 0.0017957997798234845 -0.019438225823174789 0 0.0018545682075955647 -0.019510042333181103 0 0.0017912113553664633 -0.01947972986492599 0 0.0017912113553664633 -0.01947972986492599 0 0.0019323898219563572 -0.019510605774410841 0 0.0017239367992296314 -0.019413095051907889 0 0.0015717414666023275 -0.019445636133719607 0 0.0017912113553664633 -0.01947972986492599 0 0.0017239367992296314 -0.019413095051907889 0 0.0017912113553664633 -0.01947972986492599 0 0.0019042282936428104 -0.019486357264816335 0 0.0019323898219563572 -0.019510605774410841 0 0.0019274902705360064 -0.01947885996625881 0 0.0019042282936428104 -0.019486357264816335 0 0.0019323898219563572 -0.019510605774410841 0 0.0019323898219563572 -0.019510605774410841 0 0.0017239367992296314 -0.019413095051907889 0 0.0019448356512570808 -0.019438038341876518 0 0.0019323898219563572 -0.019510605774410841 0 0.0019448356512570808 -0.019438038341876518 0 0.0020812482800256524 -0.019576131813851302 0 0.0014975826858541618 -0.019196837802608519 0 0.0017239367992296314 -0.019413095051907889 0 0.0017228058306097201 -0.019116736999602164 0 0.0013667137087585456 -0.018810030374609505 0 0.0014975826858541618 -0.019196837802608519 0 0.0017228058306097201 -0.019116736999602164 0 0.0021358913355899942 -0.019114307995669873 0 0.0017228058306097201 -0.019116736999602164 0 0.0019448356512570808 -0.019438038341876518 0 0.0017239367992296314 -0.019413095051907889 0 0.0017228058306097201 -0.019116736999602164 0 0.0019448356512570808 -0.019438038341876518 0 0.0021358913355899942 -0.019114307995669873 0 0.0019448356512570808 -0.019438038341876518 0 0.0022154217560580464 -0.019809695195646959 0 0.002878039379110246 -0.019098118703227591 0 0.0021358913355899942 -0.019114307995669873 0 0.0022154217560580464 -0.019809695195646959 0 0.0022362132051289272 -0.020043639482931447 0 0.0022609751071833166 -0.019840922374251675 0 0.0011998946123336876 -0.020769704549203006 0 0.00096966945506089938 -0.021057286515532805 0 0.0022154217560580464 -0.019809695195646959 0 0.001779611016360841 -0.019433744633697628 0 0.00094882748575194232 -0.021069688873765237 0 0.0016482304602052193 -0.021068401041530845 0 0.0022154217560580464 -0.019809695195646959 0 0.00094882748575194232 -0.021069688873765237 0 0.0022154217560580464 -0.019809695195646959 0 0.001779611016360841 -0.019433744633697628 0 0.0020812482800256524 -0.019576131813851302 0 0.0019448356512570808 -0.019438038341876518 0 0.0022154217560580464 -0.019809695195646959 0 0.0020812482800256524 -0.019576131813851302 0 0.0019454307248602913 -0.019469559347344473 0 0.001779611016360841 -0.019433744633697628 0 0.0020812482800256524 -0.019576131813851302 0 0.0019454307248602913 -0.019469559347344473 0 0.0019323898219563572 -0.019510605774410841 0 0.0020812482800256524 -0.019576131813851302 0 0.0012106372232628417 -0.022176072226949829 0 0.0010441402514135569 -0.021758881641265906 0 0.00081864734466616967 -0.022274523806475491 0 0.0014207326935495978 -0.021762426615392728 0 0.0012106372232628417 -0.022176072226949829 0 0.0010441402514135569 -0.021758881641265906 0 0.0014207326935495978 -0.021762426615392728 0 0.0012106372232628417 -0.022176072226949829 0 0.0015938239946648373 -0.022195247468258759 0 0.00058820526862371437 -0.022123185628049429 0 0.0010441402514135569 -0.021758881641265906 0 0.00094882748575194232 -0.021069688873765237 0 0.00058820526862371437 -0.022123185628049429 0 0.0010441402514135569 -0.021758881641265906 0 0.00081864734466616967 -0.022274523806475491 0 0.0012004883155067282 -0.021280981432520725 0 0.0010441402514135569 -0.021758881641265906 0 0.00094882748575194232 -0.021069688873765237 0 0.0012004883155067282 -0.021280981432520725 0 0.0014207326935495978 -0.021762426615392728 0 0.001660370037702109 -0.021428745804875766 0 0.0012004883155067282 -0.021280981432520725 0 0.0014207326935495978 -0.021762426615392728 0 0.0010441402514135569 -0.021758881641265906 0 0.0014207326935495978 -0.021762426615392728 0 0.001660370037702109 -0.021428745804875766 0 0.0019959953703740669 -0.021855308120184918 0 0.0021313665161602339 -0.021317395167281653 0 0.001660370037702109 -0.021428745804875766 0 0.0019959953703740669 -0.021855308120184918 0 0.0021313665161602339 -0.021317395167281653 0 0.0019959953703740669 -0.021855308120184918 0 0.0026266875365372499 -0.021717595501299758 0 0.0019959953703740669 -0.021855308120184918 0 0.0019987166833691995 -0.022473836638656316 0 0.0025375797962094633 -0.022236604879968758 0 0.0014207326935495978 -0.021762426615392728 0 0.0019959953703740669 -0.021855308120184918 0 0.0015938239946648373 -0.022195247468258759 0 0.0019959953703740669 -0.021855308120184918 0 0.0015938239946648373 -0.022195247468258759 0 0.0019987166833691995 -0.022473836638656316 0 0.0015938239946648373 -0.022195247468258759 0 0.0019987166833691995 -0.022473836638656316 0 0.0012052040145184104 -0.022971426543258112 0 0.0013533445436660998 -0.023221790293700497 0 0.001198110790907679 -0.023040145680360988 0 0.0013533445436660998 -0.023221790293700497 0 0.001703910976537383 -0.023288456204013878 0 0.00091152074076806286 -0.023941165001807912 0 0.00095124472841135507 -0.023554162456195311 0 0.00051557693621612525 -0.024163369988775558 0 0.00095124472841135507 -0.023554162456195311 0 0.0012052040145184104 -0.022971426543258112 0 0.0010795133700351902 -0.023317713811847132 0 0.00091152074076806286 -0.023941165001807912 0 0.00095124472841135507 -0.023554162456195311 0 0.0012052040145184104 -0.022971426543258112 0 0.0010040219428401691 -0.023061181766803621 0 0.0012052040145184104 -0.022971426543258112 0 0.00067183600044190919 -0.022521881494637106 0 0.0010040219428401691 -0.023061181766803621 0 0.0012052040145184104 -0.022971426543258112 0 0.0010795133700351902 -0.023317713811847132 0 0.0012106372232628417 -0.022176072226949829 0 0.0012052040145184104 -0.022971426543258112 0 0.00081864734466616967 -0.022274523806475491 0 0.0012106372232628417 -0.022176072226949829 0 0.0015938239946648373 -0.022195247468258759 0 0.0012052040145184104 -0.022971426543258112 0 0.0012052040145184104 -0.022971426543258112 0 0.00081864734466616967 -0.022274523806475491 0 0.00067183600044190919 -0.022521881494637106 0 0.00071887155966864698 -0.022291827161823735 0 0.00058820526862371437 -0.022123185628049429 0 0.00081864734466616967 -0.022274523806475491 0 0.00071887155966864698 -0.022291827161823735 0 0.00081864734466616967 -0.022274523806475491 0 0.00067183600044190919 -0.022521881494637106 0 0.0010040219428401691 -0.023061181766803621 0 0.00067183600044190919 -0.022521881494637106 0 0.00090497447651410998 -0.023385476569530574 0 0.00082488921784372015 -0.021838118163645375 0 0.00067183600044190919 -0.022521881494637106 0 0.00052802219717882877 -0.020841642038510064 0 0.00067205790012398456 -0.022450571737100643 0 0.00075193899434857956 -0.022102883491542501 0 0.00082488921784372015 -0.021838118163645375 0 0.00071887155966864698 -0.022291827161823735 0 0.00067183600044190919 -0.022521881494637106 0 0.00090497447651410998 -0.023385476569530574 0 0.0010795133700351902 -0.023317713811847132 0 0.0010204463254267894 -0.023389660265426701 0 0.0010040219428401691 -0.023061181766803621 0 0.00090497447651410998 -0.023385476569530574 0 0.0010795133700351902 -0.023317713811847132 0 0.0010204463254267894 -0.023389660265426701 0 0.0010293309322042716 -0.023338453142651126 0 0.001005888661728996 -0.02337139786949444 0 0.0010795133700351902 -0.023317713811847132 0 0.0010204463254267894 -0.023389660265426701 0 0.001005888661728996 -0.02337139786949444 0 0.0012152047100372507 -0.023344061859308554 0 0.00090497447651410998 -0.023385476569530574 0 0.0010204463254267894 -0.023389660265426701 0 0.0012152047100372507 -0.023344061859308554 0 0.0010204463254267894 -0.023389660265426701 0 0.0010293309322042716 -0.023338453142651126 0 0.0012152047100372507 -0.023344061859308554 0 0.0010293309322042716 -0.023338453142651126 0 0.0011728807695084275 -0.023204362971242152 0 0.0010293309322042716 -0.023338453142651126 0 0.00086504164262210601 -0.023318956245550988 0 0.0010231963685237047 -0.023120501587465227 0 0.0010293309322042716 -0.023338453142651126 0 0.0011728807695084275 -0.023204362971242152 0 0.0010231963685237047 -0.023120501587465227 0 0.00092295462223027926 -0.023316585576950283 0 0.00085006151980057839 -0.023238529344084116 0 0.00098599255200749916 -0.023294762220976404 0 0.00087538742262217959 -0.023359224048190057 0 0.00088087939927202462 -0.023247919278845827 0 0.00086504164262210601 -0.023318956245550988 0 0.00079185852102247711 -0.023381745940720837 0 0.00086102377148277733 -0.023275946466845825 0 0.0010170080367180232 -0.023334312765995142 0 0.00092295462223027926 -0.023316585576950283 0 0.0010293309322042716 -0.023338453142651126 0 0.00098599255200749916 -0.023294762220976404 0 0.001005888661728996 -0.02337139786949444 0 0.00098599255200749916 -0.023294762220976404 0 0.001005888661728996 -0.02337139786949444 0 0.00087538742262217959 -0.023359224048190057 0 0.00090769913703258535 -0.023439999067510011 0 0.001005888661728996 -0.02337139786949444 0 0.00087538742262217959 -0.023359224048190057 0 0.00095124472841135507 -0.023554162456195311 0 0.0010795133700351902 -0.023317713811847132 0 0.001005888661728996 -0.02337139786949444 0 0.00095124472841135507 -0.023554162456195311 0 0.00090769913703258535 -0.023439999067510011 0 0.0008143267679147474 -0.023487123424799569 0 0.00095124472841135507 -0.023554162456195311 0 0.00090769913703258535 -0.023439999067510011 0 0.001005888661728996 -0.02337139786949444 0 0.00093683674811573226 -0.023630840055040968 0 0.00067337387565788583 -0.023788675140157995 0 0.00037317492326193673 -0.024172075910890069 0 9.5193143956437152e-05 -0.024672179182743077 0 0.00016496547616481116 -0.024560246324699133 0 0.00037317492326193673 -0.024172075910890069 0 0.00016496547616481116 -0.024560246324699133 0 0.0002204104867509591 -0.024489741585935153 0 0.00067337387565788583 -0.023788675140157995 0 0.00018639350658153321 -0.024371141684869386 0 0.0008143267679147474 -0.023487123424799569 0 0.00077745719557064524 -0.023393279656646327 0 0.00068526753456881731 -0.0234497711266261 0 0.00090769913703258535 -0.023439999067510011 0 0.0008143267679147474 -0.023487123424799569 0 0.00087538742262217959 -0.023359224048190057 0 0.0008143267679147474 -0.023487123424799569 0 0.00077745719557064524 -0.023393279656646327 0 0.00087538742262217959 -0.023359224048190057 0 0.00077745719557064524 -0.023393279656646327 0 0.00087538742262217959 -0.023359224048190057 0 0.00080458735682531425 -0.023277452202128346 0 0.00077745719557064524 -0.023393279656646327 0 0.00080458735682531425 -0.023277452202128346 0 0.00073406367047796457 -0.023324429187499576 0 0.00037241380405715347 -0.024122646919210424 0 0.00058606846581375793 -0.024123368010444318 0 0.00080458735682531425 -0.023277452202128346 0 0.00073406367047796457 -0.023324429187499576 0 0.00077967346871952135 -0.023208593155086474 0 0.00080458735682531425 -0.023277452202128346 0 0.00088087939927202462 -0.023247919278845827 0 0.00077967346871952135 -0.023208593155086474 0 0.00087538742262217959 -0.023359224048190057 0 0.00080458735682531425 -0.023277452202128346 0 0.00088087939927202462 -0.023247919278845827 0 2.1958622944927326e-09 -0.024999993385069121 0 5.3141797596839705e-06 -0.024993630335802021 0 4.3097181674979977e-06 -0.024995817346221642 0 2.1958622944927326e-09 -0.024999993385069121 0 5.3141797596839705e-06 -0.024993630335802021 0 3.3539139562277796e-09 -0.024999991448515304 0 5.3141797596839705e-06 -0.024993630335802021 0 9.4623760749306271e-06 -0.024990926650608494 0 4.3097181674979977e-06 -0.024995817346221642 0 5.3141797596839705e-06 -0.024993630335802021 0 9.4623760749306271e-06 -0.024990926650608494 0 1.40138199566597e-05 -0.02498475133624745 0 9.4623760749306271e-06 -0.024990926650608494 0 4.3097181674979977e-06 -0.024995817346221642 0 6.5156492217323181e-06 -0.024994224353791599 0 0.00037241380405715347 -0.024122646919210424 0 0.00018639350658153321 -0.024371141684869386 0 2.1958622944927326e-09 -0.024999993385069121 0 4.3097181674979977e-06 -0.024995817346221642 0 5.5096190985590782e-09 -0.024999994258978277 0 7.2919324774886774e-08 -0.025000120683215204 0 0.00018639350658153321 -0.024371141684869386 0 4.3097181674979977e-06 -0.024995817346221642 0 5.5096190985590782e-09 -0.024999994258978277 0 6.5156492217323181e-06 -0.024994224353791599 0 6.9878382051093525e-08 -0.024999793037760343 0 8.8432214709692594e-05 -0.024709694185912859 0 5.0466149103371537e-05 -0.02484676408206277 0 6.9878382051093525e-08 -0.024999793037760343 0 7.7567398657320315e-05 -0.024733286765119492 0 8.8432214709692594e-05 -0.024709694185912859 0 0.00077745719557064524 -0.023393279656646327 0 0.00073406367047796457 -0.023324429187499576 0 0.00068526753456881731 -0.0234497711266261 0 0.00018639350658153321 -0.024371141684869386 0 0.00013109779677370991 -0.024540648051142443 0 8.4887153349424673e-05 -0.024749927652249693 0 0.00016496547616481116 -0.024560246324699133 0 0.0002204104867509591 -0.024489741585935153 0 9.5193143956437152e-05 -0.024672179182743077 0 8.8432214709692594e-05 -0.024709694185912859 0 0.00016496547616481116 -0.024560246324699133 0 8.8432214709692594e-05 -0.024709694185912859 0 8.4887153349424673e-05 -0.024749927652249693 0 0.00016496547616481116 -0.024560246324699133 0 6.9878382051093525e-08 -0.024999793037760343 0 3.3421610815846903e-08 -0.024999660964633547 0 5.0466149103371537e-05 -0.02484676408206277 0 8.4887153349424673e-05 -0.024749927652249693 0 3.3421610815846903e-08 -0.024999660964633547 0 5.0466149103371537e-05 -0.02484676408206277 0 8.8432214709692594e-05 -0.024709694185912859 0 8.4887153349424673e-05 -0.024749927652249693 0 5.0466149103371537e-05 -0.02484676408206277 0 3.3421610815846903e-08 -0.024999660964633547 0 6.9900300352687334e-05 -0.024795186431547538 0 1.2290841680584484e-07 -0.024999500840761309 0 8.4887153349424673e-05 -0.024749927652249693 0 3.3421610815846903e-08 -0.024999660964633547 0 6.9900300352687334e-05 -0.024795186431547538 0 -3.6189259014851298e-07 -0.025000597050714113 0 -0.00010372759392014382 -0.02501369687565308 0 -5.4035078990746012e-05 -0.024956769334763682 0 -3.6189259014851298e-07 -0.025000597050714113 0 6.8387848486110969e-07 -0.024998960926664471 0 -5.4035078990746012e-05 -0.024956769334763682 0 -3.0824082898438746e-08 -0.024999921225771327 0 -4.5778565388320628e-05 -0.024883268598032152 0 6.9900300352687334e-05 -0.024795186431547538 0 1.2290841680584484e-07 -0.024999500840761309 0 7.6958248177758811e-05 -0.024768824838710547 0 7.6958248177758811e-05 -0.024768824838710547 0 0.00020798100326934114 -0.02458788707909778 0 0.00018054112353947253 -0.024752579083648099 0 6.9900300352687334e-05 -0.024795186431547538 0 7.6958248177758811e-05 -0.024768824838710547 0 0.00020798100326934114 -0.02458788707909778 0 6.9900300352687334e-05 -0.024795186431547538 0 0.0002204104867509591 -0.024489741585935153 0 0.00020798100326934114 -0.02458788707909778 0 8.4887153349424673e-05 -0.024749927652249693 0 6.9900300352687334e-05 -0.024795186431547538 0 0.0002204104867509591 -0.024489741585935153 0 0.0002204104867509591 -0.024489741585935153 0 0.00051557693621612525 -0.024163369988775558 0 0.00020798100326934114 -0.02458788707909778 0 0.00037317492326193673 -0.024172075910890069 0 0.0002204104867509591 -0.024489741585935153 0 0.00051557693621612525 -0.024163369988775558 0 0.00095124472841135507 -0.023554162456195311 0 0.00037317492326193673 -0.024172075910890069 0 0.00051557693621612525 -0.024163369988775558 0 0.00091152074076806286 -0.023941165001807912 0 0.00051557693621612525 -0.024163369988775558 0 0.00046894543995521073 -0.024517486351546103 0 0.00046894543995521073 -0.024517486351546103 0 0.00020798100326934114 -0.02458788707909778 0 0.00018054112353947253 -0.024752579083648099 0 0.00051557693621612525 -0.024163369988775558 0 0.00046894543995521073 -0.024517486351546103 0 0.00020798100326934114 -0.02458788707909778 0 0.001703910976537383 -0.023288456204013878 0 0.00065359410188297435 -0.023880735699384356 0 0.0025375797962094633 -0.022236604879968758 0 0.0026266875365372499 -0.021717595501299758 0 0.0030518623578322957 -0.022070036394045471 0 0.001198165861711419 -0.022951357883858645 0 0.00065359410188297435 -0.023880735699384356 0 0.0019959953703740669 -0.021855308120184918 0 0.0025375797962094633 -0.022236604879968758 0 0.0026266875365372499 -0.021717595501299758 0 0.0007737713374244042 -0.02275580491236651 0 0.001198165861711419 -0.022951357883858645 0 -0.00041843081706706214 -0.024053936053169963 0 -0.00057198654916869708 -0.024081642388965749 0 -0.00041912719257962449 -0.024270904654792005 0 -0.00041843081706706214 -0.024053936053169963 0 -0.00026832462105525937 -0.024308795245863012 0 -0.00012650449840905832 -0.02411973850810676 0 -0.00041843081706706214 -0.024053936053169963 0 -0.00041912719257962449 -0.024270904654792005 0 -0.00026832462105525937 -0.024308795245863012 0 -0.00041912719257962449 -0.024270904654792005 0 -0.00026832462105525937 -0.024308795245863012 0 -0.00020558926083185023 -0.024486510371422344 0 -0.00026832462105525937 -0.024308795245863012 0 -0.00012650449840905832 -0.02411973850810676 0 -0.00011597653826497921 -0.02440615124483983 0 -0.00012650449840905832 -0.02411973850810676 0 -0.00011597653826497921 -0.02440615124483983 0 1.946655742807511e-05 -0.02430578673515214 0 0.00012558497533162876 -0.024608328793506985 0 6.1833260311406275e-08 -0.024999773932774898 0 0.00027533053422365181 -0.024153501571772325 0 2.6589065008899145e-05 -0.024709638493411887 0 6.8387848486110969e-07 -0.024998960926664471 0 1.946655742807511e-05 -0.02430578673515214 0 0.00027533053422365181 -0.024153501571772325 0 2.6589065008899145e-05 -0.024709638493411887 0 8.20319573090291e-10 -0.02499999692436463 0 1.2227731676084942e-07 -0.024999646551113787 0 3.4292866369109041e-10 -0.024999999718466885 0 -0.00011597653826497921 -0.02440615124483983 0 1.946655742807511e-05 -0.02430578673515214 0 2.6589065008899145e-05 -0.024709638493411887 0 2.6589065008899145e-05 -0.024709638493411887 0 -5.4035078990746012e-05 -0.024956769334763682 0 -0.00034812279325548904 -0.024903634424724191 0 2.6589065008899145e-05 -0.024709638493411887 0 6.8387848486110969e-07 -0.024998960926664471 0 -5.4035078990746012e-05 -0.024956769334763682 0 -0.00010372759392014382 -0.02501369687565308 0 -5.4035078990746012e-05 -0.024956769334763682 0 -0.00034812279325548904 -0.024903634424724191 0 -0.00011597653826497921 -0.02440615124483983 0 2.6589065008899145e-05 -0.024709638493411887 0 -0.00020558926083185023 -0.024486510371422344 0 -0.00038626453370064546 -0.024923190373468112 0 0.00065359410188297435 -0.023880735699384356 0 -4.5778565388320628e-05 -0.024883268598032152 0 0.00065359410188297435 -0.023880735699384356 0 -0.00026832462105525937 -0.024308795245863012 0 -0.00011597653826497921 -0.02440615124483983 0 -0.00020558926083185023 -0.024486510371422344 0 8.0303642981980654e-05 -0.025014951444726506 0 2.161527042004101e-08 -0.024999930393892828 0 7.9254050982565348e-05 -0.024921302234301744 0 8.0303642981980654e-05 -0.025014951444726506 0 2.161527042004101e-08 -0.024999930393892828 0 2.7161354772351298e-08 -0.02500010866890862 0 2.161527042004101e-08 -0.024999930393892828 0 7.9254050982565348e-05 -0.024921302234301744 0 4.6622511277288292e-08 -0.024999835404818645 0 7.9254050982565348e-05 -0.024921302234301744 0 0.00026698837606081396 -0.024879110515308053 0 0.00018381358596769861 -0.024801609654854773 0 0.00026698837606081396 -0.024879110515308053 0 0.0004340523410725685 -0.024783455362582599 0 0.00035492718137916093 -0.024676845783365389 0 0.00026698837606081396 -0.024879110515308053 0 0.00032405452290536777 -0.025032102640927627 0 0.0005226506971287261 -0.02494405910900345 0 8.0303642981980654e-05 -0.025014951444726506 0 7.9254050982565348e-05 -0.024921302234301744 0 0.00026698837606081396 -0.024879110515308053 0 0.00013260494274759381 -0.024935292105568285 0 0.00026698837606081396 -0.024879110515308053 0 0.0002074478288466688 -0.025006706445552074 0 0.00010905258846263187 -0.024970207832954172 0 0.0002563154755181765 -0.024886944925645214 0 0.00026698837606081396 -0.024879110515308053 0 0.0002074478288466688 -0.025006706445552074 0 0.00032405452290536777 -0.025032102640927627 0 0.0016671326648721007 -0.02276463320222679 0 0.0016813700673214249 -0.022734790196546256 0 0.0016629525358967555 -0.022712604975036833 0 0.0016671326648721007 -0.02276463320222679 0 0.0016629525358967555 -0.022712604975036833 0 0.0016186815273659635 -0.022743010460430455 0 0.0002074478288466688 -0.025006706445552074 0 0.00018631247636855417 -0.02509052052067938 0 0.00013439222270544507 -0.02502143369233728 0 0.0002074478288466688 -0.025006706445552074 0 0.00032405452290536777 -0.025032102640927627 0 0.00018631247636855417 -0.02509052052067938 0 0.0010815382775475988 -0.023864751755232602 0 0.00050798070657891571 -0.02401008438143527 0 0.00050798070657891571 -0.02401008438143527 0 0.0013137425612740276 -0.023056139487991942 0 0.00050798070657891571 -0.02401008438143527 0 -1.1045445449901324e-05 -0.024939393427204727 0 0.00018631247636855417 -0.02509052052067938 0 8.5210364816247448e-05 -0.025064556607999632 0 0.00013439222270544507 -0.02502143369233728 0 8.5210364816247448e-05 -0.025064556607999632 0 0.00013439222270544507 -0.02502143369233728 0 6.2424269517615078e-05 -0.025008620255789014 0 0.00013260494274759381 -0.024935292105568285 0 0.0002074478288466688 -0.025006706445552074 0 0.00013439222270544507 -0.02502143369233728 0 0.00013260494274759381 -0.024935292105568285 0 0.00013439222270544507 -0.02502143369233728 0 6.2424269517615078e-05 -0.025008620255789014 0 0.00010905258846263187 -0.024970207832954172 0 2.4936266618724929e-08 -0.025000000322922829 0 0.00013260494274759381 -0.024935292105568285 0 6.2424269517615078e-05 -0.025008620255789014 0 2.7447630221388938e-08 -0.024999861642510859 0 5.1649008026631856e-05 -0.024817225608406008 0 1.6086508947433928e-07 -0.024999704407650824 0 6.7001980586753104e-05 -0.02476988549035427 0 8.5210364816247448e-05 -0.025064556607999632 0 6.2424269517615078e-05 -0.025008620255789014 0 5.7756501818176123e-09 -0.025000180243709261 0 6.2424269517615078e-05 -0.025008620255789014 0 2.7447630221388938e-08 -0.024999861642510859 0 5.7756501818176123e-09 -0.025000180243709261 0 -1.1045445449901324e-05 -0.024939393427204727 0 1.4901681517930103e-07 -0.024999978483378458 0 1.6086508947433928e-07 -0.024999704407650824 0 6.7001980586753104e-05 -0.02476988549035427 0 5.6032046771629687e-08 -0.024999454071735004 0 5.1649008026631856e-05 -0.024817225608406008 0 6.7001980586753104e-05 -0.02476988549035427 0 6.235344742564889e-05 -0.024453911128786036 0 6.7001980586753104e-05 -0.02476988549035427 0 6.235344742564889e-05 -0.024453911128786036 0 5.994816007249425e-05 -0.024713216025735917 0 6.7001980586753104e-05 -0.02476988549035427 0 5.6032046771629687e-08 -0.024999454071735004 0 5.994816007249425e-05 -0.024713216025735917 0 0.00041779724827006577 -0.02373562725469814 0 6.235344742564889e-05 -0.024453911128786036 0 0.00040532875041337331 -0.024149379377481368 0 -0.00035991366599822451 -0.024754149411151883 0 5.1649008026631856e-05 -0.024817225608406008 0 6.235344742564889e-05 -0.024453911128786036 0 0.00050798070657891571 -0.02401008438143527 0 -9.2391904931377381e-05 -0.024494451654033338 0 6.235344742564889e-05 -0.024453911128786036 0 0.00017664407399714589 -0.024498888934757723 0 5.994816007249425e-05 -0.024713216025735917 0 6.235344742564889e-05 -0.024453911128786036 0 0.00017664407399714589 -0.024498888934757723 0 0.00040532875041337331 -0.024149379377481368 0 0.00017664407399714589 -0.024498888934757723 0 0.00036094577142710562 -0.024358095588756075 0 0.00040532875041337331 -0.024149379377481368 0 0.00017664407399714589 -0.024498888934757723 0 5.994816007249425e-05 -0.024713216025735917 0 2.8528338230421295e-08 -0.024999359493393512 0 5.6032046771629687e-08 -0.024999454071735004 0 5.994816007249425e-05 -0.024713216025735917 0 2.8528338230421295e-08 -0.024999359493393512 0 0.00017664407399714589 -0.024498888934757723 0 2.8528338230421295e-08 -0.024999359493393512 0 0.00013595939763763354 -0.024622998403616245 0 -4.7030610770345861e-08 -0.02499985030266124 0 4.1150259175338747e-05 -0.024878901015245161 0 8.1755617474555039e-10 -0.024999992664975278 0 5.3946487910514713e-06 -0.024991930817159842 0 3.3539139562277796e-09 -0.024999991448515304 0 0.00013595939763763354 -0.024622998403616245 0 0.00055618859839521955 -0.024790269844748466 0 0.00036094577142710562 -0.024358095588756075 0 0.00017664407399714589 -0.024498888934757723 0 0.00013595939763763354 -0.024622998403616245 0 0.00036094577142710562 -0.024358095588756075 0 5.3141797596839705e-06 -0.024993630335802021 0 5.3946487910514713e-06 -0.024991930817159842 0 1.40138199566597e-05 -0.02498475133624745 0 4.1150259175338747e-05 -0.024878901015245161 0 0.00058606846581375793 -0.024123368010444318 0 5.3141797596839705e-06 -0.024993630335802021 0 5.3946487910514713e-06 -0.024991930817159842 0 3.3539139562277796e-09 -0.024999991448515304 0 0.00079185852102247711 -0.023381745940720837 0 0.00091912148773256425 -0.023534706836259467 0 0.00075997966629470087 -0.023530429699522435 0 0.00085006151980057839 -0.023238529344084116 0 0.00058606846581375793 -0.024123368010444318 0 0.00058606846581375793 -0.024123368010444318 0 0.00077273030784974538 -0.023986125313035789 0 0.00055618859839521955 -0.024790269844748466 0 0.00036094577142710562 -0.024358095588756075 0 0.0007464320167876997 -0.023960408482765261 0 0.0007464320167876997 -0.023960408482765261 0 0.00075997966629470087 -0.023530429699522435 0 0.00081186648927485333 -0.023508016275494158 0 0.00091912148773256425 -0.023534706836259467 0 0.0007464320167876997 -0.023960408482765261 0 0.00075997966629470087 -0.023530429699522435 0 0.0007464320167876997 -0.023960408482765261 0 0.00067609241052158926 -0.02375383752419212 0 0.00081186648927485333 -0.023508016275494158 0 0.00036094577142710562 -0.024358095588756075 0 0.0007464320167876997 -0.023960408482765261 0 0.00040532875041337331 -0.024149379377481368 0 0.0007464320167876997 -0.023960408482765261 0 0.00040532875041337331 -0.024149379377481368 0 0.00067609241052158926 -0.02375383752419212 0 0.00041779724827006577 -0.02373562725469814 0 0.00067609241052158926 -0.02375383752419212 0 0.00074528546633047981 -0.023480369953400144 0 0.00041779724827006577 -0.02373562725469814 0 0.00040532875041337331 -0.024149379377481368 0 0.00067609241052158926 -0.02375383752419212 0 0.00067609241052158926 -0.02375383752419212 0 0.00074528546633047981 -0.023480369953400144 0 0.00081186648927485333 -0.023508016275494158 0 0.0013137425612740276 -0.023056139487991942 0 0.0012629639735766516 -0.022881182266508818 0 0.00093433766115996676 -0.023100144306558462 0 0.0010179236229940175 -0.023072894110875361 0 0.00081186648927485333 -0.023508016275494158 0 0.00074528546633047981 -0.023480369953400144 0 0.00093433766115996676 -0.023100144306558462 0 0.00081186648927485333 -0.023508016275494158 0 0.0012629639735766516 -0.022881182266508818 0 0.0013354359468172579 -0.022730878403265299 0 0.0010179236229940175 -0.023072894110875361 0 0.0012206319130298403 -0.022717630426072923 0 0.00130507889132689 -0.022671287557980018 0 0.00093433766115996676 -0.023100144306558462 0 0.0010179236229940175 -0.023072894110875361 0 0.00130507889132689 -0.022671287557980018 0 0.0010179236229940175 -0.023072894110875361 0 0.00091085594454721574 -0.023216439406864835 0 0.0012206319130298403 -0.022717630426072923 0 0.0010179236229940175 -0.023072894110875361 0 0.00081186648927485333 -0.023508016275494158 0 0.00091085594454721574 -0.023216439406864835 0 0.00075997966629470087 -0.023530429699522435 0 0.00081186648927485333 -0.023508016275494158 0 0.00091085594454721574 -0.023216439406864835 0 0.00075997966629470087 -0.023530429699522435 0 0.00091085594454721574 -0.023216439406864835 0 0.00086102377148277733 -0.023275946466845825 0 0.00091085594454721574 -0.023216439406864835 0 0.0010400629684728417 -0.022974668809366144 0 0.0012206319130298403 -0.022717630426072923 0 0.00091085594454721574 -0.023216439406864835 0 0.00086102377148277733 -0.023275946466845825 0 0.0010400629684728417 -0.022974668809366144 0 0.00086504164262210601 -0.023318956245550988 0 0.00086102377148277733 -0.023275946466845825 0 0.0010231963685237047 -0.023120501587465227 0 0.00079185852102247711 -0.023381745940720837 0 0.00075997966629470087 -0.023530429699522435 0 0.00086102377148277733 -0.023275946466845825 0 0.0011728807695084275 -0.023204362971242152 0 0.0010231963685237047 -0.023120501587465227 0 0.0015108125485032765 -0.02292706255638376 0 0.0010231963685237047 -0.023120501587465227 0 0.0012395039368216947 -0.022543511488127683 0 0.0015108125485032765 -0.02292706255638376 0 0.00086102377148277733 -0.023275946466845825 0 0.0010231963685237047 -0.023120501587465227 0 0.0010400629684728417 -0.022974668809366144 0 0.0010231963685237047 -0.023120501587465227 0 0.0010400629684728417 -0.022974668809366144 0 0.0012395039368216947 -0.022543511488127683 0 0.0010400629684728417 -0.022974668809366144 0 0.0012395039368216947 -0.022543511488127683 0 0.0012206319130298403 -0.022717630426072923 0 0.0012395039368216947 -0.022543511488127683 0 0.0012206319130298403 -0.022717630426072923 0 0.0014155195647648075 -0.022232422518635234 0 0.0012206319130298403 -0.022717630426072923 0 0.00130507889132689 -0.022671287557980018 0 0.001416825184655566 -0.022514230134376995 0 0.0012206319130298403 -0.022717630426072923 0 0.001416825184655566 -0.022514230134376995 0 0.0014155195647648075 -0.022232422518635234 0 0.001416825184655566 -0.022514230134376995 0 0.0012658285120434741 -0.022513182405124354 0 0.0014155195647648075 -0.022232422518635234 0 0.0014892196520213433 -0.022796210353879777 0 0.001416825184655566 -0.022514230134376995 0 0.0012658285120434741 -0.022513182405124354 0 0.0014892196520213433 -0.022796210353879777 0 0.0012700333828161237 -0.023080950970771844 0 0.0012658285120434741 -0.022513182405124354 0 0.00130507889132689 -0.022671287557980018 0 0.001416825184655566 -0.022514230134376995 0 0.001493973418868969 -0.022706860814007874 0 0.0014892196520213433 -0.022796210353879777 0 0.001416825184655566 -0.022514230134376995 0 0.001493973418868969 -0.022706860814007874 0 0.0015719870361567403 -0.022657666311316892 0 0.00130507889132689 -0.022671287557980018 0 0.001493973418868969 -0.022706860814007874 0 0.0015719870361567403 -0.022657666311316892 0 0.001493973418868969 -0.022706860814007874 0 0.0016186815273659635 -0.022743010460430455 0 0.0016629525358967555 -0.022712604975036833 0 0.0015719870361567403 -0.022657666311316892 0 0.0016186815273659635 -0.022743010460430455 0 0.0010815382775475988 -0.023864751755232602 0 0.0010727931744566395 -0.023931083594880692 0 0.0016671326648721007 -0.02276463320222679 0 0.0016186815273659635 -0.022743010460430455 0 0.0016573016071408974 -0.022887933393366238 0 0.001493973418868969 -0.022706860814007874 0 0.0016186815273659635 -0.022743010460430455 0 0.0016573016071408974 -0.022887933393366238 0 0.0014892196520213433 -0.022796210353879777 0 0.001493973418868969 -0.022706860814007874 0 0.0016573016071408974 -0.022887933393366238 0 0.0010727931744566395 -0.023931083594880692 0 0.0012138529050845035 -0.023941690365289054 0 0.0014892196520213433 -0.022796210353879777 0 0.0016573016071408974 -0.022887933393366238 0 0.0016481043581948608 -0.02318615130416482 0 0.0005226506971287261 -0.02494405910900345 0 0.0004340523410725685 -0.024783455362582599 0 0.0008306085165979924 -0.02468938239239685 0 0.00026698837606081396 -0.024879110515308053 0 0.0005226506971287261 -0.02494405910900345 0 0.0004340523410725685 -0.024783455362582599 0 0.0004340523410725685 -0.024783455362582599 0 0.0008306085165979924 -0.02468938239239685 0 0.00055873691084527323 -0.024566710705821906 0 0.0008306085165979924 -0.02468938239239685 0 0.00081660911313824708 -0.024368208198039854 0 0.00055873691084527323 -0.024566710705821906 0 0.0008306085165979924 -0.02468938239239685 0 0.0012082273286920374 -0.023934822692997744 0 0.00081660911313824708 -0.024368208198039854 0 0.0012138529050845035 -0.023941690365289054 0 0.0011830382463084311 -0.023962121840312288 0 0.0016481043581948608 -0.02318615130416482 0 0.0012700333828161237 -0.023080950970771844 0 0.0012082273286920374 -0.023934822692997744 0 0.0014892196520213433 -0.022796210353879777 0 0.0016481043581948608 -0.02318615130416482 0 0.0012700333828161237 -0.023080950970771844 0 0.0010361224543011538 -0.022998975472256985 0 0.00081044433867636983 -0.023308195225082373 0 0.00083487366526898863 -0.022710144158798708 0 0.0010361224543011538 -0.022998975472256985 0 0.00083487366526898863 -0.022710144158798708 0 0.0012658285120434741 -0.022513182405124354 0 0.0012700333828161237 -0.023080950970771844 0 0.0010361224543011538 -0.022998975472256985 0 0.0010452408919061193 -0.023422555774900222 0 0.0012700333828161237 -0.023080950970771844 0 0.0010361224543011538 -0.022998975472256985 0 0.0012658285120434741 -0.022513182405124354 0 0.0012700333828161237 -0.023080950970771844 0 0.0010452408919061193 -0.023422555774900222 0 0.0012082273286920374 -0.023934822692997744 0 0.0010361224543011538 -0.022998975472256985 0 0.0010452408919061193 -0.023422555774900222 0 0.00081044433867636983 -0.023308195225082373 0 0.0010452408919061193 -0.023422555774900222 0 0.00081044433867636983 -0.023308195225082373 0 0.00087990934748207166 -0.023679874903202457 0 0.00081044433867636983 -0.023308195225082373 0 0.00053002258939047534 -0.023115585717457001 0 0.0006584409473090958 -0.023649299379146168 0 0.0005831832809806717 -0.022897071697141998 0 0.00040417522311264836 -0.023039415970204188 0 0.00038944358462794003 -0.022680196313352743 0 0.00052393196779277089 -0.022584449048056742 0 0.00063877519775685371 -0.022807507677155024 0 0.00038944358462794003 -0.022680196313352743 0 0.00052393196779277089 -0.022584449048056742 0 0.00037486903687200703 -0.022524823891360894 0 0.0005831832809806717 -0.022897071697141998 0 0.00045245799471852084 -0.022421865980250311 0 0.00053002258939047534 -0.023115585717457001 0 0.00083487366526898863 -0.022710144158798708 0 0.00048129500907835798 -0.022391134497268868 0 0.00052393196779277089 -0.022584449048056742 0 0.00048129500907835798 -0.022391134497268868 0 0.00037486903687200703 -0.022524823891360894 0 0.00081044433867636983 -0.023308195225082373 0 0.00053002258939047534 -0.023115585717457001 0 0.00083487366526898863 -0.022710144158798708 0 0.00083487366526898863 -0.022710144158798708 0 0.00048129500907835798 -0.022391134497268868 0 0.00099814249493389729 -0.022197037568338379 0 0.00048129500907835798 -0.022391134497268868 0 0.00083222976285717021 -0.021769404225006773 0 0.00055017312416251267 -0.021891557429012273 0 0.00048129500907835798 -0.022391134497268868 0 0.00083222976285717021 -0.021769404225006773 0 0.00099814249493389729 -0.022197037568338379 0 0.00083222976285717021 -0.021769404225006773 0 0.00099814249493389729 -0.022197037568338379 0 0.0011162856997604307 -0.021664341084742703 0 0.00099814249493389729 -0.022197037568338379 0 0.0013139408341469574 -0.022047493842681249 0 0.0011162856997604307 -0.021664341084742703 0 0.00099814249493389729 -0.022197037568338379 0 0.0012658285120434741 -0.022513182405124354 0 0.0013139408341469574 -0.022047493842681249 0 0.00083487366526898863 -0.022710144158798708 0 0.00099814249493389729 -0.022197037568338379 0 0.0012658285120434741 -0.022513182405124354 0 0.0012658285120434741 -0.022513182405124354 0 0.0014155195647648075 -0.022232422518635234 0 0.0013139408341469574 -0.022047493842681249 0 0.0014155195647648075 -0.022232422518635234 0 0.0013139408341469574 -0.022047493842681249 0 0.0015971226911169077 -0.021730532745492637 0 0.0013139408341469574 -0.022047493842681249 0 0.0015971226911169077 -0.021730532745492637 0 0.0011162856997604307 -0.021664341084742703 0 0.0012395039368216947 -0.022543511488127683 0 0.0014155195647648075 -0.022232422518635234 0 0.0015971226911169077 -0.021730532745492637 0 0.0015973746848199149 -0.021741618055766267 0 0.001571325714914236 -0.021594377502196102 0 0.0012395039368216947 -0.022543511488127683 0 0.0015971226911169077 -0.021730532745492637 0 0.0015108125485032765 -0.02292706255638376 0 0.0015971226911169077 -0.021730532745492637 0 0.0013517799765690648 -0.020406966787107378 0 0.0016982752433081347 -0.020221156675932068 0 0.0015971226911169077 -0.021730532745492637 0 0.0013517799765690648 -0.020406966787107378 0 0.0011120109526595878 -0.020565038105357612 0 0.0013861468954004604 -0.020014491734614993 0 0.0013517799765690648 -0.020406966787107378 0 0.0016982752433081347 -0.020221156675932068 0 0.0010163861794073459 -0.020172388889055575 0 0.0011912896255047208 -0.020047560991118766 0 0.0010262988876704358 -0.019892783421260277 0 0.0010163861794073459 -0.020172388889055575 0 0.0011912896255047208 -0.020047560991118766 0 0.0011120109526595878 -0.020565038105357612 0 0.0010163861794073459 -0.020172388889055575 0 0.0010262988876704358 -0.019892783421260277 0 0.00089328217318942549 -0.020006107437514044 0 0.0013517799765690648 -0.020406966787107378 0 0.0011912896255047208 -0.020047560991118766 0 0.0011120109526595878 -0.020565038105357612 0 0.0013861468954004604 -0.020014491734614993 0 0.0013517799765690648 -0.020406966787107378 0 0.0011912896255047208 -0.020047560991118766 0 0.0015971226911169077 -0.021730532745492637 0 0.0011120109526595878 -0.020565038105357612 0 0.0010454081742595558 -0.021050287348899698 0 0.0011120109526595878 -0.020565038105357612 0 0.00088935954649913657 -0.020431313485807335 0 0.0010454081742595558 -0.021050287348899698 0 0.0010163861794073459 -0.020172388889055575 0 0.0011120109526595878 -0.020565038105357612 0 0.00088935954649913657 -0.020431313485807335 0 0.0010163861794073459 -0.020172388889055575 0 0.00088935954649913657 -0.020431313485807335 0 0.00089328217318942549 -0.020006107437514044 0 0.00088935954649913657 -0.020431313485807335 0 0.00085758352037598057 -0.020787720718812436 0 0.00067645205422389796 -0.020564156330548606 0 0.0010454081742595558 -0.021050287348899698 0 0.0011162856997604307 -0.021664341084742703 0 0.00082215408147653522 -0.021159304483777473 0 0.00088935954649913657 -0.020431313485807335 0 0.00085758352037598057 -0.020787720718812436 0 0.0010454081742595558 -0.021050287348899698 0 0.00085758352037598057 -0.020787720718812436 0 0.0010454081742595558 -0.021050287348899698 0 0.00082215408147653522 -0.021159304483777473 0 0.00085758352037598057 -0.020787720718812436 0 0.00082215408147653522 -0.021159304483777473 0 0.00067645205422389796 -0.020564156330548606 0 0.0015971226911169077 -0.021730532745492637 0 0.0010454081742595558 -0.021050287348899698 0 0.0011162856997604307 -0.021664341084742703 0 0.00083222976285717021 -0.021769404225006773 0 0.0011162856997604307 -0.021664341084742703 0 0.00082215408147653522 -0.021159304483777473 0 0.00083222976285717021 -0.021769404225006773 0 0.00082215408147653522 -0.021159304483777473 0 0.00052721636440462415 -0.021379028569412331 0 0.00052721636440462415 -0.021379028569412331 0 0.00029798176780363464 -0.021266921173920643 0 0.0002354852335123444 -0.021561005275909151 0 0.00052721636440462415 -0.021379028569412331 0 0.00029798176780363464 -0.021266921173920643 0 0.00040807380853507836 -0.021004632787054174 0 0.00052721636440462415 -0.021379028569412331 0 0.00057377050375663756 -0.020881080042908597 0 0.00040807380853507836 -0.021004632787054174 0 0.00057377050375663756 -0.020881080042908597 0 0.00040807380853507836 -0.021004632787054174 0 0.00044283102110252031 -0.020682056431395906 0 0.00082215408147653522 -0.021159304483777473 0 0.00052721636440462415 -0.021379028569412331 0 0.00057377050375663756 -0.020881080042908597 0 0.00028759560930743884 -0.020661259269616875 0 0.00039120541562754051 -0.020076042154202414 0 -0.00025691765310370551 -0.021650169069511883 0 0.00045476108214466046 -0.018173272169148772 0 0.00039120541562754051 -0.020076042154202414 0 0.00087909011484594288 -0.018997201218771867 0 0.00045476108214466046 -0.018173272169148772 0 0.00039120541562754051 -0.020076042154202414 0 0.000373047423532378 -0.017846256624392251 0 0.00031450439839864584 -0.020010344948949481 0 0.00011777999920426693 -0.019781136630558124 0 0.00011272631095365552 -0.021322378565566028 0 0.00028759560930743884 -0.020661259269616875 0 -0.00025691765310370551 -0.021650169069511883 0 0.00026107215692951951 -0.021056458619981257 0 0.00011272631095365552 -0.021322378565566028 0 0.00029798176780363464 -0.021266921173920643 0 0.00011272631095365552 -0.021322378565566028 0 0.00029798176780363464 -0.021266921173920643 0 0.0002354852335123444 -0.021561005275909151 0 0.00026107215692951951 -0.021056458619981257 0 0.00029798176780363464 -0.021266921173920643 0 0.00040807380853507836 -0.021004632787054174 0 0.00026107215692951951 -0.021056458619981257 0 0.00011272631095365552 -0.021322378565566028 0 0.00028759560930743884 -0.020661259269616875 0 0.00040807380853507836 -0.021004632787054174 0 0.00028759560930743884 -0.020661259269616875 0 0.00044283102110252031 -0.020682056431395906 0 0.00026107215692951951 -0.021056458619981257 0 0.00040807380853507836 -0.021004632787054174 0 0.00028759560930743884 -0.020661259269616875 0 0.00039120541562754051 -0.020076042154202414 0 0.00027500187035058309 -0.020223968775089966 0 0.001365392533117052 -0.019299944506617303 0 0.00028759560930743884 -0.020661259269616875 0 0.00039120541562754051 -0.020076042154202414 0 0.00037287447250254705 -0.020389497874333976 0 0.00039120541562754051 -0.020076042154202414 0 0.00037287447250254705 -0.020389497874333976 0 0.00027500187035058309 -0.020223968775089966 0 0.00044283102110252031 -0.020682056431395906 0 0.00037287447250254705 -0.020389497874333976 0 0.00050630963053904679 -0.020510609073147525 0 0.00028759560930743884 -0.020661259269616875 0 0.00044283102110252031 -0.020682056431395906 0 0.00037287447250254705 -0.020389497874333976 0 0.00037287447250254705 -0.020389497874333976 0 0.00027500187035058309 -0.020223968775089966 0 0.00050630963053904679 -0.020510609073147525 0 0.0004989716440070511 -0.020279860738063388 0 0.00047586441258430417 -0.020075900836811822 0 0.00027500187035058309 -0.020223968775089966 0 0.0004989716440070511 -0.020279860738063388 0 0.00027500187035058309 -0.020223968775089966 0 0.00050630963053904679 -0.020510609073147525 0 0.0004989716440070511 -0.020279860738063388 0 0.00047586441258430417 -0.020075900836811822 0 0.0006074788078023266 -0.020121496793163468 0 0.00047586441258430417 -0.020075900836811822 0 0.00027500187035058309 -0.020223968775089966 0 0.00046146540385716048 -0.020000191849710022 0 0.00027500187035058309 -0.020223968775089966 0 0.00046146540385716048 -0.020000191849710022 0 0.00053535601020078679 -0.019842716199677837 0 0.00047586441258430417 -0.020075900836811822 0 0.00046146540385716048 -0.020000191849710022 0 0.00054508551515417556 -0.019913225635633029 0 0.00046146540385716048 -0.020000191849710022 0 0.00056948838222043688 -0.019829939904332395 0 0.00054508551515417556 -0.019913225635633029 0 0.00046146540385716048 -0.020000191849710022 0 0.00056948838222043688 -0.019829939904332395 0 0.00053535601020078679 -0.019842716199677837 0 0.00082215408147653522 -0.021159304483777473 0 0.00057377050375663756 -0.020881080042908597 0 0.00067645205422389796 -0.020564156330548606 0 0.00057377050375663756 -0.020881080042908597 0 0.00050630963053904679 -0.020510609073147525 0 0.00067645205422389796 -0.020564156330548606 0 0.00057377050375663756 -0.020881080042908597 0 0.00044283102110252031 -0.020682056431395906 0 0.00050630963053904679 -0.020510609073147525 0 0.0004989716440070511 -0.020279860738063388 0 0.00050630963053904679 -0.020510609073147525 0 0.00067645205422389796 -0.020564156330548606 0 0.0004989716440070511 -0.020279860738063388 0 0.00067645205422389796 -0.020564156330548606 0 0.0006074788078023266 -0.020121496793163468 0 0.00088935954649913657 -0.020431313485807335 0 0.00067645205422389796 -0.020564156330548606 0 0.00075668862140896936 -0.020185121085747 0 0.00088935954649913657 -0.020431313485807335 0 0.00075668862140896936 -0.020185121085747 0 0.00089328217318942549 -0.020006107437514044 0 0.00075668862140896936 -0.020185121085747 0 0.00078960260805099815 -0.019954949018253482 0 0.00089328217318942549 -0.020006107437514044 0 0.00075668862140896936 -0.020185121085747 0 0.00078960260805099815 -0.019954949018253482 0 0.00068636523559644272 -0.019972024072436034 0 0.00078960260805099815 -0.019954949018253482 0 0.00068636523559644272 -0.019972024072436034 0 0.0007536038878694798 -0.019824190808413623 0 0.00075668862140896936 -0.020185121085747 0 0.0006074788078023266 -0.020121496793163468 0 0.00068636523559644272 -0.019972024072436034 0 0.00067645205422389796 -0.020564156330548606 0 0.00075668862140896936 -0.020185121085747 0 0.0006074788078023266 -0.020121496793163468 0 0.00047586441258430417 -0.020075900836811822 0 0.0006074788078023266 -0.020121496793163468 0 0.0005922972453744253 -0.019949686647617669 0 0.00047586441258430417 -0.020075900836811822 0 0.0005922972453744253 -0.019949686647617669 0 0.00054508551515417556 -0.019913225635633029 0 0.0006074788078023266 -0.020121496793163468 0 0.0005922972453744253 -0.019949686647617669 0 0.00068636523559644272 -0.019972024072436034 0 0.00056948838222043688 -0.019829939904332395 0 0.00054508551515417556 -0.019913225635633029 0 0.00063487254157918458 -0.019740336823626879 0 0.0005922972453744253 -0.019949686647617669 0 0.00054508551515417556 -0.019913225635633029 0 0.0006387746836363545 -0.019782668478750785 0 0.00054508551515417556 -0.019913225635633029 0 0.0006387746836363545 -0.019782668478750785 0 0.00063487254157918458 -0.019740336823626879 0 0.0006387746836363545 -0.019782668478750785 0 0.00067788305266889225 -0.019817885923546486 0 0.00073262751578124857 -0.019619133147670598 0 0.0006387746836363545 -0.019782668478750785 0 0.00073262751578124857 -0.019619133147670598 0 0.00070899029910111947 -0.019605968784446048 0 0.0005922972453744253 -0.019949686647617669 0 0.0006387746836363545 -0.019782668478750785 0 0.00067788305266889225 -0.019817885923546486 0 0.0005922972453744253 -0.019949686647617669 0 0.00068636523559644272 -0.019972024072436034 0 0.00067788305266889225 -0.019817885923546486 0 0.00068636523559644272 -0.019972024072436034 0 0.00067788305266889225 -0.019817885923546486 0 0.0007536038878694798 -0.019824190808413623 0 0.00067788305266889225 -0.019817885923546486 0 0.00078643454056446854 -0.019664387316782887 0 0.0007536038878694798 -0.019824190808413623 0 0.00078643454056446854 -0.019664387316782887 0 0.0007536038878694798 -0.019824190808413623 0 0.00087187166265873515 -0.019739608535012991 0 0.00078643454056446854 -0.019664387316782887 0 0.00073262751578124857 -0.019619133147670598 0 0.00080840864233455636 -0.019430762258249117 0 0.00067788305266889225 -0.019817885923546486 0 0.00078643454056446854 -0.019664387316782887 0 0.00073262751578124857 -0.019619133147670598 0 0.00085950792951837668 -0.01934904977341723 0 0.00083933773843604105 -0.019523978741009668 0 0.00080840864233455636 -0.019430762258249117 0 0.00078643454056446854 -0.019664387316782887 0 0.00083933773843604105 -0.019523978741009668 0 0.00080840864233455636 -0.019430762258249117 0 0.00078643454056446854 -0.019664387316782887 0 0.00083933773843604105 -0.019523978741009668 0 0.00087187166265873515 -0.019739608535012991 0 0.00091410191178467127 -0.019491469780576486 0 0.00083933773843604105 -0.019523978741009668 0 0.00087187166265873515 -0.019739608535012991 0 0.00087187166265873515 -0.019739608535012991 0 0.0010262988876704358 -0.019892783421260277 0 0.00089328217318942549 -0.020006107437514044 0 0.0010293485070763898 -0.019652326926412448 0 0.00087187166265873515 -0.019739608535012991 0 0.0010262988876704358 -0.019892783421260277 0 0.00078960260805099815 -0.019954949018253482 0 0.00087187166265873515 -0.019739608535012991 0 0.00089328217318942549 -0.020006107437514044 0 0.00078960260805099815 -0.019954949018253482 0 0.0007536038878694798 -0.019824190808413623 0 0.00087187166265873515 -0.019739608535012991 0 0.00086151207353206655 -0.019100039036156272 0 0.00084055776830753144 -0.019173641171713551 0 0.00081519625995668359 -0.019305484584506004 0 0.00086151207353206655 -0.019100039036156272 0 0.00081519625995668359 -0.019305484584506004 0 0.00087021576312700953 -0.01915112308845112 0 0.00086151207353206655 -0.019100039036156272 0 0.00090709448024317704 -0.018898884281046625 0 0.00087021576312700953 -0.01915112308845112 0 0.00089607698934865095 -0.018837229584530012 0 0.00086151207353206655 -0.019100039036156272 0 0.00090709448024317704 -0.018898884281046625 0 0.0009393253079465183 -0.018598014829431242 0 0.00089607698934865095 -0.018837229584530012 0 0.00090709448024317704 -0.018898884281046625 0 0.00089607698934865095 -0.018837229584530012 0 0.00086151207353206655 -0.019100039036156272 0 0.00084055776830753144 -0.019173641171713551 0 0.00083694521639600926 -0.019244146988562544 0 0.00084055776830753144 -0.019173641171713551 0 0.00078357342173705118 -0.019413058737880646 0 0.00083694521639600926 -0.019244146988562544 0 0.00080840864233455636 -0.019430762258249117 0 0.00078357342173705118 -0.019413058737880646 0 0.00073262751578124857 -0.019619133147670598 0 0.00080840864233455636 -0.019430762258249117 0 0.00078357342173705118 -0.019413058737880646 0 0.00073262751578124857 -0.019619133147670598 0 0.00078357342173705118 -0.019413058737880646 0 0.00070899029910111947 -0.019605968784446048 0 0.00084055776830753144 -0.019173641171713551 0 0.00078357342173705118 -0.019413058737880646 0 0.00081519625995668359 -0.019305484584506004 0 0.00078357342173705118 -0.019413058737880646 0 0.00081519625995668359 -0.019305484584506004 0 0.00075654531439650662 -0.019478460099063136 0 0.00081519625995668359 -0.019305484584506004 0 0.00075654531439650662 -0.019478460099063136 0 0.00077623812616549651 -0.019451851858574828 0 0.00078357342173705118 -0.019413058737880646 0 0.00075654531439650662 -0.019478460099063136 0 0.00070899029910111947 -0.019605968784446048 0 0.00075654531439650662 -0.019478460099063136 0 0.00070899029910111947 -0.019605968784446048 0 0.00070907819557797084 -0.019590514615707658 0 0.0006387746836363545 -0.019782668478750785 0 0.00070899029910111947 -0.019605968784446048 0 0.00063487254157918458 -0.019740336823626879 0 0.00070899029910111947 -0.019605968784446048 0 0.00063487254157918458 -0.019740336823626879 0 0.00070907819557797084 -0.019590514615707658 0 0.00063487254157918458 -0.019740336823626879 0 0.00070907819557797084 -0.019590514615707658 0 0.00066101421161324301 -0.019675824442521236 0 0.00056948838222043688 -0.019829939904332395 0 0.00063487254157918458 -0.019740336823626879 0 0.00066101421161324301 -0.019675824442521236 0 0.00075654531439650662 -0.019478460099063136 0 0.00070907819557797084 -0.019590514615707658 0 0.00077623812616549651 -0.019451851858574828 0 0.00070907819557797084 -0.019590514615707658 0 0.00066101421161324301 -0.019675824442521236 0 0.00074501690211687581 -0.019528858659752728 0 0.00070907819557797084 -0.019590514615707658 0 0.00077623812616549651 -0.019451851858574828 0 0.00074501690211687581 -0.019528858659752728 0 0.00077623812616549651 -0.019451851858574828 0 0.00081186900909930085 -0.019397682692735209 0 0.00074501690211687581 -0.019528858659752728 0 0.00083425186627386465 -0.01930410633809387 0 0.00085661501154483987 -0.01928396232932152 0 0.00081186900909930085 -0.019397682692735209 0 0.00077623812616549651 -0.019451851858574828 0 0.00083425186627386465 -0.01930410633809387 0 0.00081186900909930085 -0.019397682692735209 0 0.00081519625995668359 -0.019305484584506004 0 0.00083425186627386465 -0.01930410633809387 0 0.00087021576312700953 -0.01915112308845112 0 0.00081519625995668359 -0.019305484584506004 0 0.00077623812616549651 -0.019451851858574828 0 0.00083425186627386465 -0.01930410633809387 0 0.00090709448024317704 -0.018898884281046625 0 0.00087021576312700953 -0.01915112308845112 0 0.00089752601755711445 -0.019050938311844453 0 0.00087021576312700953 -0.01915112308845112 0 0.00087477356826678337 -0.019196563959999569 0 0.00089752601755711445 -0.019050938311844453 0 0.00083425186627386465 -0.01930410633809387 0 0.00087021576312700953 -0.01915112308845112 0 0.00087477356826678337 -0.019196563959999569 0 0.00087477356826678337 -0.019196563959999569 0 0.00089331347480326297 -0.019184986315625877 0 0.00089752601755711445 -0.019050938311844453 0 0.00083425186627386465 -0.01930410633809387 0 0.00087477356826678337 -0.019196563959999569 0 0.00085661501154483987 -0.01928396232932152 0 0.00087477356826678337 -0.019196563959999569 0 0.00085661501154483987 -0.01928396232932152 0 0.00089331347480326297 -0.019184986315625877 0 0.00084335872100641787 -0.019325404191435205 0 0.00078730869061272924 -0.019330094422584557 0 0.00090288476804092313 -0.019192368078365905 0 0.00084335872100641787 -0.019325404191435205 0 0.00089331347480326297 -0.019184986315625877 0 0.00090288476804092313 -0.019192368078365905 0 0.00047419960382112159 -0.017793173524526598 0 0.0003225620430223688 -0.017856695150711428 0 -1.1006192486407074e-05 -0.017574084747070718 0 0.00096974369879855766 -0.018767620453104136 0 0.00037828655263115707 -0.01834225639688962 0 0.00085661501154483987 -0.01928396232932152 0 0.00084335872100641787 -0.019325404191435205 0 0.00089331347480326297 -0.019184986315625877 0 0.00085661501154483987 -0.01928396232932152 0 0.00081186900909930085 -0.019397682692735209 0 0.00084335872100641787 -0.019325404191435205 0 0.00084335872100641787 -0.019325404191435205 0 0.00078137446449544454 -0.01945027955295486 0 0.00077630507665550532 -0.01942899047224576 0 0.00081186900909930085 -0.019397682692735209 0 0.00084335872100641787 -0.019325404191435205 0 0.00078137446449544454 -0.01945027955295486 0 0.00084335872100641787 -0.019325404191435205 0 0.00077630507665550532 -0.01942899047224576 0 0.00078730869061272924 -0.019330094422584557 0 0.00030457770010199379 -0.02023009759266008 0 0.00096974369879855766 -0.018767620453104136 0 0.00027500187035058309 -0.020223968775089966 0 0.00053535601020078679 -0.019842716199677837 0 0.00078730869061272924 -0.019330094422584557 0 0.00060853721159057094 -0.019742202257177644 0 0.00053535601020078679 -0.019842716199677837 0 0.00068382720001800663 -0.019607639435481685 0 0.00056948838222043688 -0.019829939904332395 0 0.00060853721159057094 -0.019742202257177644 0 0.00053535601020078679 -0.019842716199677837 0 0.00056948838222043688 -0.019829939904332395 0 0.00060853721159057094 -0.019742202257177644 0 0.00066101421161324301 -0.019675824442521236 0 0.00060853721159057094 -0.019742202257177644 0 0.00066101421161324301 -0.019675824442521236 0 0.00068382720001800663 -0.019607639435481685 0 0.00074501690211687581 -0.019528858659752728 0 0.00078137446449544454 -0.01945027955295486 0 0.00068382720001800663 -0.019607639435481685 0 0.00066101421161324301 -0.019675824442521236 0 0.00074501690211687581 -0.019528858659752728 0 0.00068382720001800663 -0.019607639435481685 0 0.00081186900909930085 -0.019397682692735209 0 0.00074501690211687581 -0.019528858659752728 0 0.00078137446449544454 -0.01945027955295486 0 0.00077630507665550532 -0.01942899047224576 0 0.00068382720001800663 -0.019607639435481685 0 0.00078730869061272924 -0.019330094422584557 0 0.00078137446449544454 -0.01945027955295486 0 0.00077630507665550532 -0.01942899047224576 0 0.00068382720001800663 -0.019607639435481685 0 0.00053535601020078679 -0.019842716199677837 0 0.00068382720001800663 -0.019607639435481685 0 0.00078730869061272924 -0.019330094422584557 0 0.00083612152614331934 -0.018277377113636813 0 0.00066374345618140478 -0.018050745432790311 0 0.00045476108214466046 -0.018173272169148772 0 0.0003740178743290088 -0.017690802643262036 0 0.00044161596486842243 -0.017909128347511682 0 0.00045476108214466046 -0.018173272169148772 0 0.00087909011484594288 -0.018997201218771867 0 0.0025978569127388554 -0.019050252305482726 0 0.00087909011484594288 -0.018997201218771867 0 0.0017947742652504027 -0.019411213462728262 0 0.0025978569127388554 -0.019050252305482726 0 0.00039120541562754051 -0.020076042154202414 0 0.00087909011484594288 -0.018997201218771867 0 0.001365392533117052 -0.019299944506617303 0 0.0011702718641094217 -0.0190335537037081 0 0.00096974369879855766 -0.018767620453104136 0 0.0003740178743290088 -0.017690802643262036 0 0.00038783566411684073 -0.017819075496906762 0 0.00044161596486842243 -0.017909128347511682 0 0.00066374345618140478 -0.018050745432790311 0 -0.00011213711301534871 -0.017435571800032516 0 0.00066374345618140478 -0.018050745432790311 0 5.3831343791633792e-05 -0.017498167934235271 0 0.0003740178743290088 -0.017690802643262036 0 0.00030251565903082254 -0.017735949455440405 0 0.0001921492568460631 -0.017630060209703893 0 0.00096974369879855766 -0.018767620453104136 0 0.00066374345618140478 -0.018050745432790311 0 0.0003740178743290088 -0.017690802643262036 0 0.00030251565903082254 -0.017735949455440405 0 0.00038783566411684073 -0.017819075496906762 0 0.00030251565903082254 -0.017735949455440405 0 0.00038783566411684073 -0.017819075496906762 0 0.00033819177594227859 -0.017796158477994477 0 0.00030251565903082254 -0.017735949455440405 0 0.00024041740126946721 -0.017738182181386772 0 0.00033819177594227859 -0.017796158477994477 0 0.00033819177594227859 -0.017796158477994477 0 0.00021181457169663497 -0.017808037617086943 0 0.00033618023607889352 -0.017991322600364727 0 0.00024041740126946721 -0.017738182181386772 0 0.00033819177594227859 -0.017796158477994477 0 0.00021181457169663497 -0.017808037617086943 0 0.00033819177594227859 -0.017796158477994477 0 0.00044478756351099127 -0.017875331596054405 0 0.00040142089469587239 -0.017830156885333775 0 0.00033819177594227859 -0.017796158477994477 0 0.00044478756351099127 -0.017875331596054405 0 0.00033618023607889352 -0.017991322600364727 0 0.00044478756351099127 -0.017875331596054405 0 0.00040142089469587239 -0.017830156885333775 0 0.000373047423532378 -0.017846256624392251 0 0.0001471158893779907 -0.020012783220690587 0 0.00011777999920426693 -0.019781136630558124 0 0.00038783566411684073 -0.017819075496906762 0 0.00033819177594227859 -0.017796158477994477 0 0.00040142089469587239 -0.017830156885333775 0 0.00038783566411684073 -0.017819075496906762 0 0.00040142089469587239 -0.017830156885333775 0 0.00044161596486842243 -0.017909128347511682 0 0.00040142089469587239 -0.017830156885333775 0 0.00044161596486842243 -0.017909128347511682 0 0.000373047423532378 -0.017846256624392251 0 0.00045476108214466046 -0.018173272169148772 0 0.00044161596486842243 -0.017909128347511682 0 0.000373047423532378 -0.017846256624392251 0 -0.00025691765310370551 -0.021650169069511883 0 4.7644084162991002e-05 -0.021585241200396073 0 6.1795581511402183e-05 -0.021785073537283369 0 0.00011272631095365552 -0.021322378565566028 0 -0.00025691765310370551 -0.021650169069511883 0 4.7644084162991002e-05 -0.021585241200396073 0 0.00011272631095365552 -0.021322378565566028 0 4.7644084162991002e-05 -0.021585241200396073 0 0.0002354852335123444 -0.021561005275909151 0 0.0002354852335123444 -0.021561005275909151 0 6.1795581511402183e-05 -0.021785073537283369 0 0.00030578828478438681 -0.021977805389858572 0 4.7644084162991002e-05 -0.021585241200396073 0 0.0002354852335123444 -0.021561005275909151 0 6.1795581511402183e-05 -0.021785073537283369 0 6.1795581511402183e-05 -0.021785073537283369 0 0.00030578828478438681 -0.021977805389858572 0 5.4113509412989502e-05 -0.022057237594685256 0 -0.00025691765310370551 -0.021650169069511883 0 6.1795581511402183e-05 -0.021785073537283369 0 5.4113509412989502e-05 -0.022057237594685256 0 0.00052721636440462415 -0.021379028569412331 0 0.00055017312416251267 -0.021891557429012273 0 0.00030578828478438681 -0.021977805389858572 0 0.00083222976285717021 -0.021769404225006773 0 0.00052721636440462415 -0.021379028569412331 0 0.00055017312416251267 -0.021891557429012273 0 0.00052721636440462415 -0.021379028569412331 0 0.0002354852335123444 -0.021561005275909151 0 0.00030578828478438681 -0.021977805389858572 0 0.00048129500907835798 -0.022391134497268868 0 0.00030578828478438681 -0.021977805389858572 0 0.00019834648350049397 -0.022358648255576839 0 0.00048129500907835798 -0.022391134497268868 0 0.00055017312416251267 -0.021891557429012273 0 0.00030578828478438681 -0.021977805389858572 0 0.00030578828478438681 -0.021977805389858572 0 5.4113509412989502e-05 -0.022057237594685256 0 0.00019834648350049397 -0.022358648255576839 0 -0.0001451216619462378 -0.02226959109740289 0 -0.00025691765310370551 -0.021650169069511883 0 5.4113509412989502e-05 -0.022057237594685256 0 -0.0001451216619462378 -0.02226959109740289 0 5.4113509412989502e-05 -0.022057237594685256 0 0.00019834648350049397 -0.022358648255576839 0 -0.0001451216619462378 -0.02226959109740289 0 0.00019834648350049397 -0.022358648255576839 0 2.9428656756682882e-05 -0.022483422486175721 0 0.00019834648350049397 -0.022358648255576839 0 2.9428656756682882e-05 -0.022483422486175721 0 0.00020536579201970516 -0.022576894251720558 0 0.00019834648350049397 -0.022358648255576839 0 0.00037486903687200703 -0.022524823891360894 0 0.00020536579201970516 -0.022576894251720558 0 0.00048129500907835798 -0.022391134497268868 0 0.00019834648350049397 -0.022358648255576839 0 0.00037486903687200703 -0.022524823891360894 0 0.00038944358462794003 -0.022680196313352743 0 0.00020536579201970516 -0.022576894251720558 0 0.00018468985721687011 -0.022727656846942803 0 0.00038944358462794003 -0.022680196313352743 0 0.00037486903687200703 -0.022524823891360894 0 0.00020536579201970516 -0.022576894251720558 0 2.9428656756682882e-05 -0.022483422486175721 0 0.00020536579201970516 -0.022576894251720558 0 3.9593043586812394e-05 -0.022624158834317207 0 0.00020536579201970516 -0.022576894251720558 0 3.9593043586812394e-05 -0.022624158834317207 0 0.00018468985721687011 -0.022727656846942803 0 3.9593043586812394e-05 -0.022624158834317207 0 -0.00011166440762121271 -0.022580018891234496 0 -2.1716228376289475e-05 -0.022750100041073647 0 2.9428656756682882e-05 -0.022483422486175721 0 3.9593043586812394e-05 -0.022624158834317207 0 -0.00011166440762121271 -0.022580018891234496 0 0.00043635695224193113 -0.018230499305961143 0 0.00020828256537074619 -0.018218861595825191 0 0.00031022622374286585 -0.018773349465911617 0 0.00013925563585293304 -0.017702702764170679 0 0.00018459609901678783 -0.017828864068017484 0 0.0001227212165073062 -0.017703621637464077 0 0.00013925563585293304 -0.017702702764170679 0 0.0001227212165073062 -0.017703621637464077 0 0.0001659996132968658 -0.017734366149969042 0 0.00043635695224193113 -0.018230499305961143 0 0.00020828256537074619 -0.018218861595825191 0 0.00033618023607889352 -0.017991322600364727 0 0.00021181457169663497 -0.017808037617086943 0 0.00013925563585293304 -0.017702702764170679 0 0.0001659996132968658 -0.017734366149969042 0 0.00021181457169663497 -0.017808037617086943 0 0.00020828256537074619 -0.018218861595825191 0 0.00033618023607889352 -0.017991322600364727 0 0.00021351701459773143 -0.017947446238690223 0 0.00017723907697782666 -0.017652740281660965 0 0.0001471158893779907 -0.020012783220690587 0 0.0001368912119360452 -0.020630113108291867 0 0.00044478756351099127 -0.017875331596054405 0 0.00043635695224193113 -0.018230499305961143 0 0.00033618023607889352 -0.017991322600364727 0 -0.0001451216619462378 -0.02226959109740289 0 2.9428656756682882e-05 -0.022483422486175721 0 -0.00011166440762121271 -0.022580018891234496 0 0.00015702115290433009 -0.020599652265469386 0 3.3050535784648178e-05 -0.02258908593043395 0 0.00014963124526318791 -0.021882861209597766 0 0.00010034134328585208 -0.021852810472391446 0 0.00014077650038290569 -0.021846413155320259 0 0.00014963124526318791 -0.021882861209597766 0 7.9171334980605163e-05 -0.021915804581330845 0 0.00010034134328585208 -0.021852810472391446 0 0.00015702115290433009 -0.020599652265469386 0 0.00013614167272741942 -0.019604767974458003 0 0.00029384822380940464 -0.019532034853478927 0 0.00027428974193503542 -0.01952694955865884 0 0.00031080956696490254 -0.019596433522401101 0 0.00021644344122447756 -0.017453427201907006 0 0.00021388085507299335 -0.017461738788900383 0 0.00020023497397671867 -0.017436823838603698 0 2.6296702060789136e-05 -0.018645214840016647 0 0.00013614167272741942 -0.019604767974458003 0 0.00021644344122447756 -0.017453427201907006 0 0.00020023497397671867 -0.017436823838603698 0 0.00021463103191351481 -0.017437336098674053 0 0.00023578031657404884 -0.017437052924789101 0 0.00021493362999510228 -0.017459951307138941 0 0.00025498181490819376 -0.017432902627790164 0 6.0980147697476789e-05 -0.017522347139973374 0 1.482554523985697e-05 -0.01750601651818064 0 0.00015196462590381184 -0.017476101331385666 0 0.00021388085507299335 -0.017461738788900383 0 0.0002126634307139667 -0.017465830363630162 0 0.00020023497397671867 -0.017436823838603698 0 0.00012987218866265105 -0.0180684081115738 0 0.00021325391979030168 -0.017416028825832926 0 0.00021644344122447756 -0.017453427201907006 0 0.00022375110863009158 -0.017437487251639839 0 0.00021463103191351481 -0.017437336098674053 0 0.00016620733130159052 -0.017906980358932283 0 0.00012987218866265105 -0.0180684081115738 0 0.00021644344122447756 -0.017453427201907006 0 0.00023578031657404884 -0.017437052924789101 0 0.00021493362999510228 -0.017459951307138941 0 0.00021644344122447756 -0.017453427201907006 0 0.00023578031657404884 -0.017437052924789101 0 0.00022375110863009158 -0.017437487251639839 0 6.0980147697476789e-05 -0.017522347139973374 0 1.0757762218556045e-05 -0.017516400991852678 0 0.0001258084477620387 -0.017612809434574269 0 0.00015702115290433009 -0.020599652265469386 0 2.3100259514198015e-06 -0.019722776681887266 0 -0.00025020007328393638 -0.01957521015026497 0 -0.00021411966653598697 -0.019582200325768524 0 -0.00023424800452536063 -0.019654583338388907 0 0.00015702115290433009 -0.020599652265469386 0 2.6296702060789136e-05 -0.018645214840016647 0 6.0980147697476789e-05 -0.017522347139973374 0 1.482554523985697e-05 -0.01750601651818064 0 1.0757762218556045e-05 -0.017516400991852678 0 0.00012987218866265105 -0.0180684081115738 0 2.6296702060789136e-05 -0.018645214840016647 0 2.6296702060789136e-05 -0.018645214840016647 0 2.3100259514198015e-06 -0.019722776681887266 0 0.00017723907697782666 -0.017652740281660965 0 2.3100259514198015e-06 -0.019722776681887266 0 0.00017003746929280053 -0.017874028105286086 0 0.00018459609901678783 -0.017828864068017484 0 0.0001227212165073062 -0.017703621637464077 0 1.0757762218556045e-05 -0.017516400991852678 0 0.0001227212165073062 -0.017703621637464077 0 0.0001258084477620387 -0.017612809434574269 0 2.6296702060789136e-05 -0.018645214840016647 0 8.1327805940675826e-05 -0.017319778128424411 0 0.0001368912119360452 -0.020630113108291867 0 2.3100259514198015e-06 -0.019722776681887266 0 -0.00011166440762121271 -0.022580018891234496 0 -0.00014748636717602941 -0.022805793778693694 0 -2.1716228376289475e-05 -0.022750100041073647 0 -0.00013158461331518997 -0.022880358002918232 0 -2.1716228376289475e-05 -0.022750100041073647 0 0.00011290592973351862 -0.022877284714372649 0 -0.00013158461331518997 -0.022880358002918232 0 -0.00014748636717602941 -0.022805793778693694 0 -2.1716228376289475e-05 -0.022750100041073647 0 -2.1716228376289475e-05 -0.022750100041073647 0 0.00018468985721687011 -0.022727656846942803 0 0.00011290592973351862 -0.022877284714372649 0 3.9593043586812394e-05 -0.022624158834317207 0 -2.1716228376289475e-05 -0.022750100041073647 0 0.00018468985721687011 -0.022727656846942803 0 0.00018468985721687011 -0.022727656846942803 0 0.00011290592973351862 -0.022877284714372649 0 0.00039043707664738363 -0.022849814716650322 0 0.00038944358462794003 -0.022680196313352743 0 0.00018468985721687011 -0.022727656846942803 0 0.00039043707664738363 -0.022849814716650322 0 3.3050535784648178e-05 -0.02258908593043395 0 0.00020148789810711521 -0.022310919143204596 0 7.9171334980605163e-05 -0.021915804581330845 0 3.0529261652337965e-05 -0.021859549070750963 0 6.0086498658055617e-06 -0.021944954183695936 0 7.9171334980605163e-05 -0.021915804581330845 0 0.00010034134328585208 -0.021852810472391446 0 3.0529261652337965e-05 -0.021859549070750963 0 0.00010034134328585208 -0.021852810472391446 0 3.0529261652337965e-05 -0.021859549070750963 0 7.6890109225223217e-05 -0.021811417916182633 0 0.00010034134328585208 -0.021852810472391446 0 7.6890109225223217e-05 -0.021811417916182633 0 0.00012027913636893109 -0.021806718930845948 0 3.0529261652337965e-05 -0.021859549070750963 0 3.4802146250535503e-05 -0.021787819073032219 0 -2.9678603441239244e-05 -0.021818336058062087 0 3.0529261652337965e-05 -0.021859549070750963 0 3.4802146250535503e-05 -0.021787819073032219 0 7.6890109225223217e-05 -0.021811417916182633 0 -4.8560254386109931e-05 -0.021854306318642363 0 4.9192256110295073e-05 -0.021158200382895606 0 3.4802146250535503e-05 -0.021787819073032219 0 7.6890109225223217e-05 -0.021811417916182633 0 9.8213966891203241e-05 -0.021761026711459158 0 7.6890109225223217e-05 -0.021811417916182633 0 0.00012027913636893109 -0.021806718930845948 0 9.8213966891203241e-05 -0.021761026711459158 0 1.7223617547719072e-05 -0.018312198392605929 0 1.6809756434821761e-05 -0.019805670769069649 0 5.5685309392147989e-06 -0.019879025707477377 0 9.2261539015861543e-05 -0.019855818061845304 0 9.1454650071508839e-05 -0.020265829738873604 0 0.00016677691748629773 -0.02095303353251058 0 4.9192256110295073e-05 -0.021158200382895606 0 0.00018583990575531662 -0.017397709726873729 0 0.00016950697074725942 -0.017363292412126797 0 0.00017782686568836066 -0.017365943981721314 0 9.2261539015861543e-05 -0.019855818061845304 0 9.1454650071508839e-05 -0.020265829738873604 0 0.00026672693355939332 -0.020218895891744231 0 0.0001967373512931117 -0.017364414720803165 0 0.00018583990575531662 -0.017397709726873729 0 0.0002237634728342693 -0.017382696598194622 0 0.0001967373512931117 -0.017364414720803165 0 0.00018583990575531662 -0.017397709726873729 0 0.00017782686568836066 -0.017365943981721314 0 5.5685309392147989e-06 -0.019879025707477377 0 9.2261539015861543e-05 -0.019855818061845304 0 -8.2117689933731064e-05 -0.019506066204711531 0 1.7223617547719072e-05 -0.018312198392605929 0 0.00013614167272741942 -0.019604767974458003 0 0.00010034134328585208 -0.021852810472391446 0 0.00012027913636893109 -0.021806718930845948 0 0.00014077650038290569 -0.021846413155320259 0 0.00018583990575531662 -0.017397709726873729 0 0.00020023497397671867 -0.017436823838603698 0 0.00021687249605085673 -0.017407373175399969 0 0.00016677691748629773 -0.02095303353251058 0 0.00013614167272741942 -0.019604767974458003 0 0.00023578031657404884 -0.017437052924789101 0 0.00022375110863009158 -0.017437487251639839 0 0.0002275270488500674 -0.017421862807964095 0 0.00023578031657404884 -0.017437052924789101 0 0.0002275270488500674 -0.017421862807964095 0 0.0002476183235067971 -0.017400578325670619 0 0.00020023497397671867 -0.017436823838603698 0 0.0002275270488500674 -0.017421862807964095 0 0.00021463103191351481 -0.017437336098674053 0 0.00022375110863009158 -0.017437487251639839 0 0.0002275270488500674 -0.017421862807964095 0 0.00021463103191351481 -0.017437336098674053 0 0.00020023497397671867 -0.017436823838603698 0 0.0002275270488500674 -0.017421862807964095 0 0.00021687249605085673 -0.017407373175399969 0 0.0002275270488500674 -0.017421862807964095 0 0.00023922903555003244 -0.017399419547650303 0 0.0002476183235067971 -0.017400578325670619 0 0.0002275270488500674 -0.017421862807964095 0 0.00021687249605085673 -0.017407373175399969 0 0.00023922903555003244 -0.017399419547650303 0 0.00023922903555003244 -0.017399419547650303 0 0.0002237634728342693 -0.017382696598194622 0 0.00027304808589955658 -0.017373803312714913 0 0.00021687249605085673 -0.017407373175399969 0 0.00023922903555003244 -0.017399419547650303 0 0.0002237634728342693 -0.017382696598194622 0 0.00018583990575531662 -0.017397709726873729 0 0.00021687249605085673 -0.017407373175399969 0 0.0002237634728342693 -0.017382696598194622 0 0.0001967373512931117 -0.017364414720803165 0 0.0002237634728342693 -0.017382696598194622 0 0.00023536442914483331 -0.017347568529013934 0 0.0002237634728342693 -0.017382696598194622 0 0.00023536442914483331 -0.017347568529013934 0 0.00027304808589955658 -0.017373803312714913 0 0.00023536442914483331 -0.017347568529013934 0 0.00024295033844901116 -0.017312093001479362 0 0.00029154879400503152 -0.017313277733819316 0 0.00023536442914483331 -0.017347568529013934 0 0.00027304808589955658 -0.017373803312714913 0 0.00029154879400503152 -0.017313277733819316 0 0.00023536442914483331 -0.017347568529013934 0 0.00019472406914212737 -0.017331622112807275 0 0.00024295033844901116 -0.017312093001479362 0 0.0001967373512931117 -0.017364414720803165 0 0.00023536442914483331 -0.017347568529013934 0 0.00019472406914212737 -0.017331622112807275 0 0.00019472406914212737 -0.017331622112807275 0 0.00024295033844901116 -0.017312093001479362 0 0.00025050975243796236 -0.01725169087166541 0 0.00024295033844901116 -0.017312093001479362 0 0.00025050975243796236 -0.01725169087166541 0 0.00029154879400503152 -0.017313277733819316 0 -0.00010625510534854387 -0.021729093209409214 0 -8.3335399713673036e-05 -0.021758619353002242 0 -7.5062306246836437e-05 -0.021721680701902387 0 1.6809756434821761e-05 -0.019805670769069649 0 4.9192256110295073e-05 -0.021158200382895606 0 0.0001967373512931117 -0.017364414720803165 0 0.00019472406914212737 -0.017331622112807275 0 0.00017932387180551122 -0.017346116669492467 0 0.00016950697074725942 -0.017363292412126797 0 0.00017663742265926704 -0.017365808753933464 0 0.00017782686568836066 -0.017365943981721314 0 -0.00012882149692931689 -0.018684547521950669 0 7.6362457703070687e-05 -0.01799928547902253 0 1.6809756434821761e-05 -0.019805670769069649 0 -0.00012882149692931689 -0.018684547521950669 0 0.0001967373512931117 -0.017364414720803165 0 0.00017932387180551122 -0.017346116669492467 0 0.00017782686568836066 -0.017365943981721314 0 0.00025336387042936242 -0.018205296468733922 0 -0.00012882149692931689 -0.018684547521950669 0 -0.00010625510534854387 -0.021729093209409214 0 -8.4799626872206378e-05 -0.021786350131350291 0 -8.3335399713673036e-05 -0.021758619353002242 0 1.6809756434821761e-05 -0.019805670769069649 0 -0.00020031677171316833 -0.021396474058398011 0 -0.00045260876603852766 -0.020531853830813462 0 -0.00047860074094031895 -0.020539907884014458 0 -0.0004398111871801457 -0.020616211017413708 0 -0.00047860074094031895 -0.020539907884014458 0 -0.0004398111871801457 -0.020616211017413708 0 -0.00046581142170289884 -0.020643728147803322 0 -0.00047860074094031895 -0.020539907884014458 0 -0.00046581142170289884 -0.020643728147803322 0 -0.00049422251230847071 -0.020671559754603799 0 -0.00012882149692931689 -0.018684547521950669 0 -0.00015405254555381592 -0.018971599335610028 0 -0.00020031677171316833 -0.021396474058398011 0 -0.00029788166096883826 -0.021071767253043359 0 -0.0004398111871801457 -0.020616211017413708 0 -0.00046581142170289884 -0.020643728147803322 0 -0.00045886303545182128 -0.020682654703639995 0 0.00019472406914212737 -0.017331622112807275 0 0.00025050975243796236 -0.01725169087166541 0 0.00020225211995738933 -0.017164670359967858 0 0.00019472406914212737 -0.017331622112807275 0 0.00015570163885986725 -0.017346472000899081 0 0.00020225211995738933 -0.017164670359967858 0 0.00025050975243796236 -0.01725169087166541 0 0.00020225211995738933 -0.017164670359967858 0 0.00032073033245733789 -0.017119966811287027 0 -0.00015405254555381592 -0.018971599335610028 0 -5.469867833979745e-05 -0.018792857992648123 0 -0.00049422251230847071 -0.020671559754603799 0 -0.00047802646690127073 -0.020688607664479972 0 -0.0004626235785186393 -0.020684300757651364 0 0.00020225211995738933 -0.017164670359967858 0 0.00029449261358211246 -0.016934642416616609 0 0.00032073033245733789 -0.017119966811287027 0 -0.00046581142170289884 -0.020643728147803322 0 -0.00049422251230847071 -0.020671559754603799 0 -0.00047572066572036903 -0.020680547944043046 0 -0.00046581142170289884 -0.020643728147803322 0 -0.00047572066572036903 -0.020680547944043046 0 -0.00045886303545182128 -0.020682654703639995 0 -0.00047572066572036903 -0.020680547944043046 0 -0.00048341389833514323 -0.020688456620424348 0 -0.00047802646690127073 -0.020688607664479972 0 -0.00047572066572036903 -0.020680547944043046 0 -0.00048341389833514323 -0.020688456620424348 0 -0.00045886303545182128 -0.020682654703639995 0 -0.00049422251230847071 -0.020671559754603799 0 -0.00047572066572036903 -0.020680547944043046 0 -0.00047802646690127073 -0.020688607664479972 0 -0.00047802646690127073 -0.020688607664479972 0 -0.00048663679245839934 -0.020677961600363465 0 -0.0004626235785186393 -0.020684300757651364 0 -0.00047802646690127073 -0.020688607664479972 0 -0.0005051676231657402 -0.020686996874718724 0 -0.00048663679245839934 -0.020677961600363465 0 -0.00048341389833514323 -0.020688456620424348 0 -0.00047802646690127073 -0.020688607664479972 0 -0.0005051676231657402 -0.020686996874718724 0 -0.0005051676231657402 -0.020686996874718724 0 -0.00048663679245839934 -0.020677961600363465 0 -0.00051793030039381984 -0.020653322097441043 0 -0.0005051676231657402 -0.020686996874718724 0 -0.00054992232184191553 -0.020691025382911121 0 -0.00051793030039381984 -0.020653322097441043 0 -0.00048663679245839934 -0.020677961600363465 0 -0.0004626235785186393 -0.020684300757651364 0 -0.00045266166759480629 -0.020657521856734192 0 -0.00041905983520295085 -0.020679867881967386 0 -0.0004626235785186393 -0.020684300757651364 0 -0.00045266166759480629 -0.020657521856734192 0 -0.00049422251230847071 -0.020671559754603799 0 -0.00041905983520295085 -0.020679867881967386 0 -0.0004626235785186393 -0.020684300757651364 0 -0.00053158610359915087 -0.021318411996221805 0 -0.00082248327721668943 -0.02076305590015181 0 -0.00054992232184191553 -0.020691025382911121 0 -0.00062029176632230881 -0.020839170525645767 0 -0.00073277419042854387 -0.020799847626155797 0 -0.0010033266171523851 -0.021165784551571417 0 -0.0010236073099411614 -0.021055483650310729 0 -0.00092534220072800204 -0.021005921184557751 0 -0.00054992232184191553 -0.020691025382911121 0 -0.00073277419042854387 -0.020799847626155797 0 -0.00064441814072219075 -0.020630328808656565 0 -0.00059464113834646615 -0.020563206577681042 0 -0.00029788166096883826 -0.021071767253043359 0 -0.00048341389833514323 -0.020688456620424348 0 -0.0005051676231657402 -0.020686996874718724 0 -0.00054992232184191553 -0.020691025382911121 0 -0.00048341389833514323 -0.020688456620424348 0 -0.00054992232184191553 -0.020691025382911121 0 -0.00045886303545182128 -0.020682654703639995 0 -0.00054992232184191553 -0.020691025382911121 0 -0.00049852011218000163 -0.020883449342567664 0 -0.00062029176632230881 -0.020839170525645767 0 -7.7740540836446968e-05 -0.021790564051904791 0 -7.5584488534902487e-05 -0.021787715377069083 0 -7.1923687019128188e-05 -0.021791970119518153 0 -0.00029788166096883826 -0.021071767253043359 0 -0.00031687242983710319 -0.021323398407311022 0 -7.5584488534902487e-05 -0.021787715377069083 0 -8.0271703157332251e-05 -0.021797083732853991 0 -7.1923687019128188e-05 -0.021791970119518153 0 -7.5584488534902487e-05 -0.021787715377069083 0 -8.5013804340156919e-05 -0.021792171174780446 0 -9.0062482347598867e-05 -0.021782019694985541 0 -0.00031687242983710319 -0.021323398407311022 0 -0.00053158610359915087 -0.021318411996221805 0 -7.5584488534902487e-05 -0.021787715377069083 0 -8.5013804340156919e-05 -0.021792171174780446 0 -8.0271703157332251e-05 -0.021797083732853991 0 -8.5013804340156919e-05 -0.021792171174780446 0 -8.0271703157332251e-05 -0.021797083732853991 0 -8.8384792704210418e-05 -0.021799660811742519 0 -8.0271703157332251e-05 -0.021797083732853991 0 -7.1923687019128188e-05 -0.021791970119518153 0 -7.7361087160047497e-05 -0.021804977485592736 0 -8.0271703157332251e-05 -0.021797083732853991 0 -7.7361087160047497e-05 -0.021804977485592736 0 -8.8015093453303896e-05 -0.021810020218137122 0 -8.4799626872206378e-05 -0.021786350131350291 0 -7.7740540836446968e-05 -0.021790564051904791 0 -7.1923687019128188e-05 -0.021791970119518153 0 -7.1923687019128188e-05 -0.021791970119518153 0 -6.662397562080115e-05 -0.021789477476204903 0 -7.7361087160047497e-05 -0.021804977485592736 0 -8.4799626872206378e-05 -0.021786350131350291 0 -7.1923687019128188e-05 -0.021791970119518153 0 -6.662397562080115e-05 -0.021789477476204903 0 -8.4799626872206378e-05 -0.021786350131350291 0 -6.662397562080115e-05 -0.021789477476204903 0 -8.3335399713673036e-05 -0.021758619353002242 0 -7.7669841104199952e-05 -0.021824961108478289 0 -6.9377572141280963e-05 -0.021807737921311087 0 -5.2302446700410028e-05 -0.021811915433853045 0 1.8284963574269691e-05 -0.021917032787527605 0 4.9192256110295073e-05 -0.021158200382895606 0 -6.662397562080115e-05 -0.021789477476204903 0 -8.3335399713673036e-05 -0.021758619353002242 0 -7.5062306246836437e-05 -0.021721680701902387 0 -6.662397562080115e-05 -0.021789477476204903 0 -6.9377572141280963e-05 -0.021807737921311087 0 -7.7361087160047497e-05 -0.021804977485592736 0 -6.662397562080115e-05 -0.021789477476204903 0 -6.9377572141280963e-05 -0.021807737921311087 0 -5.2302446700410028e-05 -0.021811915433853045 0 -7.7669841104199952e-05 -0.021824961108478289 0 -7.7361087160047497e-05 -0.021804977485592736 0 -8.9146094956313351e-05 -0.021822901139817004 0 -7.7669841104199952e-05 -0.021824961108478289 0 -6.9377572141280963e-05 -0.021807737921311087 0 -7.7361087160047497e-05 -0.021804977485592736 0 -8.9146094956313351e-05 -0.021822901139817004 0 -9.7837733118088201e-05 -0.021836040060625797 0 -9.861796096394734e-05 -0.02181990773175992 0 -8.9146094956313351e-05 -0.021822901139817004 0 -9.861796096394734e-05 -0.02181990773175992 0 -8.8015093453303896e-05 -0.021810020218137122 0 -7.7361087160047497e-05 -0.021804977485592736 0 -8.9146094956313351e-05 -0.021822901139817004 0 -8.8015093453303896e-05 -0.021810020218137122 0 -9.7837733118088201e-05 -0.021836040060625797 0 -0.00010607837738863127 -0.021829789571327054 0 -0.00010641740704504278 -0.021843392688361215 0 -9.7837733118088201e-05 -0.021836040060625797 0 -0.00010607837738863127 -0.021829789571327054 0 -9.861796096394734e-05 -0.02181990773175992 0 -0.00010607837738863127 -0.021829789571327054 0 -0.00010653125324396622 -0.021820228476627925 0 -9.861796096394734e-05 -0.02181990773175992 0 -0.00010607837738863127 -0.021829789571327054 0 -0.00010653125324396622 -0.021820228476627925 0 -0.00011491385166058011 -0.021824980321904667 0 -0.00010653125324396622 -0.021820228476627925 0 -9.861796096394734e-05 -0.02181990773175992 0 -0.00010523986886019116 -0.021810213553366417 0 -0.00010523986886019116 -0.021810213553366417 0 -9.509863418517111e-05 -0.021805615443141371 0 -9.9665282010339169e-05 -0.021799054703514259 0 -9.861796096394734e-05 -0.02181990773175992 0 -0.00010523986886019116 -0.021810213553366417 0 -9.509863418517111e-05 -0.021805615443141371 0 -0.00010523986886019116 -0.021810213553366417 0 -0.00011221768896298368 -0.021807348722293143 0 -0.00011348767507400063 -0.021815552369234728 0 -0.00010653125324396622 -0.021820228476627925 0 -0.00010523986886019116 -0.021810213553366417 0 -0.00011348767507400063 -0.021815552369234728 0 -9.861796096394734e-05 -0.02181990773175992 0 -8.8015093453303896e-05 -0.021810020218137122 0 -9.509863418517111e-05 -0.021805615443141371 0 -8.0271703157332251e-05 -0.021797083732853991 0 -8.8015093453303896e-05 -0.021810020218137122 0 -8.8384792704210418e-05 -0.021799660811742519 0 -8.8015093453303896e-05 -0.021810020218137122 0 -9.509863418517111e-05 -0.021805615443141371 0 -8.8384792704210418e-05 -0.021799660811742519 0 -9.509863418517111e-05 -0.021805615443141371 0 -8.8384792704210418e-05 -0.021799660811742519 0 -9.2717391805146758e-05 -0.021792596105877183 0 -8.5013804340156919e-05 -0.021792171174780446 0 -8.8384792704210418e-05 -0.021799660811742519 0 -9.2717391805146758e-05 -0.021792596105877183 0 -8.5013804340156919e-05 -0.021792171174780446 0 -9.2717391805146758e-05 -0.021792596105877183 0 -9.0062482347598867e-05 -0.021782019694985541 0 -9.2717391805146758e-05 -0.021792596105877183 0 -9.1622085359805133e-05 -0.021785649077431701 0 -9.9708280949397781e-05 -0.021790717496486679 0 -0.00034820248411495671 -0.021663324390940184 0 -0.00053158610359915087 -0.021318411996221805 0 -9.2717391805146758e-05 -0.021792596105877183 0 -9.9708280949397781e-05 -0.021790717496486679 0 -9.9665282010339169e-05 -0.021799054703514259 0 -9.509863418517111e-05 -0.021805615443141371 0 -9.2717391805146758e-05 -0.021792596105877183 0 -9.9665282010339169e-05 -0.021799054703514259 0 -0.00010523986886019116 -0.021810213553366417 0 -9.9665282010339169e-05 -0.021799054703514259 0 -0.00010678657562388573 -0.021798201531029345 0 -0.00010523986886019116 -0.021810213553366417 0 -0.00011221768896298368 -0.021807348722293143 0 -0.00010678657562388573 -0.021798201531029345 0 -0.00011221768896298368 -0.021807348722293143 0 -0.00011403425864771628 -0.021795524042662034 0 -0.00010678657562388573 -0.021798201531029345 0 -0.00011221768896298368 -0.021807348722293143 0 -0.00011403425864771628 -0.021795524042662034 0 -0.00011972367388872228 -0.021807026574357992 0 -0.00011403425864771628 -0.021795524042662034 0 -0.00010678657562388573 -0.021798201531029345 0 -0.00010810278614310136 -0.021788587315983918 0 -9.9708280949397781e-05 -0.021790717496486679 0 -9.9665282010339169e-05 -0.021799054703514259 0 -0.00010678657562388573 -0.021798201531029345 0 -9.9708280949397781e-05 -0.021790717496486679 0 -0.00010678657562388573 -0.021798201531029345 0 -0.00010810278614310136 -0.021788587315983918 0 -9.9708280949397781e-05 -0.021790717496486679 0 -0.00010810278614310136 -0.021788587315983918 0 -0.00010251272497967006 -0.021782058640637338 0 -0.00010810278614310136 -0.021788587315983918 0 -0.00010251272497967006 -0.021782058640637338 0 -0.00012105018203518612 -0.02177248108774545 0 -0.00011403425864771628 -0.021795524042662034 0 -0.00010810278614310136 -0.021788587315983918 0 -0.00012105018203518612 -0.02177248108774545 0 -0.00063616726760327047 -0.021442280647437799 0 -0.00041678667104848326 -0.021574129830770152 0 -0.0011010449911688916 -0.021131928756141036 0 -0.00119482773380642 -0.021100307184165917 0 -0.0011085153296276698 -0.021045103832591859 0 -0.0010033266171523851 -0.021165784551571417 0 -0.0011010449911688916 -0.021131928756141036 0 -0.0010236073099411614 -0.021055483650310729 0 -0.0011010449911688916 -0.021131928756141036 0 -0.0010236073099411614 -0.021055483650310729 0 -0.0011085153296276698 -0.021045103832591859 0 -9.1622085359805133e-05 -0.021785649077431701 0 -9.9708280949397781e-05 -0.021790717496486679 0 -0.00010251272497967006 -0.021782058640637338 0 -0.00053158610359915087 -0.021318411996221805 0 -0.00063616726760327047 -0.021442280647437799 0 -0.00010447117301688852 -0.022323334305157989 0 -0.00029422302654936951 -0.022503212854892062 0 -0.00029062721716040609 -0.022296139630027068 0 -0.00012720222047531892 -0.021873761338482997 0 -0.00014439780205443043 -0.02186481245906902 0 -0.00015325645609426058 -0.021878035414904087 0 -0.00011087580140045034 -0.021803455895262662 0 -0.00041678667104848326 -0.021574129830770152 0 -0.00014439780205443043 -0.02186481245906902 0 -0.00015325645609426058 -0.021878035414904087 0 -0.00017312517745847765 -0.021868930908434111 0 -0.00014439780205443043 -0.02186481245906902 0 -0.00017312517745847765 -0.021868930908434111 0 -0.00013821838404420671 -0.02184663776160186 0 -0.00012720222047531892 -0.021873761338482997 0 -0.00014439780205443043 -0.02186481245906902 0 -0.00013821838404420671 -0.02184663776160186 0 -0.00012105018203518612 -0.02177248108774545 0 -0.00011972367388872228 -0.021807026574357992 0 -0.00013075678820072655 -0.021817081506942379 0 -0.00017312517745847765 -0.021868930908434111 0 -0.00013821838404420671 -0.02184663776160186 0 -0.00013075678820072655 -0.021817081506942379 0 -0.00011403425864771628 -0.021795524042662034 0 -0.00012105018203518612 -0.02177248108774545 0 -0.00011972367388872228 -0.021807026574357992 0 -0.00041678667104848326 -0.021574129830770152 0 -7.6568359054874662e-05 -0.02189332448826262 0 -0.00013821838404420671 -0.02184663776160186 0 -0.00013075678820072655 -0.021817081506942379 0 -0.00012302473061708949 -0.021813999160689958 0 -0.00011221768896298368 -0.021807348722293143 0 -0.00011972367388872228 -0.021807026574357992 0 -0.00011348767507400063 -0.021815552369234728 0 -0.00011972367388872228 -0.021807026574357992 0 -0.00013075678820072655 -0.021817081506942379 0 -0.00012297623232932544 -0.02181890027807816 0 -0.00010447117301688852 -0.022323334305157989 0 -9.4982032507193517e-05 -0.022701154558960698 0 -0.00029422302654936951 -0.022503212854892062 0 -0.00012720222047531892 -0.021873761338482997 0 -0.00013821838404420671 -0.02184663776160186 0 -0.00012302473061708949 -0.021813999160689958 0 0.0010643748301043918 -0.023811824219158395 0 0.00090968235358730059 -0.02382973259853139 0 0.00093424817980038459 -0.023677582953594237 0 0.00020922363274445606 -0.022637573738903991 0 0.000410553048431484 -0.023168061803050952 0 -0.00016415152388651958 -0.022006728325630161 0 0.00020922363274445606 -0.022637573738903991 0 0.00020922363274445606 -0.022637573738903991 0 0.00046878077234494876 -0.022848925578179 0 0.0010643748301043918 -0.023811824219158395 0 0.00099389179797984865 -0.023898325492048823 0 0.00090968235358730059 -0.02382973259853139 0 -0.00012066378456292115 -0.021826688658479882 0 -0.0001211006596196695 -0.021825017317408293 0 -0.0001212895404349963 -0.02183506400349702 0 0.0010643748301043918 -0.023811824219158395 0 0.00099389179797984865 -0.023898325492048823 0 0.0010600028636341581 -0.023964671314318339 0 0.00020922363274445606 -0.022637573738903991 0 -0.00023470646409368644 -0.021958922953295636 0 -0.00011972367388872228 -0.021807026574357992 0 -0.00011348767507400063 -0.021815552369234728 0 -0.00012297623232932544 -0.02181890027807816 0 -0.00011348767507400063 -0.021815552369234728 0 -0.00012297623232932544 -0.02181890027807816 0 -0.00011491385166058011 -0.021824980321904667 0 -0.00012297623232932544 -0.02181890027807816 0 -0.0001211006596196695 -0.021825017317408293 0 -0.00011491385166058011 -0.021824980321904667 0 -0.00012302473061708949 -0.021813999160689958 0 -0.00012297623232932544 -0.02181890027807816 0 -0.0001211006596196695 -0.021825017317408293 0 -0.00013075678820072655 -0.021817081506942379 0 -0.00012302473061708949 -0.021813999160689958 0 -0.00012297623232932544 -0.02181890027807816 0 -0.0001211006596196695 -0.021825017317408293 0 -0.00011781553454438664 -0.021829806652353501 0 -0.0001212895404349963 -0.02183506400349702 0 -0.0001211006596196695 -0.021825017317408293 0 -0.00011781553454438664 -0.021829806652353501 0 -0.00011491385166058011 -0.021824980321904667 0 -0.00010653125324396622 -0.021820228476627925 0 -0.00011348767507400063 -0.021815552369234728 0 -0.00011491385166058011 -0.021824980321904667 0 -0.00010607837738863127 -0.021829789571327054 0 -0.00011491385166058011 -0.021824980321904667 0 -0.00011376175159344038 -0.021834519264645184 0 -0.00011781553454438664 -0.021829806652353501 0 -0.00011376175159344038 -0.021834519264645184 0 -0.0001212895404349963 -0.02183506400349702 0 -0.00011781553454438664 -0.021829806652353501 0 -0.00011491385166058011 -0.021824980321904667 0 -0.00011376175159344038 -0.021834519264645184 0 -0.00011376175159344038 -0.021834519264645184 0 -0.00012044359634518847 -0.02185353153678633 0 -0.00010641740704504278 -0.021843392688361215 0 -0.00010607837738863127 -0.021829789571327054 0 -0.00011376175159344038 -0.021834519264645184 0 -0.00010641740704504278 -0.021843392688361215 0 0.00046878077234494876 -0.022848925578179 0 0.00066954872407874689 -0.023460330937068764 0 -0.00011376175159344038 -0.021834519264645184 0 -0.0001212895404349963 -0.02183506400349702 0 -0.00012044359634518847 -0.02185353153678633 0 0.0010600028636341581 -0.023964671314318339 0 0.0010212001501251472 -0.024058077842670621 0 0.0010431488237802298 -0.024108793680900284 0 0.00099389179797984865 -0.023898325492048823 0 0.00099792967590346454 -0.023991888269910319 0 0.00093814121788016159 -0.02397556657890703 0 0.00099389179797984865 -0.023898325492048823 0 0.00099792967590346454 -0.023991888269910319 0 0.0010600028636341581 -0.023964671314318339 0 0.00099792967590346454 -0.023991888269910319 0 0.0010600028636341581 -0.023964671314318339 0 0.0010212001501251472 -0.024058077842670621 0 0.00099792967590346454 -0.023991888269910319 0 0.0010212001501251472 -0.024058077842670621 0 0.00096216233909736425 -0.024046958238387778 0 0.0010212001501251472 -0.024058077842670621 0 0.00098733414199647608 -0.02409794224742259 0 0.00096216233909736425 -0.024046958238387778 0 0.0010212001501251472 -0.024058077842670621 0 0.00098733414199647608 -0.02409794224742259 0 0.0010199766781988982 -0.02410753282527019 0 0.00096826061317526965 -0.024001280681094181 0 0.00066954872407874689 -0.023460330937068764 0 0.00098733414199647608 -0.02409794224742259 0 0.0010199766781988982 -0.02410753282527019 0 0.00098081833279882891 -0.024142540739334147 0 0.0010199766781988982 -0.02410753282527019 0 0.00098081833279882891 -0.024142540739334147 0 0.00096696491240253293 -0.024148538757439674 0 0.00066954872407874689 -0.023460330937068764 0 0.0010238590892594054 -0.024455589867946156 0 0.00098081833279882891 -0.024142540739334147 0 0.00096696491240253293 -0.024148538757439674 0 0.00099375551931233231 -0.024155103009042476 0 0.00066954872407874689 -0.023460330937068764 0 0.00028003403279135407 -0.022897389173159571 0 -0.00012044359634518847 -0.02185353153678633 0 -0.00010555544843025564 -0.021893509885153737 0 -9.5968761562375553e-05 -0.021855430553103815 0 0.0009615786780668384 -0.024350722041297814 0 0.00096696491240253293 -0.024148538757439674 0 0.00082209269949927812 -0.024143497595601551 0 -0.00012044359634518847 -0.02185353153678633 0 -9.5968761562375553e-05 -0.021855430553103815 0 -0.00010641740704504278 -0.021843392688361215 0 -9.7837733118088201e-05 -0.021836040060625797 0 -9.5968761562375553e-05 -0.021855430553103815 0 -0.00010641740704504278 -0.021843392688361215 0 -9.7837733118088201e-05 -0.021836040060625797 0 -9.5968761562375553e-05 -0.021855430553103815 0 -9.1428704550383061e-05 -0.021838914205286414 0 -9.6631089231487058e-05 -0.021851678731778235 0 -5.3503949076828946e-05 -0.021825000876302784 0 -4.8560254386109931e-05 -0.021854306318642363 0 -5.3503949076828946e-05 -0.021825000876302784 0 -8.9146094956313351e-05 -0.021822901139817004 0 -9.7837733118088201e-05 -0.021836040060625797 0 -9.1428704550383061e-05 -0.021838914205286414 0 -7.7669841104199952e-05 -0.021824961108478289 0 -8.9146094956313351e-05 -0.021822901139817004 0 -9.1428704550383061e-05 -0.021838914205286414 0 3.0529261652337965e-05 -0.021859549070750963 0 -2.9678603441239244e-05 -0.021818336058062087 0 -4.5195374198169213e-05 -0.021887676470945316 0 -9.5968761562375553e-05 -0.021855430553103815 0 -2.9678603441239244e-05 -0.021818336058062087 0 -4.5195374198169213e-05 -0.021887676470945316 0 -0.00010555544843025564 -0.021893509885153737 0 -9.5968761562375553e-05 -0.021855430553103815 0 -4.5195374198169213e-05 -0.021887676470945316 0 -0.00010555544843025564 -0.021893509885153737 0 -4.5195374198169213e-05 -0.021887676470945316 0 -6.5638240956410001e-05 -0.021968910021411079 0 3.0529261652337965e-05 -0.021859549070750963 0 -4.5195374198169213e-05 -0.021887676470945316 0 6.0086498658055617e-06 -0.021944954183695936 0 -4.5195374198169213e-05 -0.021887676470945316 0 6.0086498658055617e-06 -0.021944954183695936 0 -6.5638240956410001e-05 -0.021968910021411079 0 0.00038944358462794003 -0.022680196313352743 0 0.00039043707664738363 -0.022849814716650322 0 0.00063877519775685371 -0.022807507677155024 0 0.00020148789810711521 -0.022310919143204596 0 0.00040417522311264836 -0.023039415970204188 0 0.00040417522311264836 -0.023039415970204188 0 0.00087848464409606968 -0.023632818845223943 0 0.00058076556664002734 -0.023761102406451354 0 0.00087990934748207166 -0.023679874903202457 0 0.0008835929849194832 -0.023969883998754049 0 0.00081044433867636983 -0.023308195225082373 0 0.0006584409473090958 -0.023649299379146168 0 0.00087990934748207166 -0.023679874903202457 0 0.00087990934748207166 -0.023679874903202457 0 0.00103649384611638 -0.023999181645379439 0 0.0008835929849194832 -0.023969883998754049 0 0.0010452408919061193 -0.023422555774900222 0 0.00103649384611638 -0.023999181645379439 0 0.0012082273286920374 -0.023934822692997744 0 0.0010452408919061193 -0.023422555774900222 0 0.00087990934748207166 -0.023679874903202457 0 0.00103649384611638 -0.023999181645379439 0 0.00096696491240253293 -0.024148538757439674 0 0.00103649384611638 -0.023999181645379439 0 0.0008835929849194832 -0.023969883998754049 0 0.00096696491240253293 -0.024148538757439674 0 0.00099375551931233231 -0.024155103009042476 0 0.00103649384611638 -0.023999181645379439 0 0.00028003403279135407 -0.022897389173159571 0 0.00040417522311264836 -0.023039415970204188 0 0.00082209269949927812 -0.024143497595601551 0 0.00058076556664002734 -0.023761102406451354 0 0.0008835929849194832 -0.023969883998754049 0 0.00096696491240253293 -0.024148538757439674 0 0.00082209269949927812 -0.024143497595601551 0 0.0008835929849194832 -0.023969883998754049 0 0.00082832738024976984 -0.024291761725642295 0 0.00099954738574330486 -0.024166375134312079 0 0.00080974103717463208 -0.024244953947324076 0 0.00082832738024976984 -0.024291761725642295 0 0.00099954738574330486 -0.024166375134312079 0 0.0012082273286920374 -0.023934822692997744 0 0.00103649384611638 -0.023999181645379439 0 0.00099954738574330486 -0.024166375134312079 0 0.0012082273286920374 -0.023934822692997744 0 0.00099375551931233231 -0.024155103009042476 0 0.00103649384611638 -0.023999181645379439 0 0.00099954738574330486 -0.024166375134312079 0 0.00082832738024976984 -0.024291761725642295 0 0.0012082273286920374 -0.023934822692997744 0 0.00081660911313824708 -0.024368208198039854 0 0.00081660911313824708 -0.024368208198039854 0 0.00055873691084527323 -0.024566710705821906 0 0.00052394428543094769 -0.024503195554665961 0 0.00055873691084527323 -0.024566710705821906 0 0.00052394428543094769 -0.024503195554665961 0 0.00035492718137916093 -0.024676845783365389 0 0.0004340523410725685 -0.024783455362582599 0 0.00055873691084527323 -0.024566710705821906 0 0.00035492718137916093 -0.024676845783365389 0 0.00052394428543094769 -0.024503195554665961 0 0.00055714935591008206 -0.024412167695063609 0 0.0003787952720854796 -0.024578117286417851 0 0.00052394428543094769 -0.024503195554665961 0 0.0003787952720854796 -0.024578117286417851 0 0.00035492718137916093 -0.024676845783365389 0 0.00082832738024976984 -0.024291761725642295 0 0.00081660911313824708 -0.024368208198039854 0 0.00052394428543094769 -0.024503195554665961 0 0.00082832738024976984 -0.024291761725642295 0 0.00052394428543094769 -0.024503195554665961 0 0.00055714935591008206 -0.024412167695063609 0 0.00055714935591008206 -0.024412167695063609 0 0.00048930104084375235 -0.02439919591239928 0 0.00064429685899981012 -0.024249378814575315 0 0.00055714935591008206 -0.024412167695063609 0 0.00064429685899981012 -0.024249378814575315 0 0.00080974103717463208 -0.024244953947324076 0 0.00082832738024976984 -0.024291761725642295 0 0.00055714935591008206 -0.024412167695063609 0 0.00080974103717463208 -0.024244953947324076 0 0.00055714935591008206 -0.024412167695063609 0 0.00048930104084375235 -0.02439919591239928 0 0.00035014867984284819 -0.024527315453285025 0 0.00055714935591008206 -0.024412167695063609 0 0.00035014867984284819 -0.024527315453285025 0 0.0003787952720854796 -0.024578117286417851 0 0.00048930104084375235 -0.02439919591239928 0 0.00035465578174028947 -0.024479864919666691 0 0.00035014867984284819 -0.024527315453285025 0 0.00048930104084375235 -0.02439919591239928 0 0.00045779463018574829 -0.024391871194147569 0 0.00064429685899981012 -0.024249378814575315 0 0.00045779463018574829 -0.024391871194147569 0 0.00035465578174028947 -0.024479864919666691 0 0.00030112304792473101 -0.024410502874318819 0 0.00048930104084375235 -0.02439919591239928 0 0.00045779463018574829 -0.024391871194147569 0 0.00035465578174028947 -0.024479864919666691 0 0.00048831899564679207 -0.024138614332309554 0 0.00064429685899981012 -0.024249378814575315 0 0.00066748091296498445 -0.024039610924045249 0 0.0004807884639904182 -0.02426256209168514 0 0.00062867913193535255 -0.024283012164285741 0 0.00064429685899981012 -0.024249378814575315 0 0.00082614495090524486 -0.024084493054322649 0 0.00080483278424819276 -0.024191591117032271 0 0.00064429685899981012 -0.024249378814575315 0 0.00082614495090524486 -0.024084493054322649 0 0.00066748091296498445 -0.024039610924045249 0 0.00082614495090524486 -0.024084493054322649 0 0.00080483278424819276 -0.024191591117032271 0 0.00092402459145625557 -0.024172739919487977 0 0.00099954738574330486 -0.024166375134312079 0 0.00080974103717463208 -0.024244953947324076 0 0.00092402459145625557 -0.024172739919487977 0 0.00064429685899981012 -0.024249378814575315 0 0.00080483278424819276 -0.024191591117032271 0 0.00080974103717463208 -0.024244953947324076 0 0.00080483278424819276 -0.024191591117032271 0 0.00080974103717463208 -0.024244953947324076 0 0.00092402459145625557 -0.024172739919487977 0 0.00099375551931233231 -0.024155103009042476 0 0.00099954738574330486 -0.024166375134312079 0 0.00092402459145625557 -0.024172739919487977 0 0.00098081833279882891 -0.024142540739334147 0 0.00099375551931233231 -0.024155103009042476 0 0.00092402459145625557 -0.024172739919487977 0 0.00082614495090524486 -0.024084493054322649 0 0.00092402459145625557 -0.024172739919487977 0 0.00093681985418164889 -0.024105971229900255 0 0.00098733414199647608 -0.02409794224742259 0 0.00098081833279882891 -0.024142540739334147 0 0.00093681985418164889 -0.024105971229900255 0 0.00098081833279882891 -0.024142540739334147 0 0.00092402459145625557 -0.024172739919487977 0 0.00093681985418164889 -0.024105971229900255 0 0.00082614495090524486 -0.024084493054322649 0 0.00093681985418164889 -0.024105971229900255 0 0.00088730270242581063 -0.024036706580253288 0 0.00098733414199647608 -0.02409794224742259 0 0.00093681985418164889 -0.024105971229900255 0 0.00096216233909736425 -0.024046958238387778 0 0.00096216233909736425 -0.024046958238387778 0 0.00088730270242581063 -0.024036706580253288 0 0.00093814121788016159 -0.02397556657890703 0 0.00093681985418164889 -0.024105971229900255 0 0.00096216233909736425 -0.024046958238387778 0 0.00088730270242581063 -0.024036706580253288 0 0.00099792967590346454 -0.023991888269910319 0 0.00096216233909736425 -0.024046958238387778 0 0.00093814121788016159 -0.02397556657890703 0 0.00088730270242581063 -0.024036706580253288 0 0.00093814121788016159 -0.02397556657890703 0 0.00081866662579470134 -0.023948973026588185 0 0.00082614495090524486 -0.024084493054322649 0 0.00081866662579470134 -0.023948973026588185 0 0.00066748091296498445 -0.024039610924045249 0 0.00081866662579470134 -0.023948973026588185 0 0.00067365789202744955 -0.023873643421007035 0 0.00066748091296498445 -0.024039610924045249 0 0.00082614495090524486 -0.024084493054322649 0 0.00088730270242581063 -0.024036706580253288 0 0.00081866662579470134 -0.023948973026588185 0 0.00081866662579470134 -0.023948973026588185 0 0.0007916790692178129 -0.02381650310028512 0 0.00067365789202744955 -0.023873643421007035 0 0.00093814121788016159 -0.02397556657890703 0 0.00081866662579470134 -0.023948973026588185 0 0.00090968235358730059 -0.02382973259853139 0 0.00099389179797984865 -0.023898325492048823 0 0.00093814121788016159 -0.02397556657890703 0 0.00090968235358730059 -0.02382973259853139 0 0.00081866662579470134 -0.023948973026588185 0 0.0007916790692178129 -0.02381650310028512 0 0.00090968235358730059 -0.02382973259853139 0 0.00090968235358730059 -0.02382973259853139 0 0.00093424817980038459 -0.023677582953594237 0 0.00080625658426051593 -0.02369215947162908 0 0.0007916790692178129 -0.02381650310028512 0 0.00090968235358730059 -0.02382973259853139 0 0.00080625658426051593 -0.02369215947162908 0 0.0007916790692178129 -0.02381650310028512 0 0.00080625658426051593 -0.02369215947162908 0 0.00066275246084418656 -0.023700748590094703 0 0.0007916790692178129 -0.02381650310028512 0 0.00066275246084418656 -0.023700748590094703 0 0.00067365789202744955 -0.023873643421007035 0 0.00032779818232879548 -0.024671696392168568 0 0.00024318265531765901 -0.024710859097008042 0 0.00024822330106944574 -0.024785035644338791 0 0.00032779818232879548 -0.024671696392168568 0 0.00024318265531765901 -0.024710859097008042 0 0.00028866379144569363 -0.024634217732807311 0 -9.038600847383738e-05 -0.023208083923385376 0 0.00049732307124151598 -0.024350272858133144 0 0.00080625658426051593 -0.02369215947162908 0 0.0007954683518908058 -0.023540851070235198 0 0.00066275246084418656 -0.023700748590094703 0 0.000410553048431484 -0.023168061803050952 0 -9.038600847383738e-05 -0.023208083923385376 0 -0.00029422302654936951 -0.022503212854892062 0 -0.00048501929110712061 -0.022311270368147011 0 -0.00029062721716040609 -0.022296139630027068 0 0.00093424817980038459 -0.023677582953594237 0 0.00080625658426051593 -0.02369215947162908 0 0.0007954683518908058 -0.023540851070235198 0 0.00017093930487161786 -0.024775176310822909 0 0.00011252790413932648 -0.02482964635809522 0 0.00010641545291538241 -0.024738402900628065 0 -0.00051593944906613962 -0.023229016513578175 0 -0.00034082500201265865 -0.023074377754973771 0 0.00018910112304937525 -0.02468419794057581 0 0.00017093930487161786 -0.024775176310822909 0 0.00010641545291538241 -0.024738402900628065 0 0.00024318265531765901 -0.024710859097008042 0 0.00024822330106944574 -0.024785035644338791 0 0.00017093930487161786 -0.024775176310822909 0 0.00018910112304937525 -0.02468419794057581 0 0.00024318265531765901 -0.024710859097008042 0 0.00028866379144569363 -0.024634217732807311 0 0.00018910112304937525 -0.02468419794057581 0 0.00024318265531765901 -0.024710859097008042 0 0.00017093930487161786 -0.024775176310822909 0 0.00049732307124151598 -0.024350272858133144 0 0.00034159951550839616 -0.024352714384635401 0 0.00024822330106944574 -0.024785035644338791 0 0.00017093930487161786 -0.024775176310822909 0 0.00016983479226005701 -0.024875316654335861 0 0.00017093930487161786 -0.024775176310822909 0 0.00016983479226005701 -0.024875316654335861 0 0.00011252790413932648 -0.02482964635809522 0 0.00016983479226005701 -0.024875316654335861 0 9.2383044216679024e-05 -0.024883924139213354 0 0.00011252790413932648 -0.02482964635809522 0 0.00034159951550839616 -0.024352714384635401 0 0.00022195040561551766 -0.024496612397907191 0 0.00016983479226005701 -0.024875316654335861 0 0.00010769804243609244 -0.024933476599012131 0 9.2383044216679024e-05 -0.024883924139213354 0 0.00066275246084418656 -0.023700748590094703 0 0.00051225159985580026 -0.023862684904897045 0 0.00067365789202744955 -0.023873643421007035 0 0.00051225159985580026 -0.023862684904897045 0 0.00067365789202744955 -0.023873643421007035 0 0.00052334180684014003 -0.023996145905269679 0 0.00067365789202744955 -0.023873643421007035 0 0.00066748091296498445 -0.024039610924045249 0 0.00052334180684014003 -0.023996145905269679 0 0.00048831899564679207 -0.024138614332309554 0 0.00066748091296498445 -0.024039610924045249 0 0.00052334180684014003 -0.023996145905269679 0 0.00051225159985580026 -0.023862684904897045 0 0.00052334180684014003 -0.023996145905269679 0 0.00034504059466522349 -0.024044073611974148 0 0.00048831899564679207 -0.024138614332309554 0 0.00052334180684014003 -0.023996145905269679 0 0.00034504059466522349 -0.024044073611974148 0 0.0004807884639904182 -0.02426256209168514 0 0.00022195040561551766 -0.024496612397907191 0 0.00022195040561551766 -0.024496612397907191 0 9.1215221797019078e-05 -0.024897452268036861 0 0.00014639450751099918 -0.024672051289636471 0 0.00016033766232456491 -0.024741911683689929 0 0.00019922745587771384 -0.024590759605338131 0 0.00035465578174028947 -0.024479864919666691 0 0.00030112304792473101 -0.024410502874318819 0 0.00019922745587771384 -0.024590759605338131 0 0.00022195040561551766 -0.024496612397907191 0 0.00019579826872174433 -0.024566579463479604 0 0.00016033766232456491 -0.024741911683689929 0 0.00013141132820963623 -0.02481526490157079 0 7.3357620363115366e-05 -0.024889095959184558 0 0.00014639450751099918 -0.024672051289636471 0 0.00016033766232456491 -0.024741911683689929 0 0.00013141132820963623 -0.02481526490157079 0 4.5660173024981109e-05 -0.024888182312606876 0 4.8493767824429862e-05 -0.024869654886785431 0 4.3293712158857643e-05 -0.024882895695060629 0 4.5660173024981109e-05 -0.024888182312606876 0 7.1356091098533013e-05 -0.024858289124563348 0 4.8493767824429862e-05 -0.024869654886785431 0 4.5660173024981109e-05 -0.024888182312606876 0 9.2383044216679024e-05 -0.024883924139213354 0 7.1356091098533013e-05 -0.024858289124563348 0 0.00010769804243609244 -0.024933476599012131 0 4.5660173024981109e-05 -0.024888182312606876 0 9.2383044216679024e-05 -0.024883924139213354 0 9.2383044216679024e-05 -0.024883924139213354 0 0.00011252790413932648 -0.02482964635809522 0 7.1356091098533013e-05 -0.024858289124563348 0 0.00011252790413932648 -0.02482964635809522 0 7.583003673098285e-05 -0.024815948627181079 0 0.00010641545291538241 -0.024738402900628065 0 7.583003673098285e-05 -0.024815948627181079 0 7.1356091098533013e-05 -0.024858289124563348 0 4.3877205191444199e-05 -0.024840444791121272 0 0.00011252790413932648 -0.02482964635809522 0 7.583003673098285e-05 -0.024815948627181079 0 7.1356091098533013e-05 -0.024858289124563348 0 7.1356091098533013e-05 -0.024858289124563348 0 4.8493767824429862e-05 -0.024869654886785431 0 4.3877205191444199e-05 -0.024840444791121272 0 4.8493767824429862e-05 -0.024869654886785431 0 4.4183003189585803e-05 -0.024864556819865557 0 4.3293712158857643e-05 -0.024882895695060629 0 4.8493767824429862e-05 -0.024869654886785431 0 4.4183003189585803e-05 -0.024864556819865557 0 4.3877205191444199e-05 -0.024840444791121272 0 4.4183003189585803e-05 -0.024864556819865557 0 4.3877205191444199e-05 -0.024840444791121272 0 4.4038332550285521e-05 -0.02485035480100414 0 7.583003673098285e-05 -0.024815948627181079 0 4.3877205191444199e-05 -0.024840444791121272 0 2.791665216797784e-05 -0.024786946943145226 0 -9.290442263672305e-06 -0.024838898949472971 0 -0.0003145223848624618 -0.023929091077363646 0 -0.0003145223848624618 -0.023929091077363646 0 -0.00034082500201265865 -0.023074377754973771 0 7.583003673098285e-05 -0.024815948627181079 0 2.791665216797784e-05 -0.024786946943145226 0 0.00010641545291538241 -0.024738402900628065 0 -0.00046495860568119109 -0.02137903827011621 0 -0.00090472331075984707 -0.021535417255618129 0 -0.0006554390098569673 -0.021735442732089643 0 7.0804277538221084e-06 -0.024996719193281908 0 8.3207030145613346e-06 -0.024994438392112281 0 1.6874733981565573e-09 -0.025000008610120521 0 7.0804277538221084e-06 -0.024996719193281908 0 1.6874733981565573e-09 -0.025000008610120521 0 1.8122202326140309e-08 -0.024999977087718773 0 7.0804277538221084e-06 -0.024996719193281908 0 1.02971589516502e-05 -0.0249905152190649 0 8.3207030145613346e-06 -0.024994438392112281 0 -0.0003145223848624618 -0.023929091077363646 0 5.479788960045678e-05 -0.024992348669250364 0 5.2566040574279376e-06 -0.024982496019373881 0 1.02971589516502e-05 -0.0249905152190649 0 8.3207030145613346e-06 -0.024994438392112281 0 4.4183003189585803e-05 -0.024864556819865557 0 4.4038332550285521e-05 -0.02485035480100414 0 3.9535361415412863e-05 -0.024889778602088419 0 4.4183003189585803e-05 -0.024864556819865557 0 3.9535361415412863e-05 -0.024889778602088419 0 4.3293712158857643e-05 -0.024882895695060629 0 3.9535361415412863e-05 -0.024889778602088419 0 4.3293712158857643e-05 -0.024882895695060629 0 3.9551565492007721e-05 -0.024915359705655858 0 3.9535361415412863e-05 -0.024889778602088419 0 3.9551565492007721e-05 -0.024915359705655858 0 1.7882233696127528e-08 -0.024999779783780623 0 5.479788960045678e-05 -0.024992348669250364 0 4.47581635807164e-09 -0.024999962414463558 0 3.9551565492007721e-05 -0.024915359705655858 0 7.3357620363115366e-05 -0.024889095959184558 0 7.696491607295655e-08 -0.024999832391913012 0 3.9551565492007721e-05 -0.024915359705655858 0 1.7882233696127528e-08 -0.024999779783780623 0 7.696491607295655e-08 -0.024999832391913012 0 4.5660173024981109e-05 -0.024888182312606876 0 4.3293712158857643e-05 -0.024882895695060629 0 3.9551565492007721e-05 -0.024915359705655858 0 9.1215221797019078e-05 -0.024897452268036861 0 4.9354768352081628e-05 -0.024894078754764484 0 0.00013141132820963623 -0.02481526490157079 0 3.9551565492007721e-05 -0.024915359705655858 0 7.3357620363115366e-05 -0.024889095959184558 0 0.00016033766232456491 -0.024741911683689929 0 7.3357620363115366e-05 -0.024889095959184558 0 0.00010495907142432455 -0.024826858755012615 0 7.3357620363115366e-05 -0.024889095959184558 0 7.696491607295655e-08 -0.024999832391913012 0 0.00010495907142432455 -0.024826858755012615 0 7.696491607295655e-08 -0.024999832391913012 0 5.55849519792946e-08 -0.024999772708485857 0 0.00010495907142432455 -0.024826858755012615 0 5.55849519792946e-08 -0.024999772708485857 0 0.00013153640617773586 -0.024779714068891488 0 8.6031560706661158e-05 -0.024869031059460995 0 5.55849519792946e-08 -0.024999772708485857 0 0.00013153640617773586 -0.024779714068891488 0 0.00010495907142432455 -0.024826858755012615 0 0.00013153640617773586 -0.024779714068891488 0 0.00010495907142432455 -0.024826858755012615 0 0.00016408320478612025 -0.024711852455060419 0 0.00016033766232456491 -0.024741911683689929 0 0.00010495907142432455 -0.024826858755012615 0 0.00016408320478612025 -0.024711852455060419 0 0.00016033766232456491 -0.024741911683689929 0 0.00016408320478612025 -0.024711852455060419 0 0.00019922745587771384 -0.024590759605338131 0 0.00016408320478612025 -0.024711852455060419 0 0.00019922745587771384 -0.024590759605338131 0 0.00020974589898091391 -0.024656063912708526 0 0.00013153640617773586 -0.024779714068891488 0 0.00016408320478612025 -0.024711852455060419 0 0.00020974589898091391 -0.024656063912708526 0 0.00019922745587771384 -0.024590759605338131 0 0.00035014867984284819 -0.024527315453285025 0 0.00020974589898091391 -0.024656063912708526 0 0.00035465578174028947 -0.024479864919666691 0 0.00019922745587771384 -0.024590759605338131 0 0.00035014867984284819 -0.024527315453285025 0 0.00035014867984284819 -0.024527315453285025 0 0.00020974589898091391 -0.024656063912708526 0 0.00022798024209872436 -0.024695162018099594 0 0.00035014867984284819 -0.024527315453285025 0 0.00022798024209872436 -0.024695162018099594 0 0.0003787952720854796 -0.024578117286417851 0 0.00013153640617773586 -0.024779714068891488 0 0.00020974589898091391 -0.024656063912708526 0 0.00022798024209872436 -0.024695162018099594 0 0.00013153640617773586 -0.024779714068891488 0 0.00022798024209872436 -0.024695162018099594 0 8.6031560706661158e-05 -0.024869031059460995 0 0.00022798024209872436 -0.024695162018099594 0 0.00018381358596769861 -0.024801609654854773 0 8.6031560706661158e-05 -0.024869031059460995 0 0.00022798024209872436 -0.024695162018099594 0 0.0003787952720854796 -0.024578117286417851 0 0.00035492718137916093 -0.024676845783365389 0 0.00026698837606081396 -0.024879110515308053 0 0.00035492718137916093 -0.024676845783365389 0 0.00018381358596769861 -0.024801609654854773 0 0.00022798024209872436 -0.024695162018099594 0 0.00035492718137916093 -0.024676845783365389 0 0.00018381358596769861 -0.024801609654854773 0 7.9254050982565348e-05 -0.024921302234301744 0 0.00018381358596769861 -0.024801609654854773 0 8.6031560706661158e-05 -0.024869031059460995 0 7.9254050982565348e-05 -0.024921302234301744 0 4.6622511277288292e-08 -0.024999835404818645 0 8.6031560706661158e-05 -0.024869031059460995 0 5.55849519792946e-08 -0.024999772708485857 0 4.6622511277288292e-08 -0.024999835404818645 0 8.6031560706661158e-05 -0.024869031059460995 0 0.00045314113022902001 -0.014663359430648421 0 0.00029220173827079965 -0.014430605028977103 0 0.00079847662192332827 -0.013622698676403278 0 0.00048778119128577505 -0.014390880184119543 0 0.00029502184892213091 -0.014482555468630032 0 0.00020875658322656147 -0.015824318023872755 0 -7.3920031755343618e-05 -0.015433459735574289 0 0.00029502184892213091 -0.014482555468630032 0 0.00026777362353384387 -0.013498059585639771 0 0.00041918161331764095 -0.014136655054194815 0 0.00036996607305224806 -0.013750957702322087 0 0.00079847662192332827 -0.013622698676403278 0 0.00048778119128577505 -0.014390880184119543 0 0.00019149995563865277 -0.013228274322607689 0 5.6487223079137183e-05 -0.013713266993132914 0 0.00041547372366698649 -0.013929788573667367 0 0.00045314113022902001 -0.014663359430648421 0 0.00011592308909300138 -0.01421506012385281 0 0.00034395944529235325 -0.013071497644560701 0 0.00079847662192332827 -0.013622698676403278 0 0.00053094291869994203 -0.01239349487903884 0 0.00036996607305224806 -0.013750957702322087 0 0.00034395944529235325 -0.013071497644560701 0 0.00079847662192332827 -0.013622698676403278 0 0.00020875658322656147 -0.015824318023872755 0 -0.00020943990221721241 -0.01599731817901803 0 -7.3920031755343618e-05 -0.015433459735574289 0 0.00020875658322656147 -0.015824318023872755 0 -0.00020943990221721241 -0.01599731817901803 0 -4.0338559111213584e-05 -0.016030375736722627 0 -0.00020943990221721241 -0.01599731817901803 0 -0.00049705698007991279 -0.015862631587954909 0 -7.3920031755343618e-05 -0.015433459735574289 0 -0.00020943990221721241 -0.01599731817901803 0 -0.00049705698007991279 -0.015862631587954909 0 -0.00047852751785954504 -0.016172605825389964 0 -0.00049705698007991279 -0.015862631587954909 0 -0.0007398891948328304 -0.016361490447851904 0 -0.00082134211305891821 -0.016050430436342883 0 -0.00049705698007991279 -0.015862631587954909 0 -0.0007398891948328304 -0.016361490447851904 0 -0.00047852751785954504 -0.016172605825389964 0 -0.00049705698007991279 -0.015862631587954909 0 -0.00079843268453024582 -0.015413240492047266 0 -0.00082134211305891821 -0.016050430436342883 0 -0.00049705698007991279 -0.015862631587954909 0 -0.00079843268453024582 -0.015413240492047266 0 -0.00036330814855439043 -0.015128844377725909 0 -7.3920031755343618e-05 -0.015433459735574289 0 -6.7439410136235537e-05 -0.014968612509776252 0 0.00029502184892213091 -0.014482555468630032 0 -0.00049705698007991279 -0.015862631587954909 0 -7.3920031755343618e-05 -0.015433459735574289 0 -0.00036330814855439043 -0.015128844377725909 0 -7.3920031755343618e-05 -0.015433459735574289 0 -0.00036330814855439043 -0.015128844377725909 0 -6.7439410136235537e-05 -0.014968612509776252 0 -6.7439410136235537e-05 -0.014968612509776252 0 -0.00012132688678977868 -0.014640052012908676 0 0.00029502184892213091 -0.014482555468630032 0 -0.00012132688678977868 -0.014640052012908676 0 -0.0007175308351904916 -0.014390731181624782 0 8.1512668417387386e-06 -0.014275408108311774 0 -0.00036330814855439043 -0.015128844377725909 0 -6.7439410136235537e-05 -0.014968612509776252 0 -0.00012132688678977868 -0.014640052012908676 0 -0.00012132688678977868 -0.014640052012908676 0 8.1512668417387386e-06 -0.014275408108311774 0 0.00029502184892213091 -0.014482555468630032 0 -0.00079843268453024582 -0.015413240492047266 0 -0.00036330814855439043 -0.015128844377725909 0 -0.0007175308351904916 -0.014390731181624782 0 -0.00036330814855439043 -0.015128844377725909 0 -0.00012132688678977868 -0.014640052012908676 0 -0.0007175308351904916 -0.014390731181624782 0 -0.0007175308351904916 -0.014390731181624782 0 -0.00030717414075274736 -0.013860393452575724 0 -0.00053866919451875221 -0.013715333006355501 0 -0.0007175308351904916 -0.014390731181624782 0 -0.00030717414075274736 -0.013860393452575724 0 8.1512668417387386e-06 -0.014275408108311774 0 -0.0007175308351904916 -0.014390731181624782 0 -0.00053866919451875221 -0.013715333006355501 0 -0.00087961811903375224 -0.013509992966901791 0 -2.2993407566286308e-05 -0.013797395005756715 0 0.00040908150701040702 -0.014101926163334139 0 -2.4502762473170922e-05 -0.013254244055852399 0 8.1512668417387386e-06 -0.014275408108311774 0 -2.2993407566286308e-05 -0.013797395005756715 0 0.00040908150701040702 -0.014101926163334139 0 -0.00030717414075274736 -0.013860393452575724 0 8.1512668417387386e-06 -0.014275408108311774 0 -2.2993407566286308e-05 -0.013797395005756715 0 7.1279226860362764e-05 -0.014217495197484815 0 0.00041918161331764095 -0.014136655054194815 0 8.1512668417387386e-06 -0.014275408108311774 0 0.00040908150701040702 -0.014101926163334139 0 0.00041547372366698649 -0.013929788573667367 0 8.1512668417387386e-06 -0.014275408108311774 0 0.00048778119128577505 -0.014390880184119543 0 0.00029502184892213091 -0.014482555468630032 0 5.6487223079137183e-05 -0.013713266993132914 0 0.00040908150701040702 -0.014101926163334139 0 0.00041547372366698649 -0.013929788573667367 0 -0.00013513744770316685 -0.013158431081626619 0 0.00010868897928726472 -0.013451987354013097 0 -0.00035815461338271491 -0.012625542431230647 0 -0.00015328013881358576 -0.012842970393031714 0 -0.00032170180279401435 -0.012817388475097143 0 -0.00015328013881358576 -0.012842970393031714 0 -0.00032170180279401435 -0.012817388475097143 0 -0.00032055519029740173 -0.012942018162648495 0 -0.00032170180279401435 -0.012817388475097143 0 -0.00032055519029740173 -0.012942018162648495 0 -0.00045769546433781428 -0.012881601298491882 0 -0.00032170180279401435 -0.012817388475097143 0 -0.00044497983920534971 -0.012776011858928666 0 -0.00045769546433781428 -0.012881601298491882 0 -0.00032170180279401435 -0.012817388475097143 0 -0.00044497983920534971 -0.012776011858928666 0 -0.0004155031882156011 -0.012714627458296889 0 -0.00044497983920534971 -0.012776011858928666 0 -0.00055980143833783127 -0.012785420854588564 0 -0.00045769546433781428 -0.012881601298491882 0 -0.00055980143833783127 -0.012785420854588564 0 -0.00049324670669219188 -0.012713797321961028 0 -0.00058213123174271351 -0.012705016932880455 0 -0.00044497983920534971 -0.012776011858928666 0 -0.00055980143833783127 -0.012785420854588564 0 -0.00049324670669219188 -0.012713797321961028 0 -0.00049324670669219188 -0.012713797321961028 0 -0.00058213123174271351 -0.012705016932880455 0 -0.00050365636854959352 -0.012649067231958779 0 -0.00058213123174271351 -0.012705016932880455 0 -0.00050365636854959352 -0.012649067231958779 0 -0.00059482037185821504 -0.012645706215237255 0 -0.00049324670669219188 -0.012713797321961028 0 -0.00050365636854959352 -0.012649067231958779 0 -0.00044030620057585075 -0.012656472599123463 0 -0.00035815461338271491 -0.012625542431230647 0 -0.00032170180279401435 -0.012817388475097143 0 -0.0004155031882156011 -0.012714627458296889 0 -0.00035815461338271491 -0.012625542431230647 0 -0.00044030620057585075 -0.012656472599123463 0 -0.0004155031882156011 -0.012714627458296889 0 -0.00044497983920534971 -0.012776011858928666 0 -0.00049324670669219188 -0.012713797321961028 0 -0.0004155031882156011 -0.012714627458296889 0 -0.00049324670669219188 -0.012713797321961028 0 -0.00044030620057585075 -0.012656472599123463 0 -0.0004155031882156011 -0.012714627458296889 0 -0.00075543812632116153 -0.01271248374220014 0 -0.0007057576584439311 -0.012735974507047216 0 -0.00070364785351068168 -0.012722898904624177 0 -0.00071835871293683662 -0.012724160616023899 0 -0.0007057576584439311 -0.012735974507047216 0 -0.00066975820185970853 -0.012733898032523098 0 -0.0007057576584439311 -0.012735974507047216 0 -0.00068087167101573808 -0.012755714134502617 0 -0.00066975820185970853 -0.012733898032523098 0 -0.0007057576584439311 -0.012735974507047216 0 -0.00068087167101573808 -0.012755714134502617 0 -0.00070364785351068168 -0.012722898904624177 0 -0.00070364785351068168 -0.012722898904624177 0 -0.00064353854340180048 -0.01274876860534223 0 -0.00066376651509339165 -0.012687772660575757 0 -0.00068087167101573808 -0.012755714134502617 0 -0.00070364785351068168 -0.012722898904624177 0 -0.00064353854340180048 -0.01274876860534223 0 -0.00068087167101573808 -0.012755714134502617 0 -0.00064353854340180048 -0.01274876860534223 0 -0.00064639262843329127 -0.012797254454358226 0 -0.00055980143833783127 -0.012785420854588564 0 -0.00064353854340180048 -0.01274876860534223 0 -0.00064639262843329127 -0.012797254454358226 0 -0.00055980143833783127 -0.012785420854588564 0 -0.00058213123174271351 -0.012705016932880455 0 -0.00064353854340180048 -0.01274876860534223 0 -0.00058213123174271351 -0.012705016932880455 0 -0.00064353854340180048 -0.01274876860534223 0 -0.00066376651509339165 -0.012687772660575757 0 -0.00058213123174271351 -0.012705016932880455 0 -0.00059482037185821504 -0.012645706215237255 0 -0.00066376651509339165 -0.012687772660575757 0 -0.00059482037185821504 -0.012645706215237255 0 -0.00066376651509339165 -0.012687772660575757 0 -0.00068994622566284321 -0.012602767429634378 0 -0.00070364785351068168 -0.012722898904624177 0 -0.00066376651509339165 -0.012687772660575757 0 -0.00074336907056575649 -0.012675970978368927 0 -0.00074336907056575649 -0.012675970978368927 0 -0.00082672658778950474 -0.012611867415057453 0 -0.00068994622566284321 -0.012602767429634378 0 -0.00066376651509339165 -0.012687772660575757 0 -0.00074336907056575649 -0.012675970978368927 0 -0.00068994622566284321 -0.012602767429634378 0 -0.00081300507102163042 -0.012662706292925969 0 -0.00074336907056575649 -0.012675970978368927 0 -0.00082672658778950474 -0.012611867415057453 0 -0.00081300507102163042 -0.012662706292925969 0 -0.00075543812632116153 -0.01271248374220014 0 -0.00074336907056575649 -0.012675970978368927 0 -0.00075543812632116153 -0.01271248374220014 0 -0.00070364785351068168 -0.012722898904624177 0 -0.00074336907056575649 -0.012675970978368927 0 -0.00092875347258135463 -0.012538381264590403 0 -0.00082672658778950474 -0.012611867415057453 0 -0.00082308175042702188 -0.012449342483053983 0 -0.00082672658778950474 -0.012611867415057453 0 -0.00068994622566284321 -0.012602767429634378 0 -0.00082308175042702188 -0.012449342483053983 0 -0.00068994622566284321 -0.012602767429634378 0 -0.0006064883804016238 -0.0125877661147035 0 -0.00062794498911890979 -0.012514533878784878 0 -0.00068994622566284321 -0.012602767429634378 0 -0.00062794498911890979 -0.012514533878784878 0 -0.00082308175042702188 -0.012449342483053983 0 -0.00059482037185821504 -0.012645706215237255 0 -0.0006064883804016238 -0.0125877661147035 0 -0.00051715899162383143 -0.012597855346518099 0 -0.00059482037185821504 -0.012645706215237255 0 -0.00068994622566284321 -0.012602767429634378 0 -0.0006064883804016238 -0.0125877661147035 0 -0.0006064883804016238 -0.0125877661147035 0 -0.00062794498911890979 -0.012514533878784878 0 -0.00052226318160819379 -0.012540501315293164 0 -0.00062794498911890979 -0.012514533878784878 0 -0.00065994414171741806 -0.012354542214352218 0 -0.00051020336799800011 -0.012402619574785391 0 -0.00062794498911890979 -0.012514533878784878 0 -0.00052226318160819379 -0.012540501315293164 0 -0.00051020336799800011 -0.012402619574785391 0 -0.00062794498911890979 -0.012514533878784878 0 -0.00065994414171741806 -0.012354542214352218 0 -0.00082308175042702188 -0.012449342483053983 0 -0.00065994414171741806 -0.012354542214352218 0 -0.00082308175042702188 -0.012449342483053983 0 -0.00084473291029053029 -0.012138525467483105 0 -0.0013113601635010991 -0.01213615897478953 0 -0.00082308175042702188 -0.012449342483053983 0 -0.00084473291029053029 -0.012138525467483105 0 -0.00035815461338271491 -0.012625542431230647 0 -0.00044030620057585075 -0.012656472599123463 0 -0.00044615752049606441 -0.012602112051247184 0 0.00019149995563865277 -0.013228274322607689 0 5.6487223079137183e-05 -0.013713266993132914 0 -0.00043359820371223956 -0.01257598412198173 0 -0.00035815461338271491 -0.012625542431230647 0 -0.00044615752049606441 -0.012602112051247184 0 -0.00043359820371223956 -0.01257598412198173 0 -0.00013513744770316685 -0.013158431081626619 0 -0.00042375051669527942 -0.012636763252517679 0 -0.00050365636854959352 -0.012649067231958779 0 -0.00044030620057585075 -0.012656472599123463 0 -0.00044615752049606441 -0.012602112051247184 0 -0.00050365636854959352 -0.012649067231958779 0 -0.00051715899162383143 -0.012597855346518099 0 -0.00044615752049606441 -0.012602112051247184 0 -0.00050365636854959352 -0.012649067231958779 0 -0.00059482037185821504 -0.012645706215237255 0 -0.00051715899162383143 -0.012597855346518099 0 -0.0006064883804016238 -0.0125877661147035 0 -0.00051715899162383143 -0.012597855346518099 0 -0.00052226318160819379 -0.012540501315293164 0 -0.00051715899162383143 -0.012597855346518099 0 -0.00052226318160819379 -0.012540501315293164 0 -0.00047324432563064414 -0.012565370759079861 0 -0.00051715899162383143 -0.012597855346518099 0 -0.00044615752049606441 -0.012602112051247184 0 -0.00047324432563064414 -0.012565370759079861 0 -0.00044615752049606441 -0.012602112051247184 0 -0.00047324432563064414 -0.012565370759079861 0 -0.00043359820371223956 -0.01257598412198173 0 -0.00047709887700811063 -0.012516845159204973 0 -0.00051020336799800011 -0.012402619574785391 0 -0.00033100496805974763 -0.012446730296440608 0 -0.00047324432563064414 -0.012565370759079861 0 -0.00047709887700811063 -0.012516845159204973 0 -0.00043359820371223956 -0.01257598412198173 0 -0.00052226318160819379 -0.012540501315293164 0 -0.00047709887700811063 -0.012516845159204973 0 -0.00051020336799800011 -0.012402619574785391 0 -0.00052226318160819379 -0.012540501315293164 0 -0.00047324432563064414 -0.012565370759079861 0 -0.00047709887700811063 -0.012516845159204973 0 -0.00047709887700811063 -0.012516845159204973 0 -0.00043359820371223956 -0.01257598412198173 0 -0.00033100496805974763 -0.012446730296440608 0 0.00026777362353384387 -0.013498059585639771 0 -0.00020697812289460077 -0.012709074162074971 0 0.00019149995563865277 -0.013228274322607689 0 -0.00043359820371223956 -0.01257598412198173 0 -0.00033100496805974763 -0.012446730296440608 0 0.00036996607305224806 -0.013750957702322087 0 0.00034395944529235325 -0.013071497644560701 0 -0.00011650243359057295 -0.01296068880106924 0 0.00034395944529235325 -0.013071497644560701 0 -0.00011650243359057295 -0.01296068880106924 0 0.0001123419455249269 -0.012646411176634148 0 0.0001123419455249269 -0.012646411176634148 0 -5.1238038943988442e-05 -0.012262404701462389 0 0.00053094291869994203 -0.01239349487903884 0 0.0001123419455249269 -0.012646411176634148 0 -5.1238038943988442e-05 -0.012262404701462389 0 -0.00012531033399746275 -0.012509877387906741 0 -0.00011650243359057295 -0.01296068880106924 0 0.0001123419455249269 -0.012646411176634148 0 -0.00012531033399746275 -0.012509877387906741 0 -0.00051020336799800011 -0.012402619574785391 0 -0.00033100496805974763 -0.012446730296440608 0 -0.00041746293056149381 -0.012177374373961877 0 -5.1238038943988442e-05 -0.012262404701462389 0 -0.00012531033399746275 -0.012509877387906741 0 -0.00041746293056149381 -0.012177374373961877 0 -0.00020697812289460077 -0.012709074162074971 0 -0.00042333157650054385 -0.012255029561196258 0 -0.00011650243359057295 -0.01296068880106924 0 -0.00012531033399746275 -0.012509877387906741 0 -0.00041746293056149381 -0.012177374373961877 0 -6.2084949732061032e-05 -0.012199838093736492 0 -0.000443419199744432 -0.011488257303962277 0 -5.1238038943988442e-05 -0.012262404701462389 0 -0.00041746293056149381 -0.012177374373961877 0 -0.00029359691900028546 -0.011300378406972327 0 -5.1238038943988442e-05 -0.012262404701462389 0 -0.00056367025868643236 -0.011741208688874669 0 0.00016776813898012073 -0.011673340515791967 0 -5.1238038943988442e-05 -0.012262404701462389 0 0.00016776813898012073 -0.011673340515791967 0 0.00053094291869994203 -0.01239349487903884 0 -0.0013113601635010991 -0.01213615897478953 0 -0.00084473291029053029 -0.012138525467483105 0 -0.0010863220071088352 -0.011757896665578393 0 -0.00084473291029053029 -0.012138525467483105 0 -0.00070774173526397201 -0.011745913729060095 0 -0.0010863220071088352 -0.011757896665578393 0 -0.00065994414171741806 -0.012354542214352218 0 -0.00041746293056149381 -0.012177374373961877 0 -0.00084473291029053029 -0.012138525467483105 0 -0.00041746293056149381 -0.012177374373961877 0 -0.00084473291029053029 -0.012138525467483105 0 -0.00070774173526397201 -0.011745913729060095 0 -0.00065994414171741806 -0.012354542214352218 0 -0.00051020336799800011 -0.012402619574785391 0 -0.00041746293056149381 -0.012177374373961877 0 -0.00070774173526397201 -0.011745913729060095 0 -0.00089730238060817832 -0.011097090562914656 0 -0.00029359691900028546 -0.011300378406972327 0 -0.00041746293056149381 -0.012177374373961877 0 -0.00070774173526397201 -0.011745913729060095 0 -0.00029359691900028546 -0.011300378406972327 0 -0.00070774173526397201 -0.011745913729060095 0 -0.0010863220071088352 -0.011757896665578393 0 -0.00089730238060817832 -0.011097090562914656 0 -0.0015403929306025863 -0.011319972247076772 0 -0.0010863220071088352 -0.011757896665578393 0 -0.00089730238060817832 -0.011097090562914656 0 -0.0015403929306025863 -0.011319972247076772 0 -0.00089730238060817832 -0.011097090562914656 0 -0.0011657196783879744 -0.010609896574409517 0 -0.00089730238060817832 -0.011097090562914656 0 -0.0011657196783879744 -0.010609896574409517 0 -0.00095683443293995433 -0.010092926836447214 0 -0.00089730238060817832 -0.011097090562914656 0 -0.00029359691900028546 -0.011300378406972327 0 -0.00095683443293995433 -0.010092926836447214 0 -0.000443419199744432 -0.011488257303962277 0 -0.0010920065317788176 -0.01080860034945875 0 -0.00056367025868643236 -0.011741208688874669 0 -0.00057569269657358835 -0.011248789718052866 0 -0.0010726877344599188 -0.011212894902957682 0 -0.00082110022721561347 -0.01082093365238164 0 -0.00057569269657358835 -0.011248789718052866 0 -0.00014362732240128794 -0.011043464504590893 0 -0.00082110022721561347 -0.01082093365238164 0 -0.00057569269657358835 -0.011248789718052866 0 -0.0010726877344599188 -0.011212894902957682 0 -0.0013066729589769042 -0.0099669148597337394 0 -0.0011657196783879744 -0.010609896574409517 0 -0.00095683443293995433 -0.010092926836447214 0 -0.00071858823879911908 -0.015400873200462666 0 -0.00060496943857934419 -0.014710549928085613 0 -0.00038991222637750069 -0.015141832786738182 0 -0.00056367025868643236 -0.011741208688874669 0 0.00016776813898012073 -0.011673340515791967 0 -0.00025654469148099165 -0.011433647477360242 0 -0.00056367025868643236 -0.011741208688874669 0 -0.00057569269657358835 -0.011248789718052866 0 -0.00025654469148099165 -0.011433647477360242 0 -0.00057569269657358835 -0.011248789718052866 0 -0.00025654469148099165 -0.011433647477360242 0 -0.00014362732240128794 -0.011043464504590893 0 -0.0014424360171988223 -0.012618001701246695 0 -0.0016288736503259629 -0.013424421970164649 0 -0.00015188037889685998 -0.013599776847667175 0 -0.0014424360171988223 -0.012618001701246695 0 -0.00071858823879911908 -0.015400873200462666 0 -0.001163632508334195 -0.014524768923088408 0 -0.00060496943857934419 -0.014710549928085613 0 0.00016776813898012073 -0.011673340515791967 0 -0.00025654469148099165 -0.011433647477360242 0 -0.00014362732240128794 -0.011043464504590893 0 -0.0016288736503259629 -0.013424421970164649 0 -0.0013450337574219691 -0.014979281266253039 0 -0.0025597460509928266 -0.012406951217925524 0 -0.0024915307776702117 -0.012167895424049448 0 -0.0027623264408279443 -0.012100069936531937 0 -0.00060496943857934419 -0.014710549928085613 0 -8.0101626057980778e-05 -0.014892704314670251 0 -0.00038991222637750069 -0.015141832786738182 0 -0.0023025601704995836 -0.016291403245170762 0 -0.0009549648145711874 -0.016480781555954133 0 -0.0012439107328867482 -0.015925298922410212 0 -0.0017703002808657485 -0.01526116938854334 0 -0.0023025601704995836 -0.016291403245170762 0 -0.0012439107328867482 -0.015925298922410212 0 -0.0013450337574219691 -0.014979281266253039 0 -0.00093731727808729344 -0.01659337020878145 0 -0.0005072532764866973 -0.016405355338324032 0 -0.00064809657878663973 -0.016449885318317377 0 -0.0009549648145711874 -0.016480781555954133 0 -0.0013450337574219691 -0.014979281266253039 0 -0.00016318076668029273 -0.016173945699415583 0 -0.00060645673828195977 -0.016616495552909658 0 -0.0005072532764866973 -0.016405355338324032 0 -0.0009549648145711874 -0.016480781555954133 0 -0.00071858823879911908 -0.015400873200462666 0 -0.00038991222637750069 -0.015141832786738182 0 -1.5756464730354202e-05 -0.015634015743677926 0 -8.0101626057980778e-05 -0.014892704314670251 0 -0.00038991222637750069 -0.015141832786738182 0 -1.5756464730354202e-05 -0.015634015743677926 0 -0.00071858823879911908 -0.015400873200462666 0 -1.5756464730354202e-05 -0.015634015743677926 0 -0.00025756809313391368 -0.016111104798304916 0 -1.5756464730354202e-05 -0.015634015743677926 0 -0.00011840962110812558 -0.01613841118007775 0 -0.00025756809313391368 -0.016111104798304916 0 -0.00015188037889685998 -0.013599776847667175 0 0.00011592308909300138 -0.01421506012385281 0 -0.00016318076668029273 -0.016173945699415583 0 -0.00017506747094677064 -0.016023472470988526 0 -0.0005072532764866973 -0.016405355338324032 0 -0.0004572527289508758 -0.016342067587954701 0 -0.00011840962110812558 -0.01613841118007775 0 -0.0005072532764866973 -0.016405355338324032 0 -0.0004572527289508758 -0.016342067587954701 0 -0.00064809657878663973 -0.016449885318317377 0 -0.0004572527289508758 -0.016342067587954701 0 -0.00011840962110812558 -0.01613841118007775 0 -0.00037166047714947266 -0.016223605384265778 0 -0.00020943990221721241 -0.01599731817901803 0 -0.00011840962110812558 -0.01613841118007775 0 -4.0338559111213584e-05 -0.016030375736722627 0 -0.00020943990221721241 -0.01599731817901803 0 -0.00011840962110812558 -0.01613841118007775 0 -0.00037166047714947266 -0.016223605384265778 0 -0.00011840962110812558 -0.01613841118007775 0 -4.0338559111213584e-05 -0.016030375736722627 0 -0.00025756809313391368 -0.016111104798304916 0 0.00020875658322656147 -0.015824318023872755 0 -4.0338559111213584e-05 -0.016030375736722627 0 -0.00025756809313391368 -0.016111104798304916 0 0.00034395944529235325 -0.013071497644560701 0 0.0001123419455249269 -0.012646411176634148 0 0.00053094291869994203 -0.01239349487903884 0 -0.0007398891948328304 -0.016361490447851904 0 -0.00047852751785954504 -0.016172605825389964 0 -0.00059434797345107176 -0.016421821458914285 0 -0.00047852751785954504 -0.016172605825389964 0 -0.00037166047714947266 -0.016223605384265778 0 -0.00059434797345107176 -0.016421821458914285 0 -0.00020943990221721241 -0.01599731817901803 0 -0.00047852751785954504 -0.016172605825389964 0 -0.00037166047714947266 -0.016223605384265778 0 -0.00059434797345107176 -0.016421821458914285 0 -0.00064809657878663973 -0.016449885318317377 0 -0.00069388090012617077 -0.016502328577152683 0 -0.0004572527289508758 -0.016342067587954701 0 -0.00037166047714947266 -0.016223605384265778 0 -0.00059434797345107176 -0.016421821458914285 0 -0.0004572527289508758 -0.016342067587954701 0 -0.00059434797345107176 -0.016421821458914285 0 -0.00064809657878663973 -0.016449885318317377 0 -0.00059434797345107176 -0.016421821458914285 0 -0.00068496491257171734 -0.016489603381801009 0 -0.00069388090012617077 -0.016502328577152683 0 -0.0007398891948328304 -0.016361490447851904 0 -0.00068496491257171734 -0.016489603381801009 0 -0.00088469209638331113 -0.016500837165668407 0 -0.0007398891948328304 -0.016361490447851904 0 -0.00059434797345107176 -0.016421821458914285 0 -0.00068496491257171734 -0.016489603381801009 0 -0.00068496491257171734 -0.016489603381801009 0 -0.00050580028159173131 -0.016452512744415976 0 -0.00088469209638331113 -0.016500837165668407 0 -0.00068496491257171734 -0.016489603381801009 0 -0.00050580028159173131 -0.016452512744415976 0 -0.00069388090012617077 -0.016502328577152683 0 -0.00050580028159173131 -0.016452512744415976 0 -0.00069388090012617077 -0.016502328577152683 0 -0.00078415141253258315 -0.016215833684487677 0 -0.00064809657878663973 -0.016449885318317377 0 -0.00069388090012617077 -0.016502328577152683 0 -0.0009549648145711874 -0.016480781555954133 0 -0.00069388090012617077 -0.016502328577152683 0 -0.0009549648145711874 -0.016480781555954133 0 -0.00078415141253258315 -0.016215833684487677 0 -0.00070403353102129645 -0.01530619596722073 0 -0.00078415141253258315 -0.016215833684487677 0 -0.0012439107328867482 -0.015925298922410212 0 -0.0009549648145711874 -0.016480781555954133 0 -0.00078415141253258315 -0.016215833684487677 0 -0.0012439107328867482 -0.015925298922410212 0 -0.0015028984738130926 -0.015561900849517417 0 -0.00068336085887041635 -0.016390288508949483 0 -0.00070403353102129645 -0.01530619596722073 0 -0.00050580028159173131 -0.016452512744415976 0 -0.00078415141253258315 -0.016215833684487677 0 -0.0011720232032009076 -0.01602550765021182 0 -0.0010110204056234626 -0.016295742261104151 0 -0.00096822740390264549 -0.016204145514921046 0 -0.0015725575615129265 -0.016711151269895294 0 -0.0017579801102982279 -0.017086243803429619 0 -0.0011573081137180067 -0.016966274909650345 0 -0.0017579801102982279 -0.017086243803429619 0 -0.0011573081137180067 -0.016966274909650345 0 -0.00092881424533183181 -0.017559333131239342 0 -0.0013855239935436077 -0.01670239528410843 0 -0.00087874765620737363 -0.016928071749350522 0 -0.0010110204056234626 -0.016295742261104151 0 -0.00096822740390264549 -0.016204145514921046 0 -0.00080716443017329919 -0.016359211786907558 0 -0.00068336085887041635 -0.016390288508949483 0 -0.00089712344320432838 -0.016453863075616477 0 -0.0010110204056234626 -0.016295742261104151 0 -0.00080716443017329919 -0.016359211786907558 0 -0.00088469209638331113 -0.016500837165668407 0 -0.00092881424533183181 -0.017559333131239342 0 -0.00067539629370352362 -0.017216314035545029 0 -0.00037388248425885526 -0.017454698666233438 0 -0.00092881424533183181 -0.017559333131239342 0 -0.00037388248425885526 -0.017454698666233438 0 -0.00030832903014763253 -0.017570250380700987 0 -0.0011573081137180067 -0.016966274909650345 0 -0.00092881424533183181 -0.017559333131239342 0 -0.00067539629370352362 -0.017216314035545029 0 -0.00072992866088708824 -0.016786699522719967 0 -0.0011573081137180067 -0.016966274909650345 0 -0.00067539629370352362 -0.017216314035545029 0 -0.00072992866088708824 -0.016786699522719967 0 -0.00067539629370352362 -0.017216314035545029 0 -0.00033029728180701957 -0.017259848555327365 0 -0.00033029728180701957 -0.017259848555327365 0 -0.00011713702213975678 -0.017508063106986053 0 -0.00037388248425885526 -0.017454698666233438 0 -0.00067539629370352362 -0.017216314035545029 0 -0.00033029728180701957 -0.017259848555327365 0 -0.00037388248425885526 -0.017454698666233438 0 -0.00033029728180701957 -0.017259848555327365 0 -1.6408241246007914e-05 -0.017382491513249488 0 -0.00011713702213975678 -0.017508063106986053 0 -0.00034032135964100777 -0.01693119675025153 0 -0.00033029728180701957 -0.017259848555327365 0 -1.6408241246007914e-05 -0.017382491513249488 0 -1.6408241246007914e-05 -0.017382491513249488 0 -0.00011713702213975678 -0.017508063106986053 0 1.4811347305600748e-05 -0.017703805605862061 0 -0.00011713702213975678 -0.017508063106986053 0 -0.00019810868172498962 -0.017510081656219905 0 -0.00037388248425885526 -0.017454698666233438 0 -0.00011713702213975678 -0.017508063106986053 0 -9.7414182141408739e-05 -0.017527715312236576 0 1.4811347305600748e-05 -0.017703805605862061 0 -0.00011713702213975678 -0.017508063106986053 0 -9.7414182141408739e-05 -0.017527715312236576 0 -0.00019810868172498962 -0.017510081656219905 0 -9.7414182141408739e-05 -0.017527715312236576 0 -0.00019810868172498962 -0.017510081656219905 0 -0.00019672891039517037 -0.017387601735783558 0 -0.00019810868172498962 -0.017510081656219905 0 -0.00037388248425885526 -0.017454698666233438 0 -0.00030832903014763253 -0.017570250380700987 0 -0.00019810868172498962 -0.017510081656219905 0 -0.00030832903014763253 -0.017570250380700987 0 -0.00019672891039517037 -0.017387601735783558 0 -0.00030832903014763253 -0.017570250380700987 0 -0.00029921215706283407 -0.017107043089384728 0 -0.00019672891039517037 -0.017387601735783558 0 -0.00029921215706283407 -0.017107043089384728 0 -0.00067926757593936055 -0.016810408255628448 0 -0.0003110914900147621 -0.017251850347064529 0 -0.00064549669359012019 -0.016542200737508842 0 -0.00029921215706283407 -0.017107043089384728 0 -0.00067926757593936055 -0.016810408255628448 0 -0.00050507607411471179 -0.017046168589397212 0 -0.00033752216800037049 -0.017092105941112764 0 -0.00067926757593936055 -0.016810408255628448 0 -0.00088469209638331113 -0.016500837165668407 0 -0.0010344598826634275 -0.016584928753434969 0 -0.0007398891948328304 -0.016361490447851904 0 -0.00088469209638331113 -0.016500837165668407 0 -0.0010344598826634275 -0.016584928753434969 0 -0.00087874765620737363 -0.016928071749350522 0 -0.00050507607411471179 -0.017046168589397212 0 -0.00064549669359012019 -0.016542200737508842 0 -0.00067926757593936055 -0.016810408255628448 0 -0.00088469209638331113 -0.016500837165668407 0 -0.00080716443017329919 -0.016359211786907558 0 -0.00064549669359012019 -0.016542200737508842 0 -0.00088469209638331113 -0.016500837165668407 0 0.00089331347480326297 -0.019184986315625877 0 0.00088895998815908173 -0.018994701897771003 0 0.00089752601755711445 -0.019050938311844453 0 0.00090546340667283832 -0.018823071571559519 0 0.00087502455390814132 -0.018636478370013452 0 0.0008520465568715535 -0.018794109115571167 0 0.00088895998815908173 -0.018994701897771003 0 0.00090546340667283832 -0.018823071571559519 0 0.0008520465568715535 -0.018794109115571167 0 0.00090709448024317704 -0.018898884281046625 0 0.00090546340667283832 -0.018823071571559519 0 0.00089752601755711445 -0.019050938311844453 0 0.00088895998815908173 -0.018994701897771003 0 0.00090546340667283832 -0.018823071571559519 0 0.00089752601755711445 -0.019050938311844453 0 0.00090709448024317704 -0.018898884281046625 0 0.00090546340667283832 -0.018823071571559519 0 0.00093184487470926089 -0.018583242379063388 0 0.0009393253079465183 -0.018598014829431242 0 0.00090709448024317704 -0.018898884281046625 0 0.00093184487470926089 -0.018583242379063388 0 0.0010132907427456556 -0.018185882291167493 0 0.0009393253079465183 -0.018598014829431242 0 0.00093184487470926089 -0.018583242379063388 0 0.00090546340667283832 -0.018823071571559519 0 0.00093184487470926089 -0.018583242379063388 0 0.00087502455390814132 -0.018636478370013452 0 0.00087502455390814132 -0.018636478370013452 0 0.00085499089579390327 -0.018370719325170957 0 0.00080866356904533629 -0.018563369018385678 0 0.00073713248060175527 -0.017883103249544587 0 0.0010132907427456556 -0.018185882291167493 0 0.00085499089579390327 -0.018370719325170957 0 0.00093184487470926089 -0.018583242379063388 0 0.00087502455390814132 -0.018636478370013452 0 0.00085499089579390327 -0.018370719325170957 0 0.0010132907427456556 -0.018185882291167493 0 0.00093184487470926089 -0.018583242379063388 0 0.00085499089579390327 -0.018370719325170957 0 0.00085499089579390327 -0.018370719325170957 0 0.00080866356904533629 -0.018563369018385678 0 0.0007063518106866191 -0.018328163998673742 0 0.00024314216122008452 -0.018107452725434636 0 0.00037828655263115707 -0.01834225639688962 0 0.00088895998815908173 -0.018994701897771003 0 0.00069631269009577895 -0.018701599320179393 0 0.00090288476804092313 -0.019192368078365905 0 0.00080866356904533629 -0.018563369018385678 0 0.00069631269009577895 -0.018701599320179393 0 0.0007063518106866191 -0.018328163998673742 0 0.00088895998815908173 -0.018994701897771003 0 0.0008520465568715535 -0.018794109115571167 0 0.00069631269009577895 -0.018701599320179393 0 0.00080866356904533629 -0.018563369018385678 0 0.0008520465568715535 -0.018794109115571167 0 0.00069631269009577895 -0.018701599320179393 0 0.00087502455390814132 -0.018636478370013452 0 0.00080866356904533629 -0.018563369018385678 0 0.0008520465568715535 -0.018794109115571167 0 0.00069631269009577895 -0.018701599320179393 0 0.00048181434173217436 -0.018061010973982754 0 1.4811347305600748e-05 -0.017703805605862061 0 0.00024314216122008452 -0.018107452725434636 0 2.8803617051535961e-05 -0.017763713037229924 0 -0.00012923603450592697 -0.017484264185385692 0 -0.00017099990040621535 -0.017449754145136914 0 -0.00030182635076539703 -0.017506266546148796 0 -0.0001256325666640684 -0.01749212680163582 0 -0.00029155529805107398 -0.017538501408653345 0 0.00069631269009577895 -0.018701599320179393 0 0.0007063518106866191 -0.018328163998673742 0 0.00048181434173217436 -0.018061010973982754 0 0.00073713248060175527 -0.017883103249544587 0 0.0007063518106866191 -0.018328163998673742 0 0.00048181434173217436 -0.018061010973982754 0 0.00073713248060175527 -0.017883103249544587 0 0.00085499089579390327 -0.018370719325170957 0 0.0007063518106866191 -0.018328163998673742 0 0.00073713248060175527 -0.017883103249544587 0 0.00048181434173217436 -0.018061010973982754 0 0.00030255510854314954 -0.017731877884950623 0 0.00033421087587301663 -0.017416871368020736 0 -1.6408241246007914e-05 -0.017382491513249488 0 0.00030255510854314954 -0.017731877884950623 0 0.00048181434173217436 -0.018061010973982754 0 0.00030255510854314954 -0.017731877884950623 0 1.4811347305600748e-05 -0.017703805605862061 0 -1.6408241246007914e-05 -0.017382491513249488 0 0.00030255510854314954 -0.017731877884950623 0 1.4811347305600748e-05 -0.017703805605862061 0 -0.00030182635076539703 -0.017506266546148796 0 1.4811347305600748e-05 -0.017703805605862061 0 -0.0001256325666640684 -0.01749212680163582 0 -9.7414182141408739e-05 -0.017527715312236576 0 1.4811347305600748e-05 -0.017703805605862061 0 -0.0001256325666640684 -0.01749212680163582 0 -9.7414182141408739e-05 -0.017527715312236576 0 -0.0001256325666640684 -0.01749212680163582 0 -0.00019672891039517037 -0.017387601735783558 0 -0.0001256325666640684 -0.01749212680163582 0 -0.00019672891039517037 -0.017387601735783558 0 -0.00015912656599019083 -0.017359489600276994 0 -0.00019672891039517037 -0.017387601735783558 0 -0.00015912656599019083 -0.017359489600276994 0 -0.00019105327744829158 -0.017292555373474416 0 -0.00029921215706283407 -0.017107043089384728 0 -0.00019105327744829158 -0.017292555373474416 0 -0.00017934938954824 -0.017355123840528251 0 -0.00029921215706283407 -0.017107043089384728 0 -0.00019672891039517037 -0.017387601735783558 0 -0.00019105327744829158 -0.017292555373474416 0 -0.00019105327744829158 -0.017292555373474416 0 -0.00012209869216565946 -0.017361689376748646 0 -0.00017934938954824 -0.017355123840528251 0 -0.00019105327744829158 -0.017292555373474416 0 -0.00012209869216565946 -0.017361689376748646 0 -0.0001328684278421543 -0.017334805327800309 0 -0.00012209869216565946 -0.017361689376748646 0 -7.1510002877750174e-05 -0.017364362366625856 0 -1.1696924452854187e-05 -0.017486603157416961 0 -0.00012209869216565946 -0.017361689376748646 0 -0.0001328684278421543 -0.017334805327800309 0 -7.1510002877750174e-05 -0.017364362366625856 0 -0.0001328684278421543 -0.017334805327800309 0 -9.8587803140515109e-05 -0.017337313937643914 0 -7.1510002877750174e-05 -0.017364362366625856 0 -0.0001256325666640684 -0.01749212680163582 0 -0.00015912656599019083 -0.017359489600276994 0 -0.00013645485471442369 -0.017318179973541913 0 -0.00015912656599019083 -0.017359489600276994 0 -0.0001328684278421543 -0.017334805327800309 0 -0.00013645485471442369 -0.017318179973541913 0 -0.0001328684278421543 -0.017334805327800309 0 -0.00013645485471442369 -0.017318179973541913 0 -9.8587803140515109e-05 -0.017337313937643914 0 -0.00015912656599019083 -0.017359489600276994 0 -0.00019105327744829158 -0.017292555373474416 0 -0.0001328684278421543 -0.017334805327800309 0 -0.00030182635076539703 -0.017506266546148796 0 -0.00029155529805107398 -0.017538501408653345 0 -1.1006192486407074e-05 -0.017574084747070718 0 -0.00029155529805107398 -0.017538501408653345 0 -5.7945061417516379e-05 -0.017669642861084398 0 -1.1006192486407074e-05 -0.017574084747070718 0 -0.00017099990040621535 -0.017449754145136914 0 -0.00011213711301534871 -0.017435571800032516 0 -0.00013645485471442369 -0.017318179973541913 0 -5.1428246814069843e-05 -0.017339356393152584 0 3.1031286236600186e-05 -0.01732274188642766 0 -0.00013645485471442369 -0.017318179973541913 0 -5.1428246814069843e-05 -0.017339356393152584 0 -9.8587803140515109e-05 -0.017337313937643914 0 -4.9616880199529554e-06 -0.017387367850826056 0 3.7789063340731159e-05 -0.017427342950868754 0 -1.1696924452854187e-05 -0.017486603157416961 0 -5.1428246814069843e-05 -0.017339356393152584 0 -9.8587803140515109e-05 -0.017337313937643914 0 -7.1510002877750174e-05 -0.017364362366625856 0 -7.1510002877750174e-05 -0.017364362366625856 0 -4.9616880199529554e-06 -0.017387367850826056 0 -1.1696924452854187e-05 -0.017486603157416961 0 -5.1428246814069843e-05 -0.017339356393152584 0 -7.1510002877750174e-05 -0.017364362366625856 0 -4.9616880199529554e-06 -0.017387367850826056 0 -5.1428246814069843e-05 -0.017339356393152584 0 -4.9616880199529554e-06 -0.017387367850826056 0 3.1031286236600186e-05 -0.01732274188642766 0 0.00016704083865307418 -0.017383669294855811 0 3.7789063340731159e-05 -0.017427342950868754 0 5.6739211778596741e-05 -0.017379310491873905 0 -4.9616880199529554e-06 -0.017387367850826056 0 5.6739211778596741e-05 -0.017379310491873905 0 3.1031286236600186e-05 -0.01732274188642766 0 0.00016704083865307418 -0.017383669294855811 0 5.6739211778596741e-05 -0.017379310491873905 0 3.1031286236600186e-05 -0.01732274188642766 0 -4.9616880199529554e-06 -0.017387367850826056 0 3.7789063340731159e-05 -0.017427342950868754 0 5.6739211778596741e-05 -0.017379310491873905 0 0.0003225620430223688 -0.017856695150711428 0 -5.7945061417516379e-05 -0.017669642861084398 0 -1.1006192486407074e-05 -0.017574084747070718 0 0.00089331347480326297 -0.019184986315625877 0 0.00088895998815908173 -0.018994701897771003 0 0.00090288476804092313 -0.019192368078365905 0 0.00021181457169663497 -0.017808037617086943 0 0.00015977837769225048 -0.017672824605170633 0 0.00015695338721369862 -0.017736731541309732 0 0.00024041740126946721 -0.017738182181386772 0 0.00021181457169663497 -0.017808037617086943 0 0.00015977837769225048 -0.017672824605170633 0 0.00024041740126946721 -0.017738182181386772 0 0.0001921492568460631 -0.017630060209703893 0 0.00015977837769225048 -0.017672824605170633 0 0.00030251565903082254 -0.017735949455440405 0 0.00024041740126946721 -0.017738182181386772 0 0.0001921492568460631 -0.017630060209703893 0 0.0001921492568460631 -0.017630060209703893 0 0.00015977837769225048 -0.017672824605170633 0 -1.1696924452854187e-05 -0.017486603157416961 0 5.3831343791633792e-05 -0.017498167934235271 0 4.3544558830089418e-06 -0.017511088433970416 0 0.00015977837769225048 -0.017672824605170633 0 -1.1696924452854187e-05 -0.017486603157416961 0 -5.6101776453463276e-05 -0.01758419513146782 0 0.00015977837769225048 -0.017672824605170633 0 -5.6101776453463276e-05 -0.01758419513146782 0 0.00015695338721369862 -0.017736731541309732 0 -0.00012209869216565946 -0.017361689376748646 0 -1.1696924452854187e-05 -0.017486603157416961 0 -0.00017934938954824 -0.017355123840528251 0 -1.1696924452854187e-05 -0.017486603157416961 0 -5.6101776453463276e-05 -0.01758419513146782 0 -0.00017934938954824 -0.017355123840528251 0 -5.6101776453463276e-05 -0.01758419513146782 0 -0.00017934938954824 -0.017355123840528251 0 -0.00029334553527378003 -0.017451094259231165 0 -5.6101776453463276e-05 -0.01758419513146782 0 -0.00029334553527378003 -0.017451094259231165 0 -0.0002991174587658961 -0.017725889640634207 0 -5.6101776453463276e-05 -0.01758419513146782 0 -2.0820703031950944e-05 -0.017786873727559365 0 -0.0002991174587658961 -0.017725889640634207 0 -2.0820703031950944e-05 -0.017786873727559365 0 -0.0002991174587658961 -0.017725889640634207 0 -0.00020477793475078991 -0.017934559731396425 0 0.00014696695629911604 -0.017741380782398876 0 0.00010482249315044451 -0.017783744442096336 0 -5.6101776453463276e-05 -0.01758419513146782 0 -2.0820703031950944e-05 -0.017786873727559365 0 0.00015695338721369862 -0.017736731541309732 0 0.00014696695629911604 -0.017741380782398876 0 0.00015984903675447343 -0.017733348539553606 0 0.00029759200520546221 -0.017709402560740131 0 0.00015695338721369862 -0.017736731541309732 0 0.00018677162025082958 -0.01770312680645102 0 0.00029759200520546221 -0.017709402560740131 0 0.00018677162025082958 -0.01770312680645102 0 0.00020161280015707923 -0.01760841667125718 0 0.00018677162025082958 -0.01770312680645102 0 0.00016232554896076546 -0.017659540151393271 0 0.00020161280015707923 -0.01760841667125718 0 0.00018677162025082958 -0.01770312680645102 0 0.00016232554896076546 -0.017659540151393271 0 0.0001227212165073062 -0.017703621637464077 0 0.00016232554896076546 -0.017659540151393271 0 0.0001227212165073062 -0.017703621637464077 0 0.0001258084477620387 -0.017612809434574269 0 0.00018677162025082958 -0.01770312680645102 0 0.0001227212165073062 -0.017703621637464077 0 0.0001659996132968658 -0.017734366149969042 0 0.00015695338721369862 -0.017736731541309732 0 0.00018677162025082958 -0.01770312680645102 0 0.0001659996132968658 -0.017734366149969042 0 0.00021181457169663497 -0.017808037617086943 0 0.00015695338721369862 -0.017736731541309732 0 0.0001659996132968658 -0.017734366149969042 0 -0.0010127870366465903 -0.017398567553852853 0 -0.0010344598826634275 -0.016584928753434969 0 -0.00056650408188443544 -0.017164410675802915 0 -0.0010127870366465903 -0.017398567553852853 0 -0.00056650408188443544 -0.017164410675802915 0 -0.00056620171395978952 -0.017538739241255409 0 -0.00079843268453024582 -0.015413240492047266 0 -0.0014349651062119514 -0.015201862085211215 0 -0.00082134211305891821 -0.016050430436342883 0 -0.0011839995928339907 -0.016278720272817248 0 -0.0010765564471731045 -0.016543719026112194 0 -0.0014349651062119514 -0.015201862085211215 0 -0.0010344598826634275 -0.016584928753434969 0 -0.00082134211305891821 -0.016050430436342883 0 -0.0007398891948328304 -0.016361490447851904 0 -0.0010344598826634275 -0.016584928753434969 0 -0.00082134211305891821 -0.016050430436342883 0 -0.00067926757593936055 -0.016810408255628448 0 -0.0010344598826634275 -0.016584928753434969 0 -0.00056650408188443544 -0.017164410675802915 0 -0.00067926757593936055 -0.016810408255628448 0 -0.00056650408188443544 -0.017164410675802915 0 -0.0003110914900147621 -0.017251850347064529 0 -0.00029921215706283407 -0.017107043089384728 0 -0.00017934938954824 -0.017355123840528251 0 -0.0003110914900147621 -0.017251850347064529 0 -0.00017934938954824 -0.017355123840528251 0 -0.0003110914900147621 -0.017251850347064529 0 -0.00029334553527378003 -0.017451094259231165 0 -0.00056650408188443544 -0.017164410675802915 0 -0.0003110914900147621 -0.017251850347064529 0 -0.00029334553527378003 -0.017451094259231165 0 -0.00056650408188443544 -0.017164410675802915 0 -0.00029334553527378003 -0.017451094259231165 0 -0.00056620171395978952 -0.017538739241255409 0 -0.00029334553527378003 -0.017451094259231165 0 -0.00056620171395978952 -0.017538739241255409 0 -0.0002991174587658961 -0.017725889640634207 0 -0.0002991174587658961 -0.017725889640634207 0 -0.00041375466743539868 -0.01793681685027048 0 -0.00020477793475078991 -0.017934559731396425 0 -0.0002991174587658961 -0.017725889640634207 0 -0.00059802776288559237 -0.017835282677166098 0 -0.00041375466743539868 -0.01793681685027048 0 -0.00056620171395978952 -0.017538739241255409 0 -0.0002991174587658961 -0.017725889640634207 0 -0.00059802776288559237 -0.017835282677166098 0 -0.00056620171395978952 -0.017538739241255409 0 -0.00059802776288559237 -0.017835282677166098 0 -0.00096070381094976527 -0.017794407482456358 0 -0.0010127870366465903 -0.017398567553852853 0 -0.00056620171395978952 -0.017538739241255409 0 -0.00096070381094976527 -0.017794407482456358 0 -0.0011839995928339907 -0.016278720272817248 0 -0.0012916514718784424 -0.015938539156173877 0 -0.00079843268453024582 -0.015413240492047266 0 -0.0007175308351904916 -0.014390731181624782 0 -0.0014349651062119514 -0.015201862085211215 0 -0.0007175308351904916 -0.014390731181624782 0 -0.0014349651062119514 -0.015201862085211215 0 -0.0013946238591880608 -0.014020079747230014 0 -0.0007175308351904916 -0.014390731181624782 0 -0.0013946238591880608 -0.014020079747230014 0 -0.00087961811903375224 -0.013509992966901791 0 -0.0013946238591880608 -0.014020079747230014 0 -0.0012930051572751129 -0.012974987196006503 0 -0.00087961811903375224 -0.013509992966901791 0 -0.0012916514718784424 -0.015938539156173877 0 -0.00022178747012678308 -0.015436339179697394 0 0.00080521120126246038 -0.017364507525334329 0 0.00075890127993107331 -0.01732731660081227 0 0.00081704759235098521 -0.017271437253761946 0 0.00044369755436435586 -0.012856538372489987 0 0.00044920913133532977 -0.012852623543959552 0 0.00044713101061589729 -0.012850571195054438 0 -0.00098622062648278806 -0.013044437680945521 0 -0.00092382738445125512 -0.012969272121219923 0 -0.00073747400473136613 -0.013185945762123494 0 -0.00098622062648278806 -0.013044437680945521 0 -0.000931335624600869 -0.012974861685291238 0 -0.0012930051572751129 -0.012974987196006503 0 -0.00022178747012678308 -0.015436339179697394 0 0.00060018600062056757 -0.014270612283763034 0 -0.00098622062648278806 -0.013044437680945521 0 -0.0012930051572751129 -0.012974987196006503 0 -0.00087961811903375224 -0.013509992966901791 0 1.4965493841337571e-05 -0.012686681502568136 0 -0.00022178747012678308 -0.015436339179697394 0 -0.00010588091957137262 -0.01279523272977502 0 1.4965493841337571e-05 -0.012686681502568136 0 0.0004491225463459407 -0.012847802061064992 0 0.00044845944402123478 -0.012842754305707747 0 0.00044713101061589729 -0.012850571195054438 0 0.0004491225463459407 -0.012847802061064992 0 0.00044369755436435586 -0.012856538372489987 0 0.00044713101061589729 -0.012850571195054438 0 -0.00094231903225733987 -0.018123877629328027 0 -0.00069803942953804154 -0.01814454009966893 0 -0.00077678176659861406 -0.017982491074678975 0 0.00080521120126246038 -0.017364507525334329 0 0.00075890127993107331 -0.01732731660081227 0 0.00070438125049387176 -0.017389441630645049 0 -0.00022178747012678308 -0.015436339179697394 0 1.9022664077537387e-05 -0.017835385221049813 0 0.00075890127993107331 -0.01732731660081227 0 0.00070438125049387176 -0.017389441630645049 0 0.00070770283486303758 -0.017298311061036176 0 -0.00059802776288559237 -0.017835282677166098 0 -0.00096070381094976527 -0.017794407482456358 0 -0.00077678176659861406 -0.017982491074678975 0 -0.00096070381094976527 -0.017794407482456358 0 -0.00094231903225733987 -0.018123877629328027 0 -0.00077678176659861406 -0.017982491074678975 0 -0.00059802776288559237 -0.017835282677166098 0 -0.00077678176659861406 -0.017982491074678975 0 -0.00056855172316459996 -0.018017871945678672 0 -0.00056855172316459996 -0.018017871945678672 0 -0.00041375466743539868 -0.01793681685027048 0 -0.00044194352488544016 -0.018148391733367093 0 -0.00059802776288559237 -0.017835282677166098 0 -0.00056855172316459996 -0.018017871945678672 0 -0.00041375466743539868 -0.01793681685027048 0 -0.00069803942953804154 -0.01814454009966893 0 -0.00077678176659861406 -0.017982491074678975 0 -0.00056855172316459996 -0.018017871945678672 0 0.00015747863573939967 -0.017695197568852874 0 0.00010482249315044451 -0.017783744442096336 0 -0.00041375466743539868 -0.01793681685027048 0 -0.00044194352488544016 -0.018148391733367093 0 -0.00020477793475078991 -0.017934559731396425 0 0.00055945059595897744 -0.017441018633616686 0 0.00060717383097570602 -0.017440379451207702 0 0.00045541987952508822 -0.017591953011726384 0 0.00046109146050151768 -0.017622159375855109 0 0.00015747863573939967 -0.017695197568852874 0 0.00015747863573939967 -0.017695197568852874 0 0.0002118975336782344 -0.017652478124747389 0 0.00060523051779545235 -0.017411771605371516 0 0.00057922876283644147 -0.01739596536501856 0 0.00064111149714551538 -0.017342270604796768 0 0.00059660956995239009 -0.017424526878591442 0 0.00060523051779545235 -0.017411771605371516 0 0.00057922876283644147 -0.01739596536501856 0 0.00055945059595897744 -0.017441018633616686 0 0.00059660956995239009 -0.017424526878591442 0 0.00057922876283644147 -0.01739596536501856 0 0.00055945059595897744 -0.017441018633616686 0 0.00057922876283644147 -0.01739596536501856 0 0.00051377806721439637 -0.017374014159655948 0 0.00055945059595897744 -0.017441018633616686 0 0.00051377806721439637 -0.017374014159655948 0 0.0004613502384756693 -0.01746781514728642 0 0.00070438125049387176 -0.017389441630645049 0 0.00059663908453732391 -0.017421238786032269 0 0.00060523051779545235 -0.017411771605371516 0 0.00070438125049387176 -0.017389441630645049 0 0.00060523051779545235 -0.017411771605371516 0 0.00064111149714551538 -0.017342270604796768 0 -0.00069803942953804154 -0.01814454009966893 0 -0.00056855172316459996 -0.018017871945678672 0 -0.00044194352488544016 -0.018148391733367093 0 1.9022664077537387e-05 -0.017835385221049813 0 0.00015747863573939967 -0.017695197568852874 0 0.00070438125049387176 -0.017389441630645049 0 0.00064111149714551538 -0.017342270604796768 0 0.00070770283486303758 -0.017298311061036176 0 0.00064111149714551538 -0.017342270604796768 0 0.0006559996751881479 -0.01724873552546306 0 0.00070770283486303758 -0.017298311061036176 0 0.00064111149714551538 -0.017342270604796768 0 0.0006559996751881479 -0.01724873552546306 0 0.0005792861276402723 -0.017300295820443706 0 0.0006559996751881479 -0.01724873552546306 0 0.00072507340627177915 -0.01722511405002437 0 0.00070770283486303758 -0.017298311061036176 0 0.00051377806721439637 -0.017374014159655948 0 0.0005792861276402723 -0.017300295820443706 0 0.00050209992279307719 -0.017251545157847797 0 0.00057922876283644147 -0.01739596536501856 0 0.00051377806721439637 -0.017374014159655948 0 0.0005792861276402723 -0.017300295820443706 0 0.00057922876283644147 -0.01739596536501856 0 0.00064111149714551538 -0.017342270604796768 0 0.0005792861276402723 -0.017300295820443706 0 0.0005792861276402723 -0.017300295820443706 0 0.00060638792696494914 -0.017199881433603865 0 0.00050209992279307719 -0.017251545157847797 0 0.00060638792696494914 -0.017199881433603865 0 0.00050209992279307719 -0.017251545157847797 0 0.00057025689765950738 -0.017119338338162173 0 0.00060638792696494914 -0.017199881433603865 0 0.00070787903761165101 -0.017169981392009922 0 0.0006745861864871041 -0.017099808045730878 0 0.0006559996751881479 -0.01724873552546306 0 0.00060638792696494914 -0.017199881433603865 0 0.00070787903761165101 -0.017169981392009922 0 0.0006559996751881479 -0.01724873552546306 0 0.00070787903761165101 -0.017169981392009922 0 0.00072507340627177915 -0.01722511405002437 0 0.0006559996751881479 -0.01724873552546306 0 0.0005792861276402723 -0.017300295820443706 0 0.00060638792696494914 -0.017199881433603865 0 0.00078060302732508744 -0.017133801119861475 0 0.00081704759235098521 -0.017271437253761946 0 0.00075937914202041672 -0.017253140149116847 0 0.00070787903761165101 -0.017169981392009922 0 0.00072507340627177915 -0.01722511405002437 0 0.00078060302732508744 -0.017133801119861475 0 0.00072507340627177915 -0.01722511405002437 0 0.00078060302732508744 -0.017133801119861475 0 0.00075937914202041672 -0.017253140149116847 0 0.00055098720959651307 -0.012840450484629959 0 0.00046309508247425899 -0.012854306352464866 0 0.00047726324895257049 -0.012833484488279786 0 0.00055098720959651307 -0.012840450484629959 0 0.00047726324895257049 -0.012833484488279786 0 0.00044925463970097021 -0.012827148251590467 0 0.000701952197158615 -0.015152059209162424 0 0.00060018600062056757 -0.014270612283763034 0 0.00046309508247425899 -0.012854306352464866 0 0.00047726324895257049 -0.012833484488279786 0 0.00043855916032810153 -0.012835622847703336 0 0.00047726324895257049 -0.012833484488279786 0 0.00045428684947353381 -0.012834777596838046 0 0.00043855916032810153 -0.012835622847703336 0 0.0004491225463459407 -0.012847802061064992 0 0.00044845944402123478 -0.012842754305707747 0 0.00044088350100093604 -0.012838078788192162 0 0.0005330716567903454 -0.012537493589450948 0 0.00060018600062056757 -0.014270612283763034 0 0.00047726324895257049 -0.012833484488279786 0 0.00045428684947353381 -0.012834777596838046 0 0.00044885079293171442 -0.012841574746889517 0 0.00045428684947353381 -0.012834777596838046 0 0.00044845944402123478 -0.012842754305707747 0 0.00044885079293171442 -0.012841574746889517 0 0.00045428684947353381 -0.012834777596838046 0 0.00044845944402123478 -0.012842754305707747 0 0.00044088350100093604 -0.012838078788192162 0 0.00044845944402123478 -0.012842754305707747 0 0.00044885079293171442 -0.012841574746889517 0 0.00044713101061589729 -0.012850571195054438 0 0.00060018600062056757 -0.014270612283763034 0 0.00033236869155172408 -0.013204929322046302 0 0.00075890127993107331 -0.01732731660081227 0 0.00081704759235098521 -0.017271437253761946 0 0.00075937914202041672 -0.017253140149116847 0 0.00075890127993107331 -0.01732731660081227 0 0.00070770283486303758 -0.017298311061036176 0 0.00075937914202041672 -0.017253140149116847 0 0.00072507340627177915 -0.01722511405002437 0 0.00070770283486303758 -0.017298311061036176 0 0.00075937914202041672 -0.017253140149116847 0 0.00023578031657404884 -0.017437052924789101 0 0.00025498181490819376 -0.017432902627790164 0 0.0002476183235067971 -0.017400578325670619 0 0.00015196462590381184 -0.017476101331385666 0 0.00016548994679549127 -0.017549732258699859 0 0.00022833621094533373 -0.017511554065921829 0 0.00015196462590381184 -0.017476101331385666 0 0.00012159529052460485 -0.017539117078184563 0 0.00016548994679549127 -0.017549732258699859 0 6.0980147697476789e-05 -0.017522347139973374 0 0.00015196462590381184 -0.017476101331385666 0 0.00012159529052460485 -0.017539117078184563 0 0.00012159529052460485 -0.017539117078184563 0 0.0001258084477620387 -0.017612809434574269 0 0.00016548994679549127 -0.017549732258699859 0 6.0980147697476789e-05 -0.017522347139973374 0 0.00012159529052460485 -0.017539117078184563 0 0.0001258084477620387 -0.017612809434574269 0 0.00016232554896076546 -0.017659540151393271 0 0.0001258084477620387 -0.017612809434574269 0 0.00020161280015707923 -0.01760841667125718 0 0.0001258084477620387 -0.017612809434574269 0 0.00016548994679549127 -0.017549732258699859 0 0.00020161280015707923 -0.01760841667125718 0 0.00016548994679549127 -0.017549732258699859 0 0.00020161280015707923 -0.01760841667125718 0 0.00022833621094533373 -0.017511554065921829 0 0.00020161280015707923 -0.01760841667125718 0 0.00022833621094533373 -0.017511554065921829 0 0.00033081724485404141 -0.017533417832923781 0 0.00015196462590381184 -0.017476101331385666 0 0.00027465784969403419 -0.017428331201845813 0 0.00022833621094533373 -0.017511554065921829 0 0.00021325391979030168 -0.017416028825832926 0 0.00030290192084004203 -0.017415321385950921 0 0.00027465784969403419 -0.017428331201845813 0 0.00022833621094533373 -0.017511554065921829 0 0.00033081724485404141 -0.017533417832923781 0 0.00027465784969403419 -0.017428331201845813 0 0.00033081724485404141 -0.017533417832923781 0 0.00043036599400485698 -0.01737042847394267 0 0.00029759200520546221 -0.017709402560740131 0 0.00033081724485404141 -0.017533417832923781 0 0.00045541987952508822 -0.017591953011726384 0 0.00029759200520546221 -0.017709402560740131 0 0.00020161280015707923 -0.01760841667125718 0 0.00033081724485404141 -0.017533417832923781 0 0.00033081724485404141 -0.017533417832923781 0 0.00045541987952508822 -0.017591953011726384 0 0.0004613502384756693 -0.01746781514728642 0 0.00055945059595897744 -0.017441018633616686 0 0.00045541987952508822 -0.017591953011726384 0 0.0004613502384756693 -0.01746781514728642 0 0.00033081724485404141 -0.017533417832923781 0 0.0004613502384756693 -0.01746781514728642 0 0.00043036599400485698 -0.01737042847394267 0 0.00051377806721439637 -0.017374014159655948 0 0.0004613502384756693 -0.01746781514728642 0 0.00043036599400485698 -0.01737042847394267 0 0.00051377806721439637 -0.017374014159655948 0 0.00043036599400485698 -0.01737042847394267 0 0.00050209992279307719 -0.017251545157847797 0 0.00043036599400485698 -0.01737042847394267 0 0.00050209992279307719 -0.017251545157847797 0 0.00037354005700757125 -0.017286716456556883 0 0.00050209992279307719 -0.017251545157847797 0 0.00037354005700757125 -0.017286716456556883 0 0.00043986777550482061 -0.0171260855295534 0 0.00037354005700757125 -0.017286716456556883 0 0.00026811378289237305 -0.017198973184759304 0 0.00043986777550482061 -0.0171260855295534 0 0.00030290192084004203 -0.017415321385950921 0 0.00042220466254238209 -0.017376719361322287 0 0.0003286483935847251 -0.017397915934416641 0 0.00043036599400485698 -0.01737042847394267 0 0.00037354005700757125 -0.017286716456556883 0 0.0003286483935847251 -0.017397915934416641 0 0.00037354005700757125 -0.017286716456556883 0 0.0002892149674544438 -0.017334433468800925 0 0.00025498181490819376 -0.017432902627790164 0 0.0003286483935847251 -0.017397915934416641 0 0.0002892149674544438 -0.017334433468800925 0 0.00037354005700757125 -0.017286716456556883 0 0.0002892149674544438 -0.017334433468800925 0 0.00026811378289237305 -0.017198973184759304 0 0.0002892149674544438 -0.017334433468800925 0 0.0002476183235067971 -0.017400578325670619 0 0.00026811378289237305 -0.017198973184759304 0 0.0002542060412508642 -0.017391469229193223 0 0.00034015375654664846 -0.017261921255921898 0 0.00027304808589955658 -0.017373803312714913 0 0.0002476183235067971 -0.017400578325670619 0 0.00039695302496977621 -0.017352805875629911 0 0.00023922903555003244 -0.017399419547650303 0 0.00027304808589955658 -0.017373803312714913 0 0.0002476183235067971 -0.017400578325670619 0 0.00025498181490819376 -0.017432902627790164 0 0.0002892149674544438 -0.017334433468800925 0 0.0002476183235067971 -0.017400578325670619 0 0.00025050975243796236 -0.01725169087166541 0 0.00036901014957091454 -0.017224822097335089 0 0.00029154879400503152 -0.017313277733819316 0 0.00025050975243796236 -0.01725169087166541 0 0.00036901014957091454 -0.017224822097335089 0 0.00032073033245733789 -0.017119966811287027 0 0.00027304808589955658 -0.017373803312714913 0 0.00029154879400503152 -0.017313277733819316 0 0.00039695302496977621 -0.017352805875629911 0 0.00036901014957091454 -0.017224822097335089 0 0.00029154879400503152 -0.017313277733819316 0 0.00039695302496977621 -0.017352805875629911 0 0.00034015375654664846 -0.017261921255921898 0 0.00043698555769266015 -0.017138261852800277 0 0.00036901014957091454 -0.017224822097335089 0 0.00054264206887513181 -0.01719482604050632 0 0.00041881756116516039 -0.017104134839135698 0 0.00036901014957091454 -0.017224822097335089 0 0.00039695302496977621 -0.017352805875629911 0 0.00054264206887513181 -0.01719482604050632 0 0.00026811378289237305 -0.017198973184759304 0 0.00035988495150744449 -0.017001415680588224 0 0.00043986777550482061 -0.0171260855295534 0 0.00050209992279307719 -0.017251545157847797 0 0.00043986777550482061 -0.0171260855295534 0 0.00057025689765950738 -0.017119338338162173 0 0.00035988495150744449 -0.017001415680588224 0 0.00043986777550482061 -0.0171260855295534 0 0.00047270341593964909 -0.01697744199336022 0 0.00043986777550482061 -0.0171260855295534 0 0.00047270341593964909 -0.01697744199336022 0 0.0005528275143716542 -0.0170203523705049 0 0.00035988495150744449 -0.017001415680588224 0 0.00047270341593964909 -0.01697744199336022 0 0.00047028905454931925 -0.016821270410094603 0 0.00043698555769266015 -0.017138261852800277 0 0.00060065303777174714 -0.016733671099347237 0 0.00047270341593964909 -0.01697744199336022 0 0.00047028905454931925 -0.016821270410094603 0 0.00053878364376728301 -0.016919302827334965 0 0.00071419092585785215 -0.016930292939549476 0 0.00076968644412819028 -0.016832562513108964 0 0.00066775565510449476 -0.016825632843716867 0 0.00060065303777174714 -0.016733671099347237 0 0.00075572529467267141 -0.016398875275705528 0 0.00071419092585785215 -0.016930292939549476 0 0.00057981162338960107 -0.016952395510311198 0 0.00066775565510449476 -0.016825632843716867 0 0.00060065303777174714 -0.016733671099347237 0 0.00055432185410527889 -0.017018844493480935 0 0.00054264206887513181 -0.01719482604050632 0 0.0006543009614674622 -0.017037417574458945 0 0.00050058317610167358 -0.017033111560470708 0 0.00054264206887513181 -0.01719482604050632 0 0.00050058317610167358 -0.017033111560470708 0 0.00041881756116516039 -0.017104134839135698 0 0.00050058317610167358 -0.017033111560470708 0 0.00041881756116516039 -0.017104134839135698 0 0.00037431764442404786 -0.01700561927784083 0 0.00055432185410527889 -0.017018844493480935 0 0.00037223985584828667 -0.016996458947014435 0 0.00057981162338960107 -0.016952395510311198 0 0.00037431764442404786 -0.01700561927784083 0 0.00046798056462986169 -0.016836919313845879 0 0.00029449261358211246 -0.016934642416616609 0 0.00037431764442404786 -0.01700561927784083 0 0.00032073033245733789 -0.017119966811287027 0 0.00029449261358211246 -0.016934642416616609 0 0.00037431764442404786 -0.01700561927784083 0 0.00046798056462986169 -0.016836919313845879 0 0.00036901014957091454 -0.017224822097335089 0 0.00041881756116516039 -0.017104134839135698 0 0.00032073033245733789 -0.017119966811287027 0 0.00041881756116516039 -0.017104134839135698 0 0.00037431764442404786 -0.01700561927784083 0 0.00032073033245733789 -0.017119966811287027 0 0.00078226664590181944 -0.013050312896990737 0 0.00042254157905877306 -0.013118310230177989 0 0.00074774198782278387 -0.013520909109775683 0 0.00078226664590181944 -0.013050312896990737 0 0.00042254157905877306 -0.013118310230177989 0 0.00047087052779704437 -0.012928787016117856 0 0.00042254157905877306 -0.013118310230177989 0 0.00047087052779704437 -0.012928787016117856 0 0.00041543130295826239 -0.012975895320794486 0 0.00042254157905877306 -0.013118310230177989 0 0.00041826714922276506 -0.013078980009050827 0 0.00041543130295826239 -0.012975895320794486 0 0.00046309508247425899 -0.012854306352464866 0 0.00047087052779704437 -0.012928787016117856 0 0.00041161078344315933 -0.012867342511342722 0 0.00055098720959651307 -0.012840450484629959 0 0.00046309508247425899 -0.012854306352464866 0 0.00047087052779704437 -0.012928787016117856 0 0.00078060302732508744 -0.017133801119861475 0 0.00073802076106929812 -0.016978950584875203 0 0.0006745861864871041 -0.017099808045730878 0 0.00055098720959651307 -0.012840450484629959 0 0.00078226664590181944 -0.013050312896990737 0 0.00047087052779704437 -0.012928787016117856 0 0.00070787903761165101 -0.017169981392009922 0 0.00078060302732508744 -0.017133801119861475 0 0.0006745861864871041 -0.017099808045730878 0 0.000701952197158615 -0.015152059209162424 0 0.00074963729787757996 -0.015009769659237797 0 0.00060638792696494914 -0.017199881433603865 0 0.0006745861864871041 -0.017099808045730878 0 0.00057025689765950738 -0.017119338338162173 0 0.0006745861864871041 -0.017099808045730878 0 0.00057025689765950738 -0.017119338338162173 0 0.00064394211168098976 -0.017018113452585963 0 0.00043986777550482061 -0.0171260855295534 0 0.00057025689765950738 -0.017119338338162173 0 0.0005528275143716542 -0.0170203523705049 0 0.00057025689765950738 -0.017119338338162173 0 0.0005528275143716542 -0.0170203523705049 0 0.00064394211168098976 -0.017018113452585963 0 0.0005528275143716542 -0.0170203523705049 0 0.00064394211168098976 -0.017018113452585963 0 0.00062560238286375411 -0.0169253840322766 0 0.0005528275143716542 -0.0170203523705049 0 0.00062560238286375411 -0.0169253840322766 0 0.00053878364376728301 -0.016919302827334965 0 0.00047270341593964909 -0.01697744199336022 0 0.0005528275143716542 -0.0170203523705049 0 0.00053878364376728301 -0.016919302827334965 0 0.00073802076106929812 -0.016978950584875203 0 0.00064394211168098976 -0.017018113452585963 0 0.00062560238286375411 -0.0169253840322766 0 0.00073802076106929812 -0.016978950584875203 0 0.0006745861864871041 -0.017099808045730878 0 0.00064394211168098976 -0.017018113452585963 0 0.00062560238286375411 -0.0169253840322766 0 0.00058025039484119526 -0.016822203524986461 0 0.00068815930797574032 -0.016818458229940544 0 0.00074963729787757996 -0.015009769659237797 0 0.0010081740105043163 -0.015256894805617391 0 0.00073802076106929812 -0.016978950584875203 0 0.00062560238286375411 -0.0169253840322766 0 0.00068815930797574032 -0.016818458229940544 0 0.00047028905454931925 -0.016821270410094603 0 0.00053878364376728301 -0.016919302827334965 0 0.00058025039484119526 -0.016822203524986461 0 0.00062560238286375411 -0.0169253840322766 0 0.00053878364376728301 -0.016919302827334965 0 0.00058025039484119526 -0.016822203524986461 0 0.00060065303777174714 -0.016733671099347237 0 0.00065232292433274261 -0.016439187183372728 0 0.00065438979981458664 -0.016096282542964493 0 0.00078743182878406775 -0.016096077943082376 0 0.0007422972580804169 -0.015971345142035007 0 0.00078743182878406775 -0.016096077943082376 0 0.00087212477464724875 -0.015973802590666664 0 0.0007422972580804169 -0.015971345142035007 0 0.0010081740105043163 -0.015256894805617391 0 0.0011641064450289736 -0.01523059144473899 0 0.0012839901697477821 -0.01388052844553221 0 0.0010869904756112363 -0.014319462910411902 0 0.0015369379951129447 -0.014663619076157019 0 0.0010869904756112363 -0.014319462910411902 0 0.00074833100744925614 -0.014618426880638118 0 0.0015369379951129447 -0.014663619076157019 0 0.00078743182878406775 -0.016096077943082376 0 0.00091613549589606184 -0.016094750435380049 0 0.00087212477464724875 -0.015973802590666664 0 0.00065232292433274261 -0.016439187183372728 0 0.0010081740105043163 -0.015256894805617391 0 0.0012839901697477821 -0.01388052844553221 0 0.0010869904756112363 -0.014319462910411902 0 0.00094289295866441573 -0.013853695214593417 0 0.0010081740105043163 -0.015256894805617391 0 0.0010029453652837304 -0.014728918432461604 0 0.0010869904756112363 -0.014319462910411902 0 0.00094289295866441573 -0.013853695214593417 0 0.00074833100744925614 -0.014618426880638118 0 0.00055079543697525879 -0.01382443627881415 0 0.00013602814917113918 -0.014201902789941115 0 0.00074833100744925614 -0.014618426880638118 0 0.00094289295866441573 -0.013853695214593417 0 0.00055079543697525879 -0.01382443627881415 0 0.00074833100744925614 -0.014618426880638118 0 0.00078226664590181944 -0.013050312896990737 0 0.0011999099798379632 -0.013842954109947209 0 0.00074774198782278387 -0.013520909109775683 0 0.0011999099798379632 -0.013842954109947209 0 0.00094289295866441573 -0.013853695214593417 0 0.00074774198782278387 -0.013520909109775683 0 0.00042254157905877306 -0.013118310230177989 0 0.00055079543697525879 -0.01382443627881415 0 0.00074774198782278387 -0.013520909109775683 0 0.00094289295866441573 -0.013853695214593417 0 0.00055079543697525879 -0.01382443627881415 0 0.00074774198782278387 -0.013520909109775683 0 0.00039951025889468298 -0.013172147470745309 0 0.00035723528014097923 -0.013742032901145448 0 0.00042254157905877306 -0.013118310230177989 0 0.00055079543697525879 -0.01382443627881415 0 0.00013602814917113918 -0.014201902789941115 0 0.00042254157905877306 -0.013118310230177989 0 0.00054698216385407289 -0.013209153346579032 0 0.00041826714922276506 -0.013078980009050827 0 0.00054698216385407289 -0.013209153346579032 0 0.00039214270193659294 -0.013194108507592232 0 0.00043836782820194452 -0.013354308937832722 0 0.00039214270193659294 -0.013194108507592232 0 0.00026288662172390266 -0.013365977328676131 0 0.00043836782820194452 -0.013354308937832722 0 0.00054698216385407289 -0.013209153346579032 0 0.00039214270193659294 -0.013194108507592232 0 0.00041826714922276506 -0.013078980009050827 0 0.00039214270193659294 -0.013194108507592232 0 0.00026859244601627291 -0.013082450823342924 0 0.00026288662172390266 -0.013365977328676131 0 0.00051278965731653837 -0.012868528603312137 0 0.00074429908936735208 -0.013192258820477592 0 0.00075124421491342579 -0.01258045327806263 0 0.00076456161263167019 -0.012946175522202041 0 0.0011463606191544841 -0.013095448949992107 0 0.00026859244601627291 -0.013082450823342924 0 0.00041826714922276506 -0.013078980009050827 0 0.00038518012838718179 -0.012905710931124758 0 0.00039214270193659294 -0.013194108507592232 0 0.00026859244601627291 -0.013082450823342924 0 0.00041826714922276506 -0.013078980009050827 0 0.00053504427242400635 -0.012893205508065921 0 0.00033558801400582731 -0.012632088679046584 0 0.00030836863050903127 -0.013096122358112854 0 0.00053504427242400635 -0.012893205508065921 0 0.00056070785483315372 -0.012636234263535568 0 0.00033558801400582731 -0.012632088679046584 0 0.00076456161263167019 -0.012946175522202041 0 0.00053504427242400635 -0.012893205508065921 0 0.00056070785483315372 -0.012636234263535568 0 0.00075124421491342579 -0.01258045327806263 0 0.00076456161263167019 -0.012946175522202041 0 0.00056070785483315372 -0.012636234263535568 0 0.00075124421491342579 -0.01258045327806263 0 0.00056070785483315372 -0.012636234263535568 0 0.00054468743089614881 -0.012564453342587085 0 0.00056070785483315372 -0.012636234263535568 0 0.00045928747411873327 -0.012427463435999722 0 0.00054468743089614881 -0.012564453342587085 0 0.00056070785483315372 -0.012636234263535568 0 0.00033558801400582731 -0.012632088679046584 0 0.00045928747411873327 -0.012427463435999722 0 0.00075124421491342579 -0.01258045327806263 0 0.00054468743089614881 -0.012564453342587085 0 0.00040073886199581748 -0.012709942672802938 0 0.00045928747411873327 -0.012427463435999722 0 0.00040073886199581748 -0.012709942672802938 0 0.00042195250504603463 -0.012829537814875678 0 0.00046736073875541226 -0.012433240164767774 0 0.00047755470270084574 -0.012456842609328864 0 0.00045928747411873327 -0.012427463435999722 0 0.00054468743089614881 -0.012564453342587085 0 0.00040073886199581748 -0.012709942672802938 0 0.00045928747411873327 -0.012427463435999722 0 0.00060894122943303431 -0.012024635462188892 0 0.00045083910242921428 -0.011981064875749497 0 0.00045928747411873327 -0.012427463435999722 0 0.00028182821822067962 -0.012014899333227915 0 7.7509295148088593e-05 -0.012081729427196408 0 0.00045928747411873327 -0.012427463435999722 0 0.00045083910242921428 -0.011981064875749497 0 0.00028182821822067962 -0.012014899333227915 0 0.00038518012838718179 -0.012905710931124758 0 0.00041543130295826239 -0.012975895320794486 0 0.00041161078344315933 -0.012867342511342722 0 0.00041826714922276506 -0.013078980009050827 0 0.00038518012838718179 -0.012905710931124758 0 0.00041543130295826239 -0.012975895320794486 0 0.00026859244601627291 -0.013082450823342924 0 0.00040073886199581748 -0.012709942672802938 0 0.00038518012838718179 -0.012905710931124758 0 0.00040073886199581748 -0.012709942672802938 0 0.00038518012838718179 -0.012905710931124758 0 0.0003867756648885843 -0.012823039580709525 0 0.00051278965731653837 -0.012868528603312137 0 0.00042230094146415812 -0.012735753023662005 0 0.00042195250504603463 -0.012829537814875678 0 0.0003867756648885843 -0.012823039580709525 0 0.00040677318976321738 -0.012838537423183777 0 0.00040073886199581748 -0.012709942672802938 0 0.00042195250504603463 -0.012829537814875678 0 0.0003867756648885843 -0.012823039580709525 0 0.0003867756648885843 -0.012823039580709525 0 0.00041161078344315933 -0.012867342511342722 0 0.00040677318976321738 -0.012838537423183777 0 0.00038518012838718179 -0.012905710931124758 0 0.0003867756648885843 -0.012823039580709525 0 0.00041161078344315933 -0.012867342511342722 0 0.00047087052779704437 -0.012928787016117856 0 0.00041543130295826239 -0.012975895320794486 0 0.00041161078344315933 -0.012867342511342722 0 0.00041161078344315933 -0.012867342511342722 0 0.00043855916032810153 -0.012835622847703336 0 0.00040677318976321738 -0.012838537423183777 0 0.00046309508247425899 -0.012854306352464866 0 0.00041161078344315933 -0.012867342511342722 0 0.00043855916032810153 -0.012835622847703336 0 0.00043855916032810153 -0.012835622847703336 0 0.00042385640083393431 -0.012833410397778749 0 0.00040677318976321738 -0.012838537423183777 0 0.0004491225463459407 -0.012847802061064992 0 0.00044088350100093604 -0.012838078788192162 0 0.00042385640083393431 -0.012833410397778749 0 1.4965493841337571e-05 -0.012686681502568136 0 0.00068908125570158504 -0.012201623682831295 0 0.00043855916032810153 -0.012835622847703336 0 0.00044088350100093604 -0.012838078788192162 0 0.00042385640083393431 -0.012833410397778749 0 0.00045428684947353381 -0.012834777596838046 0 0.00043855916032810153 -0.012835622847703336 0 0.00044088350100093604 -0.012838078788192162 0 0.00079495206185639037 -0.011638987319937538 0 0.00070290185315880545 -0.011787176674009619 0 0.0007108772841299592 -0.011679525124993444 0 0.00065653176712897365 -0.011698393546679103 0 0.00070290185315880545 -0.011787176674009619 0 0.00056945219319218623 -0.01174826706808397 0 0.00070290185315880545 -0.011787176674009619 0 0.00056355570620094232 -0.011868905555106517 0 0.00056945219319218623 -0.01174826706808397 0 0.00065653176712897365 -0.011698393546679103 0 0.00056945219319218623 -0.01174826706808397 0 0.00058350317104125644 -0.011662494335986002 0 0.00065653176712897365 -0.011698393546679103 0 0.00070290185315880545 -0.011787176674009619 0 0.0007108772841299592 -0.011679525124993444 0 0.00047755470270084574 -0.012456842609328864 0 0.00068908125570158504 -0.012201623682831295 0 0.00042195250504603463 -0.012829537814875678 0 0.00042385640083393431 -0.012833410397778749 0 0.00040677318976321738 -0.012838537423183777 0 0.00060894122943303431 -0.012024635462188892 0 0.00070290185315880545 -0.011787176674009619 0 0.00056355570620094232 -0.011868905555106517 0 0.00060894122943303431 -0.012024635462188892 0 0.00045083910242921428 -0.011981064875749497 0 0.00056355570620094232 -0.011868905555106517 0 0.00045083910242921428 -0.011981064875749497 0 0.00044651457891940673 -0.011820193046290922 0 0.00056355570620094232 -0.011868905555106517 0 0.00045083910242921428 -0.011981064875749497 0 0.00028182821822067962 -0.012014899333227915 0 0.00029896463061514938 -0.011856767713907071 0 0.00045083910242921428 -0.011981064875749497 0 0.00044651457891940673 -0.011820193046290922 0 0.00029896463061514938 -0.011856767713907071 0 0.00044651457891940673 -0.011820193046290922 0 0.00029896463061514938 -0.011856767713907071 0 0.00030445081829892867 -0.011705754371984419 0 0.00044651457891940673 -0.011820193046290922 0 0.00030445081829892867 -0.011705754371984419 0 0.00045744200923489482 -0.011701937264875796 0 0.00044651457891940673 -0.011820193046290922 0 0.00056355570620094232 -0.011868905555106517 0 0.00056945219319218623 -0.01174826706808397 0 0.00044651457891940673 -0.011820193046290922 0 0.00045744200923489482 -0.011701937264875796 0 0.00056945219319218623 -0.01174826706808397 0 0.00056945219319218623 -0.01174826706808397 0 0.00052344888535044219 -0.011671830819658629 0 0.00058350317104125644 -0.011662494335986002 0 0.00045744200923489482 -0.011701937264875796 0 0.00056945219319218623 -0.01174826706808397 0 0.00052344888535044219 -0.011671830819658629 0 0.00052344888535044219 -0.011671830819658629 0 0.00047454835216860118 -0.011592580504604589 0 0.00058350317104125644 -0.011662494335986002 0 -0.00013331096550452429 -0.012420437848334942 0 0.00029993917263738089 -0.012324878650147772 0 -8.9365293932395875e-05 -0.013181828650016559 0 -9.2670658559621081e-05 -0.013178352409381986 0 -0.00010624897314618994 -0.01309641012120647 0 0.00045744200923489482 -0.011701937264875796 0 0.00052344888535044219 -0.011671830819658629 0 0.00047454835216860118 -0.011592580504604589 0 -0.00013917516986792944 -0.013196091512788393 0 -9.2670658559621081e-05 -0.013178352409381986 0 -0.00021926680754140869 -0.013062456163797255 0 -0.00013331096550452429 -0.012420437848334942 0 -0.00025716944219514711 -0.012699537869992747 0 -0.00081363918698712544 -0.01212357360407757 0 -0.00091262175163362358 -0.012238638738571296 0 -0.00072748321950287357 -0.012247825623326231 0 -0.00013331096550452429 -0.012420437848334942 0 -0.00067207546256395389 -0.012683942170756624 0 -0.00023965646116399557 -0.011844766031995026 0 -0.00013331096550452429 -0.012420437848334942 0 -0.00013917516986792944 -0.013196091512788393 0 -0.00021926680754140869 -0.013062456163797255 0 -0.00045591843554792995 -0.013042307167221351 0 0.00030445081829892867 -0.011705754371984419 0 0.00045744200923489482 -0.011701937264875796 0 0.00047454835216860118 -0.011592580504604589 0 -0.00021926680754140869 -0.013062456163797255 0 -0.00032055519029740173 -0.012942018162648495 0 -0.00045591843554792995 -0.013042307167221351 0 -0.00015328013881358576 -0.012842970393031714 0 -0.00021926680754140869 -0.013062456163797255 0 -0.00032055519029740173 -0.012942018162648495 0 -0.00015328013881358576 -0.012842970393031714 0 -9.2670658559621081e-05 -0.013178352409381986 0 -0.00021926680754140869 -0.013062456163797255 0 -0.00015328013881358576 -0.012842970393031714 0 -9.2670658559621081e-05 -0.013178352409381986 0 -2.4502762473170922e-05 -0.013254244055852399 0 0.00010868897928726472 -0.013451987354013097 0 -2.7319534765087414e-05 -0.013256334034766434 0 -2.4502762473170922e-05 -0.013254244055852399 0 -0.00027501115267730821 -0.013262417613231381 0 -0.00027832718180487398 -0.013475055780827099 0 -2.4502762473170922e-05 -0.013254244055852399 0 -0.00027501115267730821 -0.013262417613231381 0 -0.00010624897314618994 -0.01309641012120647 0 -0.00030717414075274736 -0.013860393452575724 0 -2.2993407566286308e-05 -0.013797395005756715 0 -0.00027832718180487398 -0.013475055780827099 0 -2.2993407566286308e-05 -0.013797395005756715 0 -2.4502762473170922e-05 -0.013254244055852399 0 -0.00027832718180487398 -0.013475055780827099 0 -0.00030717414075274736 -0.013860393452575724 0 -0.00027832718180487398 -0.013475055780827099 0 -0.00053866919451875221 -0.013715333006355501 0 -0.00027832718180487398 -0.013475055780827099 0 -0.00053866919451875221 -0.013715333006355501 0 -0.00053271107516738496 -0.013376790695444049 0 -0.00053866919451875221 -0.013715333006355501 0 -0.00087961811903375224 -0.013509992966901791 0 -0.00053271107516738496 -0.013376790695444049 0 -0.00087961811903375224 -0.013509992966901791 0 -0.00053271107516738496 -0.013376790695444049 0 -0.00073747400473136613 -0.013185945762123494 0 -0.00098622062648278806 -0.013044437680945521 0 -0.00087961811903375224 -0.013509992966901791 0 -0.00073747400473136613 -0.013185945762123494 0 -0.00053271107516738496 -0.013376790695444049 0 -0.00050960947869322965 -0.013179774489069575 0 -0.00073747400473136613 -0.013185945762123494 0 -0.00027501115267730821 -0.013262417613231381 0 -0.00027832718180487398 -0.013475055780827099 0 -0.00053271107516738496 -0.013376790695444049 0 -0.00027501115267730821 -0.013262417613231381 0 -0.00053271107516738496 -0.013376790695444049 0 -0.00050960947869322965 -0.013179774489069575 0 -0.00027501115267730821 -0.013262417613231381 0 -0.00050960947869322965 -0.013179774489069575 0 -0.00010624897314618994 -0.01309641012120647 0 -0.00092382738445125512 -0.012969272121219923 0 -0.00050960947869322965 -0.013179774489069575 0 -0.00010624897314618994 -0.01309641012120647 0 0.00079495206185639037 -0.011638987319937538 0 0.0007108772841299592 -0.011679525124993444 0 0.00065841940350557415 -0.011622580505356675 0 1.4965493841337571e-05 -0.012686681502568136 0 0.00029993917263738089 -0.012324878650147772 0 -0.00092382738445125512 -0.012969272121219923 0 -0.00050960947869322965 -0.013179774489069575 0 -0.00073747400473136613 -0.013185945762123494 0 0.00065653176712897365 -0.011698393546679103 0 0.0007108772841299592 -0.011679525124993444 0 0.00065841940350557415 -0.011622580505356675 0 0.00047454835216860118 -0.011592580504604589 0 0.00058350317104125644 -0.011662494335986002 0 0.00065841940350557415 -0.011622580505356675 0 -9.2670658559621081e-05 -0.013178352409381986 0 -2.4502762473170922e-05 -0.013254244055852399 0 -0.00010624897314618994 -0.01309641012120647 0 0.00065653176712897365 -0.011698393546679103 0 0.00058350317104125644 -0.011662494335986002 0 0.00065841940350557415 -0.011622580505356675 0 -0.00053530779364860815 -0.012502400088810936 0 -0.0004350742342720194 -0.012311654890090366 0 -0.000542792362000762 -0.012286022074874796 0 -0.00052276647373803266 -0.012512202933896516 0 -0.0005698699415952707 -0.012553204670906553 0 -0.0004350742342720194 -0.012311654890090366 0 -0.000542792362000762 -0.012286022074874796 0 -0.00050268375594120858 -0.012126510924995218 0 -0.00053530779364860815 -0.012502400088810936 0 -0.00067987084603403955 -0.012827653555463697 0 -0.00066804506815064466 -0.012745870557915427 0 -0.00053530779364860815 -0.012502400088810936 0 -0.00066804506815064466 -0.012745870557915427 0 -0.00066975820185970853 -0.012733898032523098 0 -0.00068087167101573808 -0.012755714134502617 0 -0.00066804506815064466 -0.012745870557915427 0 -0.00066975820185970853 -0.012733898032523098 0 -0.00067987084603403955 -0.012827653555463697 0 -0.00066804506815064466 -0.012745870557915427 0 -0.00064639262843329127 -0.012797254454358226 0 -0.00068087167101573808 -0.012755714134502617 0 -0.00066804506815064466 -0.012745870557915427 0 -0.00064639262843329127 -0.012797254454358226 0 -0.00067987084603403955 -0.012827653555463697 0 -0.00064639262843329127 -0.012797254454358226 0 -0.00057025298951017696 -0.012865155054669083 0 -0.00055980143833783127 -0.012785420854588564 0 -0.00064639262843329127 -0.012797254454358226 0 -0.00057025298951017696 -0.012865155054669083 0 -0.00055980143833783127 -0.012785420854588564 0 -0.00057025298951017696 -0.012865155054669083 0 -0.00045769546433781428 -0.012881601298491882 0 -0.00057025298951017696 -0.012865155054669083 0 -0.00045769546433781428 -0.012881601298491882 0 -0.00045591843554792995 -0.013042307167221351 0 -0.00032055519029740173 -0.012942018162648495 0 -0.00045769546433781428 -0.012881601298491882 0 -0.00045591843554792995 -0.013042307167221351 0 -0.00081363918698712544 -0.01212357360407757 0 -0.00072748321950287357 -0.012247825623326231 0 -0.00062586843318804101 -0.012142749385907679 0 -0.000542792362000762 -0.012286022074874796 0 -0.00072748321950287357 -0.012247825623326231 0 -0.00062586843318804101 -0.012142749385907679 0 -0.00067987084603403955 -0.012827653555463697 0 -0.00057025298951017696 -0.012865155054669083 0 -0.00045591843554792995 -0.013042307167221351 0 -0.0005698699415952707 -0.012553204670906553 0 -0.00067207546256395389 -0.012683942170756624 0 -0.00081363918698712544 -0.01212357360407757 0 -0.00062586843318804101 -0.012142749385907679 0 -0.00069025864708365946 -0.011966485656221045 0 -0.00023965646116399557 -0.011844766031995026 0 -0.00031266433613035574 -0.011920177187266196 0 0.00029896463061514938 -0.011856767713907071 0 0.00030445081829892867 -0.011705754371984419 0 7.6973684278488252e-05 -0.011842416084543058 0 0.00028182821822067962 -0.012014899333227915 0 0.00029896463061514938 -0.011856767713907071 0 7.6973684278488252e-05 -0.011842416084543058 0 -0.00062586843318804101 -0.012142749385907679 0 -0.00069025864708365946 -0.011966485656221045 0 -0.00051148713548243932 -0.011935494378106468 0 -0.00069025864708365946 -0.011966485656221045 0 -0.00051148713548243932 -0.011935494378106468 0 -0.00048892248309378343 -0.011845075465404782 0 -0.00031266433613035574 -0.011920177187266196 0 -0.00034056074815047013 -0.011925882233851047 0 -0.00051148713548243932 -0.011935494378106468 0 -0.00034792735176935945 -0.011813889463661522 0 -0.00041308927091097562 -0.011854539845271031 0 -0.00051148713548243932 -0.011935494378106468 0 -0.00050268375594120858 -0.012126510924995218 0 -0.00034792735176935945 -0.011813889463661522 0 -0.00062586843318804101 -0.012142749385907679 0 -0.00051148713548243932 -0.011935494378106468 0 -0.00050268375594120858 -0.012126510924995218 0 -0.000542792362000762 -0.012286022074874796 0 -0.00062586843318804101 -0.012142749385907679 0 -0.00050268375594120858 -0.012126510924995218 0 -0.00022668349179937316 -0.010946781193577511 0 -0.00043367747328274908 -0.011437063813492875 0 -0.00034792735176935945 -0.011813889463661522 0 -0.0004350742342720194 -0.012311654890090366 0 -0.00050268375594120858 -0.012126510924995218 0 -0.00034792735176935945 -0.011813889463661522 0 -0.0003543316208755639 -0.011616968608344616 0 -0.00035111555942264177 -0.011761718842653727 0 -0.00043367747328274908 -0.011437063813492875 0 -0.00034792735176935945 -0.011813889463661522 0 -0.00043412304925774921 -0.011804984054546903 0 -0.00047459846072693253 -0.011893313148041144 0 -0.00041308927091097562 -0.011854539845271031 0 -0.00041895196614791621 -0.012016221768668752 0 -0.00043412304925774921 -0.011804984054546903 0 -0.00047459846072693253 -0.011893313148041144 0 -0.00041308927091097562 -0.011854539845271031 0 -0.00034792735176935945 -0.011813889463661522 0 -0.00043412304925774921 -0.011804984054546903 0 -0.00041308927091097562 -0.011854539845271031 0 -0.00041308927091097562 -0.011854539845271031 0 -0.00041895196614791621 -0.012016221768668752 0 -0.00048892248309378343 -0.011845075465404782 0 -0.00051148713548243932 -0.011935494378106468 0 -0.00041308927091097562 -0.011854539845271031 0 -0.00048892248309378343 -0.011845075465404782 0 -0.00042703694448731859 -0.012020830892349246 0 -0.00034056074815047013 -0.011925882233851047 0 -0.00041895196614791621 -0.012016221768668752 0 -0.00017231681878720212 -0.011981306293910244 0 -0.00021365134759442943 -0.01216032972565944 0 -0.00055831703782240494 -0.011949227309078936 0 -0.00047459846072693253 -0.011893313148041144 0 -0.00041895196614791621 -0.012016221768668752 0 0.00028182821822067962 -0.012014899333227915 0 7.6973684278488252e-05 -0.011842416084543058 0 7.7509295148088593e-05 -0.012081729427196408 0 7.6973684278488252e-05 -0.011842416084543058 0 7.7509295148088593e-05 -0.012081729427196408 0 -0.00017231681878720212 -0.011981306293910244 0 7.7509295148088593e-05 -0.012081729427196408 0 -0.00017231681878720212 -0.011981306293910244 0 2.2681741958679325e-05 -0.012296852818443955 0 -0.00017231681878720212 -0.011981306293910244 0 -0.00021365134759442943 -0.01216032972565944 0 2.2681741958679325e-05 -0.012296852818443955 0 0.00045928747411873327 -0.012427463435999722 0 7.7509295148088593e-05 -0.012081729427196408 0 2.2681741958679325e-05 -0.012296852818443955 0 0.00033558801400582731 -0.012632088679046584 0 2.2681741958679325e-05 -0.012296852818443955 0 4.0116704829516163e-05 -0.012739099342861682 0 0.00033558801400582731 -0.012632088679046584 0 0.00045928747411873327 -0.012427463435999722 0 2.2681741958679325e-05 -0.012296852818443955 0 -0.00021365134759442943 -0.01216032972565944 0 2.2681741958679325e-05 -0.012296852818443955 0 -0.00029293117922427655 -0.012398311514198341 0 2.2681741958679325e-05 -0.012296852818443955 0 4.0116704829516163e-05 -0.012739099342861682 0 -0.00029293117922427655 -0.012398311514198341 0 4.0116704829516163e-05 -0.012739099342861682 0 -0.00029293117922427655 -0.012398311514198341 0 -0.00026013504693404973 -0.01283947515404182 0 0.00033558801400582731 -0.012632088679046584 0 4.0116704829516163e-05 -0.012739099342861682 0 0.00030836863050903127 -0.013096122358112854 0 -0.00055831703782240494 -0.011949227309078936 0 -0.00041895196614791621 -0.012016221768668752 0 -0.00072531790324713828 -0.012183040881079686 0 -0.00041895196614791621 -0.012016221768668752 0 -0.00029293117922427655 -0.012398311514198341 0 -0.00072531790324713828 -0.012183040881079686 0 -0.00041895196614791621 -0.012016221768668752 0 -0.00021365134759442943 -0.01216032972565944 0 -0.00029293117922427655 -0.012398311514198341 0 -0.00029293117922427655 -0.012398311514198341 0 -0.00045402583225906672 -0.012581810028183347 0 -0.00072531790324713828 -0.012183040881079686 0 -0.00029293117922427655 -0.012398311514198341 0 -0.00045402583225906672 -0.012581810028183347 0 -0.00026013504693404973 -0.01283947515404182 0 -0.00045402583225906672 -0.012581810028183347 0 -0.00072531790324713828 -0.012183040881079686 0 -0.00056904571400780092 -0.012937888931085727 0 -0.00072531790324713828 -0.012183040881079686 0 -0.00088111976997738153 -0.013108393744209594 0 -0.00056904571400780092 -0.012937888931085727 0 -0.00045402583225906672 -0.012581810028183347 0 -0.00056904571400780092 -0.012937888931085727 0 -0.00026013504693404973 -0.01283947515404182 0 -0.00056904571400780092 -0.012937888931085727 0 -0.00031713285717335635 -0.013320506183733297 0 -0.00026013504693404973 -0.01283947515404182 0 -0.00056904571400780092 -0.012937888931085727 0 -0.00031713285717335635 -0.013320506183733297 0 -0.00067453578040842688 -0.013425237433523127 0 -0.00031713285717335635 -0.013320506183733297 0 -0.00067453578040842688 -0.013425237433523127 0 -0.00046230860401777246 -0.013664305949696287 0 -0.00088111976997738153 -0.013108393744209594 0 -0.00056904571400780092 -0.012937888931085727 0 -0.00067453578040842688 -0.013425237433523127 0 -0.00067453578040842688 -0.013425237433523127 0 -0.000969361933383751 -0.01347928059673831 0 -0.00084637137003523916 -0.013641658433512456 0 -0.00088111976997738153 -0.013108393744209594 0 -0.00067453578040842688 -0.013425237433523127 0 -0.000969361933383751 -0.01347928059673831 0 -0.00088111976997738153 -0.013108393744209594 0 -0.000969361933383751 -0.01347928059673831 0 -0.0011106932157860169 -0.013330083479846292 0 -1.0765370194456283e-05 -0.013165019315212023 0 0.00018108111203717076 -0.013499411668855529 0 0.00030836863050903127 -0.013096122358112854 0 4.0116704829516163e-05 -0.012739099342861682 0 -1.0765370194456283e-05 -0.013165019315212023 0 0.00030836863050903127 -0.013096122358112854 0 -0.00031713285717335635 -0.013320506183733297 0 -1.0765370194456283e-05 -0.013165019315212023 0 -0.00026013504693404973 -0.01283947515404182 0 4.0116704829516163e-05 -0.012739099342861682 0 -1.0765370194456283e-05 -0.013165019315212023 0 -0.00026013504693404973 -0.01283947515404182 0 -0.00031713285717335635 -0.013320506183733297 0 -1.0765370194456283e-05 -0.013165019315212023 0 -2.8448615245617283e-05 -0.013497784187036234 0 -0.00031713285717335635 -0.013320506183733297 0 -2.8448615245617283e-05 -0.013497784187036234 0 -0.0002066949949686072 -0.013642954918932177 0 -0.00031713285717335635 -0.013320506183733297 0 -0.0002066949949686072 -0.013642954918932177 0 -0.00046230860401777246 -0.013664305949696287 0 -2.8448615245617283e-05 -0.013497784187036234 0 1.4360429403519884e-05 -0.013787358253461833 0 -0.0002066949949686072 -0.013642954918932177 0 -1.0765370194456283e-05 -0.013165019315212023 0 -2.8448615245617283e-05 -0.013497784187036234 0 0.00018108111203717076 -0.013499411668855529 0 -2.8448615245617283e-05 -0.013497784187036234 0 0.00018108111203717076 -0.013499411668855529 0 1.4360429403519884e-05 -0.013787358253461833 0 0.00018108111203717076 -0.013499411668855529 0 1.4360429403519884e-05 -0.013787358253461833 0 0.00036110111355705922 -0.013993290525446208 0 1.4360429403519884e-05 -0.013787358253461833 0 8.2144603758124013e-05 -0.014042186623958501 0 0.00036110111355705922 -0.013993290525446208 0 8.2144603758124013e-05 -0.014042186623958501 0 9.0028538430906969e-05 -0.014321013550044479 0 0.00036110111355705922 -0.013993290525446208 0 1.4360429403519884e-05 -0.013787358253461833 0 8.2144603758124013e-05 -0.014042186623958501 0 -0.0001260435927418183 -0.014044710143355883 0 1.4360429403519884e-05 -0.013787358253461833 0 -0.0001260435927418183 -0.014044710143355883 0 -0.00016708352419770692 -0.013846749037386539 0 -0.0001260435927418183 -0.014044710143355883 0 -0.00016708352419770692 -0.013846749037386539 0 -0.00034699777073706199 -0.013911333918352406 0 1.4360429403519884e-05 -0.013787358253461833 0 -0.00016708352419770692 -0.013846749037386539 0 -0.0002066949949686072 -0.013642954918932177 0 -0.0002066949949686072 -0.013642954918932177 0 -0.00034699777073706199 -0.013911333918352406 0 -0.00046230860401777246 -0.013664305949696287 0 -0.00016708352419770692 -0.013846749037386539 0 -0.0002066949949686072 -0.013642954918932177 0 -0.00034699777073706199 -0.013911333918352406 0 -0.00034699777073706199 -0.013911333918352406 0 -0.00029199474578851754 -0.014188475128318927 0 -0.00047870884332449324 -0.014068301281976517 0 -0.0001260435927418183 -0.014044710143355883 0 -0.00034699777073706199 -0.013911333918352406 0 -0.00029199474578851754 -0.014188475128318927 0 9.485060993015242e-05 -0.014114524563856182 0 -0.00024567644917476613 -0.013475803048399865 0 -0.00029199474578851754 -0.014188475128318927 0 -0.00023953026111536992 -0.014377477866195244 0 -0.00052557130504423115 -0.014294389259613096 0 -0.00029199474578851754 -0.014188475128318927 0 -0.00018772823207473526 -0.014361909004452817 0 -0.00017910056848762318 -0.014207798745189777 0 -0.00029199474578851754 -0.014188475128318927 0 -0.00018772823207473526 -0.014361909004452817 0 -0.00023953026111536992 -0.014377477866195244 0 -0.00018772823207473526 -0.014361909004452817 0 -0.00017910056848762318 -0.014207798745189777 0 9.0028538430906969e-05 -0.014321013550044479 0 -7.2091556023619777e-05 -0.014250384668909523 0 9.485060993015242e-05 -0.014114524563856182 0 -0.0001260435927418183 -0.014044710143355883 0 -0.00029199474578851754 -0.014188475128318927 0 -0.00017910056848762318 -0.014207798745189777 0 9.485060993015242e-05 -0.014114524563856182 0 0.00046908479400220251 -0.014936940862206495 0 -0.00018772823207473526 -0.014361909004452817 0 9.0028538430906969e-05 -0.014321013550044479 0 0.00039730403796007065 -0.014786535054556344 0 -0.00018772823207473526 -0.014361909004452817 0 -0.00027603287034762281 -0.014399197617470626 0 0.00039730403796007065 -0.014786535054556344 0 8.2144603758124013e-05 -0.014042186623958501 0 -0.0001260435927418183 -0.014044710143355883 0 9.0028538430906969e-05 -0.014321013550044479 0 -0.0001260435927418183 -0.014044710143355883 0 -0.00017910056848762318 -0.014207798745189777 0 9.0028538430906969e-05 -0.014321013550044479 0 -0.0008557385600277814 -0.013854103666044894 0 -0.00068799036390651406 -0.013755152050266999 0 -0.00070818256739130345 -0.014038394397490678 0 -0.0008557385600277814 -0.013854103666044894 0 -0.0010085610466569323 -0.013715460025971318 0 -0.00097343100235094558 -0.013952517685271008 0 -0.0008557385600277814 -0.013854103666044894 0 -0.0010085610466569323 -0.013715460025971318 0 -0.00084637137003523916 -0.013641658433512456 0 -0.000969361933383751 -0.01347928059673831 0 -0.0010085610466569323 -0.013715460025971318 0 -0.00084637137003523916 -0.013641658433512456 0 -0.00067453578040842688 -0.013425237433523127 0 -0.00068799036390651406 -0.013755152050266999 0 -0.00084637137003523916 -0.013641658433512456 0 -0.0008557385600277814 -0.013854103666044894 0 -0.00068799036390651406 -0.013755152050266999 0 -0.00084637137003523916 -0.013641658433512456 0 -0.00067453578040842688 -0.013425237433523127 0 -0.00068799036390651406 -0.013755152050266999 0 -0.00046230860401777246 -0.013664305949696287 0 -0.00068799036390651406 -0.013755152050266999 0 -0.00046230860401777246 -0.013664305949696287 0 -0.00052662581871621892 -0.013888237596075412 0 -0.00034699777073706199 -0.013911333918352406 0 -0.00046230860401777246 -0.013664305949696287 0 -0.00052662581871621892 -0.013888237596075412 0 -0.00034699777073706199 -0.013911333918352406 0 -0.00052662581871621892 -0.013888237596075412 0 -0.00047870884332449324 -0.014068301281976517 0 -0.00068799036390651406 -0.013755152050266999 0 -0.00052662581871621892 -0.013888237596075412 0 -0.00070818256739130345 -0.014038394397490678 0 -0.00047870884332449324 -0.014068301281976517 0 -0.00052557130504423115 -0.014294389259613096 0 -0.00070818256739130345 -0.014038394397490678 0 -0.00052662581871621892 -0.013888237596075412 0 -0.00047870884332449324 -0.014068301281976517 0 -0.00070818256739130345 -0.014038394397490678 0 -0.00029199474578851754 -0.014188475128318927 0 -0.00047870884332449324 -0.014068301281976517 0 -0.00052557130504423115 -0.014294389259613096 0 -0.00052557130504423115 -0.014294389259613096 0 -0.00085115845401996797 -0.014249393118347232 0 -0.00070818256739130345 -0.014038394397490678 0 -0.00024567644917476613 -0.013475803048399865 0 -5.952032704071312e-05 -0.01053052691786951 0 -0.00085115845401996797 -0.014249393118347232 0 -0.00097343100235094558 -0.013952517685271008 0 -0.0012415145521253478 -0.01375887949592745 0 -5.952032704071312e-05 -0.01053052691786951 0 -0.00067736343729696258 -0.010305856409436973 0 -0.00085115845401996797 -0.014249393118347232 0 -0.00084730858478114339 -0.014025313761833401 0 -0.00070818256739130345 -0.014038394397490678 0 -0.0008557385600277814 -0.013854103666044894 0 -0.00084730858478114339 -0.014025313761833401 0 -0.00070818256739130345 -0.014038394397490678 0 -0.00085115845401996797 -0.014249393118347232 0 -0.00084730858478114339 -0.014025313761833401 0 -0.00097343100235094558 -0.013952517685271008 0 -0.0008557385600277814 -0.013854103666044894 0 -0.00084730858478114339 -0.014025313761833401 0 -0.00097343100235094558 -0.013952517685271008 0 -5.952032704071312e-05 -0.01053052691786951 0 -0.00060377437029369486 -0.0071217933381131967 0 -0.00017183689936242153 -0.0060456356263459878 0 -0.0002339804141502167 -0.0060335094906817568 0 -0.00022338227442678801 -0.0059918896288702773 0 0.0013132547353373414 -0.01153884019122749 0 -0.00060377437029369486 -0.0071217933381131967 0 -5.952032704071312e-05 -0.01053052691786951 0 0.00079516705222334885 -0.013640023988540669 0 0.0002072373318950246 -0.0094264174091130797 0 0.00084835017585769103 -0.01220288113242767 0 0.0018205653063635176 -0.011427019460684825 0 0.0002072373318950246 -0.0094264174091130797 0 0.00084835017585769103 -0.01220288113242767 0 -0.00092628509966073561 -0.0093631564474874439 0 0.0024649392512787189 -0.014617672898452403 0 0.0025191084045341405 -0.014369232573095761 0 0.0026921559638451087 -0.01444058252749815 0 -0.00017183689936242153 -0.0060456356263459878 0 -0.00022891088563471766 -0.0061200353335409668 0 -0.00022338227442678801 -0.0059918896288702773 0 0.0013132547353373414 -0.01153884019122749 0 0.000186431225496387 -0.0079889838636550328 0 0.0013132547353373414 -0.01153884019122749 0 0.0019677960102394885 -0.015258169959854547 0 0.00079516705222334885 -0.013640023988540669 0 0.0010414685343639383 -0.015573307278743795 0 0.0013361334522007397 -0.015192260561895999 0 0.0012246840197540705 -0.01529038739405781 0 0.0011648589141446987 -0.014938618481196809 0 0.0012246840197540705 -0.01529038739405781 0 0.00087899830653322976 -0.014984778006503953 0 0.0011648589141446987 -0.014938618481196809 0 0.0013132547353373414 -0.01153884019122749 0 0.00079516705222334885 -0.013640023988540669 0 9.485060993015242e-05 -0.014114524563856182 0 0.00079516705222334885 -0.013640023988540669 0 0.00027212440036235926 -0.012870299582955158 0 0.00012085457372755301 -0.01285228820457401 0 9.8595282544537368e-05 -0.013004322140729633 0 0.00012085457372755301 -0.01285228820457401 0 -3.5913036027510029e-05 -0.012830121896944968 0 9.8595282544537368e-05 -0.013004322140729633 0 0.00063473246179572985 -0.015064826043469372 0 0.00070122821077164886 -0.015024762225598894 0 0.00068099067816569897 -0.015025242882134889 0 0.00063473246179572985 -0.015064826043469372 0 0.00053590166914753001 -0.014999467509065454 0 0.00068099067816569897 -0.015025242882134889 0 0.00053590166914753001 -0.014999467509065454 0 0.00048680583874399227 -0.015132925519100157 0 0.00039730403796007065 -0.014786535054556344 0 0.00063473246179572985 -0.015064826043469372 0 0.00053590166914753001 -0.014999467509065454 0 0.00039730403796007065 -0.014786535054556344 0 0.00053590166914753001 -0.014999467509065454 0 0.00065792574013452047 -0.015050948642657019 0 0.00048680583874399227 -0.015132925519100157 0 0.00053590166914753001 -0.014999467509065454 0 0.00065792574013452047 -0.015050948642657019 0 0.00068099067816569897 -0.015025242882134889 0 0.00065792574013452047 -0.015050948642657019 0 0.00069367029337545421 -0.015005439991095233 0 0.00048680583874399227 -0.015132925519100157 0 0.00065792574013452047 -0.015050948642657019 0 0.00068099067816569897 -0.015025242882134889 0 0.00087899830653322976 -0.014984778006503953 0 0.00070122821077164886 -0.015024762225598894 0 0.00068099067816569897 -0.015025242882134889 0 0.00087899830653322976 -0.014984778006503953 0 0.00087899830653322976 -0.014984778006503953 0 0.0011897106323344099 -0.014589922707287713 0 0.0011648589141446987 -0.014938618481196809 0 0.00087899830653322976 -0.014984778006503953 0 0.00069367029337545421 -0.015005439991095233 0 0.0011897106323344099 -0.014589922707287713 0 0.00065792574013452047 -0.015050948642657019 0 0.00087899830653322976 -0.014984778006503953 0 0.00069367029337545421 -0.015005439991095233 0 0.00069367029337545421 -0.015005439991095233 0 0.00062424562499058419 -0.014816139404423424 0 0.0011897106323344099 -0.014589922707287713 0 0.00062424562499058419 -0.014816139404423424 0 0.0011897106323344099 -0.014589922707287713 0 0.00074824434640347341 -0.014240396179638262 0 0.001812499323906821 -0.014089649722785633 0 0.0022730659651289623 -0.014096343373595419 0 0.0022017884883926866 -0.013778603334226786 0 0.0014123770207163935 -0.014161561798818615 0 0.0019677960102394885 -0.015258169959854547 0 0.0022730659651289623 -0.014096343373595419 0 0.0024751306413252714 -0.014201571491236086 0 0.0022478987884636792 -0.014394182372905981 0 0.001812499323906821 -0.014089649722785633 0 0.0022730659651289623 -0.014096343373595419 0 0.0022478987884636792 -0.014394182372905981 0 0.0022730659651289623 -0.014096343373595419 0 0.0026106581463852586 -0.013920060566867967 0 0.0022017884883926866 -0.013778603334226786 0 0.0022730659651289623 -0.014096343373595419 0 0.0026106581463852586 -0.013920060566867967 0 0.0024751306413252714 -0.014201571491236086 0 0.0013240097452413633 -0.010106369825282494 0 0.00194735871853135 -0.010072413490510957 0 0.0026106581463852586 -0.013920060566867967 0 0.002723378809495124 -0.014142389682761053 0 0.0027480499234048866 -0.013810120341711085 0 0.0026106581463852586 -0.013920060566867967 0 0.002723378809495124 -0.014142389682761053 0 0.0024751306413252714 -0.014201571491236086 0 0.002723378809495124 -0.014142389682761053 0 0.0025191084045341405 -0.014369232573095761 0 0.0026921559638451087 -0.01444058252749815 0 0.0013240097452413633 -0.010106369825282494 0 0.000186431225496387 -0.0079889838636550328 0 0.002723378809495124 -0.014142389682761053 0 0.0024751306413252714 -0.014201571491236086 0 0.0025191084045341405 -0.014369232573095761 0 0.0024649392512787189 -0.014617672898452403 0 0.0025191084045341405 -0.014369232573095761 0 0.0022478987884636792 -0.014394182372905981 0 0.0024751306413252714 -0.014201571491236086 0 0.0025191084045341405 -0.014369232573095761 0 0.0022478987884636792 -0.014394182372905981 0 0.00015945996718588022 -0.015747132820856283 0 1.2190511444245225e-05 -0.015194204476392156 0 0.00037098870183098411 -0.015557030446887454 0 0.00015945996718588022 -0.015747132820856283 0 0.00037098870183098411 -0.015557030446887454 0 0.00014324281895452618 -0.016020366362828442 0 0.00015945996718588022 -0.015747132820856283 0 0.00014324281895452618 -0.016020366362828442 0 0.0001985926338957484 -0.016265306912407105 0 0.00015945996718588022 -0.015747132820856283 0 0.00015444652332886671 -0.016090256088924757 0 0.0001985926338957484 -0.016265306912407105 0 0.00015945996718588022 -0.015747132820856283 0 0.00015444652332886671 -0.016090256088924757 0 1.2190511444245225e-05 -0.015194204476392156 0 -0.00067079428837223858 -0.015447287511420804 0 -1.2970404698907508e-06 -0.015264406080921401 0 0.00062424562499058419 -0.014816139404423424 0 1.2190511444245225e-05 -0.015194204476392156 0 0.00023330370421036222 -0.014199003724311961 0 0.00069367029337545421 -0.015005439991095233 0 0.00040042651785139057 -0.015244980794083565 0 0.00048680583874399227 -0.015132925519100157 0 0.00062424562499058419 -0.014816139404423424 0 1.2190511444245225e-05 -0.015194204476392156 0 0.00040042651785139057 -0.015244980794083565 0 0.00069367029337545421 -0.015005439991095233 0 0.00062424562499058419 -0.014816139404423424 0 0.00040042651785139057 -0.015244980794083565 0 1.2190511444245225e-05 -0.015194204476392156 0 0.00040042651785139057 -0.015244980794083565 0 0.00037098870183098411 -0.015557030446887454 0 0.00040042651785139057 -0.015244980794083565 0 0.00048270800049439141 -0.015131648570778538 0 0.00037098870183098411 -0.015557030446887454 0 0.00048270800049439141 -0.015131648570778538 0 0.00092305812120524716 -0.015027203599311754 0 0.00037098870183098411 -0.015557030446887454 0 0.00040042651785139057 -0.015244980794083565 0 0.00048270800049439141 -0.015131648570778538 0 0.00048680583874399227 -0.015132925519100157 0 0.00048270800049439141 -0.015131648570778538 0 0.00048680583874399227 -0.015132925519100157 0 0.00039730403796007065 -0.014786535054556344 0 0.00048270800049439141 -0.015131648570778538 0 0.00039730403796007065 -0.014786535054556344 0 0.00074187353854745163 -0.014635084742123031 0 0.00048270800049439141 -0.015131648570778538 0 0.00092305812120524716 -0.015027203599311754 0 0.00074187353854745163 -0.014635084742123031 0 0.00092305812120524716 -0.015027203599311754 0 0.0012200893986857818 -0.014480909171606729 0 0.00074187353854745163 -0.014635084742123031 0 0.00029832325487511182 -0.016060666360182742 0 0.00020531711777363085 -0.01613492712169997 0 0.00021942752279113884 -0.016140913893289498 0 0.00059131186841044996 -0.015507797422488799 0 0.00072232280943924617 -0.015345042212616929 0 0.00029832325487511182 -0.016060666360182742 0 0.00037098870183098411 -0.015557030446887454 0 0.00014324281895452618 -0.016020366362828442 0 0.00059131186841044996 -0.015507797422488799 0 0.00043767257781688929 -0.015556341499557893 0 0.00029832325487511182 -0.016060666360182742 0 0.00014324281895452618 -0.016020366362828442 0 0.00018645099250628636 -0.016135975373298094 0 0.00014324281895452618 -0.016020366362828442 0 0.00018645099250628636 -0.016135975373298094 0 0.00018727958182587949 -0.016213112979901034 0 0.00018645099250628636 -0.016135975373298094 0 0.00019883281400020423 -0.016143851964954339 0 0.00018727958182587949 -0.016213112979901034 0 0.00029832325487511182 -0.016060666360182742 0 0.00018645099250628636 -0.016135975373298094 0 0.00020531711777363085 -0.01613492712169997 0 0.00018645099250628636 -0.016135975373298094 0 0.00020531711777363085 -0.01613492712169997 0 0.00019883281400020423 -0.016143851964954339 0 0.00020531711777363085 -0.01613492712169997 0 0.00020626748568444952 -0.016125981207590918 0 0.00019883281400020423 -0.016143851964954339 0 0.00020626748568444952 -0.016125981207590918 0 0.00021942752279113884 -0.016140913893289498 0 0.00020558856872125424 -0.016103894040831835 0 0.00020626748568444952 -0.016125981207590918 0 0.00019883281400020423 -0.016143851964954339 0 0.0002209866899153764 -0.016118942047646596 0 0.00020531711777363085 -0.01613492712169997 0 0.00020626748568444952 -0.016125981207590918 0 0.00021942752279113884 -0.016140913893289498 0 0.0012200893986857818 -0.014480909171606729 0 0.0010648389199139718 -0.014141915485778585 0 0.00074187353854745163 -0.014635084742123031 0 0.0010648389199139718 -0.014141915485778585 0 0.001146294370191147 -0.013957159164379774 0 0.0014019050769776993 -0.013909453527173939 0 0.00072232280943924617 -0.015345042212616929 0 0.00051580996456910904 -0.014706117201696315 0 0.0012200893986857818 -0.014480909171606729 0 0.0010648389199139718 -0.014141915485778585 0 0.0014019050769776993 -0.013909453527173939 0 0.0010648389199139718 -0.014141915485778585 0 0.00097440024911503442 -0.013820118628705285 0 0.00075708710187861843 -0.014106595846606283 0 0.0010648389199139718 -0.014141915485778585 0 0.00097440024911503442 -0.013820118628705285 0 0.001146294370191147 -0.013957159164379774 0 0.00097440024911503442 -0.013820118628705285 0 0.001146294370191147 -0.013957159164379774 0 0.0011614666255421299 -0.013653699572534324 0 0.001146294370191147 -0.013957159164379774 0 0.0013235198337921425 -0.013891074624967432 0 0.0014019050769776993 -0.013909453527173939 0 0.0013235198337921425 -0.013891074624967432 0 0.0014288926112116635 -0.013792960567940746 0 0.0011614666255421299 -0.013653699572534324 0 0.001146294370191147 -0.013957159164379774 0 0.0013235198337921425 -0.013891074624967432 0 0.0011614666255421299 -0.013653699572534324 0 0.00031669544960572567 -0.013808126091692576 0 0.00030030218618531306 -0.01374166092381349 0 0.00043449802244797589 -0.013739192342388204 0 0.00051580996456910904 -0.014706117201696315 0 0.00050391351835608975 -0.014030057075906394 0 0.0013235198337921425 -0.013891074624967432 0 0.0013970824227969622 -0.013905713437355459 0 0.0014288926112116635 -0.013792960567940746 0 0.00069894446354274451 -0.014669427803492728 0 0.00051580996456910904 -0.014706117201696315 0 0.00051580996456910904 -0.014706117201696315 0 0.00034653922386245552 -0.014903825426736796 0 0.0003305337782370798 -0.014683342523125207 0 0.00046237878716311751 -0.014711548806369575 0 0.00039821835716279244 -0.014467795938141617 0 0.00034653922386245552 -0.014903825426736796 0 0.00050391351835608975 -0.014030057075906394 0 0.00020626748568444952 -0.016125981207590918 0 0.0001957415852950682 -0.016087138240431471 0 0.0002209866899153764 -0.016118942047646596 0 0.00020626748568444952 -0.016125981207590918 0 0.00020558856872125424 -0.016103894040831835 0 0.00020799922488671919 -0.016104299189827209 0 0.00034298795510629966 -0.016388014298431331 0 0.00034653922386245552 -0.014903825426736796 0 0.00039730403796007065 -0.014786535054556344 0 0.00057372356880124801 -0.014388564454942977 0 0.00074187353854745163 -0.014635084742123031 0 9.0028538430906969e-05 -0.014321013550044479 0 0.00039730403796007065 -0.014786535054556344 0 0.00036110111355705922 -0.013993290525446208 0 0.00039730403796007065 -0.014786535054556344 0 0.00057372356880124801 -0.014388564454942977 0 0.00036110111355705922 -0.013993290525446208 0 0.0010648389199139718 -0.014141915485778585 0 0.00074187353854745163 -0.014635084742123031 0 0.00075708710187861843 -0.014106595846606283 0 0.00057372356880124801 -0.014388564454942977 0 0.00074187353854745163 -0.014635084742123031 0 0.00075708710187861843 -0.014106595846606283 0 0.00075708710187861843 -0.014106595846606283 0 0.00036110111355705922 -0.013993290525446208 0 0.00071896214425183202 -0.013667617113667815 0 0.00097440024911503442 -0.013820118628705285 0 0.00075708710187861843 -0.014106595846606283 0 0.00071896214425183202 -0.013667617113667815 0 0.00057372356880124801 -0.014388564454942977 0 0.00075708710187861843 -0.014106595846606283 0 0.00036110111355705922 -0.013993290525446208 0 0.00018108111203717076 -0.013499411668855529 0 0.00036110111355705922 -0.013993290525446208 0 0.00044721570336264422 -0.013531222091417676 0 0.00018108111203717076 -0.013499411668855529 0 0.00044721570336264422 -0.013531222091417676 0 0.00030836863050903127 -0.013096122358112854 0 0.00036110111355705922 -0.013993290525446208 0 0.00044721570336264422 -0.013531222091417676 0 0.00071896214425183202 -0.013667617113667815 0 0.00044721570336264422 -0.013531222091417676 0 0.00071896214425183202 -0.013667617113667815 0 0.00061843860422057301 -0.013251389124821206 0 0.00097440024911503442 -0.013820118628705285 0 0.00071896214425183202 -0.013667617113667815 0 0.00093386677158310925 -0.013405500441177888 0 0.00071896214425183202 -0.013667617113667815 0 0.00061843860422057301 -0.013251389124821206 0 0.00093386677158310925 -0.013405500441177888 0 0.00076456161263167019 -0.012946175522202041 0 0.00061843860422057301 -0.013251389124821206 0 0.00093386677158310925 -0.013405500441177888 0 0.00076456161263167019 -0.012946175522202041 0 0.00053504427242400635 -0.012893205508065921 0 0.00061843860422057301 -0.013251389124821206 0 0.00044721570336264422 -0.013531222091417676 0 0.00061843860422057301 -0.013251389124821206 0 0.00030836863050903127 -0.013096122358112854 0 0.00053504427242400635 -0.012893205508065921 0 0.00061843860422057301 -0.013251389124821206 0 0.00030836863050903127 -0.013096122358112854 0 0.00031117022554484104 -0.013713420600186137 0 0.00036248011565279641 -0.01357156394747964 0 0.00026288662172390266 -0.013365977328676131 0 0.00050391351835608975 -0.014030057075906394 0 0.00074429908936735208 -0.013192258820477592 0 0.00030030218618531306 -0.01374166092381349 0 0.00043449802244797589 -0.013739192342388204 0 0.00036248011565279641 -0.01357156394747964 0 0.00043449802244797589 -0.013739192342388204 0 0.00036248011565279641 -0.01357156394747964 0 0.00051983433927241284 -0.013683015480901527 0 0.00050391351835608975 -0.014030057075906394 0 0.00043888292595178462 -0.01359407805669589 0 0.0014288926112116635 -0.013792960567940746 0 0.0011614666255421299 -0.013653699572534324 0 0.0011463606191544841 -0.013095448949992107 0 0.0011614666255421299 -0.013653699572534324 0 0.00093386677158310925 -0.013405500441177888 0 0.0011463606191544841 -0.013095448949992107 0 0.00097440024911503442 -0.013820118628705285 0 0.0011614666255421299 -0.013653699572534324 0 0.00093386677158310925 -0.013405500441177888 0 0.00076456161263167019 -0.012946175522202041 0 0.00093386677158310925 -0.013405500441177888 0 0.0011463606191544841 -0.013095448949992107 0 0.00036248011565279641 -0.01357156394747964 0 0.00026288662172390266 -0.013365977328676131 0 0.00043836782820194452 -0.013354308937832722 0 0.00036248011565279641 -0.01357156394747964 0 0.00043836782820194452 -0.013354308937832722 0 0.0006352459011204055 -0.013522646342896306 0 0.00054698216385407289 -0.013209153346579032 0 0.00043836782820194452 -0.013354308937832722 0 0.0006352459011204055 -0.013522646342896306 0 0.00035723528014097923 -0.013742032901145448 0 0.00039074964978324188 -0.014405391171765428 0 0.0006352459011204055 -0.013522646342896306 0 0.00051983433927241284 -0.013683015480901527 0 0.00068143689040516442 -0.013896341383506672 0 0.00036248011565279641 -0.01357156394747964 0 0.0006352459011204055 -0.013522646342896306 0 0.00051983433927241284 -0.013683015480901527 0 0.00039074964978324188 -0.014405391171765428 0 0.00048078718781313065 -0.015686987900779079 0 0.000143583891466572 -0.015477941589818014 0 0.00091193793497087018 -0.015593162922510197 0 0.00029837642700031547 -0.016612023555156591 0 0.00013602814917113918 -0.014201902789941115 0 0.000143583891466572 -0.015477941589818014 0 0.00074833100744925614 -0.014618426880638118 0 0.000143583891466572 -0.015477941589818014 0 0.00091193793497087018 -0.015593162922510197 0 0.00074833100744925614 -0.014618426880638118 0 0.00091193793497087018 -0.015593162922510197 0 0.0015369379951129447 -0.014663619076157019 0 0.001784287024394253 -0.01547759024654285 0 0.00091193793497087018 -0.015593162922510197 0 0.00074833100744925614 -0.014618426880638118 0 0.0015369379951129447 -0.014663619076157019 0 0.0011641064450289736 -0.01523059144473899 0 0.0010087799622829552 -0.016153721322106917 0 0.00087212477464724875 -0.015973802590666664 0 0.0007422972580804169 -0.015971345142035007 0 0.00082848843204776014 -0.015853136243191322 0 0.00076968644412819028 -0.016832562513108964 0 0.00083861326811312197 -0.016723826750669683 0 0.00071824252800195792 -0.01671794063189902 0 0.00075572529467267141 -0.016398875275705528 0 0.0010087799622829552 -0.016153721322106917 0 0.00079242958557121097 -0.016614346782306718 0 0.00071824252800195792 -0.01671794063189902 0 0.00065509946133831078 -0.016612535381854057 0 0.00083861326811312197 -0.016723826750669683 0 0.00079242958557121097 -0.016614346782306718 0 0.00071824252800195792 -0.01671794063189902 0 0.0010087799622829552 -0.016153721322106917 0 0.00089173127896356079 -0.01674371265903335 0 0.0010087799622829552 -0.016153721322106917 0 0.0010900343866342335 -0.016364598328205433 0 0.00084889566290832633 -0.016762590510726379 0 0.00079242958557121097 -0.016614346782306718 0 0.00097128903986239753 -0.016418655601779252 0 0.00091193793497087018 -0.015593162922510197 0 0.001784287024394253 -0.01547759024654285 0 0.00097128903986239753 -0.016418655601779252 0 0.00079242958557121097 -0.016614346782306718 0 0.00097128903986239753 -0.016418655601779252 0 0.00098588361196403208 -0.01652540540099641 0 0.00079242958557121097 -0.016614346782306718 0 0.00060041432670497423 -0.016535228519823891 0 0.00065509946133831078 -0.016612535381854057 0 0.00079242958557121097 -0.016614346782306718 0 0.00098588361196403208 -0.01652540540099641 0 0.00060041432670497423 -0.016535228519823891 0 0.00060041432670497423 -0.016535228519823891 0 0.00040233377842047819 -0.016548839950725168 0 0.00047474811765739553 -0.016647944835170701 0 0.00033976425641040771 -0.016443389414800284 0 0.00060041432670497423 -0.016535228519823891 0 0.00040233377842047819 -0.016548839950725168 0 0.00061749035303235351 -0.016580758561940342 0 0.00062378984012702494 -0.016506833639137831 0 0.00033976425641040771 -0.016443389414800284 0 0.00040233377842047819 -0.016548839950725168 0 0.00030687855606911031 -0.016495696738638793 0 0.00033976425641040771 -0.016443389414800284 0 0.00030687855606911031 -0.016495696738638793 0 0.00028159844015727807 -0.016443216827770762 0 0.00030687855606911031 -0.016495696738638793 0 0.00029649464962691607 -0.016486365419086411 0 0.00028159844015727807 -0.016443216827770762 0 0.00025478794370784481 -0.016142657671357866 0 0.0002209866899153764 -0.016118942047646596 0 0.00024849489137805241 -0.016098646868518543 0 0.00025478794370784481 -0.016142657671357866 0 0.00019883281400020423 -0.016143851964954339 0 0.0002209866899153764 -0.016118942047646596 0 0.00027656842020911592 -0.016420107456262392 0 0.00048078718781313065 -0.015686987900779079 0 0.00031669544960572567 -0.013808126091692576 0 0.00043449802244797589 -0.013739192342388204 0 0.00068143689040516442 -0.013896341383506672 0 0.00034653922386245552 -0.014903825426736796 0 0.00048078718781313065 -0.015686987900779079 0 0.00043449802244797589 -0.013739192342388204 0 0.00051983433927241284 -0.013683015480901527 0 0.00068143689040516442 -0.013896341383506672 0 0.0001957415852950682 -0.016087138240431471 0 0.0002209866899153764 -0.016118942047646596 0 0.00024849489137805241 -0.016098646868518543 0 0.00097128903986239753 -0.016418655601779252 0 0.00098588361196403208 -0.01652540540099641 0 0.00029837642700031547 -0.016612023555156591 0 0.00091193793497087018 -0.015593162922510197 0 0.00097128903986239753 -0.016418655601779252 0 0.00029837642700031547 -0.016612023555156591 0 0.00061749035303235351 -0.016580758561940342 0 0.00048078718781313065 -0.015686987900779079 0 0.00045832580982604963 -0.016718993378676883 0 0.00046798056462986169 -0.016836919313845879 0 0.00058983585320337138 -0.016672429926198152 0 -5.469867833979745e-05 -0.018792857992648123 0 0.00010328834714171628 -0.018661458130638284 0 0.00029449261358211246 -0.016934642416616609 0 0.00045832580982604963 -0.016718993378676883 0 0.00046798056462986169 -0.016836919313845879 0 0.00057981162338960107 -0.016952395510311198 0 0.00046798056462986169 -0.016836919313845879 0 0.00058707408324592918 -0.01678590257708831 0 0.00046798056462986169 -0.016836919313845879 0 0.00058707408324592918 -0.01678590257708831 0 0.00058983585320337138 -0.016672429926198152 0 0.00063416276789116251 -0.016691581425586927 0 0.00058707408324592918 -0.01678590257708831 0 0.00058983585320337138 -0.016672429926198152 0 0.00063416276789116251 -0.016691581425586927 0 0.00058707408324592918 -0.01678590257708831 0 0.00066775565510449476 -0.016825632843716867 0 0.00057981162338960107 -0.016952395510311198 0 0.00058707408324592918 -0.01678590257708831 0 0.00066775565510449476 -0.016825632843716867 0 0.00063416276789116251 -0.016691581425586927 0 0.00066775565510449476 -0.016825632843716867 0 0.00071824252800195792 -0.01671794063189902 0 0.00076968644412819028 -0.016832562513108964 0 0.00066775565510449476 -0.016825632843716867 0 0.00071824252800195792 -0.01671794063189902 0 0.00063416276789116251 -0.016691581425586927 0 0.00071824252800195792 -0.01671794063189902 0 0.00065509946133831078 -0.016612535381854057 0 0.00060041432670497423 -0.016535228519823891 0 0.00065509946133831078 -0.016612535381854057 0 0.0006361512042351744 -0.016605857343731507 0 0.00060041432670497423 -0.016535228519823891 0 0.0006361512042351744 -0.016605857343731507 0 0.00057064581988846034 -0.016757954169933285 0 0.00063416276789116251 -0.016691581425586927 0 0.00065509946133831078 -0.016612535381854057 0 0.0006361512042351744 -0.016605857343731507 0 0.00063416276789116251 -0.016691581425586927 0 0.0006361512042351744 -0.016605857343731507 0 0.00058983585320337138 -0.016672429926198152 0 0.0006361512042351744 -0.016605857343731507 0 0.00058983585320337138 -0.016672429926198152 0 0.00067103934164186672 -0.01665740084730662 0 0.0006361512042351744 -0.016605857343731507 0 0.00067103934164186672 -0.01665740084730662 0 0.00082590421338904745 -0.016842657640092115 0 5.7384283267986905e-05 -0.020296071099655595 0 -0.00036484584662703837 -0.020314434310986569 0 -0.00038874305267536997 -0.019786295149904119 0 0.00045832580982604963 -0.016718993378676883 0 0.00058983585320337138 -0.016672429926198152 0 0.00067103934164186672 -0.01665740084730662 0 -0.0002639327784736694 -0.020597747322903006 0 5.7384283267986905e-05 -0.020296071099655595 0 -0.00036484584662703837 -0.020314434310986569 0 0.00010328834714171628 -0.018661458130638284 0 0.00036660113756982536 -0.018473094902075372 0 -6.3599125460755851e-05 -0.018819201859853616 0 0.00049712170753684476 -0.019477665941309528 0 -0.00038874305267536997 -0.019786295149904119 0 5.7384283267986905e-05 -0.020296071099655595 0 0.00049712170753684476 -0.019477665941309528 0 -0.00038874305267536997 -0.019786295149904119 0 0.00036660113756982536 -0.018473094902075372 0 0.00063663071358803817 -0.018159684445833671 0 -6.3599125460755851e-05 -0.018819201859853616 0 0.00049712170753684476 -0.019477665941309528 0 0.00072004276633427073 -0.01772005239856278 0 0.00063663071358803817 -0.018159684445833671 0 0.00072282715588051661 -0.017773388944123891 0 0.00082590421338904745 -0.016842657640092115 0 0.00057064581988846034 -0.016757954169933285 0 0.00052300175531373152 -0.017138588610816005 0 0.00082590421338904745 -0.016842657640092115 0 0.00052300175531373152 -0.017138588610816005 0 0.00072004276633427073 -0.01772005239856278 0 0.0006361512042351744 -0.016605857343731507 0 0.00082590421338904745 -0.016842657640092115 0 0.00057064581988846034 -0.016757954169933285 0 0.00060041432670497423 -0.016535228519823891 0 0.00057064581988846034 -0.016757954169933285 0 0.00047474811765739553 -0.016647944835170701 0 0.00057064581988846034 -0.016757954169933285 0 0.00052300175531373152 -0.017138588610816005 0 0.00040307286651162177 -0.016782778896312529 0 0.00052300175531373152 -0.017138588610816005 0 0.00054946068840806416 -0.017205686466377074 0 0.00072004276633427073 -0.01772005239856278 0 0.00052300175531373152 -0.017138588610816005 0 0.00054946068840806416 -0.017205686466377074 0 0.00041927035810123255 -0.016890183947172118 0 0.00054946068840806416 -0.017205686466377074 0 0.00056853736492920234 -0.01736799463023422 0 0.00072004276633427073 -0.01772005239856278 0 0.00056853736492920234 -0.01736799463023422 0 0.00072004276633427073 -0.01772005239856278 0 0.00038569641452840839 -0.017411512274407202 0 -6.3599125460755851e-05 -0.018819201859853616 0 0.00072004276633427073 -0.01772005239856278 0 -0.00014391896925073925 -0.01797839030971608 0 0.00072004276633427073 -0.01772005239856278 0 -0.00014391896925073925 -0.01797839030971608 0 0.00038569641452840839 -0.017411512274407202 0 -6.3599125460755851e-05 -0.018819201859853616 0 -0.00014391896925073925 -0.01797839030971608 0 -0.00070817638424199752 -0.01911348099774075 0 0.00027282199212153827 -0.016344055080733992 0 0.00029647192680988359 -0.016501883981911405 0 0.00022841466709557902 -0.016309259600414672 0 0.00029647192680988359 -0.016501883981911405 0 0.00022841466709557902 -0.016309259600414672 0 0.00029681526311106703 -0.01656238551694552 0 0.00027282199212153827 -0.016344055080733992 0 0.00029647192680988359 -0.016501883981911405 0 0.00028666528063437866 -0.01647192561910019 0 0.00014324281895452618 -0.016020366362828442 0 0.00022841466709557902 -0.016309259600414672 0 0.00018727958182587949 -0.016213112979901034 0 0.00027282199212153827 -0.016344055080733992 0 0.00022841466709557902 -0.016309259600414672 0 0.00018727958182587949 -0.016213112979901034 0 0.00025478794370784481 -0.016142657671357866 0 0.00027282199212153827 -0.016344055080733992 0 0.00018727958182587949 -0.016213112979901034 0 0.00025478794370784481 -0.016142657671357866 0 0.00019883281400020423 -0.016143851964954339 0 0.00018727958182587949 -0.016213112979901034 0 0.00027656842020911592 -0.016420107456262392 0 0.00027179885600600584 -0.016305740239784719 0 0.00029649464962691607 -0.016486365419086411 0 0.00027282199212153827 -0.016344055080733992 0 0.00028666528063437866 -0.01647192561910019 0 0.00030687855606911031 -0.016495696738638793 0 0.00029649464962691607 -0.016486365419086411 0 0.00028666528063437866 -0.01647192561910019 0 0.00030687855606911031 -0.016495696738638793 0 0.00028666528063437866 -0.01647192561910019 0 0.00034645994285790582 -0.016571566081400424 0 0.00040233377842047819 -0.016548839950725168 0 0.00030687855606911031 -0.016495696738638793 0 0.00034645994285790582 -0.016571566081400424 0 0.00029647192680988359 -0.016501883981911405 0 0.00028666528063437866 -0.01647192561910019 0 0.00034645994285790582 -0.016571566081400424 0 0.00057064581988846034 -0.016757954169933285 0 0.00047474811765739553 -0.016647944835170701 0 0.00040307286651162177 -0.016782778896312529 0 0.00034645994285790582 -0.016571566081400424 0 0.00047474811765739553 -0.016647944835170701 0 0.00040307286651162177 -0.016782778896312529 0 0.00040233377842047819 -0.016548839950725168 0 0.00034645994285790582 -0.016571566081400424 0 0.00047474811765739553 -0.016647944835170701 0 0.00029647192680988359 -0.016501883981911405 0 0.00040307286651162177 -0.016782778896312529 0 0.00029681526311106703 -0.01656238551694552 0 0.00029647192680988359 -0.016501883981911405 0 0.00034645994285790582 -0.016571566081400424 0 0.00040307286651162177 -0.016782778896312529 0 0.00040307286651162177 -0.016782778896312529 0 0.00041927035810123255 -0.016890183947172118 0 0.00029681526311106703 -0.01656238551694552 0 0.00052300175531373152 -0.017138588610816005 0 0.00040307286651162177 -0.016782778896312529 0 0.00041927035810123255 -0.016890183947172118 0 0.00054946068840806416 -0.017205686466377074 0 0.00041927035810123255 -0.016890183947172118 0 0.00043693637244511443 -0.017061143191692541 0 0.00041927035810123255 -0.016890183947172118 0 0.00029681526311106703 -0.01656238551694552 0 0.00024052757252678963 -0.016643517441932008 0 0.00029681526311106703 -0.01656238551694552 0 0.0001985926338957484 -0.016265306912407105 0 0.00024052757252678963 -0.016643517441932008 0 0.00022841466709557902 -0.016309259600414672 0 0.00029681526311106703 -0.01656238551694552 0 0.0001985926338957484 -0.016265306912407105 0 0.00014324281895452618 -0.016020366362828442 0 0.00022841466709557902 -0.016309259600414672 0 0.0001985926338957484 -0.016265306912407105 0 0.00015444652332886671 -0.016090256088924757 0 0.0001985926338957484 -0.016265306912407105 0 0.00024052757252678963 -0.016643517441932008 0 -0.0015755671718051712 -0.014823728419384416 0 -0.0021780859872587979 -0.014006441632446645 0 -0.002759183413570216 -0.014637987145458437 0 -0.00067079428837223858 -0.015447287511420804 0 -0.001254435210708131 -0.015648223785953666 0 -0.0021780859872587979 -0.014006441632446645 0 -0.0029256670169285526 -0.013682078446220713 0 -0.0021336476133934313 -0.013200656966609476 0 -0.0021780859872587979 -0.014006441632446645 0 -0.0029256670169285526 -0.013682078446220713 0 -0.002759183413570216 -0.014637987145458437 0 -0.0029256670169285526 -0.013682078446220713 0 -0.002759183413570216 -0.014637987145458437 0 -0.0040134544269742646 -0.014621248944681755 0 0.00041927035810123255 -0.016890183947172118 0 0.00024052757252678963 -0.016643517441932008 0 0.00043693637244511443 -0.017061143191692541 0 -0.001254435210708131 -0.015648223785953666 0 -0.0017883292533495542 -0.01582326896870935 0 -0.0040134544269742646 -0.014621248944681755 0 -0.0045497751878081708 -0.014293531891178103 0 -0.005059929584264598 -0.014477254178352631 0 -0.0040134544269742646 -0.014621248944681755 0 -0.0045497751878081708 -0.014293531891178103 0 -0.0038630274412221931 -0.013446891371202682 0 -0.0017883292533495542 -0.01582326896870935 0 -0.0022206333465890457 -0.015845396518888877 0 -0.0029256670169285526 -0.013682078446220713 0 -0.0040134544269742646 -0.014621248944681755 0 -0.0038630274412221931 -0.013446891371202682 0 -0.0045497751878081708 -0.014293531891178103 0 -0.0038630274412221931 -0.013446891371202682 0 -0.004707249470490448 -0.013986179037919252 0 -0.0038630274412221931 -0.013446891371202682 0 -0.004707249470490448 -0.013986179037919252 0 -0.004908502227885303 -0.013113759098320762 0 -0.0040208139663219771 -0.012570119663797801 0 -0.004908502227885303 -0.013113759098320762 0 -0.0044838027576683112 -0.011966102724026205 0 -0.0038630274412221931 -0.013446891371202682 0 -0.0040208139663219771 -0.012570119663797801 0 -0.004908502227885303 -0.013113759098320762 0 -0.0052489062959181669 -0.014900566222224118 0 -0.0054494427444986048 -0.015169142711899921 0 -0.0038630274412221931 -0.013446891371202682 0 -0.0040208139663219771 -0.012570119663797801 0 -0.0032943382228576407 -0.012298357629489002 0 -0.0038630274412221931 -0.013446891371202682 0 -0.0032943382228576407 -0.012298357629489002 0 -0.0027516116876160112 -0.012837009935982949 0 -0.0032943382228576407 -0.012298357629489002 0 -0.0027516116876160112 -0.012837009935982949 0 -0.002306517722915799 -0.011919829951909907 0 -0.0020546871586411722 -0.012490702285001326 0 -0.002306517722915799 -0.011919829951909907 0 -0.0015138113896219058 -0.012037616842755988 0 -0.0020546871586411722 -0.012490702285001326 0 -0.0027516116876160112 -0.012837009935982949 0 -0.002306517722915799 -0.011919829951909907 0 -0.0020546871586411722 -0.012490702285001326 0 -0.0021336476133934313 -0.013200656966609476 0 -0.0027516116876160112 -0.012837009935982949 0 -0.0029256670169285526 -0.013682078446220713 0 -0.0038630274412221931 -0.013446891371202682 0 -0.0027516116876160112 -0.012837009935982949 0 -0.0029256670169285526 -0.013682078446220713 0 -0.0021336476133934313 -0.013200656966609476 0 -0.0027516116876160112 -0.012837009935982949 0 -0.00039383636014569642 -0.017338492288442465 0 0.00015923050873699169 -0.016976344349404923 0 -0.00096161918173034847 -0.016853178498312391 0 -0.00014391896925073925 -0.01797839030971608 0 -0.00039383636014569642 -0.017338492288442465 0 0.00038569641452840839 -0.017411512274407202 0 -0.00039383636014569642 -0.017338492288442465 0 0.00038569641452840839 -0.017411512274407202 0 0.00015923050873699169 -0.016976344349404923 0 0.00038569641452840839 -0.017411512274407202 0 0.00015923050873699169 -0.016976344349404923 0 0.00058576117162572575 -0.017199866263772005 0 -0.001478398861942648 -0.016258260572536473 0 -0.0022206333465890457 -0.015845396518888877 0 -0.0030327381136690699 -0.015494639664200035 0 -0.005059929584264598 -0.014477254178352631 0 -0.0042950680516454414 -0.015872709327200699 0 -0.005059929584264598 -0.014477254178352631 0 -0.0050608454500323799 -0.014848232290709444 0 -0.0042950680516454414 -0.015872709327200699 0 0.00056853736492920234 -0.01736799463023422 0 0.00038569641452840839 -0.017411512274407202 0 0.00058576117162572575 -0.017199866263772005 0 0.00054946068840806416 -0.017205686466377074 0 0.00056853736492920234 -0.01736799463023422 0 0.00058576117162572575 -0.017199866263772005 0 0.00054946068840806416 -0.017205686466377074 0 0.00043693637244511443 -0.017061143191692541 0 0.00058576117162572575 -0.017199866263772005 0 -0.0045497751878081708 -0.014293531891178103 0 -0.005059929584264598 -0.014477254178352631 0 -0.0050608454500323799 -0.014848232290709444 0 -0.0045497751878081708 -0.014293531891178103 0 -0.0050608454500323799 -0.014848232290709444 0 -0.004707249470490448 -0.013986179037919252 0 -0.0050998035314466983 -0.014814935633357975 0 -0.0052489062959181669 -0.014900566222224118 0 -0.0050608454500323799 -0.014848232290709444 0 -0.004707249470490448 -0.013986179037919252 0 -0.004908502227885303 -0.013113759098320762 0 -0.0050608454500323799 -0.014848232290709444 0 -0.005739354536727935 -0.016827013774973362 0 -0.0048899026308693999 -0.016218627471206462 0 -0.005739354536727935 -0.016827013774973362 0 -0.0052720578358631106 -0.017753261951106152 0 -0.0060750237162170897 -0.018037627728221099 0 -0.005739354536727935 -0.016827013774973362 0 -0.0044646853120999565 -0.017280265757843489 0 -0.0048899026308693999 -0.016218627471206462 0 -0.005739354536727935 -0.016827013774973362 0 -0.0044646853120999565 -0.017280265757843489 0 -0.0052720578358631106 -0.017753261951106152 0 -0.0044646853120999565 -0.017280265757843489 0 -0.0042950680516454414 -0.015872709327200699 0 -0.0032974140790225123 -0.017127942665772691 0 -0.0044646853120999565 -0.017280265757843489 0 -0.0048899026308693999 -0.016218627471206462 0 -0.0042950680516454414 -0.015872709327200699 0 -0.0050608454500323799 -0.014848232290709444 0 -0.0048899026308693999 -0.016218627471206462 0 -0.0042950680516454414 -0.015872709327200699 0 -0.0030327381136690699 -0.015494639664200035 0 -0.0042950680516454414 -0.015872709327200699 0 -0.0032974140790225123 -0.017127942665772691 0 -0.0030327381136690699 -0.015494639664200035 0 -0.0032974140790225123 -0.017127942665772691 0 -0.0022787432895548907 -0.017026494133199226 0 -0.0032974140790225123 -0.017127942665772691 0 -0.0022787432895548907 -0.017026494133199226 0 -0.0028742721434269316 -0.018324468523051016 0 -0.0045118517803777103 -0.01714960682158655 0 -0.0028953620105523735 -0.018844872806453649 0 -0.0044646853120999565 -0.017280265757843489 0 -0.0032974140790225123 -0.017127942665772691 0 -0.0028742721434269316 -0.018324468523051016 0 -0.0038571262346647167 -0.019515513435037796 0 -0.0013863590548243497 -0.017926039945246955 0 -0.0012700504765725583 -0.01956192176801648 0 -0.0028953620105523735 -0.018844872806453649 0 -0.0016319590104202824 -0.018002358494820785 0 -0.0022787432895548907 -0.017026494133199226 0 -0.0028742721434269316 -0.018324468523051016 0 -0.0013863590548243497 -0.017926039945246955 0 -0.001478398861942648 -0.016258260572536473 0 -0.00098692026951280516 -0.0167640878665683 0 -0.0030327381136690699 -0.015494639664200035 0 -0.0022787432895548907 -0.017026494133199226 0 -0.00096161918173034847 -0.016853178498312391 0 -0.0022563933649106644 -0.020507289710454162 0 -0.00198365707957809 -0.020584538349841593 0 -0.00182689296385392 -0.020310649293743124 0 -0.0022722295685337294 -0.020039708507579645 0 -0.0022563933649106644 -0.020507289710454162 0 -0.00182689296385392 -0.020310649293743124 0 -0.0038571262346647167 -0.019515513435037796 0 -0.0012700504765725583 -0.01956192176801648 0 -0.001586467602722917 -0.020480124033618097 0 -0.0028953620105523735 -0.018844872806453649 0 -0.0017368547939084389 -0.020532103630206876 0 -0.0022722295685337294 -0.020039708507579645 0 -0.0022563933649106644 -0.020507289710454162 0 -0.0027172355286863618 -0.020256479716198629 0 -0.0022563933649106644 -0.020507289710454162 0 -0.0027172355286863618 -0.020256479716198629 0 -0.0026988657633245997 -0.020701718894986319 0 -0.0044646853120999565 -0.017280265757843489 0 -0.0047470690470836742 -0.018661072979192398 0 -0.0052720578358631106 -0.017753261951106152 0 -0.0044646853120999565 -0.017280265757843489 0 -0.0032876853610572239 -0.017955062606421941 0 -0.0047470690470836742 -0.018661072979192398 0 -0.0028953620105523735 -0.018844872806453649 0 -0.0041397756018725224 -0.0199336365116204 0 -0.0047470690470836742 -0.018661072979192398 0 -0.0052720578358631106 -0.017753261951106152 0 -0.0060750237162170897 -0.018037627728221099 0 -0.0041397756018725224 -0.0199336365116204 0 -0.0029356942988073226 -0.017174678042719119 0 -0.0027172355286863618 -0.020256479716198629 0 -0.0026988657633245997 -0.020701718894986319 0 -0.0031403772687758113 -0.020437396844721029 0 -0.0047470690470836742 -0.018661072979192398 0 -0.0060750237162170897 -0.018037627728221099 0 -0.0061069187018430232 -0.019278145771025899 0 -6.0314482717873187e-05 -0.012693977858249108 0 0.00027226705448351706 -0.012883769215124801 0 0.00025746660563692075 -0.012666334734708058 0 -0.0010817079071594748 -0.016668295838749625 0 -0.0029356942988073226 -0.017174678042719119 0 -6.0314482717873187e-05 -0.012693977858249108 0 0.00025746660563692075 -0.012666334734708058 0 0.0002167401063819429 -0.012454896323314322 0 -6.0314482717873187e-05 -0.012693977858249108 0 0.0002167401063819429 -0.012454896323314322 0 -8.7626379628393395e-05 -0.012347162488267565 0 -6.0314482717873187e-05 -0.012693977858249108 0 -0.00038281665053849798 -0.012535719735506179 0 -8.7626379628393395e-05 -0.012347162488267565 0 -0.0022563933649106644 -0.020507289710454162 0 -0.0026988657633245997 -0.020701718894986319 0 -0.0022334558761542512 -0.02097334731686144 0 -0.0010817079071594748 -0.016668295838749625 0 -0.0013701667124579279 -0.016786729781953058 0 -0.0022334558761542512 -0.02097334731686144 0 -0.0017897143718983556 -0.020819900387035746 0 -0.0017866448819383652 -0.021204840885044381 0 -0.0022563933649106644 -0.020507289710454162 0 -0.0022334558761542512 -0.02097334731686144 0 -0.00198365707957809 -0.020584538349841593 0 -0.0022334558761542512 -0.02097334731686144 0 -0.00198365707957809 -0.020584538349841593 0 -0.0017897143718983556 -0.020819900387035746 0 -0.0029788652419272376 -0.01072735721657034 0 -0.0029777597615286483 -0.011499943354257124 0 -0.0033040018147737064 -0.011164333232158053 0 -0.0029788652419272376 -0.01072735721657034 0 -0.0021645548371917655 -0.011090572492022362 0 -0.0029777597615286483 -0.011499943354257124 0 -0.0029788652419272376 -0.01072735721657034 0 -0.0021645548371917655 -0.011090572492022362 0 -0.001944957622171419 -0.010337485357361941 0 -0.0021645548371917655 -0.011090572492022362 0 -0.002306517722915799 -0.011919829951909907 0 -0.0016018813114230368 -0.01144101360288571 0 -0.0021645548371917655 -0.011090572492022362 0 -0.002306517722915799 -0.011919829951909907 0 -0.0029777597615286483 -0.011499943354257124 0 -0.0032943382228576407 -0.012298357629489002 0 -0.002306517722915799 -0.011919829951909907 0 -0.0029777597615286483 -0.011499943354257124 0 -0.0040208139663219771 -0.012570119663797801 0 -0.0032943382228576407 -0.012298357629489002 0 -0.0036636003587940586 -0.011647554768298958 0 -0.0032943382228576407 -0.012298357629489002 0 -0.0029777597615286483 -0.011499943354257124 0 -0.0036636003587940586 -0.011647554768298958 0 -0.0029777597615286483 -0.011499943354257124 0 -0.0036636003587940586 -0.011647554768298958 0 -0.0033040018147737064 -0.011164333232158053 0 -0.0036636003587940586 -0.011647554768298958 0 -0.0044838027576683112 -0.011966102724026205 0 -0.0039990657686358073 -0.010966569594906142 0 -0.0040208139663219771 -0.012570119663797801 0 -0.0036636003587940586 -0.011647554768298958 0 -0.0044838027576683112 -0.011966102724026205 0 -0.0060750237162170897 -0.018037627728221099 0 -0.0065061624429710039 -0.019054903545853406 0 -0.0061069187018430232 -0.019278145771025899 0 -0.0054494427444986048 -0.015169142711899921 0 -0.003810851950511483 -0.014449774368140777 0 -0.003810851950511483 -0.014449774368140777 0 -0.0029356942988073226 -0.017174678042719119 0 -0.002263725803165651 -0.01573037641464577 0 -0.0036163027213415942 -0.015043198954659861 0 -0.001382359194316878 -0.01387857046310054 0 -0.0036636003587940586 -0.011647554768298958 0 -0.0033040018147737064 -0.011164333232158053 0 -0.003692905946763751 -0.01111194884335393 0 -0.0036636003587940586 -0.011647554768298958 0 -0.0039990657686358073 -0.010966569594906142 0 -0.003692905946763751 -0.01111194884335393 0 -0.0039572758298976503 -0.010978996185712259 0 -0.003692905946763751 -0.01111194884335393 0 -0.0035221941484984741 -0.010892673017076844 0 -0.003810851950511483 -0.014449774368140777 0 -0.00075246759279588783 -0.012507157005923759 0 -0.0039572758298976503 -0.010978996185712259 0 -0.0035221941484984741 -0.010892673017076844 0 -0.003711064628488098 -0.010491654460949264 0 -0.003810851950511483 -0.014449774368140777 0 -0.0044479003962079452 -0.012904022681787156 0 -0.0033040018147737064 -0.011164333232158053 0 -0.003692905946763751 -0.01111194884335393 0 -0.0035221941484984741 -0.010892673017076844 0 -0.0029788652419272376 -0.01072735721657034 0 -0.0033040018147737064 -0.011164333232158053 0 -0.0035221941484984741 -0.010892673017076844 0 -0.0029788652419272376 -0.01072735721657034 0 -0.0035221941484984741 -0.010892673017076844 0 -0.003711064628488098 -0.010491654460949264 0 0.00027226705448351706 -0.012883769215124801 0 0.00047267803627379357 -0.012774669207784006 0 0.00025746660563692075 -0.012666334734708058 0 -0.0029356942988073226 -0.017174678042719119 0 -0.00075246759279588783 -0.012507157005923759 0 0.00047267803627379357 -0.012774669207784006 0 0.00025746660563692075 -0.012666334734708058 0 0.00041237304394023112 -0.01252914550265383 0 0.00041237304394023112 -0.01252914550265383 0 0.0002167401063819429 -0.012454896323314322 0 0.00044319932787331874 -0.01230347709033848 0 0.00025746660563692075 -0.012666334734708058 0 0.00041237304394023112 -0.01252914550265383 0 0.0002167401063819429 -0.012454896323314322 0 0.0004573131270478624 -0.012714567323742902 0 0.000621920764417459 -0.012419507742065137 0 0.00080519486965572153 -0.012538662008987534 0 0.00047267803627379357 -0.012774669207784006 0 0.00041237304394023112 -0.01252914550265383 0 0.000621920764417459 -0.012419507742065137 0 -0.00075246759279588783 -0.012507157005923759 0 0.00086066862527716856 -0.012423372748059146 0 0.00041237304394023112 -0.01252914550265383 0 0.000621920764417459 -0.012419507742065137 0 0.00044319932787331874 -0.01230347709033848 0 0.000621920764417459 -0.012419507742065137 0 0.00080519486965572153 -0.012538662008987534 0 0.00084794397867771697 -0.01229883479579142 0 -0.00075246759279588783 -0.012507157005923759 0 -0.0010687067327109212 -0.011188002169415843 0 -0.0029788652419272376 -0.01072735721657034 0 -0.0026667773032986787 -0.0099659086995321916 0 -0.001944957622171419 -0.010337485357361941 0 -0.0029788652419272376 -0.01072735721657034 0 -0.003711064628488098 -0.010491654460949264 0 -0.0026667773032986787 -0.0099659086995321916 0 0.00080519486965572153 -0.012538662008987534 0 0.0011405011875301029 -0.012347053110890077 0 0.00084794397867771697 -0.01229883479579142 0 -0.0010687067327109212 -0.011188002169415843 0 -0.00030542832178413585 -0.010729254754217012 0 -0.0026667773032986787 -0.0099659086995321916 0 -0.001944957622171419 -0.010337485357361941 0 -0.0016973443618614977 -0.0094929213124793979 0 -0.001944957622171419 -0.010337485357361941 0 -0.0016973443618614977 -0.0094929213124793979 0 -0.001150278688867498 -0.010209889378428805 0 -0.00030542832178413585 -0.010729254754217012 0 -0.0012321562124094987 -0.0097414757070694736 0 -0.0011645483135256233 -0.0094114427703810739 0 -0.00067428642134367172 -0.0095096851937078973 0 -0.00085279709106166448 -0.0098261197175655898 0 -0.0011645483135256233 -0.0094114427703810739 0 -0.00067428642134367172 -0.0095096851937078973 0 -0.00082622638289571687 -0.0092308373639322025 0 -0.0012321562124094987 -0.0097414757070694736 0 -0.00052236730865227847 -0.010655928371709936 0 -0.00067428642134367172 -0.0095096851937078973 0 -0.00085279709106166448 -0.0098261197175655898 0 -0.00049183141131999421 -0.0098992490734927611 0 -0.00085279709106166448 -0.0098261197175655898 0 -0.00055085805150773286 -0.010318779529551523 0 -0.00049183141131999421 -0.0098992490734927611 0 -0.001944957622171419 -0.010337485357361941 0 -0.001150278688867498 -0.010209889378428805 0 -0.0012654172767112154 -0.010836983152337087 0 -0.0021645548371917655 -0.011090572492022362 0 -0.0012654172767112154 -0.010836983152337087 0 -0.0016018813114230368 -0.01144101360288571 0 -0.0021645548371917655 -0.011090572492022362 0 -0.001944957622171419 -0.010337485357361941 0 -0.0012654172767112154 -0.010836983152337087 0 -0.0012654172767112154 -0.010836983152337087 0 -0.00083536495801739882 -0.011434111355183617 0 -0.00063687833526257878 -0.010837685833829091 0 -0.001150278688867498 -0.010209889378428805 0 -0.0012654172767112154 -0.010836983152337087 0 -0.00063687833526257878 -0.010837685833829091 0 -0.0012654172767112154 -0.010836983152337087 0 -0.00083536495801739882 -0.011434111355183617 0 -0.0016018813114230368 -0.01144101360288571 0 -0.002306517722915799 -0.011919829951909907 0 -0.0016018813114230368 -0.01144101360288571 0 -0.0015138113896219058 -0.012037616842755988 0 -0.00083536495801739882 -0.011434111355183617 0 -0.0016018813114230368 -0.01144101360288571 0 -0.0015138113896219058 -0.012037616842755988 0 0.00027757200488297902 -0.01061085829297692 0 -9.2969771549746534e-05 -0.011160534309536849 0 -0.00012027951474106034 -0.010378091100018029 0 -9.2969771549746534e-05 -0.011160534309536849 0 0.00056084020173735377 -0.011170520050220265 0 8.648400672284283e-05 -0.011571852324632731 0 0.00027757200488297902 -0.01061085829297692 0 -9.2969771549746534e-05 -0.011160534309536849 0 0.00056084020173735377 -0.011170520050220265 0 0.00027757200488297902 -0.01061085829297692 0 0.00066619874251373052 -0.010344826008956386 0 0.00056084020173735377 -0.011170520050220265 0 -0.00013894803040016964 -0.011116317331773673 0 -0.00052236730865227847 -0.010655928371709936 0 -0.00083536495801739882 -0.011434111355183617 0 -9.2969771549746534e-05 -0.011160534309536849 0 -0.00032678917372504001 -0.011877872836961168 0 -0.00083536495801739882 -0.011434111355183617 0 -9.2969771549746534e-05 -0.011160534309536849 0 -0.00063687833526257878 -0.010837685833829091 0 -9.2969771549746534e-05 -0.011160534309536849 0 -0.00012027951474106034 -0.010378091100018029 0 -0.00055085805150773286 -0.010318779529551523 0 -0.00012027951474106034 -0.010378091100018029 0 -0.00055085805150773286 -0.010318779529551523 0 -6.6193104996310658e-05 -0.0099935251292180803 0 0.00025824481126317239 -0.010555305780388585 0 4.9720579186146273e-05 -0.0099817320577979367 0 0.00027757200488297902 -0.01061085829297692 0 -0.00012027951474106034 -0.010378091100018029 0 -6.6193104996310658e-05 -0.0099935251292180803 0 0.00027757200488297902 -0.01061085829297692 0 0.00048746957027047844 -0.010037138324263241 0 0.00012905972387312846 -0.009859338650388837 0 0.00027757200488297902 -0.01061085829297692 0 0.00048746957027047844 -0.010037138324263241 0 0.00066619874251373052 -0.010344826008956386 0 0.0004655611106121121 -0.0095903735497708878 0 0.00012905972387312846 -0.009859338650388837 0 2.0258782871484879e-06 -0.0093772709463301115 0 0.00048746957027047844 -0.010037138324263241 0 0.0004655611106121121 -0.0095903735497708878 0 0.00012905972387312846 -0.009859338650388837 0 4.9720579186146273e-05 -0.0099817320577979367 0 -0.00018951093647442288 -0.0093147990686861873 0 -6.6193104996310658e-05 -0.0099935251292180803 0 -0.00049183141131999421 -0.0098992490734927611 0 -0.00030596020637767074 -0.0095055381933801756 0 -0.00055085805150773286 -0.010318779529551523 0 -6.6193104996310658e-05 -0.0099935251292180803 0 -0.00049183141131999421 -0.0098992490734927611 0 -0.00067428642134367172 -0.0095096851937078973 0 -0.00049183141131999421 -0.0098992490734927611 0 -0.00030596020637767074 -0.0095055381933801756 0 -0.00067428642134367172 -0.0095096851937078973 0 -0.00030596020637767074 -0.0095055381933801756 0 -0.00048339939177482756 -0.0090510011738307531 0 0.0004655611106121121 -0.0095903735497708878 0 2.0258782871484879e-06 -0.0093772709463301115 0 0.0004161673499589808 -0.009147256686680573 0 0.0004655611106121121 -0.0095903735497708878 0 0.00085890053472435779 -0.0094528535553782354 0 0.0004161673499589808 -0.009147256686680573 0 0.00085890053472435779 -0.0094528535553782354 0 0.0012585485678433979 -0.0096049333962829157 0 0.0011765643443377399 -0.0091970113347713076 0 0.00085890053472435779 -0.0094528535553782354 0 0.001066770493287344 -0.0097718955215189644 0 0.0012585485678433979 -0.0096049333962829157 0 0.001066770493287344 -0.0097718955215189644 0 0.0012585485678433979 -0.0096049333962829157 0 0.0012906513407042906 -0.010030079212221 0 0.001066770493287344 -0.0097718955215189644 0 0.0008202866446299585 -0.0099467255231812032 0 0.0012906513407042906 -0.010030079212221 0 0.00048746957027047844 -0.010037138324263241 0 0.0004655611106121121 -0.0095903735497708878 0 0.0008202866446299585 -0.0099467255231812032 0 0.00085890053472435779 -0.0094528535553782354 0 0.001066770493287344 -0.0097718955215189644 0 0.0008202866446299585 -0.0099467255231812032 0 0.0004655611106121121 -0.0095903735497708878 0 0.00085890053472435779 -0.0094528535553782354 0 0.0008202866446299585 -0.0099467255231812032 0 0.0015322437271926414 -0.0093530899170091112 0 0.0012585485678433979 -0.0096049333962829157 0 0.0011765643443377399 -0.0091970113347713076 0 0.0015322437271926414 -0.0093530899170091112 0 0.0012585485678433979 -0.0096049333962829157 0 0.0014799736833831982 -0.0096978102587423082 0 0.0012585485678433979 -0.0096049333962829157 0 0.0014799736833831982 -0.0096978102587423082 0 0.0012906513407042906 -0.010030079212221 0 0.0014799736833831982 -0.0096978102587423082 0 0.0015135986531084073 -0.0099047808523397562 0 0.0016244024150098846 -0.0096824940060526912 0 0.0015322437271926414 -0.0093530899170091112 0 0.0014799736833831982 -0.0096978102587423082 0 0.0016244024150098846 -0.0096824940060526912 0 0.0015135986531084073 -0.0099047808523397562 0 0.0014698163421744904 -0.010136006545786424 0 0.0012906513407042906 -0.010030079212221 0 0.0014799736833831982 -0.0096978102587423082 0 0.0015135986531084073 -0.0099047808523397562 0 0.0012906513407042906 -0.010030079212221 0 0.0014698163421744904 -0.010136006545786424 0 0.0012906513407042906 -0.010030079212221 0 0.0013365993574144881 -0.010529447952340534 0 0.0015135986531084073 -0.0099047808523397562 0 0.001398007775272928 -0.0096548477850067118 0 0.0015957127705370901 -0.0098476303596221233 0 0.0014698163421744904 -0.010136006545786424 0 0.001398007775272928 -0.0096548477850067118 0 0.0014523299062168915 -0.0098456259768627506 0 0.0015135986531084073 -0.0099047808523397562 0 0.0014698163421744904 -0.010136006545786424 0 0.001398007775272928 -0.0096548477850067118 0 0.0008202866446299585 -0.0099467255231812032 0 0.00066619874251373052 -0.010344826008956386 0 0.0010029671140560326 -0.010496860272664603 0 0.00048746957027047844 -0.010037138324263241 0 0.0008202866446299585 -0.0099467255231812032 0 0.00066619874251373052 -0.010344826008956386 0 0.0008202866446299585 -0.0099467255231812032 0 0.0012906513407042906 -0.010030079212221 0 0.0010029671140560326 -0.010496860272664603 0 0.0013365993574144881 -0.010529447952340534 0 0.0010029671140560326 -0.010496860272664603 0 0.0011384812213784481 -0.011396137395664398 0 0.0012906513407042906 -0.010030079212221 0 0.0013365993574144881 -0.010529447952340534 0 0.0010029671140560326 -0.010496860272664603 0 0.00066619874251373052 -0.010344826008956386 0 0.00056084020173735377 -0.011170520050220265 0 0.0010029671140560326 -0.010496860272664603 0 0.00056084020173735377 -0.011170520050220265 0 0.0010029671140560326 -0.010496860272664603 0 0.0011384812213784481 -0.011396137395664398 0 0.00056084020173735377 -0.011170520050220265 0 0.0011384812213784481 -0.011396137395664398 0 0.00078602708069262805 -0.012234739503938415 0 0.0013365993574144881 -0.010529447952340534 0 0.0011384812213784481 -0.011396137395664398 0 0.0014716506751364627 -0.010345096537956903 0 0.0011084887083429625 -0.011286004513444943 0 0.0017865235322060472 -0.011130232993776091 0 0.0011384812213784481 -0.011396137395664398 0 0.0015132460838740477 -0.01261731492801129 0 0.00220019718226845 -0.011803296235512233 0 0.0015132460838740477 -0.01261731492801129 0 0.00078602708069262805 -0.012234739503938415 0 0.00049952516664773978 -0.013089699358620987 0 0.0011384812213784481 -0.011396137395664398 0 0.0015132460838740477 -0.01261731492801129 0 0.00078602708069262805 -0.012234739503938415 0 0.0014333249823518959 -0.0095824198805895995 0 0.0014523299062168915 -0.0098456259768627506 0 0.0014716506751364627 -0.010345096537956903 0 0.0014333249823518959 -0.0095824198805895995 0 0.0014313983255053158 -0.0095947813864100048 0 0.0014523299062168915 -0.0098456259768627506 0 0.0014172108407599301 -0.0095348986780128542 0 0.0014313983255053158 -0.0095947813864100048 0 0.0013966091221178421 -0.0095208720633162304 0 0.0021033760088032152 -0.010139551643839995 0 0.0020380492120515713 -0.0099711310352825315 0 0.0014313983255053158 -0.0095947813864100048 0 0.0014182452260502606 -0.0096516533871567126 0 0.0014523299062168915 -0.0098456259768627506 0 0.0014313983255053158 -0.0095947813864100048 0 0.0013966091221178421 -0.0095208720633162304 0 0.0014182452260502606 -0.0096516533871567126 0 0.001398007775272928 -0.0096548477850067118 0 0.0014182452260502606 -0.0096516533871567126 0 0.0014523299062168915 -0.0098456259768627506 0 0.001398007775272928 -0.0096548477850067118 0 0.0013966091221178421 -0.0095208720633162304 0 0.0014182452260502606 -0.0096516533871567126 0 0.0014698163421744904 -0.010136006545786424 0 0.0013365993574144881 -0.010529447952340534 0 0.0014716506751364627 -0.010345096537956903 0 0.0014698163421744904 -0.010136006545786424 0 0.0014523299062168915 -0.0098456259768627506 0 0.0014716506751364627 -0.010345096537956903 0 0.0021033760088032152 -0.010139551643839995 0 0.0017865235322060472 -0.011130232993776091 0 0.0030742203889352077 -0.011995769492770767 0 0.00220019718226845 -0.011803296235512233 0 0.00250425313867618 -0.012597228413468275 0 0.0015132460838740477 -0.01261731492801129 0 0.00220019718226845 -0.011803296235512233 0 0.00250425313867618 -0.012597228413468275 0 0.0030742203889352077 -0.011995769492770767 0 0.00250425313867618 -0.012597228413468275 0 0.0030682409433971844 -0.012905802866258516 0 0.0021033760088032152 -0.010139551643839995 0 0.0023539366633340466 -0.010984562376187931 0 0.00250425313867618 -0.012597228413468275 0 0.0030682409433971844 -0.012905802866258516 0 0.0026110048568885351 -0.013435629449850278 0 0.00250425313867618 -0.012597228413468275 0 0.002067675908178974 -0.013231561433910617 0 0.0026110048568885351 -0.013435629449850278 0 0.0015132460838740477 -0.01261731492801129 0 0.00250425313867618 -0.012597228413468275 0 0.002067675908178974 -0.013231561433910617 0 0.0026106581463852586 -0.013920060566867967 0 0.0022017884883926866 -0.013778603334226786 0 0.0026110048568885351 -0.013435629449850278 0 0.002067675908178974 -0.013231561433910617 0 0.0022017884883926866 -0.013778603334226786 0 0.0026110048568885351 -0.013435629449850278 0 0.0023539366633340466 -0.010984562376187931 0 0.00194735871853135 -0.010072413490510957 0 0.0030682409433971844 -0.012905802866258516 0 0.0026110048568885351 -0.013435629449850278 0 0.0030050433136951551 -0.013728873130076116 0 0.0026106581463852586 -0.013920060566867967 0 0.0026110048568885351 -0.013435629449850278 0 0.0030050433136951551 -0.013728873130076116 0 0.0018654749217348831 -0.012816564695951245 0 0.00194735871853135 -0.010072413490510957 0 0.0015132460838740477 -0.01261731492801129 0 0.0011997283246934682 -0.01368523119355216 0 0.00049952516664773978 -0.013089699358620987 0 0.0015132460838740477 -0.01261731492801129 0 0.002067675908178974 -0.013231561433910617 0 0.0011997283246934682 -0.01368523119355216 0 0.001812499323906821 -0.014089649722785633 0 0.0022017884883926866 -0.013778603334226786 0 0.0011997283246934682 -0.01368523119355216 0 0.0014123770207163935 -0.014161561798818615 0 0.0012140696989282732 -0.013754514826685287 0 0.002067675908178974 -0.013231561433910617 0 0.0022017884883926866 -0.013778603334226786 0 0.0011997283246934682 -0.01368523119355216 0 0.0011997283246934682 -0.01368523119355216 0 0.00074824434640347341 -0.014240396179638262 0 0.00049952516664773978 -0.013089699358620987 0 0.0011897106323344099 -0.014589922707287713 0 0.0011997283246934682 -0.01368523119355216 0 0.00074824434640347341 -0.014240396179638262 0 0.00074824434640347341 -0.014240396179638262 0 0.00023330370421036222 -0.014199003724311961 0 0.00049952516664773978 -0.013089699358620987 0 0.00062424562499058419 -0.014816139404423424 0 0.00074824434640347341 -0.014240396179638262 0 0.00023330370421036222 -0.014199003724311961 0 0.00049952516664773978 -0.013089699358620987 0 -0.00018384609352021771 -0.013334329416784023 0 -0.00025114195571754907 -0.012595122025487857 0 0.00023330370421036222 -0.014199003724311961 0 0.00049952516664773978 -0.013089699358620987 0 -0.00018384609352021771 -0.013334329416784023 0 -0.00018384609352021771 -0.013334329416784023 0 -0.00064747725086957211 -0.013975536979939104 0 -0.00081654303688839293 -0.013035650450281966 0 1.2190511444245225e-05 -0.015194204476392156 0 0.00023330370421036222 -0.014199003724311961 0 -0.00064747725086957211 -0.013975536979939104 0 0.00023330370421036222 -0.014199003724311961 0 -0.00018384609352021771 -0.013334329416784023 0 -0.00064747725086957211 -0.013975536979939104 0 -0.0015755671718051712 -0.014823728419384416 0 -0.00064747725086957211 -0.013975536979939104 0 -0.0014866317164725993 -0.013611528358130901 0 -0.0015755671718051712 -0.014823728419384416 0 1.2190511444245225e-05 -0.015194204476392156 0 -0.00064747725086957211 -0.013975536979939104 0 -0.0015755671718051712 -0.014823728419384416 0 -0.0021780859872587979 -0.014006441632446645 0 -0.0014866317164725993 -0.013611528358130901 0 -0.0021780859872587979 -0.014006441632446645 0 -0.0021336476133934313 -0.013200656966609476 0 -0.0014866317164725993 -0.013611528358130901 0 -0.00064747725086957211 -0.013975536979939104 0 -0.0014866317164725993 -0.013611528358130901 0 -0.00081654303688839293 -0.013035650450281966 0 -0.00081654303688839293 -0.013035650450281966 0 -0.0014682165649537143 -0.012749156505574991 0 -0.00086320571904140381 -0.012208698722061545 0 -0.0014866317164725993 -0.013611528358130901 0 -0.00081654303688839293 -0.013035650450281966 0 -0.0014682165649537143 -0.012749156505574991 0 -0.0021336476133934313 -0.013200656966609476 0 -0.0014866317164725993 -0.013611528358130901 0 -0.0014682165649537143 -0.012749156505574991 0 -0.0020546871586411722 -0.012490702285001326 0 -0.0021336476133934313 -0.013200656966609476 0 -0.0014682165649537143 -0.012749156505574991 0 -0.0020546871586411722 -0.012490702285001326 0 -0.0014682165649537143 -0.012749156505574991 0 -0.0015138113896219058 -0.012037616842755988 0 -0.00083536495801739882 -0.011434111355183617 0 -0.0015138113896219058 -0.012037616842755988 0 -0.00086320571904140381 -0.012208698722061545 0 -0.0014682165649537143 -0.012749156505574991 0 -0.0015138113896219058 -0.012037616842755988 0 -0.00086320571904140381 -0.012208698722061545 0 -0.00083536495801739882 -0.011434111355183617 0 -0.00086320571904140381 -0.012208698722061545 0 -0.00032678917372504001 -0.011877872836961168 0 -0.00086320571904140381 -0.012208698722061545 0 -0.00032678917372504001 -0.011877872836961168 0 -0.00025114195571754907 -0.012595122025487857 0 -0.00032678917372504001 -0.011877872836961168 0 0.00023302294373558246 -0.012097458123654642 0 -0.00025114195571754907 -0.012595122025487857 0 -9.2969771549746534e-05 -0.011160534309536849 0 -0.00032678917372504001 -0.011877872836961168 0 8.648400672284283e-05 -0.011571852324632731 0 0.00056084020173735377 -0.011170520050220265 0 8.648400672284283e-05 -0.011571852324632731 0 0.00023302294373558246 -0.012097458123654642 0 0.00056084020173735377 -0.011170520050220265 0 0.00078602708069262805 -0.012234739503938415 0 0.00023302294373558246 -0.012097458123654642 0 -0.00032678917372504001 -0.011877872836961168 0 8.648400672284283e-05 -0.011571852324632731 0 0.00023302294373558246 -0.012097458123654642 0 0.00049952516664773978 -0.013089699358620987 0 0.00023302294373558246 -0.012097458123654642 0 -0.00025114195571754907 -0.012595122025487857 0 0.00078602708069262805 -0.012234739503938415 0 0.00049952516664773978 -0.013089699358620987 0 0.00023302294373558246 -0.012097458123654642 0 -0.00081654303688839293 -0.013035650450281966 0 -0.00086320571904140381 -0.012208698722061545 0 -0.00025114195571754907 -0.012595122025487857 0 -0.00018384609352021771 -0.013334329416784023 0 -0.00081654303688839293 -0.013035650450281966 0 -0.00025114195571754907 -0.012595122025487857 0 6.0234507007079123e-06 -0.024461476656931727 0 5.4460039843009221e-06 -0.024477513502155848 0 9.0038074128197417e-09 -0.024999385263010616 0 5.4460039843009221e-06 -0.024477513502155848 0 1.0686598054628699e-05 -0.024733118269339483 0 -9.6818558860073385e-06 -0.024526727156513519 0 5.4460039843009221e-06 -0.024477513502155848 0 -9.6818558860073385e-06 -0.024526727156513519 0 -4.8773544567611506e-05 -0.024272419247035833 0 2.1290063319046571e-06 -0.024428186888223919 0 5.4460039843009221e-06 -0.024477513502155848 0 -4.8773544567611506e-05 -0.024272419247035833 0 0.00012170533826754985 -0.024228662908878075 0 0.00012434932122904171 -0.024250044472560194 0 -4.6755984572294044e-05 -0.025093388691151533 0 1.6456478797367865e-07 -0.025000088366339775 0 1.3518676317118354e-06 -0.02499754172389472 0 9.0038074128197417e-09 -0.024999385263010616 0 1.0686598054628699e-05 -0.024733118269339483 0 5.7611856700322666e-08 -0.024999686223921368 0 5.4460039843009221e-06 -0.024477513502155848 0 9.0038074128197417e-09 -0.024999385263010616 0 1.0686598054628699e-05 -0.024733118269339483 0 0.00012170533826754985 -0.024228662908878075 0 -3.6561943053140672e-07 -0.025000124754789983 0 1.0686598054628699e-05 -0.024733118269339483 0 5.7611856700322666e-08 -0.024999686223921368 0 2.4881210485199593e-06 -0.0247289779251985 0 2.4881210485199593e-06 -0.0247289779251985 0 -9.6818558860073385e-06 -0.024526727156513519 0 -3.0568266444257373e-05 -0.024604329909828096 0 1.0686598054628699e-05 -0.024733118269339483 0 2.4881210485199593e-06 -0.0247289779251985 0 -9.6818558860073385e-06 -0.024526727156513519 0 -9.6818558860073385e-06 -0.024526727156513519 0 -7.0722432244815534e-05 -0.024387892260655571 0 -4.8773544567611506e-05 -0.024272419247035833 0 -9.6818558860073385e-06 -0.024526727156513519 0 -3.0568266444257373e-05 -0.024604329909828096 0 -7.0722432244815534e-05 -0.024387892260655571 0 -3.0568266444257373e-05 -0.024604329909828096 0 -0.00016784364819948875 -0.02435658886364447 0 -7.0722432244815534e-05 -0.024387892260655571 0 -0.00016784364819948875 -0.02435658886364447 0 -0.00018642915048751286 -0.024067471774150626 0 -7.0722432244815534e-05 -0.024387892260655571 0 -0.00018642915048751286 -0.024067471774150626 0 -0.00036907401528126464 -0.024155512937065075 0 -0.00062451050717541646 -0.023662052738341065 0 -0.00016784364819948875 -0.02435658886364447 0 -0.00018642915048751286 -0.024067471774150626 0 -0.00036907401528126464 -0.024155512937065075 0 -0.00042651422262192634 -0.023522969432266103 0 -0.00011331779969236368 -0.023678593940173111 0 -0.00018642915048751286 -0.024067471774150626 0 -0.00042141599042841952 -0.023434793981895997 0 -0.00062451050717541646 -0.023662052738341065 0 -0.00018642915048751286 -0.024067471774150626 0 -0.00042141599042841952 -0.023434793981895997 0 -0.00011771126842123133 -0.023975924156779967 0 0.00012170533826754985 -0.024228662908878075 0 -0.00011331779969236368 -0.023678593940173111 0 2.1290063319046571e-06 -0.024428186888223919 0 -4.8773544567611506e-05 -0.024272419247035833 0 -0.00011771126842123133 -0.023975924156779967 0 -0.00018642915048751286 -0.024067471774150626 0 -7.0722432244815534e-05 -0.024387892260655571 0 -4.8773544567611506e-05 -0.024272419247035833 0 -0.00018642915048751286 -0.024067471774150626 0 -4.8773544567611506e-05 -0.024272419247035833 0 -0.00011771126842123133 -0.023975924156779967 0 -2.6826835445789968e-05 -0.023358782808280541 0 -0.00025204222874556124 -0.023010008912238297 0 4.9346779199029969e-08 -0.022680842052378778 0 0.00044271281799036902 -0.023360785436163368 0 -2.6826835445789968e-05 -0.023358782808280541 0 4.9346779199029969e-08 -0.022680842052378778 0 -0.00042141599042841952 -0.023434793981895997 0 -0.00058919759006357327 -0.022657995375684338 0 -0.00079711876602193261 -0.022967354845253491 0 -0.00042141599042841952 -0.023434793981895997 0 -2.6826835445789968e-05 -0.023358782808280541 0 -0.00025204222874556124 -0.023010008912238297 0 -0.00042141599042841952 -0.023434793981895997 0 -0.00025204222874556124 -0.023010008912238297 0 -0.00058919759006357327 -0.022657995375684338 0 -0.00025204222874556124 -0.023010008912238297 0 -0.00058919759006357327 -0.022657995375684338 0 4.9346779199029969e-08 -0.022680842052378778 0 -0.00058919759006357327 -0.022657995375684338 0 4.9346779199029969e-08 -0.022680842052378778 0 -0.00058875920931101178 -0.022152285013919998 0 -0.00058919759006357327 -0.022657995375684338 0 -0.00058875920931101178 -0.022152285013919998 0 -0.00088642788594405278 -0.022217676094562273 0 -0.00020219856534684419 -0.023713863875673889 0 -0.00074657089477393865 -0.022877516314764371 0 -0.00041979086274259613 -0.024757990141749352 0 0.00015020700650920081 -0.024742313871733944 0 -0.00021703416162557155 -0.02401340716518386 0 -0.00041979086274259613 -0.024757990141749352 0 0.00015020700650920081 -0.024742313871733944 0 -8.9916315043135064e-05 -0.024914752979667446 0 0.00015020700650920081 -0.024742313871733944 0 -8.9916315043135064e-05 -0.024914752979667446 0 5.8342017657244466e-05 -0.024923249078272328 0 0.00012170533826754985 -0.024228662908878075 0 -0.00020219856534684419 -0.023713863875673889 0 -4.6755984572294044e-05 -0.025093388691151533 0 -0.00041979086274259613 -0.024757990141749352 0 -8.9916315043135064e-05 -0.024914752979667446 0 -8.9916315043135064e-05 -0.024914752979667446 0 1.3518676317118354e-06 -0.02499754172389472 0 5.8342017657244466e-05 -0.024923249078272328 0 -4.6755984572294044e-05 -0.025093388691151533 0 -8.9916315043135064e-05 -0.024914752979667446 0 1.3518676317118354e-06 -0.02499754172389472 0 1.6456478797367865e-07 -0.025000088366339775 0 5.8342017657244466e-05 -0.024923249078272328 0 5.5932257001554954e-08 -0.024999556860441467 0 1.6456478797367865e-07 -0.025000088366339775 0 1.3518676317118354e-06 -0.02499754172389472 0 5.8342017657244466e-05 -0.024923249078272328 0 0.00015020700650920081 -0.024742313871733944 0 5.8342017657244466e-05 -0.024923249078272328 0 5.5932257001554954e-08 -0.024999556860441467 0 0.00015020700650920081 -0.024742313871733944 0 5.5932257001554954e-08 -0.024999556860441467 0 2.4621988822706499e-05 -0.024962754135448632 0 5.5932257001554954e-08 -0.024999556860441467 0 2.4621988822706499e-05 -0.024962754135448632 0 1.5037022803429208e-08 -0.02500007601035319 0 0.00015020700650920081 -0.024742313871733944 0 2.4621988822706499e-05 -0.024962754135448632 0 6.759391984625681e-05 -0.025007408929786885 0 0.00016155608731028745 -0.024648670211840234 0 0.00011783328386977939 -0.024086517577995115 0 0.00015020700650920081 -0.024742313871733944 0 0.00020755290649400183 -0.023089877518207073 0 -0.00021703416162557155 -0.02401340716518386 0 2.4621988822706499e-05 -0.024962754135448632 0 6.759391984625681e-05 -0.025007408929786885 0 1.5037022803429208e-08 -0.02500007601035319 0 6.759391984625681e-05 -0.025007408929786885 0 1.5037022803429208e-08 -0.02500007601035319 0 2.0366187176096438e-05 -0.025000900081821816 0 1.5037022803429208e-08 -0.02500007601035319 0 2.0366187176096438e-05 -0.025000900081821816 0 1.8122202326140309e-08 -0.024999977087718773 0 0.00011783328386977939 -0.024086517577995115 0 -8.9732550804273896e-05 -0.023321874130019706 0 6.759391984625681e-05 -0.025007408929786885 0 2.0366187176096438e-05 -0.025000900081821816 0 1.4067998624941157e-05 -0.024990513658449533 0 1.02971589516502e-05 -0.0249905152190649 0 2.0366187176096438e-05 -0.025000900081821816 0 1.4067998624941157e-05 -0.024990513658449533 0 7.0804277538221084e-06 -0.024996719193281908 0 1.02971589516502e-05 -0.0249905152190649 0 2.0366187176096438e-05 -0.025000900081821816 0 7.0804277538221084e-06 -0.024996719193281908 0 2.0366187176096438e-05 -0.025000900081821816 0 1.8122202326140309e-08 -0.024999977087718773 0 -0.0006554390098569673 -0.021735442732089643 0 -0.00074719491844386986 -0.022056498001539058 0 -0.0010151315466439114 -0.021854885615721097 0 -0.00090472331075984707 -0.021535417255618129 0 -0.0006554390098569673 -0.021735442732089643 0 -0.0010151315466439114 -0.021854885615721097 0 -0.0006554390098569673 -0.021735442732089643 0 -0.00019232408801884309 -0.021954680800079396 0 -0.00074719491844386986 -0.022056498001539058 0 5.2566040574279376e-06 -0.024982496019373881 0 1.02971589516502e-05 -0.0249905152190649 0 1.4067998624941157e-05 -0.024990513658449533 0 -0.00046495860568119109 -0.02137903827011621 0 -0.0006554390098569673 -0.021735442732089643 0 -0.00019232408801884309 -0.021954680800079396 0 -0.0003145223848624618 -0.023929091077363646 0 -8.9732550804273896e-05 -0.023321874130019706 0 -0.00019232408801884309 -0.021954680800079396 0 -0.00074719491844386986 -0.022056498001539058 0 -0.00055689679123866939 -0.022670813367796097 0 0.00020755290649400183 -0.023089877518207073 0 -0.00019232408801884309 -0.021954680800079396 0 -0.00055689679123866939 -0.022670813367796097 0 -0.00074719491844386986 -0.022056498001539058 0 -0.0010676955253313804 -0.022131256790971485 0 -0.0010151315466439114 -0.021854885615721097 0 -0.00074719491844386986 -0.022056498001539058 0 -0.00055689679123866939 -0.022670813367796097 0 -0.0010676955253313804 -0.022131256790971485 0 -0.00074657089477393865 -0.022877516314764371 0 -0.0010406063908814335 -0.022228224101699758 0 -0.00055689679123866939 -0.022670813367796097 0 -0.00097038039339210206 -0.023560106640516824 0 -0.0010676955253313804 -0.022131256790971485 0 0.00020755290649400183 -0.023089877518207073 0 -0.00055689679123866939 -0.022670813367796097 0 -0.00021703416162557155 -0.02401340716518386 0 -0.00055689679123866939 -0.022670813367796097 0 -0.00021703416162557155 -0.02401340716518386 0 -0.00097038039339210206 -0.023560106640516824 0 -0.00041979086274259613 -0.024757990141749352 0 -0.00021703416162557155 -0.02401340716518386 0 -0.00097038039339210206 -0.023560106640516824 0 -0.00058875920931101178 -0.022152285013919998 0 -0.00088642788594405278 -0.022217676094562273 0 -0.0010676955253313804 -0.022131256790971485 0 -0.00088642788594405278 -0.022217676094562273 0 -0.0012043694177174703 -0.022101732584416164 0 -0.0011289851802351242 -0.022019983158563832 0 -0.0012043694177174703 -0.022101732584416164 0 -0.0011289851802351242 -0.022019983158563832 0 -0.0013110397071004036 -0.021847892894927622 0 -0.0012036283722152751 -0.021938664905720336 0 -0.0012393095916366486 -0.02187087450404953 0 -0.0013110397071004036 -0.021847892894927622 0 -0.0011289851802351242 -0.022019983158563832 0 -0.0012036283722152751 -0.021938664905720336 0 -0.0013110397071004036 -0.021847892894927622 0 -0.00088642788594405278 -0.022217676094562273 0 -0.0011289851802351242 -0.022019983158563832 0 -0.0010676955253313804 -0.022131256790971485 0 -0.0011289851802351242 -0.022019983158563832 0 -0.0012036283722152751 -0.021938664905720336 0 -0.0010676955253313804 -0.022131256790971485 0 -0.0012036283722152751 -0.021938664905720336 0 -0.0010676955253313804 -0.022131256790971485 0 -0.0012362867586322706 -0.021919723302841223 0 -0.0010676955253313804 -0.022131256790971485 0 -0.0012362867586322706 -0.021919723302841223 0 -0.0010151315466439114 -0.021854885615721097 0 -0.0012036283722152751 -0.021938664905720336 0 -0.0012393095916366486 -0.02187087450404953 0 -0.0012362867586322706 -0.021919723302841223 0 -0.0012393095916366486 -0.02187087450404953 0 -0.0012362867586322706 -0.021919723302841223 0 -0.0012128954911042069 -0.021922554626709383 0 -0.0012362867586322706 -0.021919723302841223 0 -0.0011939738699339429 -0.021957354229779808 0 -0.0012128954911042069 -0.021922554626709383 0 -0.001206125926052502 -0.021687949771047935 0 -0.0012362867586322706 -0.021919723302841223 0 -0.001400322263712664 -0.0217549199898819 0 -0.00051593944906613962 -0.023229016513578175 0 -0.0006746998934519877 -0.022493893793895398 0 -0.0014877518640171159 -0.02167014133293782 0 -0.0006746998934519877 -0.022493893793895398 0 -0.001206125926052502 -0.021687949771047935 0 -0.00090472331075984707 -0.021535417255618129 0 -0.0010151315466439114 -0.021854885615721097 0 -0.001206125926052502 -0.021687949771047935 0 -0.0012362867586322706 -0.021919723302841223 0 -0.0010151315466439114 -0.021854885615721097 0 -0.00048501929110712061 -0.022311270368147011 0 -0.00029062721716040609 -0.022296139630027068 0 -0.00031243669217699235 -0.022107335713826861 0 -0.0011310886789053316 -0.022063262554924242 0 -0.0011063455513884983 -0.021946350289129779 0 -0.0010228424171537698 -0.021939057916911288 0 -9.038600847383738e-05 -0.023208083923385376 0 -0.0006592371770448971 -0.02193247431299879 0 -0.00029062721716040609 -0.022296139630027068 0 -0.00031243669217699235 -0.022107335713826861 0 -0.00021130560730368345 -0.022172479550194215 0 -0.0011310886789053316 -0.022063262554924242 0 -0.0011683967567115887 -0.021999326306824555 0 -0.0011481691733656295 -0.021968522855366684 0 -0.0011310886789053316 -0.022063262554924242 0 -0.0011063455513884983 -0.021946350289129779 0 -0.0011481691733656295 -0.021968522855366684 0 -0.0012362867586322706 -0.021919723302841223 0 -0.001191032128673195 -0.021990567729292237 0 -0.0011939738699339429 -0.021957354229779808 0 -9.038600847383738e-05 -0.023208083923385376 0 -0.0006746998934519877 -0.022493893793895398 0 -0.0011310886789053316 -0.022063262554924242 0 -0.0011683967567115887 -0.021999326306824555 0 -0.0011882148768906705 -0.022005478813420291 0 -0.00076122072356588186 -0.022476759500964328 0 -0.0006746998934519877 -0.022493893793895398 0 -0.0011683967567115887 -0.021999326306824555 0 -0.001191032128673195 -0.021990567729292237 0 -0.0011764879116514678 -0.021978820143166121 0 -0.001191032128673195 -0.021990567729292237 0 -0.0011939738699339429 -0.021957354229779808 0 -0.0011764879116514678 -0.021978820143166121 0 -0.0011939738699339429 -0.021957354229779808 0 -0.0011764879116514678 -0.021978820143166121 0 -0.0011481691733656295 -0.021968522855366684 0 -0.0011683967567115887 -0.021999326306824555 0 -0.0011764879116514678 -0.021978820143166121 0 -0.0011481691733656295 -0.021968522855366684 0 -0.0011939738699339429 -0.021957354229779808 0 -0.0011481691733656295 -0.021968522855366684 0 -0.001162994167745324 -0.021919732409411662 0 -0.0011063455513884983 -0.021946350289129779 0 -0.0011481691733656295 -0.021968522855366684 0 -0.001162994167745324 -0.021919732409411662 0 -0.0012393095916366486 -0.02187087450404953 0 -0.001162994167745324 -0.021919732409411662 0 -0.0010747449769398446 -0.021838264397914961 0 -0.0012393095916366486 -0.02187087450404953 0 -0.0013802473950997977 -0.02171525706528438 0 -0.0013110397071004036 -0.021847892894927622 0 -0.0011063455513884983 -0.021946350289129779 0 -0.001162994167745324 -0.021919732409411662 0 -0.0010747449769398446 -0.021838264397914961 0 -0.0012350211284539109 -0.021846531814002514 0 -0.0012782228826056449 -0.021785533855290466 0 -0.0012393095916366486 -0.02187087450404953 0 -0.001162994167745324 -0.021919732409411662 0 -0.0012128954911042069 -0.021922554626709383 0 -0.0011939738699339429 -0.021957354229779808 0 -0.001162994167745324 -0.021919732409411662 0 -0.0012128954911042069 -0.021922554626709383 0 -0.0012782228826056449 -0.021785533855290466 0 -0.00087527965678029103 -0.021706141366850697 0 -0.0010228424171537698 -0.021939057916911288 0 -0.0010747449769398446 -0.021838264397914961 0 -0.0009108778584842026 -0.021812078815715234 0 -0.0011063455513884983 -0.021946350289129779 0 -0.0010228424171537698 -0.021939057916911288 0 -0.0010747449769398446 -0.021838264397914961 0 -0.0013802473950997977 -0.02171525706528438 0 -0.0014040171678771514 -0.021702772091150443 0 -0.0013416640446925823 -0.021572022668607083 0 -0.0014040171678771514 -0.021702772091150443 0 -0.0013620524530472541 -0.021541491991221635 0 -0.0013416640446925823 -0.021572022668607083 0 -0.0013802473950997977 -0.02171525706528438 0 -0.0014040171678771514 -0.021702772091150443 0 -0.0013110397071004036 -0.021847892894927622 0 -0.0014040171678771514 -0.021702772091150443 0 -0.0013110397071004036 -0.021847892894927622 0 -0.0014952086224953572 -0.021845468803684487 0 -0.0012043694177174703 -0.022101732584416164 0 -0.0013110397071004036 -0.021847892894927622 0 -0.0014952086224953572 -0.021845468803684487 0 -0.0014040171678771514 -0.021702772091150443 0 -0.0014952086224953572 -0.021845468803684487 0 -0.0013620524530472541 -0.021541491991221635 0 -0.0014952086224953572 -0.021845468803684487 0 -0.0013620524530472541 -0.021541491991221635 0 -0.0013250548245564179 -0.021348768820708745 0 -0.0014952086224953572 -0.021845468803684487 0 -0.0016347326286564904 -0.022568937711984653 0 -0.0013852890409245271 -0.022508809431770204 0 -0.0014952086224953572 -0.021845468803684487 0 -0.0013876628027287073 -0.020972078213492253 0 -0.0013250548245564179 -0.021348768820708745 0 -0.0014867364132588113 -0.021806140090819291 0 -0.0014726698053395449 -0.021756347312369997 0 -0.0013852890409245271 -0.022508809431770204 0 -0.0011119385189691455 -0.02297918924740289 0 -0.0016778082063427934 -0.022764141521690488 0 -0.0016347326286564904 -0.022568937711984653 0 -0.0013852890409245271 -0.022508809431770204 0 -0.0016778082063427934 -0.022764141521690488 0 -0.0012043694177174703 -0.022101732584416164 0 -0.0014952086224953572 -0.021845468803684487 0 -0.0013852890409245271 -0.022508809431770204 0 -0.00088642788594405278 -0.022217676094562273 0 -0.0012043694177174703 -0.022101732584416164 0 -0.00103587685995765 -0.022535052392998873 0 -0.0012043694177174703 -0.022101732584416164 0 -0.0013852890409245271 -0.022508809431770204 0 -0.00103587685995765 -0.022535052392998873 0 -0.00058919759006357327 -0.022657995375684338 0 -0.00088642788594405278 -0.022217676094562273 0 -0.00103587685995765 -0.022535052392998873 0 -0.00058919759006357327 -0.022657995375684338 0 -0.00103587685995765 -0.022535052392998873 0 -0.00079711876602193261 -0.022967354845253491 0 -0.00103587685995765 -0.022535052392998873 0 -0.00079711876602193261 -0.022967354845253491 0 -0.0011119385189691455 -0.02297918924740289 0 -0.0013852890409245271 -0.022508809431770204 0 -0.00103587685995765 -0.022535052392998873 0 -0.0011119385189691455 -0.02297918924740289 0 -0.0011119385189691455 -0.02297918924740289 0 -0.00062451050717541646 -0.023662052738341065 0 -0.0010292128825435919 -0.023656886153041706 0 -0.0011119385189691455 -0.02297918924740289 0 -0.0010292128825435919 -0.023656886153041706 0 -0.0016778082063427934 -0.022764141521690488 0 -0.00079711876602193261 -0.022967354845253491 0 -0.0011119385189691455 -0.02297918924740289 0 -0.00062451050717541646 -0.023662052738341065 0 -0.00042141599042841952 -0.023434793981895997 0 -0.00079711876602193261 -0.022967354845253491 0 -0.00062451050717541646 -0.023662052738341065 0 -0.00062451050717541646 -0.023662052738341065 0 -0.0010292128825435919 -0.023656886153041706 0 -0.00063115519564181709 -0.024154838785377903 0 -0.00036907401528126464 -0.024155512937065075 0 -0.00062451050717541646 -0.023662052738341065 0 -0.00063115519564181709 -0.024154838785377903 0 -0.0016713871455577617 -0.022723688205464315 0 -0.0016182245526853139 -0.022729590684736012 0 -0.0010292128825435919 -0.023656886153041706 0 -0.0016778082063427934 -0.022764141521690488 0 -0.0015161001608754794 -0.023981578816060913 0 -0.0016778082063427934 -0.022764141521690488 0 -0.001331651343491836 -0.021680805812980482 0 -0.0017741642576440762 -0.021498954354633622 0 -0.0016347326286564904 -0.022568937711984653 0 -0.0016778082063427934 -0.022764141521690488 0 -0.0012090111185331493 -0.022309081887429996 0 -0.0016778082063427934 -0.022764141521690488 0 -0.0012090111185331493 -0.022309081887429996 0 -0.001331651343491836 -0.021680805812980482 0 -0.001050308998508684 -0.020682954462873292 0 -0.0010225509631010517 -0.020834844596161042 0 -0.001043812013772771 -0.020698536921811499 0 -0.001050308998508684 -0.020682954462873292 0 -0.001043812013772771 -0.020698536921811499 0 -0.001046924388374107 -0.020706206214097706 0 -0.001331651343491836 -0.021680805812980482 0 -0.0011321366981255439 -0.021525269954531155 0 -0.0010389978072646089 -0.021174351850338557 0 -0.0012090111185331493 -0.022309081887429996 0 -0.001331651343491836 -0.021680805812980482 0 -0.0011321366981255439 -0.021525269954531155 0 -0.0011579605541379189 -0.02149861002503781 0 -0.00096361000164615733 -0.021210957429430796 0 -0.001050308998508684 -0.020682954462873292 0 -0.0010225509631010517 -0.020834844596161042 0 -0.00093468296293750658 -0.021148491115601006 0 -0.0011321366981255439 -0.021525269954531155 0 -0.00093468296293750658 -0.021148491115601006 0 -0.0010389978072646089 -0.021174351850338557 0 -0.0012090111185331493 -0.022309081887429996 0 -0.0011321366981255439 -0.021525269954531155 0 -0.00093468296293750658 -0.021148491115601006 0 -0.0010225509631010517 -0.020834844596161042 0 -0.00093468296293750658 -0.021148491115601006 0 -0.001004141223693387 -0.020941160548739752 0 -0.00098945051922048497 -0.021023732259016083 0 -0.0010815518397268417 -0.020679298560951239 0 -0.0011298308235664039 -0.020638790374946897 0 -0.00091428174365924928 -0.021055271773226237 0 -0.001495377459238726 -0.019694132872850344 0 -0.00093468296293750658 -0.021148491115601006 0 -0.001004141223693387 -0.020941160548739752 0 -0.00098945051922048497 -0.021023732259016083 0 -0.001004141223693387 -0.020941160548739752 0 -0.00098945051922048497 -0.021023732259016083 0 -0.0010435936067300644 -0.020765098117298018 0 -0.00098945051922048497 -0.021023732259016083 0 -0.0010435936067300644 -0.020765098117298018 0 -0.0010815518397268417 -0.020679298560951239 0 -0.0010435936067300644 -0.020765098117298018 0 -0.0010815518397268417 -0.020679298560951239 0 -0.0010656042117250951 -0.020657165498384186 0 -0.0010225509631010517 -0.020834844596161042 0 -0.001004141223693387 -0.020941160548739752 0 -0.0010435936067300644 -0.020765098117298018 0 -0.00098945051922048497 -0.021023732259016083 0 -0.0011483161386015089 -0.020657654157131951 0 -0.0011298308235664039 -0.020638790374946897 0 -0.001495377459238726 -0.019694132872850344 0 -0.0015155886357494782 -0.019776286328354625 0 -0.0010815518397268417 -0.020679298560951239 0 -0.0011298308235664039 -0.020638790374946897 0 -0.0011043281574668977 -0.020557131035354413 0 -0.0011302404606203745 -0.02062757112525716 0 -0.0011043281574668977 -0.020557131035354413 0 -0.0010830011704522559 -0.020376122736570943 0 -0.0011302404606203745 -0.02062757112525716 0 -0.0011298308235664039 -0.020638790374946897 0 -0.0011043281574668977 -0.020557131035354413 0 -0.0011043281574668977 -0.020557131035354413 0 -0.0010868679929438669 -0.020474446797003987 0 -0.0010830011704522559 -0.020376122736570943 0 -0.0010815518397268417 -0.020679298560951239 0 -0.0010834495543613541 -0.020556617341688375 0 -0.0010656042117250951 -0.020657165498384186 0 -0.0010815518397268417 -0.020679298560951239 0 -0.0011043281574668977 -0.020557131035354413 0 -0.0010834495543613541 -0.020556617341688375 0 -0.0011043281574668977 -0.020557131035354413 0 -0.0010868679929438669 -0.020474446797003987 0 -0.0010834495543613541 -0.020556617341688375 0 -0.0010834495543613541 -0.020556617341688375 0 -0.0010656042117250951 -0.020657165498384186 0 -0.0010659270970362381 -0.020605057059207406 0 -0.0010834495543613541 -0.020556617341688375 0 -0.0010733371555829365 -0.020464271154940442 0 -0.0010659270970362381 -0.020605057059207406 0 -0.0010733371555829365 -0.020464271154940442 0 -0.0010659270970362381 -0.020605057059207406 0 -0.001062695421262321 -0.020606585344717092 0 -0.0010868679929438669 -0.020474446797003987 0 -0.0010733371555829365 -0.020464271154940442 0 -0.0010830011704522559 -0.020376122736570943 0 -0.0010868679929438669 -0.020474446797003987 0 -0.0010834495543613541 -0.020556617341688375 0 -0.0010733371555829365 -0.020464271154940442 0 -0.0010225509631010517 -0.020834844596161042 0 -0.0010435936067300644 -0.020765098117298018 0 -0.001043812013772771 -0.020698536921811499 0 -0.001043812013772771 -0.020698536921811499 0 -0.0010656042117250951 -0.020657165498384186 0 -0.0010659270970362381 -0.020605057059207406 0 -0.0010435936067300644 -0.020765098117298018 0 -0.001043812013772771 -0.020698536921811499 0 -0.0010656042117250951 -0.020657165498384186 0 -0.001043812013772771 -0.020698536921811499 0 -0.0010659270970362381 -0.020605057059207406 0 -0.001062695421262321 -0.020606585344717092 0 -0.001043812013772771 -0.020698536921811499 0 -0.001046924388374107 -0.020706206214097706 0 -0.001062695421262321 -0.020606585344717092 0 -0.001046924388374107 -0.020706206214097706 0 -0.001062695421262321 -0.020606585344717092 0 -0.0010609636104073361 -0.020690326295456349 0 -0.001046924388374107 -0.020706206214097706 0 -0.0010609636104073361 -0.020690326295456349 0 -0.0010738884556413667 -0.020799397773910749 0 -0.001062695421262321 -0.020606585344717092 0 -0.001063199917085573 -0.020670259458092217 0 -0.0010609636104073361 -0.020690326295456349 0 -0.001063199917085573 -0.020670259458092217 0 -0.0010609636104073361 -0.020690326295456349 0 -0.0010744364397188414 -0.020779375755066942 0 -0.0010609636104073361 -0.020690326295456349 0 -0.0010744364397188414 -0.020779375755066942 0 -0.0010738884556413667 -0.020799397773910749 0 -0.0010733371555829365 -0.020464271154940442 0 -0.0010579504819256676 -0.020433353440111129 0 -0.0010599458163020208 -0.020533472580240308 0 -0.0010733371555829365 -0.020464271154940442 0 -0.001062695421262321 -0.020606585344717092 0 -0.0010599458163020208 -0.020533472580240308 0 -0.001062695421262321 -0.020606585344717092 0 -0.001063199917085573 -0.020670259458092217 0 -0.0010599458163020208 -0.020533472580240308 0 -0.001063199917085573 -0.020670259458092217 0 -0.0010599458163020208 -0.020533472580240308 0 -0.0010554090272340336 -0.020599661108904405 0 -0.0010579504819256676 -0.020433353440111129 0 -0.0010599458163020208 -0.020533472580240308 0 -0.0010433747382817902 -0.020439399297989894 0 -0.0010599458163020208 -0.020533472580240308 0 -0.0010554090272340336 -0.020599661108904405 0 -0.0010433747382817902 -0.020439399297989894 0 -0.0010362138958042912 -0.020549536791416554 0 -0.0010554090272340336 -0.020599661108904405 0 -0.0010433747382817902 -0.020439399297989894 0 -0.0010362138958042912 -0.020549536791416554 0 -0.0010554090272340336 -0.020599661108904405 0 -0.0010537610837069976 -0.020692744309524232 0 -0.0010554090272340336 -0.020599661108904405 0 -0.0010537610837069976 -0.020692744309524232 0 -0.0010628429678307379 -0.020699177675731976 0 -0.001063199917085573 -0.020670259458092217 0 -0.0010554090272340336 -0.020599661108904405 0 -0.0010628429678307379 -0.020699177675731976 0 -0.0010537610837069976 -0.020692744309524232 0 -0.0010628429678307379 -0.020699177675731976 0 -0.0010691239778936048 -0.020777617051401735 0 -0.0010631372714633273 -0.020784190229904506 0 -0.0010537610837069976 -0.020692744309524232 0 -0.0010691239778936048 -0.020777617051401735 0 -0.0010631372714633273 -0.020784190229904506 0 -0.0010537610837069976 -0.020692744309524232 0 -0.0010519657036356044 -0.020774653229124845 0 -0.0010362138958042912 -0.020549536791416554 0 -0.0010537610837069976 -0.020692744309524232 0 -0.0010350802806074193 -0.020694215688557865 0 -0.0010362138958042912 -0.020549536791416554 0 -0.0010350802806074193 -0.020694215688557865 0 -0.0010158588790355751 -0.020593796166343725 0 -0.0010744364397188414 -0.020779375755066942 0 -0.0010716558105476712 -0.020761577227484646 0 -0.001087847438775671 -0.020862233106376915 0 -0.0010744364397188414 -0.020779375755066942 0 -0.001087847438775671 -0.020862233106376915 0 -0.0011122140936128352 -0.020926689508705982 0 -0.001063199917085573 -0.020670259458092217 0 -0.0010744364397188414 -0.020779375755066942 0 -0.0010716558105476712 -0.020761577227484646 0 -0.001063199917085573 -0.020670259458092217 0 -0.0010628429678307379 -0.020699177675731976 0 -0.0010716558105476712 -0.020761577227484646 0 -0.0010628429678307379 -0.020699177675731976 0 -0.0010716558105476712 -0.020761577227484646 0 -0.0010691239778936048 -0.020777617051401735 0 -0.0010716558105476712 -0.020761577227484646 0 -0.0010691239778936048 -0.020777617051401735 0 -0.001087847438775671 -0.020862233106376915 0 -0.0010691239778936048 -0.020777617051401735 0 -0.0010790752554016138 -0.020856007439118984 0 -0.001087847438775671 -0.020862233106376915 0 -0.0010631372714633273 -0.020784190229904506 0 -0.0010691239778936048 -0.020777617051401735 0 -0.0010790752554016138 -0.020856007439118984 0 -0.0010790752554016138 -0.020856007439118984 0 -0.001087847438775671 -0.020862233106376915 0 -0.0011030214779361085 -0.020973647461076227 0 -0.001087847438775671 -0.020862233106376915 0 -0.0011109321701371696 -0.02096172220418523 0 -0.0011030214779361085 -0.020973647461076227 0 -0.0011109321701371696 -0.02096172220418523 0 -0.0011122140936128352 -0.020926689508705982 0 -0.001146354336276962 -0.021084302771559316 0 -0.001087847438775671 -0.020862233106376915 0 -0.0011109321701371696 -0.02096172220418523 0 -0.0011122140936128352 -0.020926689508705982 0 -0.0011122140936128352 -0.020926689508705982 0 -0.0011723057266875652 -0.021006372395337067 0 -0.001146354336276962 -0.021084302771559316 0 -0.0011723057266875652 -0.021006372395337067 0 -0.0012431772037615212 -0.021278916953840959 0 -0.001146354336276962 -0.021084302771559316 0 -0.0011122140936128352 -0.020926689508705982 0 -0.0010738884556413667 -0.020799397773910749 0 -0.0011723057266875652 -0.021006372395337067 0 -0.0010744364397188414 -0.020779375755066942 0 -0.0011122140936128352 -0.020926689508705982 0 -0.0010738884556413667 -0.020799397773910749 0 -0.001050308998508684 -0.020682954462873292 0 -0.001046924388374107 -0.020706206214097706 0 -0.0010738884556413667 -0.020799397773910749 0 -0.001050308998508684 -0.020682954462873292 0 -0.0010738884556413667 -0.020799397773910749 0 -0.0011723057266875652 -0.021006372395337067 0 -0.0013876628027287073 -0.020972078213492253 0 -0.001050308998508684 -0.020682954462873292 0 -0.0011723057266875652 -0.021006372395337067 0 -0.0014726698053395449 -0.021756347312369997 0 -0.0011579605541379189 -0.02149861002503781 0 -0.0013876628027287073 -0.020972078213492253 0 -0.0011723057266875652 -0.021006372395337067 0 -0.0013250548245564179 -0.021348768820708745 0 -0.0011723057266875652 -0.021006372395337067 0 -0.0013250548245564179 -0.021348768820708745 0 -0.0012431772037615212 -0.021278916953840959 0 -0.0013620524530472541 -0.021541491991221635 0 -0.0013250548245564179 -0.021348768820708745 0 -0.0012431772037615212 -0.021278916953840959 0 -0.0012431772037615212 -0.021278916953840959 0 -0.0011986347108625317 -0.021227726347407598 0 -0.0012752132120171674 -0.021425567221895599 0 -0.0013620524530472541 -0.021541491991221635 0 -0.0012431772037615212 -0.021278916953840959 0 -0.0012752132120171674 -0.021425567221895599 0 -0.0011109321701371696 -0.02096172220418523 0 -0.001146354336276962 -0.021084302771559316 0 -0.0011030214779361085 -0.020973647461076227 0 -0.001146354336276962 -0.021084302771559316 0 -0.0011515240207675601 -0.021143558358573667 0 -0.0011030214779361085 -0.020973647461076227 0 -0.0012431772037615212 -0.021278916953840959 0 -0.001146354336276962 -0.021084302771559316 0 -0.0011986347108625317 -0.021227726347407598 0 -0.001146354336276962 -0.021084302771559316 0 -0.0011986347108625317 -0.021227726347407598 0 -0.0011515240207675601 -0.021143558358573667 0 -0.0011986347108625317 -0.021227726347407598 0 -0.0011982035326147565 -0.021279946396108345 0 -0.0012752132120171674 -0.021425567221895599 0 -0.0011986347108625317 -0.021227726347407598 0 -0.0011515240207675601 -0.021143558358573667 0 -0.0011982035326147565 -0.021279946396108345 0 -0.0011515240207675601 -0.021143558358573667 0 -0.0011181080896798029 -0.021075733526786659 0 -0.0011030214779361085 -0.020973647461076227 0 -0.0011515240207675601 -0.021143558358573667 0 -0.0011476091545642518 -0.021195724063845019 0 -0.0011982035326147565 -0.021279946396108345 0 -0.0011515240207675601 -0.021143558358573667 0 -0.0011476091545642518 -0.021195724063845019 0 -0.0011181080896798029 -0.021075733526786659 0 -0.0011889840841262506 -0.021303545000895822 0 -0.0011383616172538006 -0.021277280240257823 0 -0.0012480773762281793 -0.021457579259878758 0 -0.00063007531113672415 -0.021636475083683465 0 -0.00087527965678029103 -0.021706141366850697 0 -0.0011383616172538006 -0.021277280240257823 0 -0.0012480773762281793 -0.021457579259878758 0 -0.0012724344264593321 -0.021522947457348261 0 -0.0011476091545642518 -0.021195724063845019 0 -0.0011889840841262506 -0.021303545000895822 0 -0.0011383616172538006 -0.021277280240257823 0 -0.0011889840841262506 -0.021303545000895822 0 -0.0012328750295268706 -0.021380027776121836 0 -0.0012480773762281793 -0.021457579259878758 0 -0.0011476091545642518 -0.021195724063845019 0 -0.0011889840841262506 -0.021303545000895822 0 -0.0011982035326147565 -0.021279946396108345 0 -0.0011889840841262506 -0.021303545000895822 0 -0.0011982035326147565 -0.021279946396108345 0 -0.0012328750295268706 -0.021380027776121836 0 -0.0013802473950997977 -0.02171525706528438 0 -0.0013416640446925823 -0.021572022668607083 0 -0.0012897608524666988 -0.02156266363874074 0 -0.0013620524530472541 -0.021541491991221635 0 -0.0012752132120171674 -0.021425567221895599 0 -0.0013416640446925823 -0.021572022668607083 0 -0.0011982035326147565 -0.021279946396108345 0 -0.0012328750295268706 -0.021380027776121836 0 -0.0012752132120171674 -0.021425567221895599 0 -0.0012752132120171674 -0.021425567221895599 0 -0.0012480773762281793 -0.021457579259878758 0 -0.0013416640446925823 -0.021572022668607083 0 -0.0012328750295268706 -0.021380027776121836 0 -0.0012752132120171674 -0.021425567221895599 0 -0.0012480773762281793 -0.021457579259878758 0 -0.0012480773762281793 -0.021457579259878758 0 -0.0013416640446925823 -0.021572022668607083 0 -0.0012897608524666988 -0.02156266363874074 0 -0.0010113910028767747 -0.021674007731129923 0 -0.00087527965678029103 -0.021706141366850697 0 -0.00031243669217699235 -0.022107335713826861 0 -0.00014290179800631139 -0.021971710077464394 0 -0.00015275826307196774 -0.021952987929892139 0 -0.00031243669217699235 -0.022107335713826861 0 -0.00014290179800631139 -0.021971710077464394 0 -0.00021130560730368345 -0.022172479550194215 0 -0.0006592371770448971 -0.02193247431299879 0 -0.00087527965678029103 -0.021706141366850697 0 -0.00014290179800631139 -0.021971710077464394 0 -0.00015275826307196774 -0.021952987929892139 0 -0.0001661739636735428 -0.021963503127709956 0 -0.0001661739636735428 -0.021963503127709956 0 -0.0001678308456327401 -0.021911117155286874 0 -0.0002188931526149122 -0.021929936881957504 0 -0.0001661739636735428 -0.021963503127709956 0 -0.00015202500227084234 -0.021930921514525782 0 -0.0001678308456327401 -0.021911117155286874 0 -0.00018460976086190418 -0.02198177560119096 0 -0.00015275826307196774 -0.021952987929892139 0 -0.0001661739636735428 -0.021963503127709956 0 -0.00014290179800631139 -0.021971710077464394 0 -0.0001661739636735428 -0.021963503127709956 0 -0.00015202500227084234 -0.021930921514525782 0 -0.00012720222047531892 -0.021873761338482997 0 -0.00015202500227084234 -0.021930921514525782 0 -0.0001678308456327401 -0.021911117155286874 0 -0.00015325645609426058 -0.021878035414904087 0 -0.00018690060095997467 -0.021866731134792108 0 -0.0001678308456327401 -0.021911117155286874 0 -0.00012720222047531892 -0.021873761338482997 0 -0.00015325645609426058 -0.021878035414904087 0 -0.0001678308456327401 -0.021911117155286874 0 -0.00016415152388651958 -0.022006728325630161 0 -0.00012542240082861493 -0.022018631866991201 0 -0.00012720222047531892 -0.021873761338482997 0 -0.00014290179800631139 -0.021971710077464394 0 -0.00015202500227084234 -0.021930921514525782 0 -0.00010447117301688852 -0.022323334305157989 0 -0.00014290179800631139 -0.021971710077464394 0 -0.00021130560730368345 -0.022172479550194215 0 -0.00010447117301688852 -0.022323334305157989 0 -0.00029062721716040609 -0.022296139630027068 0 -0.00021130560730368345 -0.022172479550194215 0 -0.0010040027361615828 -0.020969397333636099 0 -0.0011085153296276698 -0.021045103832591859 0 -0.0010659013783443348 -0.020910506605003796 0 -0.0010040027361615828 -0.020969397333636099 0 -0.0010236073099411614 -0.021055483650310729 0 -0.0011085153296276698 -0.021045103832591859 0 -0.00119482773380642 -0.021100307184165917 0 -0.0011085153296276698 -0.021045103832591859 0 -0.0011393319636939167 -0.020961431575938952 0 -0.00018690060095997467 -0.021866731134792108 0 -0.0001678308456327401 -0.021911117155286874 0 -0.0002188931526149122 -0.021929936881957504 0 -0.0011085153296276698 -0.021045103832591859 0 -0.0011393319636939167 -0.020961431575938952 0 -0.0010659013783443348 -0.020910506605003796 0 -0.00041678667104848326 -0.021574129830770152 0 -0.0006957892416795486 -0.021453819970528702 0 -0.0006957892416795486 -0.021453819970528702 0 -0.00079622698770970214 -0.02129746182166331 0 -0.00018460976086190418 -0.02198177560119096 0 -0.0002188931526149122 -0.021929936881957504 0 -0.00025431107244561663 -0.021986444203109884 0 -0.00018460976086190418 -0.02198177560119096 0 -0.0001661739636735428 -0.021963503127709956 0 -0.0002188931526149122 -0.021929936881957504 0 -0.0011393319636939167 -0.020961431575938952 0 -0.0010659013783443348 -0.020910506605003796 0 -0.0010821327578659059 -0.020816651271552401 0 -0.0010040027361615828 -0.020969397333636099 0 -0.0010659013783443348 -0.020910506605003796 0 -0.00097985112901950461 -0.020882701738675395 0 -0.0010659013783443348 -0.020910506605003796 0 -0.0010821327578659059 -0.020816651271552401 0 -0.00097985112901950461 -0.020882701738675395 0 -0.00079622698770970214 -0.02129746182166331 0 -0.00080443426799628166 -0.021221860078474472 0 -0.001058257772936421 -0.020975740062963981 0 -0.0010448814565829948 -0.020951121665715514 0 -0.0010117381543341248 -0.020837177017628484 0 -0.0010414376011693416 -0.021005176224342635 0 -0.0010448814565829948 -0.020951121665715514 0 -0.0010559054140934394 -0.02097026095018727 0 -0.0010559054140934394 -0.02097026095018727 0 -0.0010445696306426611 -0.020892770774159634 0 -0.0010648627549405211 -0.020942862719838393 0 -0.0010448814565829948 -0.020951121665715514 0 -0.0010559054140934394 -0.02097026095018727 0 -0.0010445696306426611 -0.020892770774159634 0 -0.0010448814565829948 -0.020951121665715514 0 -0.0010445696306426611 -0.020892770774159634 0 -0.0010330780115748726 -0.020878269032350027 0 -0.0010445696306426611 -0.020892770774159634 0 -0.0010330780115748726 -0.020878269032350027 0 -0.0010281307624276628 -0.020830665618855198 0 -0.0010448814565829948 -0.020951121665715514 0 -0.0010330780115748726 -0.020878269032350027 0 -0.0010117381543341248 -0.020837177017628484 0 -0.0010330780115748726 -0.020878269032350027 0 -0.0010117381543341248 -0.020837177017628484 0 -0.0010281307624276628 -0.020830665618855198 0 -0.0011383616172538006 -0.021277280240257823 0 -0.0010414376011693416 -0.021005176224342635 0 -0.0010977359752501197 -0.021095609944404948 0 -0.00063007531113672415 -0.021636475083683465 0 -0.00079622698770970214 -0.02129746182166331 0 -0.0010414376011693416 -0.021005176224342635 0 -0.0010559054140934394 -0.02097026095018727 0 -0.0010977359752501197 -0.021095609944404948 0 -0.0010559054140934394 -0.02097026095018727 0 -0.0010977359752501197 -0.021095609944404948 0 -0.0010648627549405211 -0.020942862719838393 0 -0.0011476091545642518 -0.021195724063845019 0 -0.0011383616172538006 -0.021277280240257823 0 -0.0010977359752501197 -0.021095609944404948 0 -0.0011476091545642518 -0.021195724063845019 0 -0.0010977359752501197 -0.021095609944404948 0 -0.0011181080896798029 -0.021075733526786659 0 -0.0011181080896798029 -0.021075733526786659 0 -0.0010872155789482787 -0.020974736132746963 0 -0.0011030214779361085 -0.020973647461076227 0 -0.0010977359752501197 -0.021095609944404948 0 -0.0011181080896798029 -0.021075733526786659 0 -0.0010872155789482787 -0.020974736132746963 0 -0.0010872155789482787 -0.020974736132746963 0 -0.0010648627549405211 -0.020942862719838393 0 -0.00105766990505438 -0.02085857292279214 0 -0.0010977359752501197 -0.021095609944404948 0 -0.0010872155789482787 -0.020974736132746963 0 -0.0010648627549405211 -0.020942862719838393 0 -0.0010872155789482787 -0.020974736132746963 0 -0.001072037223337172 -0.020866449520504055 0 -0.00105766990505438 -0.02085857292279214 0 -0.0010790752554016138 -0.020856007439118984 0 -0.001072037223337172 -0.020866449520504055 0 -0.0011030214779361085 -0.020973647461076227 0 -0.0010872155789482787 -0.020974736132746963 0 -0.001072037223337172 -0.020866449520504055 0 -0.0011030214779361085 -0.020973647461076227 0 -0.0010631372714633273 -0.020784190229904506 0 -0.0010790752554016138 -0.020856007439118984 0 -0.001072037223337172 -0.020866449520504055 0 -0.0010370705171842145 -0.020801121847958647 0 -0.001015655214141895 -0.02075079166618532 0 -0.0010350802806074193 -0.020694215688557865 0 -0.0010117381543341248 -0.020837177017628484 0 -0.001015655214141895 -0.02075079166618532 0 -0.0010281307624276628 -0.020830665618855198 0 -0.0010370705171842145 -0.020801121847958647 0 -0.001015655214141895 -0.02075079166618532 0 -0.0010281307624276628 -0.020830665618855198 0 -0.0010445696306426611 -0.020892770774159634 0 -0.0010370705171842145 -0.020801121847958647 0 -0.0010281307624276628 -0.020830665618855198 0 -0.0010445696306426611 -0.020892770774159634 0 -0.0010648627549405211 -0.020942862719838393 0 -0.00105766990505438 -0.02085857292279214 0 -0.0010445696306426611 -0.020892770774159634 0 -0.0010370705171842145 -0.020801121847958647 0 -0.00105766990505438 -0.02085857292279214 0 -0.0010370705171842145 -0.020801121847958647 0 -0.00105766990505438 -0.02085857292279214 0 -0.0010519657036356044 -0.020774653229124845 0 -0.001072037223337172 -0.020866449520504055 0 -0.00105766990505438 -0.02085857292279214 0 -0.0010519657036356044 -0.020774653229124845 0 -0.0010631372714633273 -0.020784190229904506 0 -0.001072037223337172 -0.020866449520504055 0 -0.0010519657036356044 -0.020774653229124845 0 -0.0010537610837069976 -0.020692744309524232 0 -0.0010519657036356044 -0.020774653229124845 0 -0.0010350802806074193 -0.020694215688557865 0 -0.001015655214141895 -0.02075079166618532 0 -0.0010350802806074193 -0.020694215688557865 0 -0.0010158588790355751 -0.020593796166343725 0 -0.0010370705171842145 -0.020801121847958647 0 -0.0010519657036356044 -0.020774653229124845 0 -0.0010350802806074193 -0.020694215688557865 0 -0.001015655214141895 -0.02075079166618532 0 -0.0010158588790355751 -0.020593796166343725 0 -0.00097913885895102972 -0.020688385927723672 0 -0.00097242472468495739 -0.020539768326047123 0 -0.00088855624045218397 -0.02053328135629225 0 -0.0009915145238461676 -0.020342681588605537 0 -0.0010158588790355751 -0.020593796166343725 0 -0.00097242472468495739 -0.020539768326047123 0 -0.00097913885895102972 -0.020688385927723672 0 -0.00097242472468495739 -0.020539768326047123 0 -0.00097913885895102972 -0.020688385927723672 0 -0.00088855624045218397 -0.02053328135629225 0 -0.00097913885895102972 -0.020688385927723672 0 -0.00088855624045218397 -0.02053328135629225 0 -0.00091254859081965568 -0.020750020946591251 0 -0.0010117381543341248 -0.020837177017628484 0 -0.001015655214141895 -0.02075079166618532 0 -0.00097913885895102972 -0.020688385927723672 0 -0.00088855624045218397 -0.02053328135629225 0 -0.0008145287977881382 -0.020831800215241055 0 -0.00069145227581589243 -0.020311229239176314 0 -0.00088855624045218397 -0.02053328135629225 0 -0.00069145227581589243 -0.020311229239176314 0 -0.0009915145238461676 -0.020342681588605537 0 -0.00072582568938099742 -0.020662026821609183 0 -0.00067787984441910738 -0.020335935293280531 0 -0.00088855624045218397 -0.02053328135629225 0 -0.0008145287977881382 -0.020831800215241055 0 -0.00091254859081965568 -0.020750020946591251 0 -0.0008145287977881382 -0.020831800215241055 0 -0.00091254859081965568 -0.020750020946591251 0 -0.00090701362838197745 -0.020851119016713583 0 -0.00079622698770970214 -0.02129746182166331 0 -0.0010342852617574439 -0.020676616518766261 0 -0.0010117381543341248 -0.020837177017628484 0 -0.00097913885895102972 -0.020688385927723672 0 -0.00091254859081965568 -0.020750020946591251 0 -0.0010821327578659059 -0.020816651271552401 0 -0.00091254859081965568 -0.020750020946591251 0 -0.00097985112901950461 -0.020882701738675395 0 -0.001058257772936421 -0.020975740062963981 0 -0.0010117381543341248 -0.020837177017628484 0 -0.00091254859081965568 -0.020750020946591251 0 -0.00091254859081965568 -0.020750020946591251 0 -0.00097985112901950461 -0.020882701738675395 0 -0.00090701362838197745 -0.020851119016713583 0 -0.0010040027361615828 -0.020969397333636099 0 -0.00097985112901950461 -0.020882701738675395 0 -0.00092534220072800204 -0.021005921184557751 0 -0.00097985112901950461 -0.020882701738675395 0 -0.00090701362838197745 -0.020851119016713583 0 -0.00092534220072800204 -0.021005921184557751 0 -0.00063031403603440624 -0.020502207216635291 0 -0.00057328537264331896 -0.020599901272840553 0 -0.00064441814072219075 -0.020630328808656565 0 -0.00063031403603440624 -0.020502207216635291 0 -0.00057328537264331896 -0.020599901272840553 0 -0.0005575383318923863 -0.020544613997559632 0 -0.0008145287977881382 -0.020831800215241055 0 -0.00090701362838197745 -0.020851119016713583 0 -0.00092534220072800204 -0.021005921184557751 0 -0.00072582568938099742 -0.020662026821609183 0 -0.00082248327721668943 -0.02076305590015181 0 -0.00054992232184191553 -0.020691025382911121 0 -0.00057328537264331896 -0.020599901272840553 0 -0.00064441814072219075 -0.020630328808656565 0 -0.00054992232184191553 -0.020691025382911121 0 -0.00057328537264331896 -0.020599901272840553 0 -0.00051793030039381984 -0.020653322097441043 0 -0.0010040027361615828 -0.020969397333636099 0 -0.0010236073099411614 -0.021055483650310729 0 -0.00092534220072800204 -0.021005921184557751 0 -0.00041905983520295085 -0.020679867881967386 0 -0.0002639327784736694 -0.020597747322903006 0 -0.00045266166759480629 -0.020657521856734192 0 -0.00048663679245839934 -0.020677961600363465 0 -0.00045266166759480629 -0.020657521856734192 0 -0.00051793030039381984 -0.020653322097441043 0 -0.00057328537264331896 -0.020599901272840553 0 -0.00051793030039381984 -0.020653322097441043 0 -0.00050146778579579043 -0.020593700110449996 0 -0.00045266166759480629 -0.020657521856734192 0 -0.00051793030039381984 -0.020653322097441043 0 -0.00050146778579579043 -0.020593700110449996 0 -0.00050146778579579043 -0.020593700110449996 0 -0.0005575383318923863 -0.020544613997559632 0 -0.00051596155030049322 -0.020477350833436193 0 -0.00057328537264331896 -0.020599901272840553 0 -0.00050146778579579043 -0.020593700110449996 0 -0.0005575383318923863 -0.020544613997559632 0 -0.0002639327784736694 -0.020597747322903006 0 -0.00045266166759480629 -0.020657521856734192 0 -0.00050146778579579043 -0.020593700110449996 0 -0.0002639327784736694 -0.020597747322903006 0 -0.00050146778579579043 -0.020593700110449996 0 -0.00051596155030049322 -0.020477350833436193 0 -0.0002639327784736694 -0.020597747322903006 0 -0.00051596155030049322 -0.020477350833436193 0 -0.00036484584662703837 -0.020314434310986569 0 -0.00063031403603440624 -0.020502207216635291 0 -0.00051596155030049322 -0.020477350833436193 0 -0.00069145227581589243 -0.020311229239176314 0 -0.00063031403603440624 -0.020502207216635291 0 -0.0005575383318923863 -0.020544613997559632 0 -0.00051596155030049322 -0.020477350833436193 0 -0.00051596155030049322 -0.020477350833436193 0 -0.00069145227581589243 -0.020311229239176314 0 -0.00036484584662703837 -0.020314434310986569 0 -0.00069145227581589243 -0.020311229239176314 0 -0.00036484584662703837 -0.020314434310986569 0 -0.00038874305267536997 -0.019786295149904119 0 -6.3599125460755851e-05 -0.018819201859853616 0 -0.00038874305267536997 -0.019786295149904119 0 -0.00070817638424199752 -0.01911348099774075 0 -0.00038874305267536997 -0.019786295149904119 0 -0.00090622377846401694 -0.019886175859322949 0 -0.00070817638424199752 -0.01911348099774075 0 -0.00069145227581589243 -0.020311229239176314 0 -0.00038874305267536997 -0.019786295149904119 0 -0.00090622377846401694 -0.019886175859322949 0 -0.00069145227581589243 -0.020311229239176314 0 -0.00090622377846401694 -0.019886175859322949 0 -0.0009915145238461676 -0.020342681588605537 0 -0.0010362138958042912 -0.020549536791416554 0 -0.0010158588790355751 -0.020593796166343725 0 -0.0009915145238461676 -0.020342681588605537 0 -0.0010158588790355751 -0.020593796166343725 0 -0.00097242472468495739 -0.020539768326047123 0 -0.0009915145238461676 -0.020342681588605537 0 -0.0010362138958042912 -0.020549536791416554 0 -0.0009915145238461676 -0.020342681588605537 0 -0.0010433747382817902 -0.020439399297989894 0 -0.0009915145238461676 -0.020342681588605537 0 -0.0010433747382817902 -0.020439399297989894 0 -0.0010362320533389366 -0.020253930841003458 0 -0.0010579504819256676 -0.020433353440111129 0 -0.0010433747382817902 -0.020439399297989894 0 -0.0010362320533389366 -0.020253930841003458 0 -0.0010733371555829365 -0.020464271154940442 0 -0.0010579504819256676 -0.020433353440111129 0 -0.0010362320533389366 -0.020253930841003458 0 -0.00090622377846401694 -0.019886175859322949 0 -0.0009915145238461676 -0.020342681588605537 0 -0.0010362320533389366 -0.020253930841003458 0 -0.00090622377846401694 -0.019886175859322949 0 -0.0010362320533389366 -0.020253930841003458 0 -0.0010298783836094083 -0.020029817845751367 0 -0.0010362320533389366 -0.020253930841003458 0 -0.0010298783836094083 -0.020029817845751367 0 -0.0010830011704522559 -0.020376122736570943 0 -0.0010733371555829365 -0.020464271154940442 0 -0.0010362320533389366 -0.020253930841003458 0 -0.0010830011704522559 -0.020376122736570943 0 -0.0023191258891423518 -0.018119623178755481 0 -0.0015915000064933983 -0.018469578777190729 0 -0.0017896252109452732 -0.017976496127404453 0 -0.001495377459238726 -0.019694132872850344 0 -0.0013174043249002743 -0.019198922763977538 0 -0.0011302404606203745 -0.02062757112525716 0 -0.0010298783836094083 -0.020029817845751367 0 -0.0010830011704522559 -0.020376122736570943 0 -0.0015915000064933983 -0.018469578777190729 0 -0.0017896252109452732 -0.017976496127404453 0 -0.001366116821304804 -0.017735735894967637 0 -0.0015915000064933983 -0.018469578777190729 0 -0.00085266927637682466 -0.01788875605757257 0 -0.001366116821304804 -0.017735735894967637 0 -0.00014391896925073925 -0.01797839030971608 0 -0.00085266927637682466 -0.01788875605757257 0 -0.00070817638424199752 -0.01911348099774075 0 -0.00090622377846401694 -0.019886175859322949 0 -0.0010298783836094083 -0.020029817845751367 0 -0.00070817638424199752 -0.01911348099774075 0 -0.0013174043249002743 -0.019198922763977538 0 -0.00066856500575736885 -0.0191954518154921 0 -0.0015915000064933983 -0.018469578777190729 0 -0.00085266927637682466 -0.01788875605757257 0 -0.00070817638424199752 -0.01911348099774075 0 -0.00039383636014569642 -0.017338492288442465 0 -0.00095047445361649732 -0.017167786306063488 0 -0.00096161918173034847 -0.016853178498312391 0 -0.00014391896925073925 -0.01797839030971608 0 -0.00039383636014569642 -0.017338492288442465 0 -0.00085266927637682466 -0.01788875605757257 0 -0.00039383636014569642 -0.017338492288442465 0 -0.00085266927637682466 -0.01788875605757257 0 -0.00095047445361649732 -0.017167786306063488 0 -0.00085266927637682466 -0.01788875605757257 0 -0.00095047445361649732 -0.017167786306063488 0 -0.001366116821304804 -0.017735735894967637 0 -0.001366116821304804 -0.017735735894967637 0 -0.0018506907578799455 -0.017589615019927063 0 -0.0012147825576137835 -0.017137735176996269 0 -0.001495377459238726 -0.019694132872850344 0 -0.0014919817933214574 -0.019194340403115576 0 -0.0023191258891423518 -0.018119623178755481 0 -0.0017896252109452732 -0.017976496127404453 0 -0.0018506907578799455 -0.017589615019927063 0 -0.0017896252109452732 -0.017976496127404453 0 -0.001366116821304804 -0.017735735894967637 0 -0.0018506907578799455 -0.017589615019927063 0 -0.0010904332102567834 -0.020818686232852851 0 -0.0011038156305058662 -0.020659926430726849 0 -0.0011238274188254548 -0.020775071261861781 0 -0.00095047445361649732 -0.017167786306063488 0 -0.001366116821304804 -0.017735735894967637 0 -0.0012147825576137835 -0.017137735176996269 0 -0.0014919817933214574 -0.019194340403115576 0 -0.0011570450494750161 -0.018926794436426315 0 -0.0011570450494750161 -0.018926794436426315 0 -0.00091723660961986933 -0.018916731349460224 0 -0.0011038156305058662 -0.020659926430726849 0 -0.0011809726268173508 -0.020465082016125825 0 -0.0011111547972545096 -0.02042178614883363 0 -0.0011038156305058662 -0.020659926430726849 0 -0.0011542633381418112 -0.020636114799828333 0 -0.0011809726268173508 -0.020465082016125825 0 -0.0011038156305058662 -0.020659926430726849 0 -0.0011542633381418112 -0.020636114799828333 0 -0.0011238274188254548 -0.020775071261861781 0 -0.0011542633381418112 -0.020636114799828333 0 -0.0011809726268173508 -0.020465082016125825 0 -0.0011781648564550642 -0.020610451180633572 0 -0.0011809726268173508 -0.020465082016125825 0 -0.0011973269522918873 -0.020171522971459133 0 -0.0012086587530688374 -0.020363518228444365 0 -0.00091723660961986933 -0.018916731349460224 0 -0.0013050911424959529 -0.019561226318660113 0 -0.0011809726268173508 -0.020465082016125825 0 -0.0011111547972545096 -0.02042178614883363 0 -0.0011973269522918873 -0.020171522971459133 0 -0.0011111547972545096 -0.02042178614883363 0 -0.0011973269522918873 -0.020171522971459133 0 -0.0012700504765725583 -0.01956192176801648 0 -0.00095047445361649732 -0.017167786306063488 0 -0.00056911464996265977 -0.01724705501501243 0 -0.00096161918173034847 -0.016853178498312391 0 -0.00095047445361649732 -0.017167786306063488 0 -0.0012147825576137835 -0.017137735176996269 0 -0.00056911464996265977 -0.01724705501501243 0 -0.00056911464996265977 -0.01724705501501243 0 -0.00096161918173034847 -0.016853178498312391 0 -0.0013863590548243497 -0.017926039945246955 0 -0.0022787432895548907 -0.017026494133199226 0 -0.00096161918173034847 -0.016853178498312391 0 -0.0013863590548243497 -0.017926039945246955 0 -0.00056911464996265977 -0.01724705501501243 0 -0.0013863590548243497 -0.017926039945246955 0 -0.0012700504765725583 -0.01956192176801648 0 -0.0012700504765725583 -0.01956192176801648 0 -0.0012422635442648675 -0.020237351643772682 0 -0.001586467602722917 -0.020480124033618097 0 -0.0011973269522918873 -0.020171522971459133 0 -0.0012700504765725583 -0.01956192176801648 0 -0.0012422635442648675 -0.020237351643772682 0 -0.0011973269522918873 -0.020171522971459133 0 -0.0012422635442648675 -0.020237351643772682 0 -0.0012086587530688374 -0.020363518228444365 0 -0.0012422635442648675 -0.020237351643772682 0 -0.0013438862191928302 -0.02065245245480981 0 -0.0012086587530688374 -0.020363518228444365 0 -0.0012422635442648675 -0.020237351643772682 0 -0.0013438862191928302 -0.02065245245480981 0 -0.001586467602722917 -0.020480124033618097 0 -0.0013581691646491192 -0.02059636302120648 0 -0.0017368547939084389 -0.020532103630206876 0 -0.00198365707957809 -0.020584538349841593 0 -0.00182689296385392 -0.020310649293743124 0 -0.0017897143718983556 -0.020819900387035746 0 -0.0013438862191928302 -0.02065245245480981 0 -0.00182689296385392 -0.020310649293743124 0 -0.0017897143718983556 -0.020819900387035746 0 -0.0013438862191928302 -0.02065245245480981 0 -0.0015175690913999172 -0.020900131484829026 0 -0.0013549689457782853 -0.02099276118809594 0 -0.0013438862191928302 -0.02065245245480981 0 -0.0017897143718983556 -0.020819900387035746 0 -0.0015175690913999172 -0.020900131484829026 0 -0.0015175690913999172 -0.020900131484829026 0 -0.0013549689457782853 -0.02099276118809594 0 -0.001560676854373921 -0.021139558180528643 0 -0.0017897143718983556 -0.020819900387035746 0 -0.0015175690913999172 -0.020900131484829026 0 -0.001560676854373921 -0.021139558180528643 0 -0.0017897143718983556 -0.020819900387035746 0 -0.0017866448819383652 -0.021204840885044381 0 -0.001560676854373921 -0.021139558180528643 0 -0.0012329874891011628 -0.021073110144571118 0 -0.0013155677560267543 -0.021169199911780318 0 -0.0013549689457782853 -0.02099276118809594 0 -0.0012329874891011628 -0.021073110144571118 0 -0.0013155677560267543 -0.021169199911780318 0 -0.0012566950448937798 -0.021270048652992934 0 -0.0013549689457782853 -0.02099276118809594 0 -0.0014059533174005667 -0.021196795373444176 0 -0.001560676854373921 -0.021139558180528643 0 -0.0013155677560267543 -0.021169199911780318 0 -0.0013549689457782853 -0.02099276118809594 0 -0.0014059533174005667 -0.021196795373444176 0 -0.0013438862191928302 -0.02065245245480981 0 -0.0013549689457782853 -0.02099276118809594 0 -0.0012321122221295626 -0.020853660944069478 0 -0.0012329874891011628 -0.021073110144571118 0 -0.0013549689457782853 -0.02099276118809594 0 -0.0012321122221295626 -0.020853660944069478 0 -0.0012329874891011628 -0.021073110144571118 0 -0.0012321122221295626 -0.020853660944069478 0 -0.0011736992637464466 -0.021039169662584054 0 -0.0012321122221295626 -0.020853660944069478 0 -0.001208273895123155 -0.02061631828498842 0 -0.0011689035253236652 -0.020803488618544103 0 -0.0013438862191928302 -0.02065245245480981 0 -0.001208273895123155 -0.02061631828498842 0 -0.0012086587530688374 -0.020363518228444365 0 -0.0013438862191928302 -0.02065245245480981 0 -0.0012321122221295626 -0.020853660944069478 0 -0.001208273895123155 -0.02061631828498842 0 -0.0011809726268173508 -0.020465082016125825 0 -0.0012086587530688374 -0.020363518228444365 0 -0.0011781648564550642 -0.020610451180633572 0 -0.001208273895123155 -0.02061631828498842 0 -0.0012086587530688374 -0.020363518228444365 0 -0.0011781648564550642 -0.020610451180633572 0 -0.001208273895123155 -0.02061631828498842 0 -0.0011781648564550642 -0.020610451180633572 0 -0.0011689035253236652 -0.020803488618544103 0 -0.0011781648564550642 -0.020610451180633572 0 -0.0011484770929516195 -0.020724735114531288 0 -0.0011689035253236652 -0.020803488618544103 0 -0.0011484770929516195 -0.020724735114531288 0 -0.0011204501506772832 -0.02084761337331402 0 -0.0011689035253236652 -0.020803488618544103 0 -0.0011484770929516195 -0.020724735114531288 0 -0.0011204501506772832 -0.02084761337331402 0 -0.0011257662683735313 -0.020741936805519588 0 -0.0011204501506772832 -0.02084761337331402 0 -0.0011689035253236652 -0.020803488618544103 0 -0.0011202619675313231 -0.021027391111866682 0 -0.0011689035253236652 -0.020803488618544103 0 -0.0011736992637464466 -0.021039169662584054 0 -0.0011202619675313231 -0.021027391111866682 0 -0.0012321122221295626 -0.020853660944069478 0 -0.0011689035253236652 -0.020803488618544103 0 -0.0011736992637464466 -0.021039169662584054 0 -0.0011202619675313231 -0.021027391111866682 0 -0.0011152204644702052 -0.021254166858474307 0 -0.0010688556668316136 -0.021224346151753715 0 -0.0011736992637464466 -0.021039169662584054 0 -0.0011202619675313231 -0.021027391111866682 0 -0.0011152204644702052 -0.021254166858474307 0 -0.0011152204644702052 -0.021254166858474307 0 -0.0010272257332478759 -0.021457039764013724 0 -0.0011121983980109963 -0.021427043036651706 0 -0.0011152204644702052 -0.021254166858474307 0 -0.0011760045104524616 -0.021254784169793546 0 -0.0011121983980109963 -0.021427043036651706 0 -0.0012329874891011628 -0.021073110144571118 0 -0.0011760045104524616 -0.021254784169793546 0 -0.0012566950448937798 -0.021270048652992934 0 -0.0011736992637464466 -0.021039169662584054 0 -0.0011152204644702052 -0.021254166858474307 0 -0.0011760045104524616 -0.021254784169793546 0 -0.0012329874891011628 -0.021073110144571118 0 -0.0011736992637464466 -0.021039169662584054 0 -0.0011760045104524616 -0.021254784169793546 0 -0.00096823025384859399 -0.021535313753983574 0 -0.0010272257332478759 -0.021457039764013724 0 -0.0010145027371808656 -0.021312711547540039 0 -0.00096823025384859399 -0.021535313753983574 0 -0.0010145027371808656 -0.021312711547540039 0 -0.0009012708678161331 -0.021223598909778221 0 -0.0011152204644702052 -0.021254166858474307 0 -0.0010272257332478759 -0.021457039764013724 0 -0.0010688556668316136 -0.021224346151753715 0 -0.0010272257332478759 -0.021457039764013724 0 -0.0010688556668316136 -0.021224346151753715 0 -0.0010145027371808656 -0.021312711547540039 0 -0.0010688556668316136 -0.021224346151753715 0 -0.0010145027371808656 -0.021312711547540039 0 -0.001038817101269899 -0.021058863235695762 0 -0.0011202619675313231 -0.021027391111866682 0 -0.0010688556668316136 -0.021224346151753715 0 -0.001038817101269899 -0.021058863235695762 0 -0.0010145027371808656 -0.021312711547540039 0 -0.0009012708678161331 -0.021223598909778221 0 -0.001038817101269899 -0.021058863235695762 0 -0.0009012708678161331 -0.021223598909778221 0 -0.001038817101269899 -0.021058863235695762 0 -0.00088302580609741631 -0.020917971669637759 0 -0.001038817101269899 -0.021058863235695762 0 -0.0010847982801806945 -0.020836867909937436 0 -0.00088302580609741631 -0.020917971669637759 0 -0.0011204501506772832 -0.02084761337331402 0 -0.001038817101269899 -0.021058863235695762 0 -0.0010847982801806945 -0.020836867909937436 0 -0.0011204501506772832 -0.02084761337331402 0 -0.0011202619675313231 -0.021027391111866682 0 -0.001038817101269899 -0.021058863235695762 0 -0.0011204501506772832 -0.02084761337331402 0 -0.0010847982801806945 -0.020836867909937436 0 -0.0011257662683735313 -0.020741936805519588 0 -0.0010847982801806945 -0.020836867909937436 0 -0.0011362599939145981 -0.020739440680390304 0 -0.0011257662683735313 -0.020741936805519588 0 -0.0011362599939145981 -0.020739440680390304 0 -0.0013220146817255491 -0.02074041666892374 0 -0.001268433377194582 -0.020547406802073939 0 -0.0010847982801806945 -0.020836867909937436 0 -0.0011362599939145981 -0.020739440680390304 0 -0.00088302580609741631 -0.020917971669637759 0 -0.0012558138341843075 -0.020267851397394333 0 -0.0009242166650440584 -0.021923753588602119 0 -0.0011362599939145981 -0.020739440680390304 0 -0.0012569129628849775 -0.020826180381042281 0 -0.0013220146817255491 -0.02074041666892374 0 -0.0011362599939145981 -0.020739440680390304 0 -0.0012569129628849775 -0.020826180381042281 0 -0.001123714483758009 -0.020790484931642688 0 -0.0012569129628849775 -0.020826180381042281 0 -0.0011660404085356887 -0.020887682956804304 0 -0.001123714483758009 -0.020790484931642688 0 -0.0012569129628849775 -0.020826180381042281 0 -0.0011660404085356887 -0.020887682956804304 0 -0.0012952406097116397 -0.020936913740597494 0 -0.001123714483758009 -0.020790484931642688 0 -0.0011127610245473087 -0.020793347524086698 0 -0.001108933745276359 -0.020871221543136687 0 -0.0011660404085356887 -0.020887682956804304 0 -0.001123714483758009 -0.020790484931642688 0 -0.001108933745276359 -0.020871221543136687 0 -0.0011362599939145981 -0.020739440680390304 0 -0.001123714483758009 -0.020790484931642688 0 -0.0011257662683735313 -0.020741936805519588 0 -0.0011257662683735313 -0.020741936805519588 0 -0.001138387390190805 -0.020702776063614783 0 -0.0011127610245473087 -0.020793347524086698 0 -0.0011484770929516195 -0.020724735114531288 0 -0.0011257662683735313 -0.020741936805519588 0 -0.001138387390190805 -0.020702776063614783 0 -0.0011781648564550642 -0.020610451180633572 0 -0.0011484770929516195 -0.020724735114531288 0 -0.001138387390190805 -0.020702776063614783 0 -0.0011542633381418112 -0.020636114799828333 0 -0.0011781648564550642 -0.020610451180633572 0 -0.001138387390190805 -0.020702776063614783 0 -0.001138387390190805 -0.020702776063614783 0 -0.0011127610245473087 -0.020793347524086698 0 -0.0011238274188254548 -0.020775071261861781 0 -0.0011542633381418112 -0.020636114799828333 0 -0.001138387390190805 -0.020702776063614783 0 -0.0011238274188254548 -0.020775071261861781 0 -0.001123714483758009 -0.020790484931642688 0 -0.0011257662683735313 -0.020741936805519588 0 -0.0011127610245473087 -0.020793347524086698 0 -0.0011127610245473087 -0.020793347524086698 0 -0.0010921401691172644 -0.020897903119522523 0 -0.0011238274188254548 -0.020775071261861781 0 -0.0011127610245473087 -0.020793347524086698 0 -0.0010921401691172644 -0.020897903119522523 0 -0.001108933745276359 -0.020871221543136687 0 -0.0010904332102567834 -0.020818686232852851 0 -0.0011238274188254548 -0.020775071261861781 0 -0.0011079941296198968 -0.020875472418342599 0 -0.0010921401691172644 -0.020897903119522523 0 -0.0011238274188254548 -0.020775071261861781 0 -0.0011079941296198968 -0.020875472418342599 0 -0.0011025614093352707 -0.02088669877686946 0 -0.0010904332102567834 -0.020818686232852851 0 -0.0011079941296198968 -0.020875472418342599 0 -0.0010921032893470518 -0.020923377333559399 0 -0.0011025614093352707 -0.02088669877686946 0 -0.0011079941296198968 -0.020875472418342599 0 -0.0010921401691172644 -0.020897903119522523 0 -0.0010705763984769595 -0.021004032435943201 0 -0.0010922795761928649 -0.020935038316921457 0 -0.0010921401691172644 -0.020897903119522523 0 -0.0011079941296198968 -0.020875472418342599 0 -0.0010922795761928649 -0.020935038316921457 0 -0.0010921032893470518 -0.020923377333559399 0 -0.0011079941296198968 -0.020875472418342599 0 -0.0010922795761928649 -0.020935038316921457 0 -0.0010921032893470518 -0.020923377333559399 0 -0.0010705763984769595 -0.021004032435943201 0 -0.0010922795761928649 -0.020935038316921457 0 -0.0010921032893470518 -0.020923377333559399 0 -0.0010705763984769595 -0.021004032435943201 0 -0.0010389978072646089 -0.021174351850338557 0 -0.00091428174365924928 -0.021055271773226237 0 -0.0010794140683071294 -0.021098165428379317 0 -0.00093468296293750658 -0.021148491115601006 0 -0.00098945051922048497 -0.021023732259016083 0 -0.0010389978072646089 -0.021174351850338557 0 -0.0010705763984769595 -0.021004032435943201 0 -0.0010389978072646089 -0.021174351850338557 0 -0.0010980804397168736 -0.020998388892531132 0 -0.001331651343491836 -0.021680805812980482 0 -0.0010389978072646089 -0.021174351850338557 0 -0.0013028475148555425 -0.021115353985718635 0 -0.0010389978072646089 -0.021174351850338557 0 -0.0013028475148555425 -0.021115353985718635 0 -0.0010980804397168736 -0.020998388892531132 0 -0.0011660404085356887 -0.020887682956804304 0 -0.0013028475148555425 -0.021115353985718635 0 -0.0010980804397168736 -0.020998388892531132 0 -0.0011660404085356887 -0.020887682956804304 0 -0.0013028475148555425 -0.021115353985718635 0 -0.0012952406097116397 -0.020936913740597494 0 -0.0010921401691172644 -0.020897903119522523 0 -0.001108933745276359 -0.020871221543136687 0 -0.0010980804397168736 -0.020998388892531132 0 -0.0011660404085356887 -0.020887682956804304 0 -0.001108933745276359 -0.020871221543136687 0 -0.0010980804397168736 -0.020998388892531132 0 -0.0010921401691172644 -0.020897903119522523 0 -0.0010705763984769595 -0.021004032435943201 0 -0.0010980804397168736 -0.020998388892531132 0 -0.001187821958692102 -0.024512517074016738 0 -0.0015161001608754794 -0.023981578816060913 0 -0.00098368498336132799 -0.024272818736657865 0 -0.001187821958692102 -0.024512517074016738 0 -0.00098368498336132799 -0.024272818736657865 0 -0.0008478439436102567 -0.024530541013590996 0 -0.0013028475148555425 -0.021115353985718635 0 -0.0015114849935576539 -0.020925440137052966 0 -0.0017741642576440762 -0.021498954354633622 0 -0.0013500496132932101 -0.022676088593389522 0 -0.0016182245526853139 -0.022729590684736012 0 -0.0013028475148555425 -0.021115353985718635 0 -0.0012952406097116397 -0.020936913740597494 0 -0.0015114849935576539 -0.020925440137052966 0 -0.001331651343491836 -0.021680805812980482 0 -0.0013028475148555425 -0.021115353985718635 0 -0.0017741642576440762 -0.021498954354633622 0 -0.0010292128825435919 -0.023656886153041706 0 -0.0015161001608754794 -0.023981578816060913 0 -0.00098368498336132799 -0.024272818736657865 0 -0.0010292128825435919 -0.023656886153041706 0 -0.00098368498336132799 -0.024272818736657865 0 -0.00063115519564181709 -0.024154838785377903 0 -0.00098368498336132799 -0.024272818736657865 0 -0.00063115519564181709 -0.024154838785377903 0 -0.00062041534354379273 -0.024484419258737473 0 -0.00063115519564181709 -0.024154838785377903 0 -0.00062041534354379273 -0.024484419258737473 0 -0.00031661125501541022 -0.024457314357612874 0 -0.00062041534354379273 -0.024484419258737473 0 -0.00039359953624454205 -0.024660895935489684 0 -0.00031661125501541022 -0.024457314357612874 0 -0.00098368498336132799 -0.024272818736657865 0 -0.00062041534354379273 -0.024484419258737473 0 -0.0008478439436102567 -0.024530541013590996 0 -0.00062041534354379273 -0.024484419258737473 0 -0.0008478439436102567 -0.024530541013590996 0 -0.00062012235541967684 -0.024667366133703614 0 -0.0008478439436102567 -0.024530541013590996 0 -0.00079585526078151676 -0.024678209646003958 0 -0.00062012235541967684 -0.024667366133703614 0 -0.00062041534354379273 -0.024484419258737473 0 -0.00062012235541967684 -0.024667366133703614 0 -0.00039359953624454205 -0.024660895935489684 0 -0.00062012235541967684 -0.024667366133703614 0 -0.00040896946807047417 -0.024784433817908263 0 -0.00039359953624454205 -0.024660895935489684 0 -0.00040896946807047417 -0.024784433817908263 0 -0.00064194371643672555 -0.024793974433302807 0 -0.00054399344430631211 -0.024863044871308415 0 -0.00062012235541967684 -0.024667366133703614 0 -0.00040896946807047417 -0.024784433817908263 0 -0.00064194371643672555 -0.024793974433302807 0 -0.00079585526078151676 -0.024678209646003958 0 -0.00062012235541967684 -0.024667366133703614 0 -0.00064194371643672555 -0.024793974433302807 0 -0.00079585526078151676 -0.024678209646003958 0 -0.00064194371643672555 -0.024793974433302807 0 -0.00081393430346675497 -0.024749254475535547 0 -0.00081393430346675497 -0.024749254475535547 0 -0.00092135294623493563 -0.024715498276275387 0 -0.00069339574505366869 -0.024812457794112258 0 -0.00064194371643672555 -0.024793974433302807 0 -0.00081393430346675497 -0.024749254475535547 0 -0.00069339574505366869 -0.024812457794112258 0 -0.001187821958692102 -0.024512517074016738 0 -0.0008478439436102567 -0.024530541013590996 0 -0.00079585526078151676 -0.024678209646003958 0 -0.001187821958692102 -0.024512517074016738 0 -0.00079585526078151676 -0.024678209646003958 0 -0.00081393430346675497 -0.024749254475535547 0 -0.0013500496132932101 -0.022676088593389522 0 -0.0011564073950045544 -0.022882323789270995 0 -0.0012569129628849775 -0.020826180381042281 0 -0.0015114849935576539 -0.020925440137052966 0 -0.0013220146817255491 -0.02074041666892374 0 -0.0012569129628849775 -0.020826180381042281 0 -0.0012952406097116397 -0.020936913740597494 0 -0.0015114849935576539 -0.020925440137052966 0 -0.001187821958692102 -0.024512517074016738 0 -0.00081393430346675497 -0.024749254475535547 0 -0.00092135294623493563 -0.024715498276275387 0 -0.00092135294623493563 -0.024715498276275387 0 -0.00069339574505366869 -0.024812457794112258 0 -0.00077768421712043855 -0.024808555606228719 0 -0.0011564073950045544 -0.022882323789270995 0 -0.0009242166650440584 -0.021923753588602119 0 -0.00056706523743594488 -0.024849094204440043 0 -0.00066402618128428431 -0.024830749204825846 0 -0.00061810118615913056 -0.024853966835865868 0 -0.00069339574505366869 -0.024812457794112258 0 -0.00056706523743594488 -0.024849094204440043 0 -0.00066402618128428431 -0.024830749204825846 0 -0.00066402618128428431 -0.024830749204825846 0 -0.00077768421712043855 -0.024808555606228719 0 -0.00061810118615913056 -0.024853966835865868 0 -0.0009242166650440584 -0.021923753588602119 0 -0.00053878934508677439 -0.023175527621964832 0 -0.00084649748444182626 -0.020783361568797676 0 -0.0009242166650440584 -0.021923753588602119 0 -0.00069339574505366869 -0.024812457794112258 0 -0.00066402618128428431 -0.024830749204825846 0 -0.00077768421712043855 -0.024808555606228719 0 -0.0009012708678161331 -0.021223598909778221 0 -0.00081876622183112981 -0.020798466238849209 0 -0.00058336406794971666 -0.021177857597110147 0 -0.0009012708678161331 -0.021223598909778221 0 -0.00058336406794971666 -0.021177857597110147 0 -0.00064892664824054216 -0.021597147139113183 0 -0.00056706523743594488 -0.024849094204440043 0 -0.00061810118615913056 -0.024853966835865868 0 -0.00044825810496282293 -0.02485028154763215 0 -0.00053878934508677439 -0.023175527621964832 0 -0.00032768174502523689 -0.023340935136905688 0 -0.00061810118615913056 -0.024853966835865868 0 -0.00044825810496282293 -0.02485028154763215 0 -0.00041025562802922861 -0.024871167689119563 0 -0.00019398186145672683 -0.021882530095971461 0 -0.00064892664824054216 -0.021597147139113183 0 -0.0007641766334672308 -0.022579982246356389 0 -0.00058336406794971666 -0.021177857597110147 0 -0.00019398186145672683 -0.021882530095971461 0 -0.00064892664824054216 -0.021597147139113183 0 -0.00096823025384859399 -0.021535313753983574 0 -0.00064892664824054216 -0.021597147139113183 0 -0.0007641766334672308 -0.022579982246356389 0 -0.00096823025384859399 -0.021535313753983574 0 -0.0009012708678161331 -0.021223598909778221 0 -0.00064892664824054216 -0.021597147139113183 0 -0.00010351307798685596 -0.024868498515072734 0 -0.0001549862889257507 -0.024880326830763199 0 -0.00016350389209306038 -0.024861664098484601 0 -0.00010351307798685596 -0.024868498515072734 0 -0.0001549862889257507 -0.024880326830763199 0 -0.00013439539900761099 -0.024886944177221183 0 -0.00031074619030026544 -0.024878468227685406 0 -0.00019508278635048162 -0.024874167046463488 0 -0.00044825810496282293 -0.02485028154763215 0 -0.00048139295773935026 -0.024856358849757253 0 -0.00016350389209306038 -0.024861664098484601 0 -0.00044825810496282293 -0.02485028154763215 0 -0.00041025562802922861 -0.024871167689119563 0 -0.00016350389209306038 -0.024861664098484601 0 -0.00056706523743594488 -0.024849094204440043 0 -0.00044825810496282293 -0.02485028154763215 0 -0.00048139295773935026 -0.024856358849757253 0 -0.0001549862889257507 -0.024880326830763199 0 -0.00015844549994719175 -0.024898007367174166 0 -0.00013439539900761099 -0.024886944177221183 0 -0.0001549862889257507 -0.024880326830763199 0 -0.00024665626431915504 -0.024897541853467653 0 -0.00015844549994719175 -0.024898007367174166 0 -0.00031074619030026544 -0.024878468227685406 0 -0.00039108380127343212 -0.024867787824020125 0 -0.00069339574505366869 -0.024812457794112258 0 -0.00056706523743594488 -0.024849094204440043 0 -0.00054399344430631211 -0.024863044871308415 0 -0.00056706523743594488 -0.024849094204440043 0 -0.00048139295773935026 -0.024856358849757253 0 -0.00054399344430631211 -0.024863044871308415 0 -0.00064194371643672555 -0.024793974433302807 0 -0.00069339574505366869 -0.024812457794112258 0 -0.00054399344430631211 -0.024863044871308415 0 -0.00040075954595622179 -0.024776691171814837 0 -0.00039108380127343212 -0.024867787824020125 0 -0.00024665626431915504 -0.024897541853467653 0 -0.00018989429336842842 -0.024890818471121446 0 -0.00022778950832772328 -0.024857658023289927 0 -0.00016672713472333265 -0.024885675576070992 0 -0.00018989429336842842 -0.024890818471121446 0 -0.00022778950832772328 -0.024857658023289927 0 -8.3618810189864861e-05 -0.024951100074962967 0 -0.00011088350692074548 -0.024856844853946746 0 -0.00022778950832772328 -0.024857658023289927 0 -0.00016672713472333265 -0.024885675576070992 0 -0.00012953577298430462 -0.024872645650945199 0 -0.00022778950832772328 -0.024857658023289927 0 -0.00010023761111498553 -0.024914398164811325 0 -0.00022154492235837501 -0.02485811845309123 0 -0.00018989429336842842 -0.024890818471121446 0 -0.00015844549994719175 -0.024898007367174166 0 -0.00014488654391639608 -0.024900164212116757 0 -0.00016672713472333265 -0.024885675576070992 0 -0.00014488654391639608 -0.024900164212116757 0 -0.00013897820156260891 -0.024893863314359672 0 -0.00016672713472333265 -0.024885675576070992 0 -0.00018989429336842842 -0.024890818471121446 0 -0.00014488654391639608 -0.024900164212116757 0 -0.00024665626431915504 -0.024897541853467653 0 -0.00018989429336842842 -0.024890818471121446 0 -0.00015844549994719175 -0.024898007367174166 0 -0.00015844549994719175 -0.024898007367174166 0 -0.00014488654391639608 -0.024900164212116757 0 -9.0029046596489011e-05 -0.024925570685949555 0 -0.00011507840084553596 -0.024896578811531758 0 -9.0029046596489011e-05 -0.024925570685949555 0 -9.9392971356082062e-05 -0.02489907406101366 0 -0.00015844549994719175 -0.024898007367174166 0 -0.00011507840084553596 -0.024896578811531758 0 -9.0029046596489011e-05 -0.024925570685949555 0 -0.00015844549994719175 -0.024898007367174166 0 -0.00013439539900761099 -0.024886944177221183 0 -0.00011507840084553596 -0.024896578811531758 0 -0.00010351307798685596 -0.024868498515072734 0 -0.00013439539900761099 -0.024886944177221183 0 -0.00011507840084553596 -0.024896578811531758 0 -3.6763912418560208e-08 -0.024999946376876574 0 -3.4891279096399788e-05 -0.024972715225045492 0 -5.4276862167341643e-05 -0.024951769615065292 0 -9.0029046596489011e-05 -0.024925570685949555 0 -3.4891279096399788e-05 -0.024972715225045492 0 -5.4276862167341643e-05 -0.024951769615065292 0 -0.00014488654391639608 -0.024900164212116757 0 -9.0029046596489011e-05 -0.024925570685949555 0 -0.00012508062904169714 -0.024906200821392378 0 -9.0029046596489011e-05 -0.024925570685949555 0 -4.0546209983988349e-05 -0.024974119703388149 0 -3.4891279096399788e-05 -0.024972715225045492 0 -8.9811640758351608e-05 -0.024936011249575334 0 -8.6663943902365157e-05 -0.024938433946394015 0 -4.0546209983988349e-05 -0.024974119703388149 0 -3.4891279096399788e-05 -0.024972715225045492 0 -2.513812769994265e-05 -0.024981355699279256 0 -3.4891279096399788e-05 -0.024972715225045492 0 -4.3703325891729776e-08 -0.024999897462112296 0 -2.513812769994265e-05 -0.024981355699279256 0 -3.6763912418560208e-08 -0.024999946376876574 0 -3.4891279096399788e-05 -0.024972715225045492 0 -4.3703325891729776e-08 -0.024999897462112296 0 -2.0021468191810816e-10 -0.024999999973648969 0 -3.1516597571064121e-07 -0.024999702396166831 0 -1.5803084443538607e-10 -0.024999999508541801 0 -4.3703325891729776e-08 -0.024999897462112296 0 -2.513812769994265e-05 -0.024981355699279256 0 -3.2247405850618518e-05 -0.024960999617577882 0 2.9659906898118896e-08 -0.025000019753485158 0 -3.9751865083744432e-05 -0.02495028196420343 0 -4.0546209983988349e-05 -0.024974119703388149 0 -2.513812769994265e-05 -0.024981355699279256 0 -3.2247405850618518e-05 -0.024960999617577882 0 -8.6663943902365157e-05 -0.024938433946394015 0 -3.9751865083744432e-05 -0.02495028196420343 0 -0.00012508062904169714 -0.024906200821392378 0 -0.00012778368678658457 -0.024886929370482383 0 -0.00013897820156260891 -0.024893863314359672 0 -0.00014488654391639608 -0.024900164212116757 0 -0.00012508062904169714 -0.024906200821392378 0 -0.00013897820156260891 -0.024893863314359672 0 -0.00012399975110662648 -0.024892847468350663 0 -0.00010023761111498553 -0.024914398164811325 0 -0.00016672713472333265 -0.024885675576070992 0 -0.00013897820156260891 -0.024893863314359672 0 -0.00012953577298430462 -0.024872645650945199 0 -0.00012778368678658457 -0.024886929370482383 0 -0.00013897820156260891 -0.024893863314359672 0 -0.00013366122241320177 -0.024883129806703947 0 -3.3808153963357802e-05 -0.024932965557058984 0 -3.2856178486953385e-05 -0.024933548169954769 0 -3.4693812494273658e-05 -0.024938030415827973 0 -3.9751865083744432e-05 -0.02495028196420343 0 -0.00010023761111498553 -0.024914398164811325 0 -3.9751865083744432e-05 -0.02495028196420343 0 -1.4050865624295092e-05 -0.024973416390088453 0 -3.1516597571064121e-07 -0.024999702396166831 0 -1.5803084443538607e-10 -0.024999999508541801 0 -5.973914246774532e-08 -0.024999873039825392 0 -1.5803084443538607e-10 -0.024999999508541801 0 -5.973914246774532e-08 -0.024999873039825392 0 -6.2023131082400593e-11 -0.024999999725163979 0 -3.2856178486953385e-05 -0.024933548169954769 0 -3.4060254131469567e-05 -0.024938494167989978 0 -3.4693812494273658e-05 -0.024938030415827973 0 -3.7150317792034999e-05 -0.024825988087740135 0 -6.4195443094394218e-08 -0.024999364032741812 0 -4.1224440460257192e-05 -0.024801496255162255 0 -5.973914246774532e-08 -0.024999873039825392 0 -6.2023131082400593e-11 -0.024999999725163979 0 -3.9585087735047191e-11 -0.024999999699455419 0 -3.4060254131469567e-05 -0.024938494167989978 0 -3.4693812494273658e-05 -0.024938030415827973 0 -3.626329365807003e-05 -0.024945753914568072 0 -1.4050865624295092e-05 -0.024973416390088453 0 -2.1962211307137394e-05 -0.024964588450149674 0 -2.5874498474627962e-05 -0.024890025519843904 0 -2.1962211307137394e-05 -0.024964588450149674 0 -3.7150317792034999e-05 -0.024825988087740135 0 -0.00010814311792547941 -0.024791593259286468 0 -4.1224440460257192e-05 -0.024801496255162255 0 -0.00010023761111498553 -0.024914398164811325 0 -2.5874498474627962e-05 -0.024890025519843904 0 -3.7150317792034999e-05 -0.024825988087740135 0 -0.00011088350692074548 -0.024856844853946746 0 -0.00010814311792547941 -0.024791593259286468 0 -8.3618810189864861e-05 -0.024951100074962967 0 -3.7150317792034999e-05 -0.024825988087740135 0 -0.00011088350692074548 -0.024856844853946746 0 -0.00011088350692074548 -0.024856844853946746 0 -0.00022778950832772328 -0.024857658023289927 0 -0.00010814311792547941 -0.024791593259286468 0 -0.00022778950832772328 -0.024857658023289927 0 -0.00025795896583715144 -0.024760460137598993 0 -0.00010814311792547941 -0.024791593259286468 0 -0.00040896946807047417 -0.024784433817908263 0 -0.00024665626431915504 -0.024897541853467653 0 -0.00022778950832772328 -0.024857658023289927 0 -0.00040896946807047417 -0.024784433817908263 0 -0.00022778950832772328 -0.024857658023289927 0 -0.00025795896583715144 -0.024760460137598993 0 -0.00025795896583715144 -0.024760460137598993 0 -0.00039359953624454205 -0.024660895935489684 0 -0.00019723781986153159 -0.024692584502121116 0 -0.00040896946807047417 -0.024784433817908263 0 -0.00025795896583715144 -0.024760460137598993 0 -0.00039359953624454205 -0.024660895935489684 0 -0.00025795896583715144 -0.024760460137598993 0 -0.00010814311792547941 -0.024791593259286468 0 -0.00019723781986153159 -0.024692584502121116 0 -0.00010814311792547941 -0.024791593259286468 0 -0.00019723781986153159 -0.024692584502121116 0 -4.1224440460257192e-05 -0.024801496255162255 0 -0.00019723781986153159 -0.024692584502121116 0 -0.00010151864971094997 -0.024593438264048216 0 -4.1224440460257192e-05 -0.024801496255162255 0 -0.00019723781986153159 -0.024692584502121116 0 -0.00031661125501541022 -0.024457314357612874 0 -0.00010151864971094997 -0.024593438264048216 0 -0.00039359953624454205 -0.024660895935489684 0 -0.00019723781986153159 -0.024692584502121116 0 -0.00031661125501541022 -0.024457314357612874 0 -0.00036907401528126464 -0.024155512937065075 0 -0.00063115519564181709 -0.024154838785377903 0 -0.00031661125501541022 -0.024457314357612874 0 -0.00016784364819948875 -0.02435658886364447 0 -0.00036907401528126464 -0.024155512937065075 0 -0.00031661125501541022 -0.024457314357612874 0 -3.0568266444257373e-05 -0.024604329909828096 0 -0.00016784364819948875 -0.02435658886364447 0 -0.00010151864971094997 -0.024593438264048216 0 -0.00016784364819948875 -0.02435658886364447 0 -0.00031661125501541022 -0.024457314357612874 0 -0.00010151864971094997 -0.024593438264048216 0 -3.0568266444257373e-05 -0.024604329909828096 0 -0.00010151864971094997 -0.024593438264048216 0 -2.8783371160331939e-06 -0.024798031070708569 0 -0.00010151864971094997 -0.024593438264048216 0 -2.8783371160331939e-06 -0.024798031070708569 0 -4.1224440460257192e-05 -0.024801496255162255 0 2.4881210485199593e-06 -0.0247289779251985 0 -3.0568266444257373e-05 -0.024604329909828096 0 -2.8783371160331939e-06 -0.024798031070708569 0 5.7611856700322666e-08 -0.024999686223921368 0 2.4881210485199593e-06 -0.0247289779251985 0 -2.8783371160331939e-06 -0.024798031070708569 0 5.7611856700322666e-08 -0.024999686223921368 0 -2.8783371160331939e-06 -0.024798031070708569 0 -6.4195443094394218e-08 -0.024999364032741812 0 -2.8783371160331939e-06 -0.024798031070708569 0 -6.4195443094394218e-08 -0.024999364032741812 0 -4.1224440460257192e-05 -0.024801496255162255 0 -5.5985867050325533e-08 -0.024999714681344931 0 -0.0002486804891232561 -0.024767756386575204 0 -0.0002903715348535976 -0.024531062434432871 0 -5.5985867050325533e-08 -0.024999714681344931 0 -0.0002903715348535976 -0.024531062434432871 0 -1.5345452162679517e-07 -0.024999533155484102 0 -5.5985867050325533e-08 -0.024999714681344931 0 -0.0002486804891232561 -0.024767756386575204 0 -0.00013121430562542898 -0.024890579701276821 0 -0.0002486804891232561 -0.024767756386575204 0 -0.00059750470707911098 -0.024630429342102821 0 -0.0002903715348535976 -0.024531062434432871 0 -0.0002486804891232561 -0.024767756386575204 0 -0.00059750470707911098 -0.024630429342102821 0 -0.00049301856862215567 -0.024598848702999943 0 -0.00051517210659585318 -0.023681258838928604 0 -0.00028120339692982587 -0.024166170753608652 0 -0.00021534951034089052 -0.023525708144121533 0 -0.00054394020993162387 -0.024143661112593112 0 -0.00032338652819804828 -0.024461426417913712 0 -0.00051517210659585318 -0.023681258838928604 0 -0.00028120339692982587 -0.024166170753608652 0 -0.0002903715348535976 -0.024531062434432871 0 -0.0002903715348535976 -0.024531062434432871 0 -0.0001114471397706236 -0.02431397030173001 0 -0.00014601611748041833 -0.024541386283260469 0 -0.0002903715348535976 -0.024531062434432871 0 -0.00014601611748041833 -0.024541386283260469 0 -0.00012201898880882704 -0.024775377831816003 0 -0.00028120339692982587 -0.024166170753608652 0 -0.0002903715348535976 -0.024531062434432871 0 -0.0001114471397706236 -0.02431397030173001 0 -0.00028120339692982587 -0.024166170753608652 0 -0.0001114471397706236 -0.02431397030173001 0 -0.00010810587254362524 -0.024148050898773966 0 -0.0001114471397706236 -0.02431397030173001 0 -0.00014601611748041833 -0.024541386283260469 0 9.3235792103942724e-05 -0.024275500780067773 0 -0.0002903715348535976 -0.024531062434432871 0 -0.00012201898880882704 -0.024775377831816003 0 -1.5345452162679517e-07 -0.024999533155484102 0 -0.00012201898880882704 -0.024775377831816003 0 -1.5345452162679517e-07 -0.024999533155484102 0 -8.6317563564074665e-08 -0.024999734095298265 0 -0.00012201898880882704 -0.024775377831816003 0 -8.6317563564074665e-08 -0.024999734095298265 0 -7.683714690434181e-05 -0.024891128227334251 0 -0.00012201898880882704 -0.024775377831816003 0 -7.683714690434181e-05 -0.024891128227334251 0 -0.00011255501939924153 -0.024763849562827525 0 -7.683714690434181e-05 -0.024891128227334251 0 -9.2571483985821803e-05 -0.024896620603064735 0 -0.00011255501939924153 -0.024763849562827525 0 -8.6317563564074665e-08 -0.024999734095298265 0 -7.683714690434181e-05 -0.024891128227334251 0 -8.8430992635380064e-08 -0.024999855088549648 0 -7.683714690434181e-05 -0.024891128227334251 0 -8.8430992635380064e-08 -0.024999855088549648 0 -9.2571483985821803e-05 -0.024896620603064735 0 -9.2571483985821803e-05 -0.024896620603064735 0 -5.4276862167341643e-05 -0.024951769615065292 0 -9.9392971356082062e-05 -0.02489907406101366 0 -9.0029046596489011e-05 -0.024925570685949555 0 -5.4276862167341643e-05 -0.024951769615065292 0 -9.9392971356082062e-05 -0.02489907406101366 0 -3.6763912418560208e-08 -0.024999946376876574 0 -8.8430992635380064e-08 -0.024999855088549648 0 -5.4276862167341643e-05 -0.024951769615065292 0 -8.8430992635380064e-08 -0.024999855088549648 0 -9.2571483985821803e-05 -0.024896620603064735 0 -5.4276862167341643e-05 -0.024951769615065292 0 -0.00011507840084553596 -0.024896578811531758 0 -8.9588787369351789e-05 -0.024855385957505648 0 -9.9392971356082062e-05 -0.02489907406101366 0 -0.00010351307798685596 -0.024868498515072734 0 -0.00011507840084553596 -0.024896578811531758 0 -8.9588787369351789e-05 -0.024855385957505648 0 -8.9588787369351789e-05 -0.024855385957505648 0 -5.4319104257347031e-05 -0.024780329766727872 0 -6.6797532450787621e-05 -0.024831867490104659 0 -0.00010351307798685596 -0.024868498515072734 0 -8.9588787369351789e-05 -0.024855385957505648 0 -6.6797532450787621e-05 -0.024831867490104659 0 -8.9588787369351789e-05 -0.024855385957505648 0 -9.9392971356082062e-05 -0.02489907406101366 0 -9.2396781562087199e-05 -0.02480364014269118 0 -9.2571483985821803e-05 -0.024896620603064735 0 -9.2396781562087199e-05 -0.02480364014269118 0 -0.00011255501939924153 -0.024763849562827525 0 -9.2571483985821803e-05 -0.024896620603064735 0 -9.9392971356082062e-05 -0.02489907406101366 0 -9.2396781562087199e-05 -0.02480364014269118 0 -8.9588787369351789e-05 -0.024855385957505648 0 -9.2396781562087199e-05 -0.02480364014269118 0 -5.4319104257347031e-05 -0.024780329766727872 0 -9.2396781562087199e-05 -0.02480364014269118 0 -5.4319104257347031e-05 -0.024780329766727872 0 -2.397853273352531e-05 -0.024689901468706546 0 -9.2396781562087199e-05 -0.02480364014269118 0 -2.397853273352531e-05 -0.024689901468706546 0 -6.1869152167363006e-05 -0.024601289096277772 0 -2.397853273352531e-05 -0.024689901468706546 0 -6.1869152167363006e-05 -0.024601289096277772 0 8.4316029047093815e-05 -0.024572444519006847 0 -9.2396781562087199e-05 -0.02480364014269118 0 -6.1869152167363006e-05 -0.024601289096277772 0 -0.00011255501939924153 -0.024763849562827525 0 -0.00014601611748041833 -0.024541386283260469 0 -6.1869152167363006e-05 -0.024601289096277772 0 -0.00011255501939924153 -0.024763849562827525 0 -0.00014601611748041833 -0.024541386283260469 0 -0.00012201898880882704 -0.024775377831816003 0 -0.00011255501939924153 -0.024763849562827525 0 -6.1869152167363006e-05 -0.024601289096277772 0 9.3235792103942724e-05 -0.024275500780067773 0 8.4316029047093815e-05 -0.024572444519006847 0 -0.00014601611748041833 -0.024541386283260469 0 -6.1869152167363006e-05 -0.024601289096277772 0 9.3235792103942724e-05 -0.024275500780067773 0 0.00010688093096202576 -0.02418139313369317 0 0.0001761252948605945 -0.023886156182236974 0 9.3235792103942724e-05 -0.024275500780067773 0 0.0001862980904004544 -0.02459635576461389 0 8.4316029047093815e-05 -0.024572444519006847 0 9.3235792103942724e-05 -0.024275500780067773 0 5.5789173566703609e-05 -0.023881394751963561 0 0.00025757537664872925 -0.0232594888334599 0 -0.0001080024820877759 -0.023850356456877053 0 5.5789173566703609e-05 -0.023881394751963561 0 -3.8501064875506032e-05 -0.023462551745250797 0 5.5789173566703609e-05 -0.023881394751963561 0 -3.8501064875506032e-05 -0.023462551745250797 0 0.00025757537664872925 -0.0232594888334599 0 -3.8501064875506032e-05 -0.023462551745250797 0 -0.00019802824879137511 -0.023020150579604843 0 -0.0002931896494847466 -0.023404134539430233 0 -0.0001080024820877759 -0.023850356456877053 0 -3.8501064875506032e-05 -0.023462551745250797 0 -0.0002931896494847466 -0.023404134539430233 0 0.0001862980904004544 -0.02459635576461389 0 0.00021422218738613002 -0.024463470899225685 0 -0.00018467186318992294 -0.02380238548932978 0 0.0001761252948605945 -0.023886156182236974 0 -0.00024066871543490553 -0.02297442564837103 0 0.00025757537664872925 -0.0232594888334599 0 -0.00029756905806944543 -0.022094409966954952 0 -0.00028730057958414141 -0.022633176049525583 0 -3.8501064875506032e-05 -0.023462551745250797 0 -0.00019802824879137511 -0.023020150579604843 0 0.00025757537664872925 -0.0232594888334599 0 -0.00019802824879137511 -0.023020150579604843 0 0.00025757537664872925 -0.0232594888334599 0 -0.00028730057958414141 -0.022633176049525583 0 0.0001862980904004544 -0.02459635576461389 0 0.00021422218738613002 -0.024463470899225685 0 8.4316029047093815e-05 -0.024572444519006847 0 0.00021422218738613002 -0.024463470899225685 0 8.4316029047093815e-05 -0.024572444519006847 0 1.9227970976858931e-05 -0.024671631562501972 0 -2.397853273352531e-05 -0.024689901468706546 0 8.4316029047093815e-05 -0.024572444519006847 0 1.9227970976858931e-05 -0.024671631562501972 0 -5.4319104257347031e-05 -0.024780329766727872 0 -2.397853273352531e-05 -0.024689901468706546 0 1.9227970976858931e-05 -0.024671631562501972 0 -5.4319104257347031e-05 -0.024780329766727872 0 1.9227970976858931e-05 -0.024671631562501972 0 -2.5083975980644247e-05 -0.024773729837763291 0 -5.4319104257347031e-05 -0.024780329766727872 0 -2.5083975980644247e-05 -0.024773729837763291 0 -6.6797532450787621e-05 -0.024831867490104659 0 1.9143974612768188e-05 -0.024738428496862769 0 -2.5083975980644247e-05 -0.024773729837763291 0 -6.6882650322322795e-05 -0.024840916613698829 0 1.9227970976858931e-05 -0.024671631562501972 0 1.9143974612768188e-05 -0.024738428496862769 0 -2.5083975980644247e-05 -0.024773729837763291 0 0.00021422218738613002 -0.024463470899225685 0 1.9227970976858931e-05 -0.024671631562501972 0 1.9143974612768188e-05 -0.024738428496862769 0 0.00021422218738613002 -0.024463470899225685 0 0.00021546041409017383 -0.023151116405262805 0 -0.00018467186318992294 -0.02380238548932978 0 0.00018687530880492697 -0.024366473918692271 0 3.5726785402897961e-05 -0.02397902767728426 0 0.00021422218738613002 -0.024463470899225685 0 1.9143974612768188e-05 -0.024738428496862769 0 -7.6827855561197831e-05 -0.024870518489570032 0 1.9143974612768188e-05 -0.024738428496862769 0 -7.6827855561197831e-05 -0.024870518489570032 0 -6.6882650322322795e-05 -0.024840916613698829 0 -0.00041025562802922861 -0.024871167689119563 0 -7.6827855561197831e-05 -0.024870518489570032 0 -0.00016350389209306038 -0.024861664098484601 0 -7.6827855561197831e-05 -0.024870518489570032 0 -0.00016350389209306038 -0.024861664098484601 0 -6.6882650322322795e-05 -0.024840916613698829 0 -0.00010351307798685596 -0.024868498515072734 0 -0.00016350389209306038 -0.024861664098484601 0 -6.6882650322322795e-05 -0.024840916613698829 0 -0.00010351307798685596 -0.024868498515072734 0 -6.6797532450787621e-05 -0.024831867490104659 0 -6.6882650322322795e-05 -0.024840916613698829 0 -2.5083975980644247e-05 -0.024773729837763291 0 -6.6797532450787621e-05 -0.024831867490104659 0 -6.6882650322322795e-05 -0.024840916613698829 0 -0.00096823025384859399 -0.021535313753983574 0 -0.00079827533653045897 -0.021632744792437479 0 -0.00095201669880058204 -0.021615148099191493 0 -0.00096445173658190253 -0.021624792973643607 0 -0.00074457811959201487 -0.022124415929325486 0 -0.00079827533653045897 -0.021632744792437479 0 -0.00093405596892422475 -0.02187362800198692 0 -0.00095201669880058204 -0.021615148099191493 0 -0.00032768174502523689 -0.023340935136905688 0 3.5726785402897961e-05 -0.02397902767728426 0 -0.00019398186145672683 -0.021882530095971461 0 0.00021546041409017383 -0.023151116405262805 0 -0.0007641766334672308 -0.022579982246356389 0 -0.00074457811959201487 -0.022124415929325486 0 -0.00024066871543490553 -0.02297442564837103 0 0.00021546041409017383 -0.023151116405262805 0 -0.0007641766334672308 -0.022579982246356389 0 -0.00018467186318992294 -0.02380238548932978 0 -0.00079827533653045897 -0.021632744792437479 0 -0.00029756905806944543 -0.022094409966954952 0 -0.00078587952157910062 -0.021959290146470616 0 -0.00029756905806944543 -0.022094409966954952 0 -0.00061501498297849351 -0.022233653386450475 0 -0.00028730057958414141 -0.022633176049525583 0 -0.00029756905806944543 -0.022094409966954952 0 -0.00061501498297849351 -0.022233653386450475 0 -0.00078587952157910062 -0.021959290146470616 0 -0.00061501498297849351 -0.022233653386450475 0 -0.00078587952157910062 -0.021959290146470616 0 -0.00084094975125846257 -0.022176866282700252 0 -0.00078587952157910062 -0.021959290146470616 0 -0.00090417001237845258 -0.022039750959963245 0 -0.00084094975125846257 -0.022176866282700252 0 -0.00079827533653045897 -0.021632744792437479 0 -0.00078587952157910062 -0.021959290146470616 0 -0.00093405596892422475 -0.02187362800198692 0 -0.00078587952157910062 -0.021959290146470616 0 -0.00093405596892422475 -0.02187362800198692 0 -0.00090417001237845258 -0.022039750959963245 0 -0.00093405596892422475 -0.02187362800198692 0 -0.00090417001237845258 -0.022039750959963245 0 -0.00093795546470192795 -0.021955837030757694 0 -0.00094870397923438744 -0.022143593984531501 0 -0.00091953259051819319 -0.022079645862901332 0 -0.00092054762918519794 -0.021907752469996419 0 -0.00090417001237845258 -0.022039750959963245 0 -0.00091930803625549673 -0.022051442368628389 0 -0.00093795546470192795 -0.021955837030757694 0 -0.00091930803625549673 -0.022051442368628389 0 -0.00091953259051819319 -0.022079645862901332 0 -0.00092834508092197595 -0.021981943028962878 0 -0.00036572935692798003 -0.022186293192529599 0 -0.00057149086799154671 -0.021906182788800535 0 -0.00091930803625549673 -0.022051442368628389 0 -0.00091137532534142998 -0.02216110532342009 0 -0.00091953259051819319 -0.022079645862901332 0 -0.00090417001237845258 -0.022039750959963245 0 -0.00091930803625549673 -0.022051442368628389 0 -0.00091137532534142998 -0.02216110532342009 0 -0.00090417001237845258 -0.022039750959963245 0 -0.00091137532534142998 -0.02216110532342009 0 -0.00084094975125846257 -0.022176866282700252 0 -0.00091137532534142998 -0.02216110532342009 0 -0.00084094975125846257 -0.022176866282700252 0 -0.00094372339373598548 -0.022316033523409013 0 -0.00084094975125846257 -0.022176866282700252 0 -0.00094372339373598548 -0.022316033523409013 0 -0.00074162213272677135 -0.022335766345569299 0 -0.00094372339373598548 -0.022316033523409013 0 -0.00074162213272677135 -0.022335766345569299 0 -0.00077144757808467201 -0.022472693047810882 0 -0.00040069047036394358 -0.022217742220865533 0 -0.00036572935692798003 -0.022186293192529599 0 -0.00094372339373598548 -0.022316033523409013 0 -0.00091675364247286763 -0.022179043341538991 0 -0.00094870397923438744 -0.022143593984531501 0 -0.00094372339373598548 -0.022316033523409013 0 -0.00095953312894528765 -0.02270268498287055 0 -0.00077144757808467201 -0.022472693047810882 0 -0.00091137532534142998 -0.02216110532342009 0 -0.00094372339373598548 -0.022316033523409013 0 -0.00091675364247286763 -0.022179043341538991 0 -0.00091137532534142998 -0.02216110532342009 0 -0.00091675364247286763 -0.022179043341538991 0 -0.00091953259051819319 -0.022079645862901332 0 -0.00091675364247286763 -0.022179043341538991 0 -0.00094870397923438744 -0.022143593984531501 0 -0.00091953259051819319 -0.022079645862901332 0 -0.00091953259051819319 -0.022079645862901332 0 -0.00092054762918519794 -0.021907752469996419 0 -0.00092834508092197595 -0.021981943028962878 0 -0.00061501498297849351 -0.022233653386450475 0 -0.00028730057958414141 -0.022633176049525583 0 -0.00052631263010340806 -0.022521825188940362 0 -0.00019802824879137511 -0.023020150579604843 0 -0.00028730057958414141 -0.022633176049525583 0 -0.00037908682053181084 -0.022745538606537274 0 -0.00028730057958414141 -0.022633176049525583 0 -0.00037908682053181084 -0.022745538606537274 0 -0.00052631263010340806 -0.022521825188940362 0 -0.00037908682053181084 -0.022745538606537274 0 -0.00052631263010340806 -0.022521825188940362 0 -0.00052123118250050986 -0.02273751671604721 0 -0.00052631263010340806 -0.022521825188940362 0 -0.00074162213272677135 -0.022335766345569299 0 -0.00065543305395351686 -0.022571857966233008 0 -0.00052631263010340806 -0.022521825188940362 0 -0.00065543305395351686 -0.022571857966233008 0 -0.00052123118250050986 -0.02273751671604721 0 -0.00065543305395351686 -0.022571857966233008 0 -0.00063515332559902242 -0.022764754613186573 0 -0.00052123118250050986 -0.02273751671604721 0 -0.00061501498297849351 -0.022233653386450475 0 -0.00052631263010340806 -0.022521825188940362 0 -0.00074162213272677135 -0.022335766345569299 0 -0.00061501498297849351 -0.022233653386450475 0 -0.00084094975125846257 -0.022176866282700252 0 -0.00074162213272677135 -0.022335766345569299 0 -0.00074162213272677135 -0.022335766345569299 0 -0.00077144757808467201 -0.022472693047810882 0 -0.00065543305395351686 -0.022571857966233008 0 -0.00065543305395351686 -0.022571857966233008 0 -0.00074076890291926848 -0.022670183119634913 0 -0.00063515332559902242 -0.022764754613186573 0 -0.00077144757808467201 -0.022472693047810882 0 -0.00065543305395351686 -0.022571857966233008 0 -0.00074076890291926848 -0.022670183119634913 0 -0.00095953312894528765 -0.02270268498287055 0 -0.00077144757808467201 -0.022472693047810882 0 -0.00074076890291926848 -0.022670183119634913 0 -0.00095953312894528765 -0.02270268498287055 0 -0.00071882800060254397 -0.022891684076906987 0 -0.00055966566650269081 -0.023145523909240264 0 -0.00095953312894528765 -0.02270268498287055 0 -0.00074076890291926848 -0.022670183119634913 0 -0.00071882800060254397 -0.022891684076906987 0 -0.00074076890291926848 -0.022670183119634913 0 -0.00071882800060254397 -0.022891684076906987 0 -0.00063515332559902242 -0.022764754613186573 0 -0.00071882800060254397 -0.022891684076906987 0 -0.00055966566650269081 -0.023145523909240264 0 -0.00055336370922403613 -0.022938167952432129 0 -0.00055966566650269081 -0.023145523909240264 0 -0.00055336370922403613 -0.022938167952432129 0 -0.00041254529930287903 -0.023004777924449379 0 -0.00055336370922403613 -0.022938167952432129 0 -0.00052123118250050986 -0.02273751671604721 0 -0.00041254529930287903 -0.023004777924449379 0 -0.00071882800060254397 -0.022891684076906987 0 -0.00055336370922403613 -0.022938167952432129 0 -0.00063515332559902242 -0.022764754613186573 0 -0.00055336370922403613 -0.022938167952432129 0 -0.00063515332559902242 -0.022764754613186573 0 -0.00052123118250050986 -0.02273751671604721 0 -0.00019802824879137511 -0.023020150579604843 0 -0.00041254529930287903 -0.023004777924449379 0 -0.0002931896494847466 -0.023404134539430233 0 -0.00037908682053181084 -0.022745538606537274 0 -0.00052123118250050986 -0.02273751671604721 0 -0.00041254529930287903 -0.023004777924449379 0 -0.00055966566650269081 -0.023145523909240264 0 -0.00041254529930287903 -0.023004777924449379 0 -0.0002931896494847466 -0.023404134539430233 0 -0.00019802824879137511 -0.023020150579604843 0 -0.00037908682053181084 -0.022745538606537274 0 -0.00041254529930287903 -0.023004777924449379 0 -0.00055966566650269081 -0.023145523909240264 0 -0.0002931896494847466 -0.023404134539430233 0 -0.00050527141043316853 -0.023929989100045266 0 -0.00095953312894528765 -0.02270268498287055 0 -0.00055966566650269081 -0.023145523909240264 0 -0.00050527141043316853 -0.023929989100045266 0 -0.00036572935692798003 -0.022186293192529599 0 -0.00010759507700891685 -0.023017984895696102 0 -0.0001080024820877759 -0.023850356456877053 0 -0.0002931896494847466 -0.023404134539430233 0 -0.00050527141043316853 -0.023929989100045266 0 0.00014618168370268992 -0.02160643219999242 0 0.0002977955666818288 -0.02219018596114937 0 3.9685827802303684e-05 -0.021941771410491594 0 0.00014618168370268992 -0.02160643219999242 0 3.9685827802303684e-05 -0.021941771410491594 0 -0.00027018448910237088 -0.021982040168790719 0 0.0002977955666818288 -0.02219018596114937 0 3.9685827802303684e-05 -0.021941771410491594 0 -2.5922261478996994e-05 -0.02212259604445176 0 -2.5922261478996994e-05 -0.02212259604445176 0 -0.00023886451527733641 -0.022203196233250833 0 -0.00027018448910237088 -0.021982040168790719 0 3.9685827802303684e-05 -0.021941771410491594 0 -2.5922261478996994e-05 -0.02212259604445176 0 -0.00027018448910237088 -0.021982040168790719 0 0.0002977955666818288 -0.02219018596114937 0 7.5008600137350403e-05 -0.02233415015203067 0 0.00020685211121463986 -0.022636491218030984 0 -2.5922261478996994e-05 -0.02212259604445176 0 7.5008600137350403e-05 -0.02233415015203067 0 -0.00023886451527733641 -0.022203196233250833 0 0.0002977955666818288 -0.02219018596114937 0 -2.5922261478996994e-05 -0.02212259604445176 0 7.5008600137350403e-05 -0.02233415015203067 0 7.5008600137350403e-05 -0.02233415015203067 0 0.00020685211121463986 -0.022636491218030984 0 -0.00023886451527733641 -0.022203196233250833 0 7.2784494367414884e-05 -0.022807548320038267 0 0.00014322097952091924 -0.021922801039136196 0 0.00020685211121463986 -0.022636491218030984 0 0.00027930440519497227 -0.022713264448397052 0 0.00035369640038081853 -0.022733508719862943 0 0.00020685211121463986 -0.022636491218030984 0 -0.00036647619286465775 -0.02286603346871827 0 -0.00023886451527733641 -0.022203196233250833 0 0.00020685211121463986 -0.022636491218030984 0 0.00031749268234780305 -0.022707142439044658 0 0.00027930440519497227 -0.022713264448397052 0 0.0002977955666818288 -0.02219018596114937 0 0.00020685211121463986 -0.022636491218030984 0 0.00031749268234780305 -0.022707142439044658 0 -0.00010759507700891685 -0.023017984895696102 0 0.00014428774429913027 -0.023396332376027174 0 -0.00050527141043316853 -0.023929989100045266 0 -1.6872164140704083e-06 -0.024163234897669163 0 -0.00013879600994672428 -0.024055926504145186 0 -0.0001080024820877759 -0.023850356456877053 0 -0.00050527141043316853 -0.023929989100045266 0 -0.00013879600994672428 -0.024055926504145186 0 -0.0001080024820877759 -0.023850356456877053 0 -0.00013879600994672428 -0.024055926504145186 0 9.8097023014580391e-06 -0.024162590290200042 0 -1.6872164140704083e-06 -0.024163234897669163 0 -0.00013879600994672428 -0.024055926504145186 0 9.8097023014580391e-06 -0.024162590290200042 0 -0.0001080024820877759 -0.023850356456877053 0 5.5789173566703609e-05 -0.023881394751963561 0 9.8097023014580391e-06 -0.024162590290200042 0 -0.0001114471397706236 -0.02431397030173001 0 9.3235792103942724e-05 -0.024275500780067773 0 9.8097023014580391e-06 -0.024162590290200042 0 9.3235792103942724e-05 -0.024275500780067773 0 5.5789173566703609e-05 -0.023881394751963561 0 9.8097023014580391e-06 -0.024162590290200042 0 -0.0001114471397706236 -0.02431397030173001 0 9.8097023014580391e-06 -0.024162590290200042 0 -0.00010810587254362524 -0.024148050898773966 0 9.8097023014580391e-06 -0.024162590290200042 0 -0.00010810587254362524 -0.024148050898773966 0 1.3741162667931181e-05 -0.02404420098289067 0 -1.6872164140704083e-06 -0.024163234897669163 0 9.8097023014580391e-06 -0.024162590290200042 0 1.3741162667931181e-05 -0.02404420098289067 0 -1.6872164140704083e-06 -0.024163234897669163 0 1.3741162667931181e-05 -0.02404420098289067 0 0.00024870102984781426 -0.0237412633770826 0 1.3741162667931181e-05 -0.02404420098289067 0 -0.00021534951034089052 -0.023525708144121533 0 0.00024870102984781426 -0.0237412633770826 0 -0.00028120339692982587 -0.024166170753608652 0 -0.00010810587254362524 -0.024148050898773966 0 -0.00021534951034089052 -0.023525708144121533 0 -0.00010810587254362524 -0.024148050898773966 0 1.3741162667931181e-05 -0.02404420098289067 0 -0.00021534951034089052 -0.023525708144121533 0 -0.00051517210659585318 -0.023681258838928604 0 -0.00021534951034089052 -0.023525708144121533 0 -0.00045006423339477537 -0.02271919518497632 0 0.00020260587312810483 -0.023189359384747709 0 8.3831151220418773e-05 -0.022750480423794236 0 0.00024870102984781426 -0.0237412633770826 0 6.2765397982068158e-05 -0.022723345529927049 0 -0.0002158134167661948 -0.023008266557634011 0 -0.00021534951034089052 -0.023525708144121533 0 0.00024870102984781426 -0.0237412633770826 0 -0.0002158134167661948 -0.023008266557634011 0 0.00025276899496082218 -0.022629575369772743 0 0.00020701890268878473 -0.022690612321155695 0 6.2765397982068158e-05 -0.022723345529927049 0 0.00025276899496082218 -0.022629575369772743 0 0.00054436666365373094 -0.02263642969977599 0 0.00033201982161929031 -0.022347564188894189 0 0.00025276899496082218 -0.022629575369772743 0 0.00027930440519497227 -0.022713264448397052 0 0.00054436666365373094 -0.02263642969977599 0 0.00014428774429913027 -0.023396332376027174 0 0.00020260587312810483 -0.023189359384747709 0 0.00031749268234780305 -0.022707142439044658 0 0.00027930440519497227 -0.022713264448397052 0 0.00020701890268878473 -0.022690612321155695 0 0.00025276899496082218 -0.022629575369772743 0 0.00027930440519497227 -0.022713264448397052 0 0.00020701890268878473 -0.022690612321155695 0 0.00078469127228548844 -0.020036245585709388 0 0.0010007264716337158 -0.020196521617523919 0 0.0010136134674506609 -0.019972173468295877 0 0.00027930440519497227 -0.022713264448397052 0 0.00054436666365373094 -0.02263642969977599 0 0.00035369640038081853 -0.022733508719862943 0 0.00086051029246614103 -0.021272089682531352 0 0.00014322097952091924 -0.021922801039136196 0 0.00078469127228548844 -0.020036245585709388 0 0.0010007264716337158 -0.020196521617523919 0 0.00069944865744904852 -0.020189841305374302 0 0.0010007264716337158 -0.020196521617523919 0 0.00069944865744904852 -0.020189841305374302 0 0.00085625356189015622 -0.020326527365236893 0 0.00069944865744904852 -0.020189841305374302 0 0.00052227731137062321 -0.020125558849988252 0 0.00064752568780028052 -0.020371257091551614 0 -0.00023667258993181333 -0.019631519553570023 0 0.00085328040202439965 -0.020489755535875741 0 0.00069944865744904852 -0.020189841305374302 0 0.00064752568780028052 -0.020371257091551614 0 0.00085625356189015622 -0.020326527365236893 0 0.00012736118678887331 -0.020045959580080368 0 0.00028944284967040196 -0.01964456660481672 0 0.00064752568780028052 -0.020371257091551614 0 -0.00023667258993181333 -0.019631519553570023 0 -0.001124063392911183 -0.019860311711949467 0 -0.0011583191193487981 -0.022604738860055568 0 -0.0012146297565228817 -0.022419657335817293 0 -0.0014844754441533435 -0.022136951666330527 0 -0.0011583191193487981 -0.022604738860055568 0 -0.0012146297565228817 -0.022419657335817293 0 -0.00095111235755880044 -0.022441450667917268 0 4.2414173482087756e-05 -0.021387048585693333 0 -0.00023667258993181333 -0.019631519553570023 0 0.00078469127228548844 -0.020036245585709388 0 0.00069944865744904852 -0.020189841305374302 0 0.00052227731137062321 -0.020125558849988252 0 -0.00067438758237546104 -0.022492515629393979 0 -0.0011583191193487981 -0.022604738860055568 0 -0.00095111235755880044 -0.022441450667917268 0 -0.00067438758237546104 -0.022492515629393979 0 -0.00095111235755880044 -0.022441450667917268 0 -0.00080846232080568033 -0.022272274056247276 0 -0.0012146297565228817 -0.022419657335817293 0 -0.00095111235755880044 -0.022441450667917268 0 -0.00080846232080568033 -0.022272274056247276 0 -0.0012146297565228817 -0.022419657335817293 0 -0.0010575190723810396 -0.022130161427079333 0 -0.0012429904204240042 -0.022082947089263602 0 -0.0012035438712223686 -0.022414917734649063 0 -0.00094884188435636859 -0.022214911517029288 0 -0.0012146297565228817 -0.022419657335817293 0 -0.0012429904204240042 -0.022082947089263602 0 -0.0014844754441533435 -0.022136951666330527 0 -0.0012429904204240042 -0.022082947089263602 0 -0.0012572805074867405 -0.021898701779331758 0 -0.0010708535741266977 -0.021947091613765079 0 -0.0012429904204240042 -0.022082947089263602 0 -0.0012572805074867405 -0.021898701779331758 0 -0.0014302287421636981 -0.021911498260692216 0 -0.0010575190723810396 -0.022130161427079333 0 -0.0010708535741266977 -0.021947091613765079 0 -0.00095894666969916582 -0.021954775009604653 0 -0.0010575190723810396 -0.022130161427079333 0 -0.0012429904204240042 -0.022082947089263602 0 -0.0010708535741266977 -0.021947091613765079 0 -0.00094884188435636859 -0.022214911517029288 0 -0.00075652215916760903 -0.02207621556679672 0 -0.0010708535741266977 -0.021947091613765079 0 -0.00095894666969916582 -0.021954775009604653 0 -0.00096972394953898891 -0.021879764675201165 0 -0.00080846232080568033 -0.022272274056247276 0 -0.00053261018729506768 -0.022180990473507051 0 -0.0005708556124745253 -0.022330937569700813 0 4.2414173482087756e-05 -0.021387048585693333 0 0.00014322097952091924 -0.021922801039136196 0 -0.00067438758237546104 -0.022492515629393979 0 -0.0005708556124745253 -0.022330937569700813 0 -0.00034033698253410345 -0.022401712466038635 0 -0.00053261018729506768 -0.022180990473507051 0 -0.0005708556124745253 -0.022330937569700813 0 -0.00034033698253410345 -0.022401712466038635 0 -0.00067438758237546104 -0.022492515629393979 0 -0.00080846232080568033 -0.022272274056247276 0 -0.0005708556124745253 -0.022330937569700813 0 -0.00053261018729506768 -0.022180990473507051 0 -0.00023886451527733641 -0.022203196233250833 0 -0.00027018448910237088 -0.021982040168790719 0 0.00014322097952091924 -0.021922801039136196 0 -0.00036616839697267039 -0.02252559836332892 0 -0.00053261018729506768 -0.022180990473507051 0 -0.00034033698253410345 -0.022401712466038635 0 -0.00023886451527733641 -0.022203196233250833 0 -0.00095894666969916582 -0.021954775009604653 0 -0.00092054762918519794 -0.021907752469996419 0 -0.00096972394953898891 -0.021879764675201165 0 -0.00092054762918519794 -0.021907752469996419 0 -0.00096972394953898891 -0.021879764675201165 0 -0.00094581603569356511 -0.021894230724547357 0 -0.00075652215916760903 -0.02207621556679672 0 -0.00057149086799154671 -0.021906182788800535 0 -0.00096972394953898891 -0.021879764675201165 0 -0.00099700001037541282 -0.021811763299994673 0 -0.0011029340488432884 -0.021737491451571677 0 -0.00099700001037541282 -0.021811763299994673 0 -0.0010647193135467469 -0.021646297072060814 0 -0.0011029340488432884 -0.021737491451571677 0 -0.00099700001037541282 -0.021811763299994673 0 -0.00097148265435599915 -0.021848933687630238 0 -0.0010647193135467469 -0.021646297072060814 0 -0.00096972394953898891 -0.021879764675201165 0 -0.00099700001037541282 -0.021811763299994673 0 -0.00094581603569356511 -0.021894230724547357 0 -0.00092054762918519794 -0.021907752469996419 0 -0.00092834508092197595 -0.021981943028962878 0 -0.00094581603569356511 -0.021894230724547357 0 -0.00092834508092197595 -0.021981943028962878 0 -0.00094581603569356511 -0.021894230724547357 0 -0.00097148265435599915 -0.021848933687630238 0 -0.00099700001037541282 -0.021811763299994673 0 -0.00094581603569356511 -0.021894230724547357 0 -0.00097148265435599915 -0.021848933687630238 0 -0.00092834508092197595 -0.021981943028962878 0 -0.00097148265435599915 -0.021848933687630238 0 -0.00093795546470192795 -0.021955837030757694 0 -0.00091930803625549673 -0.022051442368628389 0 -0.00092834508092197595 -0.021981943028962878 0 -0.00093795546470192795 -0.021955837030757694 0 -0.00093405596892422475 -0.02187362800198692 0 -0.00097148265435599915 -0.021848933687630238 0 -0.00093795546470192795 -0.021955837030757694 0 -0.00093405596892422475 -0.02187362800198692 0 -0.001000812899965805 -0.021673965006646909 0 -0.00095201669880058204 -0.021615148099191493 0 -0.00093405596892422475 -0.02187362800198692 0 -0.00097148265435599915 -0.021848933687630238 0 -0.001000812899965805 -0.021673965006646909 0 -0.00097148265435599915 -0.021848933687630238 0 -0.001000812899965805 -0.021673965006646909 0 -0.0010647193135467469 -0.021646297072060814 0 -0.001000812899965805 -0.021673965006646909 0 -0.0010647193135467469 -0.021646297072060814 0 -0.0010521477152757499 -0.021553426773440826 0 -0.0010272257332478759 -0.021457039764013724 0 -0.0010521477152757499 -0.021553426773440826 0 -0.0011121983980109963 -0.021427043036651706 0 -0.0010272257332478759 -0.021457039764013724 0 -0.001000812899965805 -0.021673965006646909 0 -0.0010521477152757499 -0.021553426773440826 0 -0.0010272257332478759 -0.021457039764013724 0 -0.001000812899965805 -0.021673965006646909 0 -0.00095201669880058204 -0.021615148099191493 0 -0.00096823025384859399 -0.021535313753983574 0 -0.0010272257332478759 -0.021457039764013724 0 -0.00095201669880058204 -0.021615148099191493 0 -0.0011760045104524616 -0.021254784169793546 0 -0.0011845211197153273 -0.02147778843371774 0 -0.0012566950448937798 -0.021270048652992934 0 -0.0011760045104524616 -0.021254784169793546 0 -0.0011121983980109963 -0.021427043036651706 0 -0.0011845211197153273 -0.02147778843371774 0 -0.0010647193135467469 -0.021646297072060814 0 -0.0010521477152757499 -0.021553426773440826 0 -0.0011121983980109963 -0.021427043036651706 0 -0.0010647193135467469 -0.021646297072060814 0 -0.0011121983980109963 -0.021427043036651706 0 -0.0011845211197153273 -0.02147778843371774 0 -0.0010647193135467469 -0.021646297072060814 0 -0.0011845211197153273 -0.02147778843371774 0 -0.0011029340488432884 -0.021737491451571677 0 -0.0011029340488432884 -0.021737491451571677 0 -0.0014478584023174866 -0.021691069080781444 0 -0.0014354663413948183 -0.021375958312338829 0 -0.0011845211197153273 -0.02147778843371774 0 -0.0011029340488432884 -0.021737491451571677 0 -0.0012768659599207007 -0.02156988863918425 0 -0.0011943405888016829 -0.021573601197902918 0 -0.0012262002549366933 -0.021899173783988084 0 -0.0010708535741266977 -0.021947091613765079 0 -0.00096972394953898891 -0.021879764675201165 0 -0.0011029340488432884 -0.021737491451571677 0 -0.0012572805074867405 -0.021898701779331758 0 -0.0010708535741266977 -0.021947091613765079 0 -0.0011029340488432884 -0.021737491451571677 0 -0.0012572805074867405 -0.021898701779331758 0 -0.0011029340488432884 -0.021737491451571677 0 -0.0014478584023174866 -0.021691069080781444 0 -0.0012572805074867405 -0.021898701779331758 0 -0.0014478584023174866 -0.021691069080781444 0 -0.0014302287421636981 -0.021911498260692216 0 -0.0014478584023174866 -0.021691069080781444 0 -0.0017345271919695867 -0.02174734710814364 0 -0.0014302287421636981 -0.021911498260692216 0 -0.0010470454024181293 -0.01555373258250463 0 -0.0014192897380762327 -0.016664432645514749 0 -0.0014478584023174866 -0.021691069080781444 0 -0.0017345271919695867 -0.02174734710814364 0 -0.0018131200529337345 -0.021432464858021024 0 -0.0010470454024181293 -0.01555373258250463 0 -0.0013822374666760816 -0.010813917053068459 0 -0.00099521849391856574 -0.012058543045196829 0 -0.0010355925607322576 -0.012243681874575424 0 -0.00099703165017799326 -0.012023073442125592 0 -0.00097942134482152513 -0.012259080009993451 0 -0.00099521849391856574 -0.012058543045196829 0 -0.00099703165017799326 -0.012023073442125592 0 -0.0014478584023174866 -0.021691069080781444 0 -0.0018131200529337345 -0.021432464858021024 0 -0.0014354663413948183 -0.021375958312338829 0 -0.0011845211197153273 -0.02147778843371774 0 -0.0012768659599207007 -0.02156988863918425 0 -0.0013490483632867694 -0.021356957965792223 0 -0.0012262002549366933 -0.021899173783988084 0 -0.0017908751469229004 -0.018610974108887082 0 -0.0012768659599207007 -0.02156988863918425 0 -0.0014717791820765538 -0.021372588923578489 0 -0.0013490483632867694 -0.021356957965792223 0 -0.0014192897380762327 -0.016664432645514749 0 -0.0017908751469229004 -0.018610974108887082 0 -0.0018131200529337345 -0.021432464858021024 0 -0.0014354663413948183 -0.021375958312338829 0 -0.0018813530097781792 -0.021063171763653854 0 -0.0014717791820765538 -0.021372588923578489 0 -0.0014741768438673261 -0.021324271431906155 0 -0.0013490483632867694 -0.021356957965792223 0 -0.0017908751469229004 -0.018610974108887082 0 -0.0015555858685985023 -0.02011784267031496 0 -0.0013155677560267543 -0.021169199911780318 0 -0.0014059533174005667 -0.021196795373444176 0 -0.0013490483632867694 -0.021356957965792223 0 -0.0014741768438673261 -0.021324271431906155 0 -0.0014059533174005667 -0.021196795373444176 0 -0.0013490483632867694 -0.021356957965792223 0 -0.0014741768438673261 -0.021324271431906155 0 -0.0014059533174005667 -0.021196795373444176 0 -0.001560676854373921 -0.021139558180528643 0 -0.0013155677560267543 -0.021169199911780318 0 -0.0012566950448937798 -0.021270048652992934 0 -0.0013490483632867694 -0.021356957965792223 0 -0.0011845211197153273 -0.02147778843371774 0 -0.0012566950448937798 -0.021270048652992934 0 -0.0013490483632867694 -0.021356957965792223 0 -0.0014741768438673261 -0.021324271431906155 0 -0.0017866448819383652 -0.021204840885044381 0 -0.001560676854373921 -0.021139558180528643 0 -0.0014639483967628546 -0.02137579930851493 0 -0.0014741768438673261 -0.021324271431906155 0 -0.0017866448819383652 -0.021204840885044381 0 -0.0017908751469229004 -0.018610974108887082 0 -0.0011940443832776657 -0.01653720054023073 0 -0.0010355925607322576 -0.012243681874575424 0 -0.00071788182560169472 -0.012392733050021662 0 -0.00081113711305895485 -0.012140385036009678 0 -0.0010355925607322576 -0.012243681874575424 0 -0.00081113711305895485 -0.012140385036009678 0 -0.00099703165017799326 -0.012023073442125592 0 -0.00071788182560169472 -0.012392733050021662 0 -0.00081113711305895485 -0.012140385036009678 0 -0.00060878242345367814 -0.012128635793754554 0 -0.00081113711305895485 -0.012140385036009678 0 -0.00065352192743570517 -0.011926741580538606 0 -0.00060878242345367814 -0.012128635793754554 0 -0.00081113711305895485 -0.012140385036009678 0 -0.00065352192743570517 -0.011926741580538606 0 -0.00082101805251422232 -0.011899233345551626 0 -0.00065352192743570517 -0.011926741580538606 0 -0.00082101805251422232 -0.011899233345551626 0 -0.00069270763680862458 -0.011739174522913558 0 -0.00081113711305895485 -0.012140385036009678 0 -0.00099703165017799326 -0.012023073442125592 0 -0.00082101805251422232 -0.011899233345551626 0 -0.00099703165017799326 -0.012023073442125592 0 -0.00082101805251422232 -0.011899233345551626 0 -0.0009126892394040471 -0.011710576452584233 0 -0.0011967597213590135 -0.011686446495467243 0 -0.00099703165017799326 -0.012023073442125592 0 -0.0009126892394040471 -0.011710576452584233 0 -0.0009126892394040471 -0.011710576452584233 0 -0.00069270763680862458 -0.011739174522913558 0 -0.00067916459065990738 -0.011506418539662387 0 -0.00065352192743570517 -0.011926741580538606 0 -0.00069270763680862458 -0.011739174522913558 0 -0.00050038267402984264 -0.011690197162594141 0 -0.00082101805251422232 -0.011899233345551626 0 -0.0009126892394040471 -0.011710576452584233 0 -0.00069270763680862458 -0.011739174522913558 0 -0.00069270763680862458 -0.011739174522913558 0 -0.00067916459065990738 -0.011506418539662387 0 -0.00050038267402984264 -0.011690197162594141 0 -0.00067916459065990738 -0.011506418539662387 0 -0.00094971638500222506 -0.011369678135555412 0 -0.00057818222299096554 -0.011194991339397414 0 -0.00094971638500222506 -0.011369678135555412 0 -0.00084752080275577639 -0.010977768888631001 0 -0.00057818222299096554 -0.011194991339397414 0 -0.00094971638500222506 -0.011369678135555412 0 -0.0012541646472264383 -0.011227344488735974 0 -0.00084752080275577639 -0.010977768888631001 0 -0.0011967597213590135 -0.011686446495467243 0 -0.0009126892394040471 -0.011710576452584233 0 -0.00094971638500222506 -0.011369678135555412 0 -0.0009126892394040471 -0.011710576452584233 0 -0.00067916459065990738 -0.011506418539662387 0 -0.00094971638500222506 -0.011369678135555412 0 -0.0011967597213590135 -0.011686446495467243 0 -0.00094971638500222506 -0.011369678135555412 0 -0.0012541646472264383 -0.011227344488735974 0 -0.0010470454024181293 -0.01555373258250463 0 -0.0011419999221276239 -0.013258586069077523 0 -0.0010470454024181293 -0.01555373258250463 0 -0.001124063392911183 -0.019860311711949467 0 -0.0012429904204240042 -0.022082947089263602 0 -0.0014302287421636981 -0.021911498260692216 0 -0.0014844754441533435 -0.022136951666330527 0 -0.0017345271919695867 -0.02174734710814364 0 -0.0014302287421636981 -0.021911498260692216 0 -0.0014844754441533435 -0.022136951666330527 0 -0.001005018868556332 -0.015876192276592791 0 -0.00071334252619491257 -0.016339150454137634 0 -0.00089533759132895418 -0.016404414170083884 0 -0.00071334252619491257 -0.016339150454137634 0 -0.00089533759132895418 -0.016404414170083884 0 -0.000696741480270311 -0.016624702051968261 0 -0.0012541646472264383 -0.011227344488735974 0 -0.0011367497202054285 -0.010915185744798026 0 -0.00084752080275577639 -0.010977768888631001 0 -0.0012541646472264383 -0.011227344488735974 0 -0.0011367497202054285 -0.010915185744798026 0 -0.0013201881142464111 -0.01078920184364845 0 -0.00044657868634652442 -0.016783846855152888 0 -0.000696741480270311 -0.016624702051968261 0 -0.00079687335040589215 -0.01690180115885136 0 -0.00089533759132895418 -0.016404414170083884 0 -0.000696741480270311 -0.016624702051968261 0 -0.00079687335040589215 -0.01690180115885136 0 -0.0011419999221276239 -0.013258586069077523 0 -0.00088698084112504114 -0.014625270100979668 0 -0.00044657868634652442 -0.016783846855152888 0 -0.00071334252619491257 -0.016339150454137634 0 -0.000696741480270311 -0.016624702051968261 0 -0.00023667258993181333 -0.019631519553570023 0 -0.00088698084112504114 -0.014625270100979668 0 0.00012736118678887331 -0.020045959580080368 0 -0.00026134430612165173 -0.019857477170375264 0 -0.00016428631775335388 -0.020295512444295623 0 0.00012736118678887331 -0.020045959580080368 0 0.00028944284967040196 -0.01964456660481672 0 -0.00026134430612165173 -0.019857477170375264 0 -0.0011367497202054285 -0.010915185744798026 0 -0.0010481027503764814 -0.010799116489449893 0 -0.0011011668692363322 -0.010673801508637146 0 -0.0011367497202054285 -0.010915185744798026 0 -0.0010481027503764814 -0.010799116489449893 0 -0.00091417033886949828 -0.010804719243666277 0 -0.0011367497202054285 -0.010915185744798026 0 -0.0013201881142464111 -0.01078920184364845 0 -0.0011011668692363322 -0.010673801508637146 0 -0.00088698084112504114 -0.014625270100979668 0 -0.0006801003909579418 -0.010677685112500102 0 -0.00055089175764789339 -0.010472699188331111 0 -0.00083186664992261226 -0.01057716529977846 0 -0.00069562497230062472 -0.010678209238432946 0 -0.0010481027503764814 -0.010799116489449893 0 -0.0011011668692363322 -0.010673801508637146 0 -0.00093774915880083542 -0.010704214877063641 0 -0.0011011668692363322 -0.010673801508637146 0 -0.00093774915880083542 -0.010704214877063641 0 -0.00085007962377654962 -0.010577959108289119 0 -0.00091417033886949828 -0.010804719243666277 0 -0.00077055404914198021 -0.01069307908709378 0 -0.00084752080275577639 -0.010977768888631001 0 -0.0010481027503764814 -0.010799116489449893 0 -0.00093774915880083542 -0.010704214877063641 0 -0.00091417033886949828 -0.010804719243666277 0 -0.00093774915880083542 -0.010704214877063641 0 -0.00091417033886949828 -0.010804719243666277 0 -0.00077055404914198021 -0.01069307908709378 0 -0.00093774915880083542 -0.010704214877063641 0 -0.00077055404914198021 -0.01069307908709378 0 -0.00085007962377654962 -0.010577959108289119 0 -0.00077055404914198021 -0.01069307908709378 0 -0.00061617790722211187 -0.010729803243288063 0 -0.00084752080275577639 -0.010977768888631001 0 -0.00077055404914198021 -0.01069307908709378 0 -0.00061617790722211187 -0.010729803243288063 0 -0.00068083370129411755 -0.010550305159273332 0 -0.00061617790722211187 -0.010729803243288063 0 -0.00084752080275577639 -0.010977768888631001 0 -0.00054304921360177091 -0.010927102551955368 0 -0.00084752080275577639 -0.010977768888631001 0 -0.00057818222299096554 -0.011194991339397414 0 -0.00054304921360177091 -0.010927102551955368 0 -0.0011367497202054285 -0.010915185744798026 0 -0.00091417033886949828 -0.010804719243666277 0 -0.00084752080275577639 -0.010977768888631001 0 -0.00082400356199917009 -0.010361189910879863 0 -0.00066385459176021761 -0.010248009187562504 0 -0.00082861342073420081 -0.010214172286087489 0 -0.00082400356199917009 -0.010361189910879863 0 -0.00066385459176021761 -0.010248009187562504 0 -0.00075725525654046267 -0.010436132634672109 0 -0.00082400356199917009 -0.010361189910879863 0 -0.000841505545018166 -0.010497140130187778 0 -0.00089741950624913148 -0.010453171972275304 0 -0.00082400356199917009 -0.010361189910879863 0 -0.00075725525654046267 -0.010436132634672109 0 -0.000841505545018166 -0.010497140130187778 0 -0.00082400356199917009 -0.010361189910879863 0 -0.0009439675601833243 -0.010344442044472039 0 -0.00082861342073420081 -0.010214172286087489 0 -0.00066385459176021761 -0.010248009187562504 0 -0.00061547873935816197 -0.0103924571723811 0 -0.00044155871698460004 -0.010301975740838923 0 -0.00066385459176021761 -0.010248009187562504 0 -0.00061547873935816197 -0.0103924571723811 0 -0.00075725525654046267 -0.010436132634672109 0 -0.00061547873935816197 -0.0103924571723811 0 -0.00068083370129411755 -0.010550305159273332 0 -0.00075725525654046267 -0.010436132634672109 0 -0.00061617790722211187 -0.010729803243288063 0 -0.00068083370129411755 -0.010550305159273332 0 -0.0004686737601002705 -0.010503221550192588 0 -0.00061547873935816197 -0.0103924571723811 0 -0.00068083370129411755 -0.010550305159273332 0 -0.0004686737601002705 -0.010503221550192588 0 -0.00077055404914198021 -0.01069307908709378 0 -0.00068083370129411755 -0.010550305159273332 0 -0.00085007962377654962 -0.010577959108289119 0 -0.00085007962377654962 -0.010577959108289119 0 -0.00075725525654046267 -0.010436132634672109 0 -0.000841505545018166 -0.010497140130187778 0 -0.00068083370129411755 -0.010550305159273332 0 -0.00085007962377654962 -0.010577959108289119 0 -0.00075725525654046267 -0.010436132634672109 0 -0.000841505545018166 -0.010497140130187778 0 -0.0008711811983221114 -0.010605419854257331 0 -0.00089741950624913148 -0.010453171972275304 0 -0.00083186664992261226 -0.01057716529977846 0 -0.00085007962377654962 -0.010577959108289119 0 -0.0008711811983221114 -0.010605419854257331 0 -0.00085007962377654962 -0.010577959108289119 0 -0.000841505545018166 -0.010497140130187778 0 -0.0008711811983221114 -0.010605419854257331 0 -0.0006801003909579418 -0.010677685112500102 0 -0.00092864160752462502 -0.010624810067574281 0 -0.00083186664992261226 -0.01057716529977846 0 -0.0008711811983221114 -0.010605419854257331 0 -0.00069562497230062472 -0.010678209238432946 0 -0.0008711811983221114 -0.010605419854257331 0 -0.00069562497230062472 -0.010678209238432946 0 -0.00068552848534376098 -0.010948542655603842 0 -0.00078100592629899365 -0.010715931354442371 0 -0.0011707482094611189 -0.010527655121834369 0 -0.0008711811983221114 -0.010605419854257331 0 -0.0010036426194303444 -0.010468806194418092 0 -0.00089741950624913148 -0.010453171972275304 0 -0.00055089175764789339 -0.010472699188331111 0 -0.00069562497230062472 -0.010678209238432946 0 -0.00045582297830606554 -0.010804654142099638 0 -0.00016428631775335388 -0.020295512444295623 0 -6.6907016155264655e-05 -0.020684598815139978 0 0.00017617975651661795 -0.020399845097432055 0 -0.00088698084112504114 -0.014625270100979668 0 -0.00024276516304638164 -0.015946850700188999 0 0.00012736118678887331 -0.020045959580080368 0 -0.00016428631775335388 -0.020295512444295623 0 0.00017617975651661795 -0.020399845097432055 0 -0.00069562497230062472 -0.010678209238432946 0 -0.00068552848534376098 -0.010948542655603842 0 -0.00045582297830606554 -0.010804654142099638 0 -0.00024276516304638164 -0.015946850700188999 0 -0.00030833222906460228 -0.014078891209588639 0 -0.00068552848534376098 -0.010948542655603842 0 -0.00045582297830606554 -0.010804654142099638 0 -0.00035785562202777138 -0.011261789990379696 0 -0.0011707482094611189 -0.010527655121834369 0 -0.00030833222906460228 -0.014078891209588639 0 -0.00030833222906460228 -0.014078891209588639 0 0.00039135094685217826 -0.018469644079793807 0 -0.001101905311852526 -0.01038526609664535 0 -0.0009439675601833243 -0.010344442044472039 0 -0.0009690344993507989 -0.010197857588081494 0 -0.0010036426194303444 -0.010468806194418092 0 -0.001101905311852526 -0.01038526609664535 0 -0.0009439675601833243 -0.010344442044472039 0 -0.00082400356199917009 -0.010361189910879863 0 -0.00089741950624913148 -0.010453171972275304 0 -0.0009439675601833243 -0.010344442044472039 0 -0.0010036426194303444 -0.010468806194418092 0 -0.00089741950624913148 -0.010453171972275304 0 -0.0009439675601833243 -0.010344442044472039 0 -0.0009690344993507989 -0.010197857588081494 0 -0.00083847242467415917 -0.010005922760822242 0 -0.00082861342073420081 -0.010214172286087489 0 -0.0009439675601833243 -0.010344442044472039 0 -0.0009690344993507989 -0.010197857588081494 0 -0.00082861342073420081 -0.010214172286087489 0 0.00023234904884256605 -0.015782101848631165 0 -1.7494524533444066e-05 -0.014304156390121541 0 -0.0002893730831668754 -0.015354483288140043 0 -0.001101905311852526 -0.01038526609664535 0 -0.0009690344993507989 -0.010197857588081494 0 -0.0011346915351885876 -0.010144670806897946 0 -0.00030833222906460228 -0.014078891209588639 0 -0.00018015534729327361 -0.013339418969614757 0 -0.0011346915351885876 -0.010144670806897946 0 -0.0010002166714384655 -0.010072738055978907 0 -0.0010847837989657833 -0.0099505271758792251 0 -0.00018015534729327361 -0.013339418969614757 0 0.00048396491450892196 -0.017336162277619489 0 -4.3622025464381109e-05 -0.013937734745841562 0 -0.00033700252950998977 -0.015121801900562185 0 0.00013268001690624521 -0.014904435481067969 0 -0.00018015534729327361 -0.013339418969614757 0 6.5750250822542205e-05 -0.013596579497706948 0 -0.0009690344993507989 -0.010197857588081494 0 -0.0011346915351885876 -0.010144670806897946 0 -0.0010002166714384655 -0.010072738055978907 0 -0.0009690344993507989 -0.010197857588081494 0 -0.0010002166714384655 -0.010072738055978907 0 -0.00083847242467415917 -0.010005922760822242 0 -0.0010002166714384655 -0.010072738055978907 0 -0.00083847242467415917 -0.010005922760822242 0 -0.0010847837989657833 -0.0099505271758792251 0 -0.00071254616461441779 -0.010095722395969545 0 -0.00083847242467415917 -0.010005922760822242 0 -0.00082861342073420081 -0.010214172286087489 0 -0.00071254616461441779 -0.010095722395969545 0 -0.00083847242467415917 -0.010005922760822242 0 -0.00066028092236347072 -0.0099160537257269345 0 -0.00066385459176021761 -0.010248009187562504 0 -0.00071254616461441779 -0.010095722395969545 0 -0.00082861342073420081 -0.010214172286087489 0 -0.00066385459176021761 -0.010248009187562504 0 -0.00071254616461441779 -0.010095722395969545 0 -0.00054790568140626833 -0.010034915406601234 0 -0.00054790568140626833 -0.010034915406601234 0 -0.00066028092236347072 -0.0099160537257269345 0 -0.00049426795568052663 -0.009886057516434869 0 -0.00071254616461441779 -0.010095722395969545 0 -0.00054790568140626833 -0.010034915406601234 0 -0.00066028092236347072 -0.0099160537257269345 0 -0.00066028092236347072 -0.0099160537257269345 0 -0.00056827192478373751 -0.0096873768487861049 0 -0.00049426795568052663 -0.009886057516434869 0 -0.00083847242467415917 -0.010005922760822242 0 -0.00066028092236347072 -0.0099160537257269345 0 -0.00082302159217347058 -0.009800478955418173 0 -0.00043330188367380208 -0.011501007363763143 0 -0.00028487398161815416 -0.011945443892739585 0 -6.4947494806926948e-06 -0.013754034791603522 0 3.9165846473415689e-05 -0.013850676937281063 0 -7.1228404635192543e-05 -0.013901242160437735 0 -0.00066028092236347072 -0.0099160537257269345 0 -0.00082302159217347058 -0.009800478955418173 0 -0.00056827192478373751 -0.0096873768487861049 0 3.9165846473415689e-05 -0.013850676937281063 0 5.1018398753446608e-05 -0.013751502585974637 0 0.00013173702444752903 -0.013727488380977535 0 3.9165846473415689e-05 -0.013850676937281063 0 -7.1228404635192543e-05 -0.013901242160437735 0 5.1018398753446608e-05 -0.013751502585974637 0 -7.1228404635192543e-05 -0.013901242160437735 0 -3.398171039483643e-07 -0.013569057843850396 0 3.304279451469062e-07 -0.014584178922354092 0 -7.1228404635192543e-05 -0.013901242160437735 0 -3.398171039483643e-07 -0.013569057843850396 0 5.1018398753446608e-05 -0.013751502585974637 0 -1.5820714824399148e-07 -0.013565145685484491 0 -2.3290702018369952e-05 -0.013114213416548977 0 6.3933744798714012e-08 -0.01356540404202086 0 -6.4702716564476887e-08 -0.012605596997402655 0 -3.3135412268912209e-06 -0.012537173542967439 0 -3.398171039483643e-07 -0.013569057843850396 0 0.00011141881169601931 -0.013649145939120188 0 5.1018398753446608e-05 -0.013751502585974637 0 0.00011141881169601931 -0.013649145939120188 0 5.1018398753446608e-05 -0.013751502585974637 0 0.00013173702444752903 -0.013727488380977535 0 -7.1577325403276654e-05 -0.015071224831008029 0 -3.4998224734832415e-07 -0.014969377975238488 0 4.082854321408907e-05 -0.015218317175501603 0 -7.5377380848802561e-05 -0.015714928055814485 0 2.9152514835318925e-08 -0.01497547243498375 0 -2.1748339309286731e-08 -0.016212941703164441 0 3.0252352158544612e-05 -0.015333132997007662 0 -9.3808129044711223e-08 -0.014973731623495978 0 1.024028997514114e-07 -0.014587592269490685 0 0.00010413552083543605 -0.014762048057305167 0 -3.4998224734832415e-07 -0.014969377975238488 0 3.8187172589423272e-07 -0.014591985316632335 0 4.082854321408907e-05 -0.015218317175501603 0 -6.4947494806926948e-06 -0.013754034791603522 0 -7.1228404635192543e-05 -0.013901242160437735 0 0.00020896578181577954 -0.01387872919391712 0 -7.1228404635192543e-05 -0.013901242160437735 0 3.304279451469062e-07 -0.014584178922354092 0 0.00020896578181577954 -0.01387872919391712 0 -7.1577325403276654e-05 -0.015071224831008029 0 4.082854321408907e-05 -0.015218317175501603 0 -0.00016600058186623179 -0.015184485256377011 0 4.082854321408907e-05 -0.015218317175501603 0 -0.000133067425984054 -0.01537566560303417 0 -0.00016600058186623179 -0.015184485256377011 0 0.00010413552083543605 -0.014762048057305167 0 6.5750250822542205e-05 -0.013596579497706948 0 4.082854321408907e-05 -0.015218317175501603 0 -1.0320860020629406e-05 -0.015534478672811195 0 -0.000133067425984054 -0.01537566560303417 0 -6.4947494806926948e-06 -0.013754034791603522 0 0.00020896578181577954 -0.01387872919391712 0 0.00025960239419787421 -0.013616211139640434 0 -0.00083847242467415917 -0.010005922760822242 0 -0.00082302159217347058 -0.009800478955418173 0 -0.0010847837989657833 -0.0099505271758792251 0 -0.00043330188367380208 -0.011501007363763143 0 6.5750250822542205e-05 -0.013596579497706948 0 -1.0320860020629406e-05 -0.015534478672811195 0 -9.3717212161160328e-05 -0.015581935629361492 0 -0.000133067425984054 -0.01537566560303417 0 6.5750250822542205e-05 -0.013596579497706948 0 0.00048396491450892196 -0.017336162277619489 0 0.0021349253949596598 -0.020781743931374934 0 0.0015809589877174581 -0.02060643972571851 0 0.0020394648943114855 -0.020121939536916076 0 0.00048396491450892196 -0.017336162277619489 0 0.0009995122082842949 -0.017940953370931614 0 3.0061753184518448e-06 -0.016219239174815929 0 -2.2875625305491387e-05 -0.018764466895061782 0 -1.1195903317334816e-06 -0.019429677526829441 0 0.0021349253949596598 -0.020781743931374934 0 0.0015809589877174581 -0.02060643972571851 0 0.0012226189303405413 -0.021232287943797484 0 0.0015809589877174581 -0.02060643972571851 0 0.0011824103188242507 -0.020734779938085285 0 0.0012226189303405413 -0.021232287943797484 0 0.0015809589877174581 -0.02060643972571851 0 0.0011824103188242507 -0.020734779938085285 0 0.001334301948773319 -0.020093122500564425 0 0.0009995122082842949 -0.017940953370931614 0 0.00076949969372050355 -0.017125226351877021 0 0.001334301948773319 -0.020093122500564425 0 0.0020394648943114855 -0.020121939536916076 0 0.0019147209441986743 -0.019408100855303704 0 0.0015809589877174581 -0.02060643972571851 0 0.001334301948773319 -0.020093122500564425 0 0.0020394648943114855 -0.020121939536916076 0 3.0252352158544612e-05 -0.015333132997007662 0 0.00076949969372050355 -0.017125226351877021 0 0.00063574792712442171 -0.019242505679298919 0 0.001054945675258194 -0.018139222600691358 0 0.00017660944516271367 -0.018305620575215474 0 0.00063574792712442171 -0.019242505679298919 0 0.00017660944516271367 -0.018305620575215474 0 0.00028557090841641318 -0.018982980593352291 0 0.00098421433018529118 -0.019899237104307035 0 0.00076949969372050355 -0.017125226351877021 0 0.001054945675258194 -0.018139222600691358 0 0.00017660944516271367 -0.018305620575215474 0 3.0061753184518448e-06 -0.016219239174815929 0 0.00076949969372050355 -0.017125226351877021 0 1.4315152567172604e-07 -0.016214839550681082 0 -7.5377380848802561e-05 -0.015714928055814485 0 0.00011620498758685153 -0.015529744047526028 0 -2.1748339309286731e-08 -0.016212941703164441 0 0.00017660944516271367 -0.018305620575215474 0 3.0061753184518448e-06 -0.016219239174815929 0 -2.2875625305491387e-05 -0.018764466895061782 0 0.00017660944516271367 -0.018305620575215474 0 0.0001239192013287064 -0.019093663698025592 0 -2.2875625305491387e-05 -0.018764466895061782 0 0.00017660944516271367 -0.018305620575215474 0 0.0001239192013287064 -0.019093663698025592 0 0.00028557090841641318 -0.018982980593352291 0 0.0001239192013287064 -0.019093663698025592 0 -2.2875625305491387e-05 -0.018764466895061782 0 -5.9645664540936909e-05 -0.019473619386024502 0 0.00023161052811916433 -0.019743420177929929 0 1.9728111554352054e-06 -0.019956483819540172 0 -5.9645664540936909e-05 -0.019473619386024502 0 0.0001239192013287064 -0.019093663698025592 0 0.00023161052811916433 -0.019743420177929929 0 -5.9645664540936909e-05 -0.019473619386024502 0 0.00063574792712442171 -0.019242505679298919 0 0.00033191798985204521 -0.019405444339425561 0 0.00049710456321804019 -0.020038495047616848 0 0.0001239192013287064 -0.019093663698025592 0 0.00023161052811916433 -0.019743420177929929 0 0.00033191798985204521 -0.019405444339425561 0 0.00063574792712442171 -0.019242505679298919 0 0.00028557090841641318 -0.018982980593352291 0 0.00033191798985204521 -0.019405444339425561 0 0.0001239192013287064 -0.019093663698025592 0 0.00028557090841641318 -0.018982980593352291 0 0.00033191798985204521 -0.019405444339425561 0 0.0011824103188242507 -0.020734779938085285 0 0.001334301948773319 -0.020093122500564425 0 0.00083523658565548347 -0.020794638243788622 0 0.00023161052811916433 -0.019743420177929929 0 0.00033191798985204521 -0.019405444339425561 0 0.00049710456321804019 -0.020038495047616848 0 0.00098421433018529118 -0.019899237104307035 0 0.00067165766746585416 -0.020391240289155472 0 0.0011824103188242507 -0.020734779938085285 0 0.00085458009293104564 -0.020941024414720559 0 0.00083523658565548347 -0.020794638243788622 0 0.00023161052811916433 -0.019743420177929929 0 0.00022102524898879838 -0.020251881428051309 0 1.9728111554352054e-06 -0.019956483819540172 0 0.00023161052811916433 -0.019743420177929929 0 0.00035102642655144851 -0.020217112058477853 0 0.00022102524898879838 -0.020251881428051309 0 0.00023161052811916433 -0.019743420177929929 0 0.00049710456321804019 -0.020038495047616848 0 0.00035102642655144851 -0.020217112058477853 0 0.00067165766746585416 -0.020391240289155472 0 0.00048636352653473467 -0.021055943860401452 0 0.00049710456321804019 -0.020038495047616848 0 0.00035102642655144851 -0.020217112058477853 0 0.00045376977810575141 -0.020838952390648587 0 0.00035102642655144851 -0.020217112058477853 0 0.00022102524898879838 -0.020251881428051309 0 0.00045376977810575141 -0.020838952390648587 0 0.00056951523907568572 -0.021197420854546269 0 0.00059860001507603679 -0.021687167869407067 0 0.00093145720268128518 -0.021257981175122335 0 0.00056951523907568572 -0.021197420854546269 0 0.00059860001507603679 -0.021687167869407067 0 0.00025767984568336575 -0.021728388342226127 0 0.00093145720268128518 -0.021257981175122335 0 0.00074859634430523745 -0.021126983831904679 0 0.00076073370112637699 -0.02071384989387073 0 0.00093145720268128518 -0.021257981175122335 0 0.00086428192286859421 -0.021205369089407722 0 0.00074859634430523745 -0.021126983831904679 0 0.00085458009293104564 -0.020941024414720559 0 0.00083523658565548347 -0.020794638243788622 0 0.00056951523907568572 -0.021197420854546269 0 0.00056951523907568572 -0.021197420854546269 0 0.00093145720268128518 -0.021257981175122335 0 0.00087098039040616165 -0.021151604256526506 0 0.00086428192286859421 -0.021205369089407722 0 0.00087098039040616165 -0.021151604256526506 0 0.00084013562817714148 -0.021230708713442237 0 0.00085458009293104564 -0.020941024414720559 0 0.00056951523907568572 -0.021197420854546269 0 0.00087098039040616165 -0.021151604256526506 0 0.00093145720268128518 -0.021257981175122335 0 0.00086428192286859421 -0.021205369089407722 0 0.00087098039040616165 -0.021151604256526506 0 0.0010901151572677912 -0.021077610932745006 0 0.0011469500654043621 -0.019770214470912286 0 0.00085458009293104564 -0.020941024414720559 0 0.00087098039040616165 -0.021151604256526506 0 0.00084013562817714148 -0.021230708713442237 0 0.0011824103188242507 -0.020734779938085285 0 0.00085458009293104564 -0.020941024414720559 0 0.0012226189303405413 -0.021232287943797484 0 0.0011469500654043621 -0.019770214470912286 0 0.00056839112993197079 -0.019223955696173248 0 0.00086428192286859421 -0.021205369089407722 0 0.00084013562817714148 -0.021230708713442237 0 0.00074859634430523745 -0.021126983831904679 0 0.00059952514011597595 -0.017398109240832425 0 0.00061232243154994454 -0.017467794814883319 0 0.00067380192386601626 -0.017384467788114789 0 0.00061232243154994454 -0.017467794814883319 0 0.00073066479659157201 -0.017440833406753939 0 0.00067380192386601626 -0.017384467788114789 0 0.00048396491450892196 -0.017336162277619489 0 0.0011469500654043621 -0.019770214470912286 0 0.00059952514011597595 -0.017398109240832425 0 0.00067380192386601626 -0.017384467788114789 0 0.00061719416217061607 -0.017337892503542923 0 -0.00018015534729327361 -0.013339418969614757 0 0.00039135094685217826 -0.018469644079793807 0 0.00056839112993197079 -0.019223955696173248 0 0.00039135094685217826 -0.018469644079793807 0 0.00049279074305151453 -0.02113663877990303 0 0.00015823903535207252 -0.020893311703024602 0 0.00049029290503348926 -0.020848094630106624 0 0.00074859634430523745 -0.021126983831904679 0 0.00049029290503348926 -0.020848094630106624 0 0.00076073370112637699 -0.02071384989387073 0 0.00084013562817714148 -0.021230708713442237 0 0.00049279074305151453 -0.02113663877990303 0 0.00074859634430523745 -0.021126983831904679 0 0.00049279074305151453 -0.02113663877990303 0 0.00074859634430523745 -0.021126983831904679 0 0.00049029290503348926 -0.020848094630106624 0 0.00047050872702597226 -0.020598218739139706 0 0.00076073370112637699 -0.02071384989387073 0 0.00064752568780028052 -0.020371257091551614 0 0.00049029290503348926 -0.020848094630106624 0 0.00047050872702597226 -0.020598218739139706 0 0.00076073370112637699 -0.02071384989387073 0 -6.6907016155264655e-05 -0.020684598815139978 0 0.00014306472614248456 -0.020841267747323259 0 0.00021245463717836288 -0.020638406933071 0 0.00039135094685217826 -0.018469644079793807 0 -2.5445003771651565e-06 -0.020980302436514869 0 0.00015823903535207252 -0.020893311703024602 0 0.00049029290503348926 -0.020848094630106624 0 0.00021245463717836288 -0.020638406933071 0 0.00047050872702597226 -0.020598218739139706 0 0.00021245463717836288 -0.020638406933071 0 0.00017617975651661795 -0.020399845097432055 0 0.00049029290503348926 -0.020848094630106624 0 0.00047050872702597226 -0.020598218739139706 0 0.00021245463717836288 -0.020638406933071 0 -6.6907016155264655e-05 -0.020684598815139978 0 0.00021245463717836288 -0.020638406933071 0 0.00017617975651661795 -0.020399845097432055 0 0.00047050872702597226 -0.020598218739139706 0 0.00017617975651661795 -0.020399845097432055 0 0.00064752568780028052 -0.020371257091551614 0 0.00012736118678887331 -0.020045959580080368 0 0.00017617975651661795 -0.020399845097432055 0 0.00064752568780028052 -0.020371257091551614 0 0.00076073370112637699 -0.02071384989387073 0 0.00064752568780028052 -0.020371257091551614 0 0.00085625356189015622 -0.020326527365236893 0 0.0010007264716337158 -0.020196521617523919 0 0.00085625356189015622 -0.020326527365236893 0 0.0010403871576656629 -0.020586707942366819 0 0.00076073370112637699 -0.02071384989387073 0 0.00085625356189015622 -0.020326527365236893 0 0.0010403871576656629 -0.020586707942366819 0 0.00054436666365373094 -0.02263642969977599 0 0.00081920723253449369 -0.022155415782368595 0 0.00033201982161929031 -0.022347564188894189 0 0.00086051029246614103 -0.021272089682531352 0 0.00090116431791878795 -0.021400781871197407 0 0.00059860001507603679 -0.021687167869407067 0 0.00093145720268128518 -0.021257981175122335 0 0.00081920723253449369 -0.022155415782368595 0 0.00059860001507603679 -0.021687167869407067 0 0.00081920723253449369 -0.022155415782368595 0 0.00033201982161929031 -0.022347564188894189 0 0.0009409258279954308 -0.021256200615385565 0 0.00090116431791878795 -0.021400781871197407 0 0.00093145720268128518 -0.021257981175122335 0 0.00076073370112637699 -0.02071384989387073 0 0.0010403871576656629 -0.020586707942366819 0 5.9424103704672866e-05 -0.022238120279876556 0 -0.00025417813456947278 -0.021936809608328344 0 0.00025767984568336575 -0.021728388342226127 0 5.9424103704672866e-05 -0.022238120279876556 0 0.00033201982161929031 -0.022347564188894189 0 0.00025767984568336575 -0.021728388342226127 0 0.00059860001507603679 -0.021687167869407067 0 0.00033201982161929031 -0.022347564188894189 0 0.00025767984568336575 -0.021728388342226127 0 0.00025276899496082218 -0.022629575369772743 0 0.00033201982161929031 -0.022347564188894189 0 6.2765397982068158e-05 -0.022723345529927049 0 5.9424103704672866e-05 -0.022238120279876556 0 0.00033201982161929031 -0.022347564188894189 0 6.2765397982068158e-05 -0.022723345529927049 0 6.2765397982068158e-05 -0.022723345529927049 0 -0.0002158134167661948 -0.023008266557634011 0 -0.00014489165914333057 -0.02250831889721934 0 5.9424103704672866e-05 -0.022238120279876556 0 6.2765397982068158e-05 -0.022723345529927049 0 -0.00014489165914333057 -0.02250831889721934 0 -0.00076969466913852738 -0.023939069926991231 0 -0.00095533789695002836 -0.02307726472361412 0 -0.00080111119946040389 -0.024256825915887459 0 -0.00021534951034089052 -0.023525708144121533 0 -0.0002158134167661948 -0.023008266557634011 0 -0.00045006423339477537 -0.02271919518497632 0 -0.0002158134167661948 -0.023008266557634011 0 -0.00045006423339477537 -0.02271919518497632 0 -0.00014489165914333057 -0.02250831889721934 0 -0.00095533789695002836 -0.02307726472361412 0 -0.0014524002715215918 -0.022704342901583047 0 -0.00080111119946040389 -0.024256825915887459 0 -0.00076969466913852738 -0.023939069926991231 0 -0.00095533789695002836 -0.02307726472361412 0 -0.00025417813456947278 -0.021936809608328344 0 -0.0012507896266939068 -0.022901109130215699 0 -0.00082139490045595939 -0.02336926713272305 0 5.9424103704672866e-05 -0.022238120279876556 0 -0.00014489165914333057 -0.02250831889721934 0 -0.00025417813456947278 -0.021936809608328344 0 -0.00061331024658678966 -0.023305722851080946 0 -0.00023909794439645716 -0.022077630990498375 0 -0.00045006423339477537 -0.02271919518497632 0 -0.00014489165914333057 -0.02250831889721934 0 -0.00025417813456947278 -0.021936809608328344 0 -0.00025417813456947278 -0.021936809608328344 0 -0.00082311828448961336 -0.021030613210882711 0 -0.00018494465442861613 -0.021209767154701673 0 -0.00025417813456947278 -0.021936809608328344 0 -0.0009471591349437305 -0.021884991473622724 0 -0.00082311828448961336 -0.021030613210882711 0 -0.00095533789695002836 -0.02307726472361412 0 -0.00025417813456947278 -0.021936809608328344 0 -0.0009471591349437305 -0.021884991473622724 0 -0.0009471591349437305 -0.021884991473622724 0 -0.0015411692776899691 -0.021191445911013376 0 -0.0016780691149427228 -0.022450435996853813 0 -0.00095533789695002836 -0.02307726472361412 0 -0.0009471591349437305 -0.021884991473622724 0 -0.0016780691149427228 -0.022450435996853813 0 -0.00082311828448961336 -0.021030613210882711 0 -0.0014142325534024654 -0.020395439871388053 0 -0.0015411692776899691 -0.021191445911013376 0 -0.0009471591349437305 -0.021884991473622724 0 -0.00082311828448961336 -0.021030613210882711 0 -0.0015411692776899691 -0.021191445911013376 0 -0.00082311828448961336 -0.021030613210882711 0 -0.00018494465442861613 -0.021209767154701673 0 -0.00042204508403900364 -0.020556688398352323 0 -0.00018494465442861613 -0.021209767154701673 0 0.00025767984568336575 -0.021728388342226127 0 3.4233344575175294e-05 -0.020682887111171392 0 -0.00018494465442861613 -0.021209767154701673 0 3.4233344575175294e-05 -0.020682887111171392 0 -0.00042204508403900364 -0.020556688398352323 0 -0.00025417813456947278 -0.021936809608328344 0 -0.00018494465442861613 -0.021209767154701673 0 0.00025767984568336575 -0.021728388342226127 0 0.00048636352653473467 -0.021055943860401452 0 0.00023592732100967845 -0.021657431279433981 0 0.00045376977810575141 -0.020838952390648587 0 0.00025767984568336575 -0.021728388342226127 0 3.4233344575175294e-05 -0.020682887111171392 0 0.00022102524898879838 -0.020251881428051309 0 0.00045376977810575141 -0.020838952390648587 0 3.4233344575175294e-05 -0.020682887111171392 0 0.00022102524898879838 -0.020251881428051309 0 3.4233344575175294e-05 -0.020682887111171392 0 1.9728111554352054e-06 -0.019956483819540172 0 3.4233344575175294e-05 -0.020682887111171392 0 -0.00016150660208876519 -0.020260817450946784 0 1.9728111554352054e-06 -0.019956483819540172 0 -0.00016150660208876519 -0.020260817450946784 0 -0.00026728211253949788 -0.019917925537338167 0 -0.00042204508403900364 -0.020556688398352323 0 3.4233344575175294e-05 -0.020682887111171392 0 -0.00016150660208876519 -0.020260817450946784 0 -0.00042204508403900364 -0.020556688398352323 0 -0.00016150660208876519 -0.020260817450946784 0 -0.00026728211253949788 -0.019917925537338167 0 1.9728111554352054e-06 -0.019956483819540172 0 -0.00026728211253949788 -0.019917925537338167 0 1.9728111554352054e-06 -0.019956483819540172 0 -5.9645664540936909e-05 -0.019473619386024502 0 -0.00026728211253949788 -0.019917925537338167 0 -5.9645664540936909e-05 -0.019473619386024502 0 -7.9380868649073396e-05 -0.019731994168368162 0 -2.2875625305491387e-05 -0.018764466895061782 0 -5.9645664540936909e-05 -0.019473619386024502 0 -7.9380868649073396e-05 -0.019731994168368162 0 -0.00026728211253949788 -0.019917925537338167 0 -7.9380868649073396e-05 -0.019731994168368162 0 -0.00070555090701774671 -0.019655281618707127 0 -0.00013389093156606849 -0.019878165574141446 0 -0.00044945346367115333 -0.020512870983562834 0 -7.9380868649073396e-05 -0.019731994168368162 0 -1.1195903317334816e-06 -0.019429677526829441 0 5.940125818249468e-05 -0.021405175333900104 0 -2.2875625305491387e-05 -0.018764466895061782 0 -7.9380868649073396e-05 -0.019731994168368162 0 -1.1195903317334816e-06 -0.019429677526829441 0 -1.1195903317334816e-06 -0.019429677526829441 0 3.4070602818475591e-07 -0.02183612776889415 0 5.940125818249468e-05 -0.021405175333900104 0 -0.00044945346367115333 -0.020512870983562834 0 -0.00032519831154307222 -0.021681443691996732 0 3.4070602818475591e-07 -0.02183612776889415 0 5.940125818249468e-05 -0.021405175333900104 0 3.5473971337636732e-05 -0.022471957790551337 0 -0.00080714457765325366 -0.02018502197565411 0 -0.0014142325534024654 -0.020395439871388053 0 -0.0013280868481756916 -0.019769354031544551 0 -0.00070555090701774671 -0.019655281618707127 0 -0.00080714457765325366 -0.02018502197565411 0 -0.0013280868481756916 -0.019769354031544551 0 -0.00026728211253949788 -0.019917925537338167 0 -0.00070555090701774671 -0.019655281618707127 0 -0.00080714457765325366 -0.02018502197565411 0 -0.00082311828448961336 -0.021030613210882711 0 -0.00080714457765325366 -0.02018502197565411 0 -0.00042204508403900364 -0.020556688398352323 0 -0.00026728211253949788 -0.019917925537338167 0 -0.00080714457765325366 -0.02018502197565411 0 -0.00042204508403900364 -0.020556688398352323 0 -0.00082311828448961336 -0.021030613210882711 0 -0.00080714457765325366 -0.02018502197565411 0 -0.0014142325534024654 -0.020395439871388053 0 3.4070602818475591e-07 -0.02183612776889415 0 -3.306395053599942e-07 -0.024998539460911403 0 -9.0697749949332943e-05 -0.024077719324119451 0 -0.00034283590094311698 -0.02300508181812588 0 -0.00032542177052754482 -0.023017750711201206 0 -0.00033030402208927893 -0.023002187767965174 0 -0.00032542177052754482 -0.023017750711201206 0 -0.0002966788158620347 -0.02301130820759285 0 -0.00033030402208927893 -0.023002187767965174 0 -0.00027700230171127699 -0.022658706752779319 0 -0.00025416998865086354 -0.023620244405729528 0 -0.00032542177052754482 -0.023017750711201206 0 -0.00033551486570028861 -0.023020895617874692 0 -0.00030569839543519996 -0.023035651638778375 0 -0.00091293251003391862 -0.02167663723263466 0 -0.00032519831154307222 -0.021681443691996732 0 -0.00034283590094311698 -0.02300508181812588 0 -0.00033551486570028861 -0.023020895617874692 0 -0.00034038708894459387 -0.023017324443230514 0 -0.00034283590094311698 -0.02300508181812588 0 -0.00032542177052754482 -0.023017750711201206 0 -0.00033551486570028861 -0.023020895617874692 0 -0.00027700230171127699 -0.022658706752779319 0 -0.00032519831154307222 -0.021681443691996732 0 3.4070602818475591e-07 -0.02183612776889415 0 1.5855168162789676e-05 -0.022838742084833535 0 3.5473971337636732e-05 -0.022471957790551337 0 3.4070602818475591e-07 -0.02183612776889415 0 1.5855168162789676e-05 -0.022838742084833535 0 -9.0697749949332943e-05 -0.024077719324119451 0 -3.306395053599942e-07 -0.024998539460911403 0 -9.0697749949332943e-05 -0.024077719324119451 0 6.3033461396503307e-08 -0.02499858314452243 0 -0.00025416998865086354 -0.023620244405729528 0 -9.3234310798286421e-05 -0.023851158366179324 0 -0.00030569839543519996 -0.023035651638778375 0 -0.00026459155910419128 -0.023040729134624134 0 -0.0002966788158620347 -0.02301130820759285 0 -0.00032542177052754482 -0.023017750711201206 0 -0.00030569839543519996 -0.023035651638778375 0 -0.0002966788158620347 -0.02301130820759285 0 -9.3234310798286421e-05 -0.023851158366179324 0 -0.00022204760063596917 -0.024041606398702606 0 -2.9705869851128718e-08 -0.025000102197061506 0 -5.6968746713330753e-08 -0.025000071197462184 0 -0.00010568951506913849 -0.025071008349262985 0 -5.6968746713330753e-08 -0.025000071197462184 0 -0.00014838199820153201 -0.024973160946582463 0 -0.00010568951506913849 -0.025071008349262985 0 -5.6968746713330753e-08 -0.025000071197462184 0 -0.00014838199820153201 -0.024973160946582463 0 -9.8074394676446052e-08 -0.024999854379034583 0 -0.00022204760063596917 -0.024041606398702606 0 -0.00025701794121742118 -0.024127971697099813 0 -0.00014838199820153201 -0.024973160946582463 0 -0.00010568951506913849 -0.025071008349262985 0 -0.00032679652825345418 -0.025080845892346045 0 -0.0002966788158620347 -0.02301130820759285 0 -0.00033030402208927893 -0.023002187767965174 0 -0.00032312085184873894 -0.022991383615642656 0 -0.00091293251003391862 -0.02167663723263466 0 -0.00095135177053023306 -0.021990084195820755 0 -0.00033030402208927893 -0.023002187767965174 0 -0.00034548883271262127 -0.02299055845892669 0 -0.00032312085184873894 -0.022991383615642656 0 -0.00034283590094311698 -0.02300508181812588 0 -0.00033030402208927893 -0.023002187767965174 0 -0.00034548883271262127 -0.02299055845892669 0 -0.00034548883271262127 -0.02299055845892669 0 -0.00032312085184873894 -0.022991383615642656 0 -0.00034875774677403556 -0.022976910549988339 0 -0.00032679652825345418 -0.025080845892346045 0 -0.00037659896833869847 -0.024900045889730476 0 -0.00074697293037747801 -0.02495402381307538 0 -0.00025701794121742118 -0.024127971697099813 0 -0.00082139490045595939 -0.02336926713272305 0 -0.00095135177053023306 -0.021990084195820755 0 -0.00082139490045595939 -0.02336926713272305 0 -0.00014838199820153201 -0.024973160946582463 0 -0.00032679652825345418 -0.025080845892346045 0 -0.00037659896833869847 -0.024900045889730476 0 -0.00014838199820153201 -0.024973160946582463 0 -0.00037659896833869847 -0.024900045889730476 0 -0.00030507391422495111 -0.024800778891465345 0 -0.00037659896833869847 -0.024900045889730476 0 -0.00030507391422495111 -0.024800778891465345 0 -0.00051956178669250984 -0.024692518278961583 0 -0.00082139490045595939 -0.02336926713272305 0 -0.00091622733354505381 -0.024358774184993923 0 -0.00074697293037747801 -0.02495402381307538 0 -0.00051956178669250984 -0.024692518278961583 0 -0.00080111119946040389 -0.024256825915887459 0 -0.00037659896833869847 -0.024900045889730476 0 -0.00074697293037747801 -0.02495402381307538 0 -0.00051956178669250984 -0.024692518278961583 0 -0.00051956178669250984 -0.024692518278961583 0 -0.00080111119946040389 -0.024256825915887459 0 -0.00049301856862215567 -0.024598848702999943 0 -0.00054394020993162387 -0.024143661112593112 0 -0.00061331024658678966 -0.023305722851080946 0 -0.00059750470707911098 -0.024630429342102821 0 -0.00080111119946040389 -0.024256825915887459 0 -0.00049301856862215567 -0.024598848702999943 0 -0.00059750470707911098 -0.024630429342102821 0 -0.00076969466913852738 -0.023939069926991231 0 -0.00080111119946040389 -0.024256825915887459 0 -0.0002486804891232561 -0.024767756386575204 0 -0.00030507391422495111 -0.024800778891465345 0 -0.00049301856862215567 -0.024598848702999943 0 -0.00030507391422495111 -0.024800778891465345 0 -0.00051956178669250984 -0.024692518278961583 0 -0.00049301856862215567 -0.024598848702999943 0 -0.0002486804891232561 -0.024767756386575204 0 -0.00030507391422495111 -0.024800778891465345 0 -0.00013121430562542898 -0.024890579701276821 0 -5.5985867050325533e-08 -0.024999714681344931 0 -0.00013121430562542898 -0.024890579701276821 0 -9.8074394676446052e-08 -0.024999854379034583 0 -0.00014838199820153201 -0.024973160946582463 0 -0.00013121430562542898 -0.024890579701276821 0 -9.8074394676446052e-08 -0.024999854379034583 0 -0.00014838199820153201 -0.024973160946582463 0 -0.00030507391422495111 -0.024800778891465345 0 -0.00013121430562542898 -0.024890579701276821 0 0.0004053240559498424 -0.0020524410088257395 0 0.0005591448143820719 -0.0020508653977919294 0 0.00062889486391429997 -0.0021987928010385421 0 0.00042845900498814825 0.0024690710741053432 0 4.5026179171362675e-05 0.0026913487140908555 0 0.0003010481799632632 0.0070876784636405817 0 -6.1230364336229529e-05 0.0072594346787467276 0 9.7667524453699719e-05 0.0074223440984683203 0 0.0003010481799632632 0.0070876784636405817 0 0.00035650081495313969 0.0075045218298948734 0 0.00058547737154883753 0.0072738847317543763 0 0.0003010481799632632 0.0070876784636405817 0 9.7667524453699719e-05 0.0074223440984683203 0 0.00035650081495313969 0.0075045218298948734 0 0.0004053240559498424 -0.0020524410088257395 0 0.0004624407214669225 -0.0019008858059358646 0 0.00034343009325170154 -0.001922011181045225 0 0.0004053240559498424 -0.0020524410088257395 0 0.00023676330937142667 -0.0019078032787017212 0 0.00034343009325170154 -0.001922011181045225 0 0.0004053240559498424 -0.0020524410088257395 0 0.0005591448143820719 -0.0020508653977919294 0 0.0004624407214669225 -0.0019008858059358646 0 0.0005591448143820719 -0.0020508653977919294 0 0.00070445173382269882 -0.0020238564885438058 0 0.00073765897504668291 -0.0021889552480314381 0 0.0005591448143820719 -0.0020508653977919294 0 0.00070445173382269882 -0.0020238564885438058 0 0.0004624407214669225 -0.0019008858059358646 0 0.00076484147567073993 -0.0022740080320026146 0 0.00073765897504668291 -0.0021889552480314381 0 0.00073514470570044455 -0.0022462801316152962 0 0.00095339753881008241 -0.011373048611209717 0 0.00079880501418477877 -0.011339394072010836 0 0.0008250149763310221 -0.011377770661472577 0 0.00091755070151501822 -0.005763881264341633 0 0.00042015600537940231 -0.0082134818581003875 0 0.00091755070151501822 -0.005763881264341633 0 0.00032743004527564426 -0.0011664149762320884 0 0.00073765897504668291 -0.0021889552480314381 0 0.00062889486391429997 -0.0021987928010385421 0 0.00074931824899464327 -0.0022463161864454133 0 0.00073765897504668291 -0.0021889552480314381 0 0.00074931824899464327 -0.0022463161864454133 0 0.00074834238565314271 -0.0022331749195511562 0 0.0005591448143820719 -0.0020508653977919294 0 0.00073765897504668291 -0.0021889552480314381 0 0.00062889486391429997 -0.0021987928010385421 0 -6.1230364336229529e-05 0.0072594346787467276 0 -0.00010373283803538684 0.0074120351462940558 0 9.7667524453699719e-05 0.0074223440984683203 0 -0.00010373283803538684 0.0074120351462940558 0 -0.00036662822387923836 0.0073513114318580902 0 -4.7532329156929386e-05 0.0075959679958326537 0 -6.1230364336229529e-05 0.0072594346787467276 0 -0.00010373283803538684 0.0074120351462940558 0 -0.00036662822387923836 0.0073513114318580902 0 -0.00010373283803538684 0.0074120351462940558 0 -4.7532329156929386e-05 0.0075959679958326537 0 9.7667524453699719e-05 0.0074223440984683203 0 4.5026179171362675e-05 0.0026913487140908555 0 0.0011604324693289952 0.0017304336486511703 0 0.0011604324693289952 0.0017304336486511703 0 0.00074483583776926922 0.0048148647872079458 0 0.0020570453550760822 0.0014717945330064541 0 0.0014882277241440225 0.0012315916246224661 0 0.0021249267692652939 0.0012565421538380816 0 0.0013580256677015602 0.00051221863129524985 0 0.0020435547140568258 0.00068436335360927067 0 0.00168231617778344 0.00036209688584555236 0 0.0020435547140568258 0.00068436335360927067 0 0.0020117010794980855 0.00037757727637484102 0 0.00168231617778344 0.00036209688584555236 0 0.0014473806885012782 0.00077090478833664942 0 0.0021289688656146786 0.00085454420686852507 0 0.0014882277241440225 0.0012315916246224661 0 0.0015579775085117643 0.0010066221760964139 0 0.0021249267692652939 0.0012565421538380816 0 0.00074483583776926922 0.0048148647872079458 0 0.00060104255893754207 0.0043581749069797043 0 -4.7532329156929386e-05 0.0075959679958326537 0 0.00019220108779804775 0.0076375867249221796 0 0.00034346577312876407 0.0078994332356164716 0 0.0014882277241440225 0.0012315916246224661 0 0.0015579775085117643 0.0010066221760964139 0 0.00087142473349742944 0.00091984617648620736 0 -4.7532329156929386e-05 0.0075959679958326537 0 0.00019220108779804775 0.0076375867249221796 0 9.7667524453699719e-05 0.0074223440984683203 0 0.00019220108779804775 0.0076375867249221796 0 9.7667524453699719e-05 0.0074223440984683203 0 0.00035650081495313969 0.0075045218298948734 0 0.00019220108779804775 0.0076375867249221796 0 0.00035650081495313969 0.0075045218298948734 0 0.00033885266414577841 0.0076918347114543883 0 0.00035650081495313969 0.0075045218298948734 0 0.00046402649393011727 0.0077287702095612783 0 0.00062184110084432837 0.0076127370247428931 0 0.00035650081495313969 0.0075045218298948734 0 0.00046402649393011727 0.0077287702095612783 0 0.00033885266414577841 0.0076918347114543883 0 0.00046402649393011727 0.0077287702095612783 0 0.00033885266414577841 0.0076918347114543883 0 0.00034346577312876407 0.0078994332356164716 0 0.00019220108779804775 0.0076375867249221796 0 0.00033885266414577841 0.0076918347114543883 0 0.00034346577312876407 0.0078994332356164716 0 0.00046402649393011727 0.0077287702095612783 0 0.00034346577312876407 0.0078994332356164716 0 0.00058104652789029115 0.0079283146424524997 0 0.00058104652789029115 0.0079283146424524997 0 0.00069258204998103739 0.0078775376588572192 0 0.00082654245447106602 0.0082130073025665079 0 0.00046402649393011727 0.0077287702095612783 0 0.00069258204998103739 0.0078775376588572192 0 0.00062184110084432837 0.0076127370247428931 0 0.00046402649393011727 0.0077287702095612783 0 0.00058104652789029115 0.0079283146424524997 0 0.00069258204998103739 0.0078775376588572192 0 0.00069258204998103739 0.0078775376588572192 0 0.00085528329081318991 0.0077698711712148134 0 0.00062184110084432837 0.0076127370247428931 0 0.00069258204998103739 0.0078775376588572192 0 0.00088925965717764812 0.0079943412143140581 0 0.00082654245447106602 0.0082130073025665079 0 0.00088925965717764812 0.0079943412143140581 0 0.0010829036879201643 0.0079608458613792087 0 0.00098004956055269387 0.0081112781777166829 0 0.00088925965717764812 0.0079943412143140581 0 0.00085528329081318991 0.0077698711712148134 0 0.0010829036879201643 0.0079608458613792087 0 0.00069258204998103739 0.0078775376588572192 0 0.00088925965717764812 0.0079943412143140581 0 0.00085528329081318991 0.0077698711712148134 0 0.00085528329081318991 0.0077698711712148134 0 0.0010522972373631534 0.0076134337181228548 0 0.00079445817263745127 0.0075267463054541073 0 0.00085528329081318991 0.0077698711712148134 0 0.0010522972373631534 0.0076134337181228548 0 0.0010829036879201643 0.0079608458613792087 0 0.0010522972373631534 0.0076134337181228548 0 0.00079445817263745127 0.0075267463054541073 0 0.00085231388886026788 0.0073106727835644311 0 0.00079445817263745127 0.0075267463054541073 0 0.00062184110084432837 0.0076127370247428931 0 0.00058547737154883753 0.0072738847317543763 0 0.00035650081495313969 0.0075045218298948734 0 0.00062184110084432837 0.0076127370247428931 0 0.00058547737154883753 0.0072738847317543763 0 0.00085528329081318991 0.0077698711712148134 0 0.00079445817263745127 0.0075267463054541073 0 0.00062184110084432837 0.0076127370247428931 0 0.0016170513652167158 0.0079824973471092596 0 0.0013495783421051226 0.0080863045409960543 0 0.0015978268457160546 0.0082547681561696389 0 0.0016170513652167158 0.0079824973471092596 0 0.0013495783421051226 0.0080863045409960543 0 0.0013329204663073404 0.0077846308489411898 0 0.0013495783421051226 0.0080863045409960543 0 0.0010829036879201643 0.0079608458613792087 0 0.0013329204663073404 0.0077846308489411898 0 0.0013495783421051226 0.0080863045409960543 0 0.0010829036879201643 0.0079608458613792087 0 0.0011265744055093075 0.0082304404946714916 0 0.0010522972373631534 0.0076134337181228548 0 0.0010829036879201643 0.0079608458613792087 0 0.0013329204663073404 0.0077846308489411898 0 0.0010522972373631534 0.0076134337181228548 0 0.0013329204663073404 0.0077846308489411898 0 0.0013238581744249634 0.0074719113175266928 0 0.0016170513652167158 0.0079824973471092596 0 0.0013329204663073404 0.0077846308489411898 0 0.0015588398908850702 0.0076424889901962464 0 0.0013329204663073404 0.0077846308489411898 0 0.0015588398908850702 0.0076424889901962464 0 0.0013238581744249634 0.0074719113175266928 0 0.0015588398908850702 0.0076424889901962464 0 0.0013238581744249634 0.0074719113175266928 0 0.0015927349069615197 0.0071525898657566478 0 0.0013238581744249634 0.0074719113175266928 0 0.0012612103026250548 0.0069924705896469447 0 0.0015927349069615197 0.0071525898657566478 0 0.0010522972373631534 0.0076134337181228548 0 0.001121009407495679 0.0072782207094144067 0 0.0013238581744249634 0.0074719113175266928 0 0.001121009407495679 0.0072782207094144067 0 0.0013238581744249634 0.0074719113175266928 0 0.0012612103026250548 0.0069924705896469447 0 0.0012612103026250548 0.0069924705896469447 0 0.0015927349069615197 0.0071525898657566478 0 0.0012157517538303447 0.0065957812654630996 0 0.0016271886532670148 0.0087378580617544343 0 0.00088537952806014677 0.0018896759122866017 0 0.0012342809613494082 0.0082912746751652409 0 0.00091411177176077627 0.0074415438843998044 0 0.0016278966393218262 0.0079525143623685561 0 0.00058547737154883753 0.0072738847317543763 0 0.00085231388886026788 0.0073106727835644311 0 0.00071866635556326987 0.0068648678657624151 0 0.00079445817263745127 0.0075267463054541073 0 0.00058547737154883753 0.0072738847317543763 0 0.00085231388886026788 0.0073106727835644311 0 0.0010522972373631534 0.0076134337181228548 0 0.001121009407495679 0.0072782207094144067 0 0.00085231388886026788 0.0073106727835644311 0 0.001121009407495679 0.0072782207094144067 0 0.0012612103026250548 0.0069924705896469447 0 0.00071866635556326987 0.0068648678657624151 0 0.001121009407495679 0.0072782207094144067 0 0.00085231388886026788 0.0073106727835644311 0 0.00071866635556326987 0.0068648678657624151 0 0.0003010481799632632 0.0070876784636405817 0 0.00058547737154883753 0.0072738847317543763 0 0.00071866635556326987 0.0068648678657624151 0 0.00042845900498814825 0.0024690710741053432 0 0.00040538516653162646 0.0025657344160982926 0 0.00023676330937142667 -0.0019078032787017212 0 0.00025927118332040762 -0.0018125548541894909 0 0.00034343009325170154 -0.001922011181045225 0 0.0002277196293798333 -0.004933289452134732 0 0.00088537952806014677 0.0018896759122866017 0 0.00023676330937142667 -0.0019078032787017212 0 0.00025927118332040762 -0.0018125548541894909 0 0.00010934698737802596 -0.0017943084055217203 0 -0.00035745692800277697 -0.0027098798923198644 0 0.0014621111721105427 -0.0022241738225319352 0 0.0012042790617183842 -0.0025793702091052354 0 0.00040538516653162646 0.0025657344160982926 0 0.00088537952806014677 0.0018896759122866017 0 0.0012612103026250548 0.0069924705896469447 0 0.00071866635556326987 0.0068648678657624151 0 0.0012157517538303447 0.0065957812654630996 0 0.00061298397031805572 -0.0029814079067056968 0 -0.00035745692800277697 -0.0027098798923198644 0 0.0012042790617183842 -0.0025793702091052354 0 0.00085946852385069964 -0.007308007051179401 0 0.00063503834382064241 -0.0084967219694749678 0 0.00085946852385069964 -0.007308007051179401 0 0.0002277196293798333 -0.004933289452134732 0 0.0010288028413038533 -0.0083309750768014255 0 0.00065422024866650401 -0.0085285664457744412 0 0.00090847739810664702 -0.0086335985233010008 0 0.0010834128748524313 -0.0081005712332303734 0 0.0006869816618625006 -0.0083228423570800396 0 0.00074600998692227389 -0.0080037363270774407 0 0.0006869816618625006 -0.0083228423570800396 0 0.00074600998692227389 -0.0080037363270774407 0 0.00022853210132194754 -0.0081256191711011564 0 0.0011513913384401597 0.0022076617122287925 0 0.0012404728191998326 0.0066942483906257001 0 0.0012342809613494082 0.0082912746751652409 0 0.00091411177176077627 0.0074415438843998044 0 0.00056704635011042479 0.0074004318406419205 0 0.0011513913384401597 0.0022076617122287925 0 0.00077745790216112028 0.0011900294579753948 0 0.00047458873027172766 -0.0019912524266472481 0 0.00031662963322836099 -0.0020727253450338557 0 0.0011047929312791637 -0.0024860391576194342 0 0.00091411177176077627 0.0074415438843998044 0 0.0006320332792537222 0.0073708111651412962 0 0.00056704635011042479 0.0074004318406419205 0 0.0017405185001938077 -0.0023514501949904606 0 0.0015756514283456584 -0.0022750138125022588 0 0.0012042790617183842 -0.0025793702091052354 0 0.0011616173771909143 -0.0016792376370031873 0 0.00087358852376420574 0.00079848260402758022 0 0.00087358852376420574 0.00079848260402758022 0 0.00088537952806014677 0.0018896759122866017 0 0.00098271359917800807 0.00128992338795101 0 0.0010440754426926215 0.0013173052135940536 0 0.0010746511480589187 0.0013020428263638669 0 0.0011513913384401597 0.0022076617122287925 0 0.0011616173771909143 -0.0016792376370031873 0 0.0011513913384401597 0.0022076617122287925 0 0.00087358852376420574 0.00079848260402758022 0 0.0015756514283456584 -0.0022750138125022588 0 0.0014603423906061517 -0.0022195649257075968 0 0.0012042790617183842 -0.0025793702091052354 0 0.00088537952806014677 0.0018896759122866017 0 0.00010557224130888949 -0.00082124337047588308 0 0.0010288028413038533 -0.0083309750768014255 0 0.0015716219442169466 -0.0084563142156169509 0 0.0011634148514727022 -0.0087477657275092241 0 0.00061298397031805572 -0.0029814079067056968 0 0.0017405185001938077 -0.0023514501949904606 0 0.0012042790617183842 -0.0025793702091052354 0 0.00085946852385069964 -0.007308007051179401 0 0.0011616173771909143 -0.0016792376370031873 0 0.00085946852385069964 -0.007308007051179401 0 0.0016140702945777509 -0.0087126230255240474 0 0.00079750864404358869 -0.0081808247018197618 0 0.001314788707963781 -0.0079258088686996481 0 0.0015716219442169466 -0.0084563142156169509 0 0.0011616173771909143 -0.0016792376370031873 0 0.0015609596422216383 -0.0058973150396598459 0 0.001314788707963781 -0.0079258088686996481 0 0.0015716219442169466 -0.0084563142156169509 0 0.0019853282112844927 -0.0083167003758151253 0 0.0015716219442169466 -0.0084563142156169509 0 0.0018847073725675623 -0.008867363338407484 0 0.0019853282112844927 -0.0083167003758151253 0 0.0015716219442169466 -0.0084563142156169509 0 0.0014974598460179181 -0.0088972406855379847 0 0.0018847073725675623 -0.008867363338407484 0 0.0015716219442169466 -0.0084563142156169509 0 0.0011634148514727022 -0.0087477657275092241 0 0.0014974598460179181 -0.0088972406855379847 0 0.0015322437271926414 -0.0093530899170091112 0 0.0011765643443377399 -0.0091970113347713076 0 0.0014974598460179181 -0.0088972406855379847 0 0.0011634148514727022 -0.0087477657275092241 0 0.0011765643443377399 -0.0091970113347713076 0 0.0014974598460179181 -0.0088972406855379847 0 0.0015322437271926414 -0.0093530899170091112 0 0.0014974598460179181 -0.0088972406855379847 0 0.0018847073725675623 -0.008867363338407484 0 0.00065422024866650401 -0.0085285664457744412 0 0.00090847739810664702 -0.0086335985233010008 0 0.00078355854922430304 -0.0089276383663338676 0 0.00065422024866650401 -0.0085285664457744412 0 0.00078355854922430304 -0.0089276383663338676 0 0.0002598743644804584 -0.0087250696708172024 0 0.0011634148514727022 -0.0087477657275092241 0 0.00090847739810664702 -0.0086335985233010008 0 0.00078355854922430304 -0.0089276383663338676 0 0.0010288028413038533 -0.0083309750768014255 0 0.0011634148514727022 -0.0087477657275092241 0 0.00090847739810664702 -0.0086335985233010008 0 0.00085890053472435779 -0.0094528535553782354 0 0.0011765643443377399 -0.0091970113347713076 0 0.00078355854922430304 -0.0089276383663338676 0 0.0011634148514727022 -0.0087477657275092241 0 0.0011765643443377399 -0.0091970113347713076 0 0.00078355854922430304 -0.0089276383663338676 0 0.00085890053472435779 -0.0094528535553782354 0 0.00078355854922430304 -0.0089276383663338676 0 0.0004161673499589808 -0.009147256686680573 0 0.00078355854922430304 -0.0089276383663338676 0 0.0004161673499589808 -0.009147256686680573 0 0.0002598743644804584 -0.0087250696708172024 0 0.0004161673499589808 -0.009147256686680573 0 -0.00015271272587039008 -0.0089307775311934651 0 0.0002598743644804584 -0.0087250696708172024 0 -0.00018951093647442288 -0.0093147990686861873 0 -0.00019836017128316505 -0.0096455391023669602 0 2.0258782871484879e-06 -0.0093772709463301115 0 0.0004161673499589808 -0.009147256686680573 0 -0.00015271272587039008 -0.0089307775311934651 0 -0.00010172198011321917 -0.0087610830757227781 0 3.2976489037951455e-05 -0.0084200708081099071 0 -0.00028501377639854921 -0.0082467782915167723 0 3.2976489037951455e-05 -0.0084200708081099071 0 0.00029325357477010574 -0.0085458187788722863 0 0.00022853210132194754 -0.0081256191711011564 0 -0.00010172198011321917 -0.0087610830757227781 0 3.2976489037951455e-05 -0.0084200708081099071 0 0.00029325357477010574 -0.0085458187788722863 0 -0.00019836017128316505 -0.0096455391023669602 0 0.00034006614526966883 -0.0085607773845754343 0 0.00063503834382064241 -0.0084967219694749678 0 0.00034006614526966883 -0.0085607773845754343 0 0.0002277196293798333 -0.004933289452134732 0 0.00032883308118657244 -0.0072166346974522925 0 0.0006869816618625006 -0.0083228423570800396 0 0.00029325357477010574 -0.0085458187788722863 0 0.00022853210132194754 -0.0081256191711011564 0 0.00042402909026240983 -0.0063955568537756762 0 0.00041659390248735377 -0.0063673192626851486 0 0.00037613298450953195 -0.0064329419908213548 0 3.2976489037951455e-05 -0.0084200708081099071 0 0.00022853210132194754 -0.0081256191711011564 0 -0.00028501377639854921 -0.0082467782915167723 0 0.00032883308118657244 -0.0072166346974522925 0 0.00044960483253300216 -0.01003112786959443 0 0.0002277196293798333 -0.004933289452134732 0 0.00033159047744030868 -0.0037686771766794864 0 0.00046048484675262341 -0.0063607201072995844 0 0.00042402909026240983 -0.0063955568537756762 0 0.00041659390248735377 -0.0063673192626851486 0 0.00025927118332040762 -0.0018125548541894909 0 0.0004624407214669225 -0.0019008858059358646 0 0.00034343009325170154 -0.001922011181045225 0 0.00095339753881008241 -0.011373048611209717 0 0.0008734890066962812 -0.011461770272761655 0 0.0008250149763310221 -0.011377770661472577 0 0.00095339753881008241 -0.011373048611209717 0 0.0008734890066962812 -0.011461770272761655 0 0.00090528994488394971 -0.011541203891222793 0 0.0008734890066962812 -0.011461770272761655 0 0.00090528994488394971 -0.011541203891222793 0 0.00082788740686714699 -0.01155070816876521 0 0.00095339753881008241 -0.011373048611209717 0 0.0010261516381442261 -0.011590183018908519 0 0.00090528994488394971 -0.011541203891222793 0 0.00091755070151501822 -0.005763881264341633 0 0.00044960483253300216 -0.01003112786959443 0 0.00035664792674194249 -0.0063548066261550767 0 0.00041659390248735377 -0.0063673192626851486 0 0.00037613298450953195 -0.0064329419908213548 0 0.00091755070151501822 -0.005763881264341633 0 0.00033159047744030868 -0.0037686771766794864 0 0.00044960483253300216 -0.01003112786959443 0 0.0008713670727343131 -0.012122206569981451 0 0.0010261516381442261 -0.011590183018908519 0 0.00090528994488394971 -0.011541203891222793 0 0.00077351372713487746 -0.011660156569008082 0 0.00090528994488394971 -0.011541203891222793 0 0.00082788740686714699 -0.01155070816876521 0 0.00077351372713487746 -0.011660156569008082 0 0.00052841410946004991 -0.011690699087372114 0 0.00067393983777654933 -0.01156641695108046 0 0.00077351372713487746 -0.011660156569008082 0 -0.00019836017128316505 -0.0096455391023669602 0 0.00044960483253300216 -0.01003112786959443 0 0.00052841410946004991 -0.011690699087372114 0 0.00067393983777654933 -0.01156641695108046 0 0.00055764742151580141 -0.011555786333937496 0 0.00045691704304653925 -0.011505922663529997 0 0.00052841410946004991 -0.011690699087372114 0 0.00055764742151580141 -0.011555786333937496 0 -0.00067428642134367172 -0.0095096851937078973 0 -0.00048339939177482756 -0.0090510011738307531 0 -0.00082622638289571687 -0.0092308373639322025 0 -0.00019836017128316505 -0.0096455391023669602 0 -0.00011890268285775021 -0.0103339782351329 0 0.00045691704304653925 -0.011505922663529997 0 0.00055764742151580141 -0.011555786333937496 0 0.00057246619026485161 -0.011458520085680369 0 0.00068450279391879098 -0.011410522195335228 0 0.00067393983777654933 -0.01156641695108046 0 0.0007889890244450684 -0.011593638608777077 0 0.00068450279391879098 -0.011410522195335228 0 0.00067393983777654933 -0.01156641695108046 0 0.00057246619026485161 -0.011458520085680369 0 0.00067393983777654933 -0.01156641695108046 0 0.00055764742151580141 -0.011555786333937496 0 0.00057246619026485161 -0.011458520085680369 0 -0.00030542832178413585 -0.010729254754217012 0 -0.00011890268285775021 -0.0103339782351329 0 0.0011405011875301029 -0.012347053110890077 0 0.00095290042802030172 -0.012077954935337728 0 0.00084794397867771697 -0.01229883479579142 0 -0.00030542832178413585 -0.010729254754217012 0 0.0011059719455416453 -0.012105513141529531 0 0.0007889890244450684 -0.011593638608777077 0 0.00077351372713487746 -0.011660156569008082 0 0.00071525608075596392 -0.011726293848404346 0 0.00067393983777654933 -0.01156641695108046 0 0.0007889890244450684 -0.011593638608777077 0 0.00077351372713487746 -0.011660156569008082 0 0.0011059719455416453 -0.012105513141529531 0 0.00063010570181759346 -0.01160548372466866 0 0.00095290042802030172 -0.012077954935337728 0 0.00070682453616808649 -0.012097674965497357 0 0.00071525608075596392 -0.011726293848404346 0 0.000621920764417459 -0.012419507742065137 0 0.00070682453616808649 -0.012097674965497357 0 0.00084794397867771697 -0.01229883479579142 0 0.00095290042802030172 -0.012077954935337728 0 0.00070682453616808649 -0.012097674965497357 0 0.00084794397867771697 -0.01229883479579142 0 0.000621920764417459 -0.012419507742065137 0 0.00070682453616808649 -0.012097674965497357 0 0.00044319932787331874 -0.01230347709033848 0 0.00070682453616808649 -0.012097674965497357 0 0.00044319932787331874 -0.01230347709033848 0 0.00047927957679253966 -0.012079869843635915 0 0.0002167401063819429 -0.012454896323314322 0 0.00044319932787331874 -0.01230347709033848 0 0.00021402268740457257 -0.012124912467368749 0 0.00044319932787331874 -0.01230347709033848 0 0.00047927957679253966 -0.012079869843635915 0 0.00021402268740457257 -0.012124912467368749 0 0.00039921191348606718 -0.011834878972017127 0 0.00021402268740457257 -0.012124912467368749 0 0.00016203581434013221 -0.011852087393924945 0 0.00047927957679253966 -0.012079869843635915 0 0.00039921191348606718 -0.011834878972017127 0 0.00021402268740457257 -0.012124912467368749 0 0.00047927957679253966 -0.012079869843635915 0 0.00039921191348606718 -0.011834878972017127 0 0.00071525608075596392 -0.011726293848404346 0 0.00070682453616808649 -0.012097674965497357 0 0.00047927957679253966 -0.012079869843635915 0 0.00071525608075596392 -0.011726293848404346 0 0.00039921191348606718 -0.011834878972017127 0 0.00052338432156632869 -0.011604353572146783 0 0.00071525608075596392 -0.011726293848404346 0 0.00039921191348606718 -0.011834878972017127 0 0.00031776218585628097 -0.011666058595783383 0 0.00052338432156632869 -0.011604353572146783 0 0.00039921191348606718 -0.011834878972017127 0 0.00031776218585628097 -0.011666058595783383 0 0.00016203581434013221 -0.011852087393924945 0 0.00031776218585628097 -0.011666058595783383 0 0.00037508310444913002 -0.011485388016980187 0 0.00052338432156632869 -0.011604353572146783 0 0.00031776218585628097 -0.011666058595783383 0 0.00037508310444913002 -0.011485388016980187 0 0.0001685763270137968 -0.01145400953816542 0 0.00052338432156632869 -0.011604353572146783 0 0.00063577672666668386 -0.011439458948292182 0 0.00049277544237299 -0.011401068530143676 0 0.00037508310444913002 -0.011485388016980187 0 0.00052338432156632869 -0.011604353572146783 0 0.00049277544237299 -0.011401068530143676 0 0.00052338432156632869 -0.011604353572146783 0 0.00063577672666668386 -0.011439458948292182 0 0.00068333614357318382 -0.011570455993409078 0 0.00063577672666668386 -0.011439458948292182 0 0.00068333614357318382 -0.011570455993409078 0 0.0007373893399876257 -0.01148095128654327 0 0.00068333614357318382 -0.011570455993409078 0 0.0007373893399876257 -0.01148095128654327 0 0.00076010404647975814 -0.011595307516293585 0 0.00063577672666668386 -0.011439458948292182 0 0.0007373893399876257 -0.01148095128654327 0 0.00072647187888214384 -0.011388293441955091 0 0.0007373893399876257 -0.01148095128654327 0 0.00077999892491618494 -0.011412939651742707 0 0.00072647187888214384 -0.011388293441955091 0 0.0007373893399876257 -0.01148095128654327 0 0.00080692652492941224 -0.011476217919258173 0 0.00077999892491618494 -0.011412939651742707 0 0.0008734890066962812 -0.011461770272761655 0 0.00080692652492941224 -0.011476217919258173 0 0.0008250149763310221 -0.011377770661472577 0 0.00080692652492941224 -0.011476217919258173 0 0.0008250149763310221 -0.011377770661472577 0 0.00077999892491618494 -0.011412939651742707 0 0.0008734890066962812 -0.011461770272761655 0 0.00080692652492941224 -0.011476217919258173 0 0.00082788740686714699 -0.01155070816876521 0 0.00080692652492941224 -0.011476217919258173 0 0.00076010404647975814 -0.011595307516293585 0 0.00082788740686714699 -0.01155070816876521 0 0.0007373893399876257 -0.01148095128654327 0 0.00080692652492941224 -0.011476217919258173 0 0.00076010404647975814 -0.011595307516293585 0 0.00076010404647975814 -0.011595307516293585 0 0.00077351372713487746 -0.011660156569008082 0 0.00071525608075596392 -0.011726293848404346 0 0.00076010404647975814 -0.011595307516293585 0 0.00082788740686714699 -0.01155070816876521 0 0.00077351372713487746 -0.011660156569008082 0 0.00052338432156632869 -0.011604353572146783 0 0.00068333614357318382 -0.011570455993409078 0 0.00071525608075596392 -0.011726293848404346 0 0.00068333614357318382 -0.011570455993409078 0 0.00076010404647975814 -0.011595307516293585 0 0.00071525608075596392 -0.011726293848404346 0 -0.00071788182560169472 -0.012392733050021662 0 -0.00060878242345367814 -0.012128635793754554 0 -0.00039696597882301655 -0.012225749965352513 0 -0.00060878242345367814 -0.012128635793754554 0 -0.00039696597882301655 -0.012225749965352513 0 -0.0004240094550348943 -0.011959552089331631 0 -0.00038281665053849798 -0.012535719735506179 0 -0.00071788182560169472 -0.012392733050021662 0 -0.00039696597882301655 -0.012225749965352513 0 -0.0013701667124579279 -0.016786729781953058 0 -0.0011940443832776657 -0.01653720054023073 0 -0.00038281665053849798 -0.012535719735506179 0 -0.00039696597882301655 -0.012225749965352513 0 -8.7626379628393395e-05 -0.012347162488267565 0 -0.00039696597882301655 -0.012225749965352513 0 -0.00012353690183528201 -0.012003617439485937 0 -0.0004240094550348943 -0.011959552089331631 0 -0.00039696597882301655 -0.012225749965352513 0 -0.00012353690183528201 -0.012003617439485937 0 -8.7626379628393395e-05 -0.012347162488267565 0 -0.00012353690183528201 -0.012003617439485937 0 -8.7626379628393395e-05 -0.012347162488267565 0 0.00021402268740457257 -0.012124912467368749 0 0.0002167401063819429 -0.012454896323314322 0 -8.7626379628393395e-05 -0.012347162488267565 0 0.00021402268740457257 -0.012124912467368749 0 -0.00012353690183528201 -0.012003617439485937 0 0.00021402268740457257 -0.012124912467368749 0 0.00016203581434013221 -0.011852087393924945 0 0.00031776218585628097 -0.011666058595783383 0 0.00016203581434013221 -0.011852087393924945 0 1.6511264624055739e-05 -0.011686381072003302 0 0.00031776218585628097 -0.011666058595783383 0 1.6511264624055739e-05 -0.011686381072003302 0 0.0001685763270137968 -0.01145400953816542 0 1.6511264624055739e-05 -0.011686381072003302 0 -0.0002545700086423508 -0.011524495569521511 0 -6.0773899579688446e-05 -0.01136274428112951 0 1.6511264624055739e-05 -0.011686381072003302 0 -6.0773899579688446e-05 -0.01136274428112951 0 0.0001685763270137968 -0.01145400953816542 0 -0.00012353690183528201 -0.012003617439485937 0 1.6511264624055739e-05 -0.011686381072003302 0 -0.00026568260250278269 -0.011770890419031284 0 -0.00012353690183528201 -0.012003617439485937 0 0.00016203581434013221 -0.011852087393924945 0 1.6511264624055739e-05 -0.011686381072003302 0 -0.00012353690183528201 -0.012003617439485937 0 -0.00026568260250278269 -0.011770890419031284 0 -0.0004240094550348943 -0.011959552089331631 0 -0.00026568260250278269 -0.011770890419031284 0 -0.00050038267402984264 -0.011690197162594141 0 -0.0002545700086423508 -0.011524495569521511 0 1.6511264624055739e-05 -0.011686381072003302 0 -0.00026568260250278269 -0.011770890419031284 0 -0.0002545700086423508 -0.011524495569521511 0 -0.00026568260250278269 -0.011770890419031284 0 -0.00050038267402984264 -0.011690197162594141 0 -0.0004240094550348943 -0.011959552089331631 0 -0.00065352192743570517 -0.011926741580538606 0 -0.00060878242345367814 -0.012128635793754554 0 -0.0004240094550348943 -0.011959552089331631 0 -0.00065352192743570517 -0.011926741580538606 0 -0.00050038267402984264 -0.011690197162594141 0 -0.0004240094550348943 -0.011959552089331631 0 -0.00057818222299096554 -0.011194991339397414 0 -0.00028414066832387438 -0.011245745347970904 0 -0.00030039202655579843 -0.010969432746107264 0 -0.00057818222299096554 -0.011194991339397414 0 -0.00045949716119762806 -0.011417433861370467 0 -0.00028414066832387438 -0.011245745347970904 0 -0.00050038267402984264 -0.011690197162594141 0 -0.00045949716119762806 -0.011417433861370467 0 -0.0002545700086423508 -0.011524495569521511 0 -0.00067916459065990738 -0.011506418539662387 0 -0.00050038267402984264 -0.011690197162594141 0 -0.00045949716119762806 -0.011417433861370467 0 -0.00067916459065990738 -0.011506418539662387 0 -0.00057818222299096554 -0.011194991339397414 0 -0.00045949716119762806 -0.011417433861370467 0 -0.0002545700086423508 -0.011524495569521511 0 -0.00028414066832387438 -0.011245745347970904 0 -6.0773899579688446e-05 -0.01136274428112951 0 -0.00045949716119762806 -0.011417433861370467 0 -0.0002545700086423508 -0.011524495569521511 0 -0.00028414066832387438 -0.011245745347970904 0 -0.00028414066832387438 -0.011245745347970904 0 -9.5386636385206845e-05 -0.011091660548987761 0 -0.00030039202655579843 -0.010969432746107264 0 7.225250465160616e-05 -0.011183179302288833 0 -9.5386636385206845e-05 -0.011091660548987761 0 0.00013593888466168302 -0.010923312541931827 0 -0.00028414066832387438 -0.011245745347970904 0 -9.5386636385206845e-05 -0.011091660548987761 0 -6.0773899579688446e-05 -0.01136274428112951 0 7.225250465160616e-05 -0.011183179302288833 0 -9.5386636385206845e-05 -0.011091660548987761 0 -6.0773899579688446e-05 -0.01136274428112951 0 7.225250465160616e-05 -0.011183179302288833 0 -6.0773899579688446e-05 -0.01136274428112951 0 0.0001685763270137968 -0.01145400953816542 0 7.225250465160616e-05 -0.011183179302288833 0 0.0001685763270137968 -0.01145400953816542 0 0.00035294060905238198 -0.01130396267675976 0 7.225250465160616e-05 -0.011183179302288833 0 0.00027549022795455696 -0.011061300632044267 0 0.00035294060905238198 -0.01130396267675976 0 7.225250465160616e-05 -0.011183179302288833 0 0.00027549022795455696 -0.011061300632044267 0 0.00013593888466168302 -0.010923312541931827 0 0.00027549022795455696 -0.011061300632044267 0 0.00013593888466168302 -0.010923312541931827 0 0.00037409696376778463 -0.010891685144125378 0 0.00013593888466168302 -0.010923312541931827 0 0.00017770534954874746 -0.010738454066815305 0 2.5833949447377975e-05 -0.010762002311976774 0 0.00013593888466168302 -0.010923312541931827 0 0.00017770534954874746 -0.010738454066815305 0 0.000361426567479397 -0.010693604054333955 0 0.00013593888466168302 -0.010923312541931827 0 0.00037409696376778463 -0.010891685144125378 0 0.000361426567479397 -0.010693604054333955 0 0.00020307864087613944 -0.010516585181782605 0 0.00017770534954874746 -0.010738454066815305 0 0.000361426567479397 -0.010693604054333955 0 0.00020307864087613944 -0.010516585181782605 0 0.000361426567479397 -0.010693604054333955 0 0.00035355027587184918 -0.010457841785342084 0 0.00020307864087613944 -0.010516585181782605 0 0.00011086046622075446 -0.010635787835127272 0 0.00017770534954874746 -0.010738454066815305 0 0.00011086046622075446 -0.010635787835127272 0 0.00017770534954874746 -0.010738454066815305 0 2.5833949447377975e-05 -0.010762002311976774 0 0.00011086046622075446 -0.010635787835127272 0 2.5833949447377975e-05 -0.010762002311976774 0 -3.1224719601152508e-05 -0.010597717378060688 0 0.00020307864087613944 -0.010516585181782605 0 0.00011086046622075446 -0.010635787835127272 0 -3.1224719601152508e-05 -0.010597717378060688 0 2.5833949447377975e-05 -0.010762002311976774 0 -3.1224719601152508e-05 -0.010597717378060688 0 -0.0001675704189383543 -0.010758969145694599 0 2.5833949447377975e-05 -0.010762002311976774 0 -7.3380040196135556e-05 -0.010903020556406894 0 -0.0001675704189383543 -0.010758969145694599 0 0.00013593888466168302 -0.010923312541931827 0 2.5833949447377975e-05 -0.010762002311976774 0 -7.3380040196135556e-05 -0.010903020556406894 0 -9.5386636385206845e-05 -0.011091660548987761 0 0.00013593888466168302 -0.010923312541931827 0 -7.3380040196135556e-05 -0.010903020556406894 0 -7.3380040196135556e-05 -0.010903020556406894 0 -0.00030039202655579843 -0.010969432746107264 0 -0.0001675704189383543 -0.010758969145694599 0 -9.5386636385206845e-05 -0.011091660548987761 0 -7.3380040196135556e-05 -0.010903020556406894 0 -0.00030039202655579843 -0.010969432746107264 0 -0.00030039202655579843 -0.010969432746107264 0 -0.0001675704189383543 -0.010758969145694599 0 -0.00038846493724572318 -0.010744340474795265 0 -3.1224719601152508e-05 -0.010597717378060688 0 -0.0001675704189383543 -0.010758969145694599 0 -0.00022801009663395307 -0.010548431292849774 0 -0.0001675704189383543 -0.010758969145694599 0 -0.00038846493724572318 -0.010744340474795265 0 -0.00022801009663395307 -0.010548431292849774 0 -0.00038846493724572318 -0.010744340474795265 0 -0.0004686737601002705 -0.010503221550192588 0 -0.00022801009663395307 -0.010548431292849774 0 -0.00061617790722211187 -0.010729803243288063 0 -0.00038846493724572318 -0.010744340474795265 0 -0.00054304921360177091 -0.010927102551955368 0 -0.00061617790722211187 -0.010729803243288063 0 -0.00038846493724572318 -0.010744340474795265 0 -0.0004686737601002705 -0.010503221550192588 0 -0.00030039202655579843 -0.010969432746107264 0 -0.00038846493724572318 -0.010744340474795265 0 -0.00054304921360177091 -0.010927102551955368 0 -0.00057818222299096554 -0.011194991339397414 0 -0.00030039202655579843 -0.010969432746107264 0 -0.00054304921360177091 -0.010927102551955368 0 0.00068612793577690955 -0.011131087863303371 0 0.0007994191855735588 -0.011337575169985485 0 0.0007316442069777979 -0.011305522189659627 0 0.00068612793577690955 -0.011131087863303371 0 0.00067060913999451193 -0.011306606726233856 0 0.00051569335582759353 -0.011227985024554649 0 0.00068612793577690955 -0.011131087863303371 0 0.0007316442069777979 -0.011305522189659627 0 0.00067060913999451193 -0.011306606726233856 0 0.0011577832741378952 -0.010925591524631295 0 0.00073364896343968116 -0.011149573283940018 0 0.00099104022134162938 -0.010724738357998951 0 0.00077056524853963491 -0.0022686495682559533 0 0.00074834238565314271 -0.0022331749195511562 0 0.00073514470570044455 -0.0022462801316152962 0 0.00074931824899464327 -0.0022463161864454133 0 0.00077056524853963491 -0.0022686495682559533 0 0.00074834238565314271 -0.0022331749195511562 0 0.00088486140850686367 -0.006657993958417068 0 0.00042015600537940231 -0.0082134818581003875 0 0.00073765897504668291 -0.0021889552480314381 0 0.00074834238565314271 -0.0022331749195511562 0 0.00073514470570044455 -0.0022462801316152962 0 0.00068612793577690955 -0.011131087863303371 0 0.0007994191855735588 -0.011337575169985485 0 0.00081615128188097005 -0.011342499127864093 0 0.0007994191855735588 -0.011337575169985485 0 0.00077593270885829087 -0.011360016110073971 0 0.0007316442069777979 -0.011305522189659627 0 0.0005628075724002443 -0.0083731325956258353 0 0.00042015600537940231 -0.0082134818581003875 0 0.00042015600537940231 -0.0082134818581003875 0 0.0012694754941297919 -0.010026448307445514 0 0.00081060401252719644 -0.011343815063939295 0 0.0008250149763310221 -0.011377770661472577 0 0.00077999892491618494 -0.011412939651742707 0 0.00077593270885829087 -0.011360016110073971 0 0.00072647187888214384 -0.011388293441955091 0 0.0007316442069777979 -0.011305522189659627 0 0.00081060401252719644 -0.011343815063939295 0 0.00077593270885829087 -0.011360016110073971 0 0.00077999892491618494 -0.011412939651742707 0 0.0007994191855735588 -0.011337575169985485 0 0.00081060401252719644 -0.011343815063939295 0 0.00077593270885829087 -0.011360016110073971 0 0.00077593270885829087 -0.011360016110073971 0 0.00077999892491618494 -0.011412939651742707 0 0.00072647187888214384 -0.011388293441955091 0 0.00072647187888214384 -0.011388293441955091 0 0.0007316442069777979 -0.011305522189659627 0 0.00067060913999451193 -0.011306606726233856 0 0.00063577672666668386 -0.011439458948292182 0 0.00067060913999451193 -0.011306606726233856 0 0.00057887588890163022 -0.011343179222759266 0 0.00063577672666668386 -0.011439458948292182 0 0.00072647187888214384 -0.011388293441955091 0 0.00067060913999451193 -0.011306606726233856 0 0.00067060913999451193 -0.011306606726233856 0 0.00057887588890163022 -0.011343179222759266 0 0.00051569335582759353 -0.011227985024554649 0 0.00063577672666668386 -0.011439458948292182 0 0.00049277544237299 -0.011401068530143676 0 0.00057887588890163022 -0.011343179222759266 0 0.00049277544237299 -0.011401068530143676 0 0.00057887588890163022 -0.011343179222759266 0 0.00051569335582759353 -0.011227985024554649 0 0.00049277544237299 -0.011401068530143676 0 0.00035294060905238198 -0.01130396267675976 0 0.00051569335582759353 -0.011227985024554649 0 0.00037508310444913002 -0.011485388016980187 0 0.0001685763270137968 -0.01145400953816542 0 0.00035294060905238198 -0.01130396267675976 0 0.00037508310444913002 -0.011485388016980187 0 0.00049277544237299 -0.011401068530143676 0 0.00035294060905238198 -0.01130396267675976 0 0.00035294060905238198 -0.01130396267675976 0 0.00052751572561766762 -0.01099832740501807 0 0.00073364896343968116 -0.011149573283940018 0 0.0004843010165701525 -0.011239344283263312 0 0.00037398828480706141 -0.011432831231266503 0 0.00027549022795455696 -0.011061300632044267 0 0.00035294060905238198 -0.01130396267675976 0 0.00052751572561766762 -0.01099832740501807 0 0.00027549022795455696 -0.011061300632044267 0 0.00052751572561766762 -0.01099832740501807 0 0.00037409696376778463 -0.010891685144125378 0 0.00052751572561766762 -0.01099832740501807 0 0.00073364896343968116 -0.011149573283940018 0 0.00099104022134162938 -0.010724738357998951 0 0.00088486140850686367 -0.006657993958417068 0 0.00037398828480706141 -0.011432831231266503 0 0.00052751572561766762 -0.01099832740501807 0 0.00057145251314761269 -0.010789696239077712 0 0.00084184569309173226 -0.010827214705197484 0 1.2038656575722223e-05 -0.011838784053322036 0 0.0013003892954357287 -0.0061290980404984756 0 0.0019259336178948194 -0.0047064572415788106 0 0.0013003892954357287 -0.0061290980404984756 0 0.00057145251314761269 -0.010789696239077712 0 0.00061335908212234284 -0.010559822978684222 0 0.00084184569309173226 -0.010827214705197484 0 0.00052751572561766762 -0.01099832740501807 0 0.00037409696376778463 -0.010891685144125378 0 0.00057145251314761269 -0.010789696239077712 0 0.00037409696376778463 -0.010891685144125378 0 0.00057145251314761269 -0.010789696239077712 0 0.000361426567479397 -0.010693604054333955 0 0.00057145251314761269 -0.010789696239077712 0 0.000361426567479397 -0.010693604054333955 0 0.00061335908212234284 -0.010559822978684222 0 0.000361426567479397 -0.010693604054333955 0 0.00061335908212234284 -0.010559822978684222 0 0.00035355027587184918 -0.010457841785342084 0 0.0031103183842630241 0.00038888648399513657 0 0.0027384570284943754 0.00041249671379054798 0 0.002704837225186235 0.00086778910878582984 0 0.0031103183842630241 0.00038888648399513657 0 0.0027384570284943754 0.00041249671379054798 0 0.0029412821596644452 -1.9891311607333327e-05 0 0.0027384570284943754 0.00041249671379054798 0 0.0024466020804275327 0.00054526586535510362 0 0.002704837225186235 0.00086778910878582984 0 0.0024466020804275327 0.00054526586535510362 0 0.0022417717341614431 0.00041457439298172959 0 0.0024969593371092593 0.00024782749675917356 0 0.0027384570284943754 0.00041249671379054798 0 0.0024466020804275327 0.00054526586535510362 0 0.0024969593371092593 0.00024782749675917356 0 0.0013003892954357287 -0.0061290980404984756 0 0.0024722641652534633 0.00036855303796359752 0 0.0010827276271754597 -0.0030671339388890608 0 0.00073980934696840064 -0.0026363756983905089 0 0.0016326189973021618 -0.0022303562008941869 0 0.0024466020804275327 0.00054526586535510362 0 0.002704837225186235 0.00086778910878582984 0 0.0022703796732312254 0.00074104005964177805 0 0.00088486140850686367 -0.006657993958417068 0 0.0013003892954357287 -0.0061290980404984756 0 0.0011604324693289952 0.0017304336486511703 0 0.00088486140850686367 -0.006657993958417068 0 0.0022367902786988095 -0.0025232410302002601 0 0.0010827276271754597 -0.0030671339388890608 0 0.0016326189973021618 -0.0022303562008941869 0 0.0024722641652534633 0.00036855303796359752 0 0.0021289688656146786 0.00085454420686852507 0 0.0020570453550760822 0.0014717945330064541 0 0.0023177774094608372 0.0013323522161929969 0 0.0021249267692652939 0.0012565421538380816 0 0.0011604324693289952 0.0017304336486511703 0 0.0024722641652534633 0.00036855303796359752 0 0.0024466020804275327 0.00054526586535510362 0 0.0020435547140568258 0.00068436335360927067 0 0.0022417717341614431 0.00041457439298172959 0 0.0024466020804275327 0.00054526586535510362 0 0.0022703796732312254 0.00074104005964177805 0 0.0020435547140568258 0.00068436335360927067 0 0.0020435547140568258 0.00068436335360927067 0 0.0022417717341614431 0.00041457439298172959 0 0.0020117010794980855 0.00037757727637484102 0 0.0022417717341614431 0.00041457439298172959 0 0.0020117010794980855 0.00037757727637484102 0 0.0021985680792800349 0.00021344852336584944 0 0.0020117010794980855 0.00037757727637484102 0 0.0021985680792800349 0.00021344852336584944 0 0.00188805514399344 0.00014146424929761974 0 0.0021985680792800349 0.00021344852336584944 0 0.0023238442592479706 -0.0001135573590426467 0 0.0024969593371092593 0.00024782749675917356 0 0.0021985680792800349 0.00021344852336584944 0 0.0023238442592479706 -0.0001135573590426467 0 0.00188805514399344 0.00014146424929761974 0 0.0022417717341614431 0.00041457439298172959 0 0.0021985680792800349 0.00021344852336584944 0 0.0024969593371092593 0.00024782749675917356 0 0.0019980864351759916 -0.00017186936136446727 0 0.0023238442592479706 -0.0001135573590426467 0 0.00188805514399344 0.00014146424929761974 0 0.0023238442592479706 -0.0001135573590426467 0 0.0021093884357194339 -0.00046448365463495173 0 0.0024952976669304354 -0.00064949223138862744 0 0.0019980864351759916 -0.00017186936136446727 0 0.0023238442592479706 -0.0001135573590426467 0 0.0021093884357194339 -0.00046448365463495173 0 0.0023238442592479706 -0.0001135573590426467 0 0.0029412821596644452 -1.9891311607333327e-05 0 0.0028157933453621616 -0.000455954844088301 0 0.0023238442592479706 -0.0001135573590426467 0 0.0028157933453621616 -0.000455954844088301 0 0.0024952976669304354 -0.00064949223138862744 0 0.0027384570284943754 0.00041249671379054798 0 0.0024969593371092593 0.00024782749675917356 0 0.0029412821596644452 -1.9891311607333327e-05 0 0.0023238442592479706 -0.0001135573590426467 0 0.0024969593371092593 0.00024782749675917356 0 0.0029412821596644452 -1.9891311607333327e-05 0 0.00061335908212234284 -0.010559822978684222 0 0.00040355486157930891 -0.010269669200297525 0 0.00035355027587184918 -0.010457841785342084 0 0.0031103183842630241 0.00038888648399513657 0 0.0029412821596644452 -1.9891311607333327e-05 0 0.0035086716482980985 -0.0001599385719731254 0 0.0019259336178948194 -0.0047064572415788106 0 0.0009911017874234217 -0.0067962893598942937 0 0.0009911017874234217 -0.0067962893598942937 0 0.00012134339613139942 -0.010896469205848046 0 0.0009911017874234217 -0.0067962893598942937 0 0.0022056478028417664 -0.0048879981084059328 0 0.0029412821596644452 -1.9891311607333327e-05 0 0.0035086716482980985 -0.0001599385719731254 0 0.0033914123399206874 -0.00071891437519442758 0 0.00051017466126339177 -0.010276072476166086 0 0.00070034552697815404 -0.0097811203459070729 0 0.00038344350209983412 -0.010155676174147045 0 0.0029412821596644452 -1.9891311607333327e-05 0 0.0028157933453621616 -0.000455954844088301 0 0.0033914123399206874 -0.00071891437519442758 0 0.0028157933453621616 -0.000455954844088301 0 0.0029998506940355435 -0.00088637288123452954 0 0.0033914123399206874 -0.00071891437519442758 0 0.0029998506940355435 -0.00088637288123452954 0 0.0033914123399206874 -0.00071891437519442758 0 0.00338273478140937 -0.0013435595844126463 0 0.0022056478028417664 -0.0048879981084059328 0 0.0020807098173128303 -0.0054447472912659903 0 0.0008609139387539442 -0.0092609950399172702 0 0.00031454151220791817 -0.0094167001877594903 0 0.00060340803588887612 -0.0089550111047324125 0 0.00070034552697815404 -0.0097811203459070729 0 0.0008609139387539442 -0.0092609950399172702 0 0.00031454151220791817 -0.0094167001877594903 0 0.0029998506940355435 -0.00088637288123452954 0 0.0028539690789499959 -0.0013686456688778324 0 0.0025850587712828357 -0.0010737899753168823 0 0.0029998506940355435 -0.00088637288123452954 0 0.00338273478140937 -0.0013435595844126463 0 0.0028539690789499959 -0.0013686456688778324 0 0.0028539690789499959 -0.0013686456688778324 0 0.0025850587712828357 -0.0010737899753168823 0 0.0024036383023987935 -0.0014791857301063944 0 0.0025850587712828357 -0.0010737899753168823 0 0.0022069338834299224 -0.00091692696118183203 0 0.0024036383023987935 -0.0014791857301063944 0 0.0022069338834299224 -0.00091692696118183203 0 0.0024036383023987935 -0.0014791857301063944 0 0.0018674786163616636 -0.0012169716316090037 0 0.0022069338834299224 -0.00091692696118183203 0 0.0021093884357194339 -0.00046448365463495173 0 0.0018562060633275951 -0.00068008252466789326 0 0.0022069338834299224 -0.00091692696118183203 0 0.0021093884357194339 -0.00046448365463495173 0 0.0024952976669304354 -0.00064949223138862744 0 0.0029998506940355435 -0.00088637288123452954 0 0.0025850587712828357 -0.0010737899753168823 0 0.0024952976669304354 -0.00064949223138862744 0 0.0028157933453621616 -0.000455954844088301 0 0.0029998506940355435 -0.00088637288123452954 0 0.0024952976669304354 -0.00064949223138862744 0 0.0025850587712828357 -0.0010737899753168823 0 0.0022069338834299224 -0.00091692696118183203 0 0.0024952976669304354 -0.00064949223138862744 0 -0.00066385459176021761 -0.010248009187562504 0 -0.00044155871698460004 -0.010301975740838923 0 -0.00037979304606239794 -0.010085855627483924 0 -0.00044155871698460004 -0.010301975740838923 0 -0.0004686737601002705 -0.010503221550192588 0 -0.00025618251459514534 -0.010277242838890791 0 -0.00061547873935816197 -0.0103924571723811 0 -0.00044155871698460004 -0.010301975740838923 0 -0.0004686737601002705 -0.010503221550192588 0 -0.00022801009663395307 -0.010548431292849774 0 -0.00025618251459514534 -0.010277242838890791 0 -1.0686869098570658e-05 -0.010410731035453121 0 -0.0004686737601002705 -0.010503221550192588 0 -0.00022801009663395307 -0.010548431292849774 0 -0.00025618251459514534 -0.010277242838890791 0 -0.00044155871698460004 -0.010301975740838923 0 -0.00025618251459514534 -0.010277242838890791 0 -0.00037979304606239794 -0.010085855627483924 0 -0.00025618251459514534 -0.010277242838890791 0 -0.00013380873208824464 -0.010013390151669332 0 -0.00037979304606239794 -0.010085855627483924 0 -0.00025618251459514534 -0.010277242838890791 0 7.9342864973487421e-05 -0.010164684578218017 0 -1.0686869098570658e-05 -0.010410731035453121 0 -0.00025618251459514534 -0.010277242838890791 0 7.9342864973487421e-05 -0.010164684578218017 0 -0.00013380873208824464 -0.010013390151669332 0 7.9342864973487421e-05 -0.010164684578218017 0 0.00027673415769883771 -0.0098896939392316991 0 -0.00013380873208824464 -0.010013390151669332 0 -3.1224719601152508e-05 -0.010597717378060688 0 -0.00022801009663395307 -0.010548431292849774 0 -1.0686869098570658e-05 -0.010410731035453121 0 0.00020307864087613944 -0.010516585181782605 0 -3.1224719601152508e-05 -0.010597717378060688 0 -1.0686869098570658e-05 -0.010410731035453121 0 7.9342864973487421e-05 -0.010164684578218017 0 -1.0686869098570658e-05 -0.010410731035453121 0 0.00024794230822200106 -0.010335898822201556 0 0.00020307864087613944 -0.010516585181782605 0 -1.0686869098570658e-05 -0.010410731035453121 0 0.00024794230822200106 -0.010335898822201556 0 0.00020307864087613944 -0.010516585181782605 0 0.00024794230822200106 -0.010335898822201556 0 0.00035355027587184918 -0.010457841785342084 0 0.00044351053312659977 -0.010284996798614702 0 0.00024794230822200106 -0.010335898822201556 0 0.00038344350209983412 -0.010155676174147045 0 0.00044351053312659977 -0.010284996798614702 0 0.00024794230822200106 -0.010335898822201556 0 0.00035355027587184918 -0.010457841785342084 0 0.0009911017874234217 -0.0067962893598942937 0 0.0013994860914145499 -0.0094762231772471828 0 0.00070034552697815404 -0.0097811203459070729 0 0.00038344350209983412 -0.010155676174147045 0 0.00027673415769883771 -0.0098896939392316991 0 7.9342864973487421e-05 -0.010164684578218017 0 0.00024794230822200106 -0.010335898822201556 0 0.00038344350209983412 -0.010155676174147045 0 7.9342864973487421e-05 -0.010164684578218017 0 0.00038344350209983412 -0.010155676174147045 0 0.00027673415769883771 -0.0098896939392316991 0 0.00070034552697815404 -0.0097811203459070729 0 0.00027673415769883771 -0.0098896939392316991 0 0.00031454151220791817 -0.0094167001877594903 0 0.00027673415769883771 -0.0098896939392316991 0 0.00031454151220791817 -0.0094167001877594903 0 -0.00013380873208824464 -0.010013390151669332 0 0.00031454151220791817 -0.0094167001877594903 0 -0.00013380873208824464 -0.010013390151669332 0 -0.00017407299865834541 -0.0093169317076353744 0 -0.00014544546538125514 -0.0099697366667532445 0 -0.0001932272849577037 -0.0097138542501209908 0 -0.00013380873208824464 -0.010013390151669332 0 -0.00025892044328430336 -0.0099398346915023882 0 -0.00037979304606239794 -0.010085855627483924 0 -0.00025892044328430336 -0.0099398346915023882 0 -0.00039647258812681047 -0.0099722525769135525 0 -0.00037979304606239794 -0.010085855627483924 0 -0.00054790568140626833 -0.010034915406601234 0 -0.00039647258812681047 -0.0099722525769135525 0 -0.00037979304606239794 -0.010085855627483924 0 -0.00054790568140626833 -0.010034915406601234 0 -0.00039647258812681047 -0.0099722525769135525 0 -0.00049426795568052663 -0.009886057516434869 0 -0.00066385459176021761 -0.010248009187562504 0 -0.00054790568140626833 -0.010034915406601234 0 -0.00037979304606239794 -0.010085855627483924 0 -0.00056827192478373751 -0.0096873768487861049 0 -0.00031488417886841794 -0.0097754677696152877 0 -0.00035592143229191373 -0.0095980146309105705 0 -0.00056827192478373751 -0.0096873768487861049 0 -0.00049426795568052663 -0.009886057516434869 0 -0.00031488417886841794 -0.0097754677696152877 0 -0.00039647258812681047 -0.0099722525769135525 0 -0.00049426795568052663 -0.009886057516434869 0 -0.00031488417886841794 -0.0097754677696152877 0 -0.00025892044328430336 -0.0099398346915023882 0 -0.00039647258812681047 -0.0099722525769135525 0 -0.00031488417886841794 -0.0097754677696152877 0 -0.0001932272849577037 -0.0097138542501209908 0 -0.00021867413431954157 -0.0090568223648790965 0 -0.00021867413431954157 -0.0090568223648790965 0 -0.00012103359946214319 -0.010687418720603532 0 -5.8613002825156378e-05 -0.008924342686114195 0 0.00015826409429220336 -0.0088683482973843687 0 8.5503696867666258e-05 -0.0088727370989493109 0 -0.00017407299865834541 -0.0093169317076353744 0 -5.8613002825156378e-05 -0.008924342686114195 0 0.00015826409429220336 -0.0088683482973843687 0 0.00031454151220791817 -0.0094167001877594903 0 -0.00017407299865834541 -0.0093169317076353744 0 0.00015826409429220336 -0.0088683482973843687 0 0.00031454151220791817 -0.0094167001877594903 0 0.00015826409429220336 -0.0088683482973843687 0 0.00060340803588887612 -0.0089550111047324125 0 0.00015826409429220336 -0.0088683482973843687 0 0.00060340803588887612 -0.0089550111047324125 0 0.00067351499804534489 -0.0084381342083471658 0 0.00015826409429220336 -0.0088683482973843687 0 7.611550030283067e-05 -0.0088671957105816886 0 -1.0007932521386423e-05 -0.0088334199069969969 0 0.00015826409429220336 -0.0088683482973843687 0 7.611550030283067e-05 -0.0088671957105816886 0 8.5503696867666258e-05 -0.0088727370989493109 0 0.0002273811368943871 -0.0087792019029178311 0 0.00018813581374814721 -0.0088309035856932085 0 3.6412123191654777e-05 -0.0099882545058241311 0 -1.0149679817639163e-07 -0.0093274624751200422 0 7.611550030283067e-05 -0.0088671957105816886 0 0.00014583494390710963 -0.0089975374244337727 0 3.070203991872194e-07 -0.0093255236919243586 0 -1.6862391064316189e-07 -0.010487192629667139 0 5.779415449924205e-06 -0.010476084359071679 0 1.6905636182409682e-07 -0.0093279026509578249 0 -1.6862391064316189e-07 -0.010487192629667139 0 5.779415449924205e-06 -0.010476084359071679 0 -9.4217964543835579e-06 -0.011401403458221439 0 3.6412123191654777e-05 -0.0099882545058241311 0 -0.00012103359946214319 -0.010687418720603532 0 7.611550030283067e-05 -0.0088671957105816886 0 0.00014583494390710963 -0.0089975374244337727 0 8.5503696867666258e-05 -0.0088727370989493109 0 0.00014583494390710963 -0.0089975374244337727 0 8.5503696867666258e-05 -0.0088727370989493109 0 7.6193837865766955e-05 -0.0088897305968911409 0 -5.8613002825156378e-05 -0.008924342686114195 0 8.5503696867666258e-05 -0.0088727370989493109 0 7.6193837865766955e-05 -0.0088897305968911409 0 -2.1439944370998908e-05 -0.010891199707578398 0 5.3182123229842746e-05 -0.010861998979970009 0 6.32260945454845e-05 -0.010914519699175698 0 3.6412123191654777e-05 -0.0099882545058241311 0 0.00016354387933994389 -0.012089798380095695 0 -1.6862391064316189e-07 -0.010487192629667139 0 1.7237565584829632e-07 -0.011645499845126309 0 -9.4217964543835579e-06 -0.011401403458221439 0 1.472237440222214e-07 -0.011646729060461946 0 0.00016354387933994389 -0.012089798380095695 0 -0.00012103359946214319 -0.010687418720603532 0 0.00016354387933994389 -0.012089798380095695 0 -2.3290702018369952e-05 -0.013114213416548977 0 0.00016354387933994389 -0.012089798380095695 0 -3.3135412268912209e-06 -0.012537173542967439 0 6.6636285879790269e-08 -0.011647425012425069 0 7.3097736809844015e-06 -0.011683825176460928 0 -6.4702716564476887e-08 -0.012605596997402655 0 -3.3135412268912209e-06 -0.012537173542967439 0 6.6636285879790269e-08 -0.011647425012425069 0 0.00011141881169601931 -0.013649145939120188 0 0.00023263795296694041 -0.013649394062533243 0 0.00013173702444752903 -0.013727488380977535 0 0.00025586595743419993 -0.013744881161230411 0 0.00023263795296694041 -0.013649394062533243 0 0.00013173702444752903 -0.013727488380977535 0 -0.00028487398161815416 -0.011945443892739585 0 -0.00012103359946214319 -0.010687418720603532 0 3.9165846473415689e-05 -0.013850676937281063 0 0.00025586595743419993 -0.013744881161230411 0 0.00013173702444752903 -0.013727488380977535 0 0.0022341367124929169 -0.0034501856312474377 0 0.00074522205214294656 -0.0032423970702645044 0 0.0028890314400058454 -0.0020576083581011163 0 0.0022341367124929169 -0.0034501856312474377 0 0.00074522205214294656 -0.0032423970702645044 0 0.0014249021395035908 -0.0043330633169571947 0 0.0021999954286073885 -0.001861716823590986 0 0.0024036383023987935 -0.0014791857301063944 0 0.0018674786163616636 -0.0012169716316090037 0 0.0015440076073971124 -0.0025566747387797159 0 0.0028497578800428 -0.0020661421314433562 0 0.0028539690789499959 -0.0013686456688778324 0 0.0024036383023987935 -0.0014791857301063944 0 0.0028890314400058454 -0.0020576083581011163 0 0.0021999954286073885 -0.001861716823590986 0 0.0024036383023987935 -0.0014791857301063944 0 0.0028890314400058454 -0.0020576083581011163 0 0.00338273478140937 -0.0013435595844126463 0 0.0028890314400058454 -0.0020576083581011163 0 0.0032959621722715845 -0.0027986789561393137 0 0.00338273478140937 -0.0013435595844126463 0 0.0028539690789499959 -0.0013686456688778324 0 0.0028890314400058454 -0.0020576083581011163 0 0.0020807098173128303 -0.0054447472912659903 0 0.0022809491992621606 -0.0055626454443529882 0 0.0008609139387539442 -0.0092609950399172702 0 0.00060340803588887612 -0.0089550111047324125 0 0.0010562028893757475 -0.00869507063746436 0 0.00060340803588887612 -0.0089550111047324125 0 0.00067351499804534489 -0.0084381342083471658 0 0.0010562028893757475 -0.00869507063746436 0 0.0022341367124929169 -0.0034501856312474377 0 0.0032959621722715845 -0.0027986789561393137 0 0.0027494707285026071 -0.0048207680994377736 0 0.00067351499804534489 -0.0084381342083471658 0 0.0010562028893757475 -0.00869507063746436 0 0.0012403192782114241 -0.0080438719960784881 0 0.0022341367124929169 -0.0034501856312474377 0 0.0028890314400058454 -0.0020576083581011163 0 0.0032959621722715845 -0.0027986789561393137 0 0.0022809491992621606 -0.0055626454443529882 0 0.0010436244608591377 -0.0071554016098110476 0 0.00018813581374814721 -0.0088309035856932085 0 0.0010436244608591377 -0.0071554016098110476 0 7.611550030283067e-05 -0.0088671957105816886 0 -1.0007932521386423e-05 -0.0088334199069969969 0 -6.7219673382887951e-05 -0.0088443994433874892 0 -1.0007932521386423e-05 -0.0088334199069969969 0 3.7097193506957657e-05 -0.0086847915311472467 0 -6.7219673382887951e-05 -0.0088443994433874892 0 7.611550030283067e-05 -0.0088671957105816886 0 -6.7219673382887951e-05 -0.0088443994433874892 0 3.070203991872194e-07 -0.0093255236919243586 0 -6.7219673382887951e-05 -0.0088443994433874892 0 3.070203991872194e-07 -0.0093255236919243586 0 -6.0155729714861753e-07 -0.0085217255148024723 0 3.7097193506957657e-05 -0.0086847915311472467 0 -6.7219673382887951e-05 -0.0088443994433874892 0 -6.0155729714861753e-07 -0.0085217255148024723 0 3.7097193506957657e-05 -0.0086847915311472467 0 -6.0155729714861753e-07 -0.0085217255148024723 0 8.549335821521985e-07 -0.0077179229024671447 0 0.0010436244608591377 -0.0071554016098110476 0 -3.5587382972653932e-07 -0.0077173021422169375 0 0.00024155355550523034 -0.0071622775467396907 0 4.6650072670422945e-08 -0.0077144510175130672 0 -6.96078377435785e-05 -0.007350455109252133 0 4.6650072670422945e-08 -0.0077144510175130672 0 -6.96078377435785e-05 -0.007350455109252133 0 -2.4369407308000498e-08 -0.006450562612029251 0 0.0010436244608591377 -0.0071554016098110476 0 0.00082859539954671592 -0.0062926688092701894 0 0.0022341367124929169 -0.0034501856312474377 0 0.0027494707285026071 -0.0048207680994377736 0 0.0014249021395035908 -0.0043330633169571947 0 0.0027494707285026071 -0.0048207680994377736 0 0.0015256282823721352 -0.0055221704679456005 0 0.0014249021395035908 -0.0043330633169571947 0 0.0015256282823721352 -0.0055221704679456005 0 0.0014249021395035908 -0.0043330633169571947 0 0.00016378120728815192 -0.0046960589190193896 0 0.00074522205214294656 -0.0032423970702645044 0 0.0014249021395035908 -0.0043330633169571947 0 0.00016378120728815192 -0.0046960589190193896 0 0.0015256282823721352 -0.0055221704679456005 0 2.6852342134879181e-06 -0.0064461288724714343 0 0.00016378120728815192 -0.0046960589190193896 0 0.00082859539954671592 -0.0062926688092701894 0 -9.7924688448399686e-09 -0.006449128441358587 0 2.6852342134879181e-06 -0.0064461288724714343 0 -8.4614191213939053e-07 -0.005136957589517808 0 0.00016378120728815192 -0.0046960589190193896 0 -8.4614191213939053e-07 -0.005136957589517808 0 2.5232902375220972e-05 -0.0039380590226599762 0 0.00016378120728815192 -0.0046960589190193896 0 2.5232902375220972e-05 -0.0039380590226599762 0 0.00016378120728815192 -0.0046960589190193896 0 -0.00012234093438939021 -0.004058339018267661 0 4.2353131651336178e-07 -0.0038247263863941984 0 0.00031507778284585821 -0.0028831128881034039 0 4.2869949141739209e-05 -0.0026745734603959297 0 4.2353131651336178e-07 -0.0038247263863941984 0 4.2869949141739209e-05 -0.0026745734603959297 0 -1.6884902890421368e-07 -0.0025133845641589609 0 -8.4614191213939053e-07 -0.005136957589517808 0 2.5232902375220972e-05 -0.0039380590226599762 0 4.2353131651336178e-07 -0.0038247263863941984 0 2.5232902375220972e-05 -0.0039380590226599762 0 4.2353131651336178e-07 -0.0038247263863941984 0 0.00031507778284585821 -0.0028831128881034039 0 0.00027952853581770994 -0.0029621388784094663 0 0.00070912518573147871 -0.0030304775225372844 0 2.5232902375220972e-05 -0.0039380590226599762 0 0.00031507778284585821 -0.0028831128881034039 0 -0.00012234093438939021 -0.004058339018267661 0 0.00031507778284585821 -0.0028831128881034039 0 4.2869949141739209e-05 -0.0026745734603959297 0 0.00020766645613818832 -0.0016293333075525249 0 0.00031507778284585821 -0.0028831128881034039 0 0.00020766645613818832 -0.0016293333075525249 0 0.0008889203601196913 -0.0013827167422141814 0 0.00031507778284585821 -0.0028831128881034039 0 0.0008889203601196913 -0.0013827167422141814 0 0.0016085662329050432 -0.0020994113741591501 0 0.0008889203601196913 -0.0013827167422141814 0 0.0009798523635599556 -0.00066571581194560135 0 0.00058860537239630972 -0.00074508321066057558 0 0.0008889203601196913 -0.0013827167422141814 0 0.0013553499868564486 -0.0011611564993582125 0 0.0009798523635599556 -0.00066571581194560135 0 0.00020766645613818832 -0.0016293333075525249 0 0.0008889203601196913 -0.0013827167422141814 0 0.00058860537239630972 -0.00074508321066057558 0 0.0015440076073971124 -0.0025566747387797159 0 0.00070912518573147871 -0.0030304775225372844 0 0.00074522205214294656 -0.0032423970702645044 0 0.00016378120728815192 -0.0046960589190193896 0 -0.00012234093438939021 -0.004058339018267661 0 0.0016085662329050432 -0.0020994113741591501 0 0.0013553499868564486 -0.0011611564993582125 0 0.0018674786163616636 -0.0012169716316090037 0 0.0008889203601196913 -0.0013827167422141814 0 0.0016085662329050432 -0.0020994113741591501 0 0.0013553499868564486 -0.0011611564993582125 0 0.0021999954286073885 -0.001861716823590986 0 0.0016085662329050432 -0.0020994113741591501 0 0.0018674786163616636 -0.0012169716316090037 0 0.0022069338834299224 -0.00091692696118183203 0 0.0018674786163616636 -0.0012169716316090037 0 0.0018562060633275951 -0.00068008252466789326 0 0.0018674786163616636 -0.0012169716316090037 0 0.0018562060633275951 -0.00068008252466789326 0 0.0014190022486482853 -0.00057696182430721447 0 0.0018562060633275951 -0.00068008252466789326 0 0.0014190022486482853 -0.00057696182430721447 0 0.0016791848748482121 -0.00025595901088667258 0 0.0021093884357194339 -0.00046448365463495173 0 0.0018562060633275951 -0.00068008252466789326 0 0.0016791848748482121 -0.00025595901088667258 0 0.0014190022486482853 -0.00057696182430721447 0 0.0016791848748482121 -0.00025595901088667258 0 0.0012683515843749621 -7.9990433061841106e-05 0 0.0014190022486482853 -0.00057696182430721447 0 0.00096547398032571536 -0.00024108483367827821 0 0.0012683515843749621 -7.9990433061841106e-05 0 0.0013553499868564486 -0.0011611564993582125 0 0.0018674786163616636 -0.0012169716316090037 0 0.0014190022486482853 -0.00057696182430721447 0 0.0013553499868564486 -0.0011611564993582125 0 0.0014190022486482853 -0.00057696182430721447 0 0.0009798523635599556 -0.00066571581194560135 0 0.0009798523635599556 -0.00066571581194560135 0 0.00058860537239630972 -0.00074508321066057558 0 0.00070456024363998006 -0.00035963900615924301 0 0.00058860537239630972 -0.00074508321066057558 0 0.00070456024363998006 -0.00035963900615924301 0 0.00042822889158863366 -0.00020739977691010953 0 0.00070456024363998006 -0.00035963900615924301 0 0.00060597939867816826 -4.0791894132274551e-05 0 0.00096547398032571536 -0.00024108483367827821 0 0.00070456024363998006 -0.00035963900615924301 0 0.00060597939867816826 -4.0791894132274551e-05 0 0.00042822889158863366 -0.00020739977691010953 0 0.0009798523635599556 -0.00066571581194560135 0 0.00070456024363998006 -0.00035963900615924301 0 0.00096547398032571536 -0.00024108483367827821 0 0.0014190022486482853 -0.00057696182430721447 0 0.0009798523635599556 -0.00066571581194560135 0 0.00096547398032571536 -0.00024108483367827821 0 0.00096547398032571536 -0.00024108483367827821 0 0.00092208991524968655 8.5947895271176904e-05 0 0.0012683515843749621 -7.9990433061841106e-05 0 0.00060597939867816826 -4.0791894132274551e-05 0 0.00096547398032571536 -0.00024108483367827821 0 0.00092208991524968655 8.5947895271176904e-05 0 0.00092208991524968655 8.5947895271176904e-05 0 0.0012807192714222627 0.00014048214290843933 0 0.0012683515843749621 -7.9990433061841106e-05 0 0.00060597939867816826 -4.0791894132274551e-05 0 0.0006177987449449006 0.0001807001019085669 0 0.00045911233603469895 0.00013271915566313429 0 0.00060597939867816826 -4.0791894132274551e-05 0 0.00092208991524968655 8.5947895271176904e-05 0 0.0006177987449449006 0.0001807001019085669 0 0.00087142473349742944 0.00091984617648620736 0 0.00094348158188420979 0.00067994396233491598 0 0.00023630121678449963 0.00051132980917895077 0 0.0006177987449449006 0.0001807001019085669 0 0.00072604400870358626 0.00034828328134922182 0 0.00029495337840167293 0.00030526986058308471 0 0.00092208991524968655 8.5947895271176904e-05 0 0.0006177987449449006 0.0001807001019085669 0 0.00072604400870358626 0.00034828328134922182 0 0.0014473806885012782 0.00077090478833664942 0 0.00082411640567318597 0.00050793722259430863 0 0.0013580256677015602 0.00051221863129524985 0 0.00072604400870358626 0.00034828328134922182 0 0.0011137234962952634 0.00028092160767488372 0 0.00092208991524968655 8.5947895271176904e-05 0 0.00072604400870358626 0.00034828328134922182 0 0.0011137234962952634 0.00028092160767488372 0 0.0015579775085117643 0.0010066221760964139 0 0.00087142473349742944 0.00091984617648620736 0 0.00094348158188420979 0.00067994396233491598 0 0.00092208991524968655 8.5947895271176904e-05 0 0.0011137234962952634 0.00028092160767488372 0 0.0012807192714222627 0.00014048214290843933 0 0.0013580256677015602 0.00051221863129524985 0 0.0011137234962952634 0.00028092160767488372 0 0.0013685076810432475 0.00029266829050787215 0 0.0011137234962952634 0.00028092160767488372 0 0.0013685076810432475 0.00029266829050787215 0 0.0012807192714222627 0.00014048214290843933 0 0.0013685076810432475 0.00029266829050787215 0 0.0012807192714222627 0.00014048214290843933 0 0.0015139461808881523 0.00011009360580395366 0 0.0013580256677015602 0.00051221863129524985 0 0.0013685076810432475 0.00029266829050787215 0 0.00168231617778344 0.00036209688584555236 0 0.0013685076810432475 0.00029266829050787215 0 0.0015139461808881523 0.00011009360580395366 0 0.00168231617778344 0.00036209688584555236 0 0.0015139461808881523 0.00011009360580395366 0 0.00168231617778344 0.00036209688584555236 0 0.00188805514399344 0.00014146424929761974 0 0.0020117010794980855 0.00037757727637484102 0 0.00168231617778344 0.00036209688584555236 0 0.00188805514399344 0.00014146424929761974 0 0.0015139461808881523 0.00011009360580395366 0 0.00188805514399344 0.00014146424929761974 0 0.0016791848748482121 -0.00025595901088667258 0 0.0019980864351759916 -0.00017186936136446727 0 0.00188805514399344 0.00014146424929761974 0 0.0016791848748482121 -0.00025595901088667258 0 0.0019980864351759916 -0.00017186936136446727 0 0.0021093884357194339 -0.00046448365463495173 0 0.0016791848748482121 -0.00025595901088667258 0 0.0015139461808881523 0.00011009360580395366 0 0.0016791848748482121 -0.00025595901088667258 0 0.0012683515843749621 -7.9990433061841106e-05 0 0.0012807192714222627 0.00014048214290843933 0 0.0015139461808881523 0.00011009360580395366 0 0.0012683515843749621 -7.9990433061841106e-05 0 -0.00011244004971641443 0.00033156280534443511 0 0.00019228363336590241 0.00018136335151458074 0 0.00010279076405762476 0.00013190638543367355 0 0.00048591218114537791 0.0048888107578560474 0 0.00017473067383478843 0.00033190613625938564 0 0.0015280625922183834 0.0087571379771539566 0 0.0017441372541597664 0.0085749039696369819 0 0.0019395534569778274 0.008918624658550112 0 -0.00053420602742970202 0.0020041859129440115 0 -0.00081441946808303971 0.0013468263933437386 0 -0.0014364069354616386 0.0019261355970809943 0 0.00048591218114537791 0.0048888107578560474 0 0.00026207560459578361 0.005488075706261638 0 0.0013495783421051226 0.0080863045409960543 0 0.0013142892352586213 0.0084523211637298444 0 0.0015978268457160546 0.0082547681561696389 0 0.00048591218114537791 0.0048888107578560474 0 0.0015685802149596549 0.0088889991172956696 0 0.0013142892352586213 0.0084523211637298444 0 0.0011265744055093075 0.0082304404946714916 0 0.00082654245447106602 0.0082130073025665079 0 0.0013495783421051226 0.0080863045409960543 0 0.0013142892352586213 0.0084523211637298444 0 0.0011265744055093075 0.0082304404946714916 0 0.00048591218114537791 0.0048888107578560474 0 0.00055443269154517301 0.0043051469385413411 0 0.0010829036879201643 0.0079608458613792087 0 0.0011265744055093075 0.0082304404946714916 0 0.00098004956055269387 0.0081112781777166829 0 0.0011265744055093075 0.0082304404946714916 0 0.00098004956055269387 0.0081112781777166829 0 0.00082654245447106602 0.0082130073025665079 0 0.00088925965717764812 0.0079943412143140581 0 0.00098004956055269387 0.0081112781777166829 0 0.00082654245447106602 0.0082130073025665079 0 0.00094348158188420979 0.00067994396233491598 0 0.00023630121678449963 0.00051132980917895077 0 0.00029495337840167293 0.00030526986058308471 0 0.00082411640567318597 0.00050793722259430863 0 0.000310485047133968 0.00031009531741115636 0 0.00060104255893754207 0.0043581749069797043 0 0.00055443269154517301 0.0043051469385413411 0 0.00034346577312876407 0.0078994332356164716 0 0.00058104652789029115 0.0079283146424524997 0 0.00082654245447106602 0.0082130073025665079 0 0.0006177987449449006 0.0001807001019085669 0 0.00029495337840167293 0.00030526986058308471 0 0.00045911233603469895 0.00013271915566313429 0 0.00029495337840167293 0.00030526986058308471 0 0.00045911233603469895 0.00013271915566313429 0 0.00034073242769851837 6.6898872689490099e-05 0 0.00029495337840167293 0.00030526986058308471 0 0.00019228363336590241 0.00018136335151458074 0 0.00034073242769851837 6.6898872689490099e-05 0 0.00060597939867816826 -4.0791894132274551e-05 0 0.00045911233603469895 0.00013271915566313429 0 0.00034073242769851837 6.6898872689490099e-05 0 0.00023630121678449963 0.00051132980917895077 0 0.00029495337840167293 0.00030526986058308471 0 0.00019228363336590241 0.00018136335151458074 0 -0.00011244004971641443 0.00033156280534443511 0 0.00023630121678449963 0.00051132980917895077 0 0.00019228363336590241 0.00018136335151458074 0 0.00019228363336590241 0.00018136335151458074 0 0.00010279076405762476 0.00013190638543367355 0 0.00022138209664226147 9.7115011458532658e-05 0 -8.6698612998329183e-05 0.0012796379346118351 0 0.00022138209664226147 9.7115011458532658e-05 0 -4.0688375402213297e-05 8.9610490693204484e-05 0 0.00019228363336590241 0.00018136335151458074 0 0.00034073242769851837 6.6898872689490099e-05 0 0.00022138209664226147 9.7115011458532658e-05 0 0.00017473067383478843 0.00033190613625938564 0 0.00010735274211620697 0.00033870270415213902 0 0.00034073242769851837 6.6898872689490099e-05 0 0.00042822889158863366 -0.00020739977691010953 0 0.00022138209664226147 9.7115011458532658e-05 0 0.00060597939867816826 -4.0791894132274551e-05 0 0.00034073242769851837 6.6898872689490099e-05 0 0.00042822889158863366 -0.00020739977691010953 0 0.00042822889158863366 -0.00020739977691010953 0 0.00022138209664226147 9.7115011458532658e-05 0 0.00014944928912555717 -0.00052689984325609803 0 0.00058860537239630972 -0.00074508321066057558 0 0.00042822889158863366 -0.00020739977691010953 0 0.00014944928912555717 -0.00052689984325609803 0 0.00022138209664226147 9.7115011458532658e-05 0 -4.0688375402213297e-05 8.9610490693204484e-05 0 0.00014944928912555717 -0.00052689984325609803 0 -4.0688375402213297e-05 8.9610490693204484e-05 0 -0.00041242268705048087 0.00051433865024095649 0 -0.00018285199932083636 -0.00029054546927473823 0 -0.00041242268705048087 0.00051433865024095649 0 -0.00061362234702552049 0.00046591577987584469 0 -0.00018285199932083636 -0.00029054546927473823 0 -8.6698612998329183e-05 0.0012796379346118351 0 -4.0688375402213297e-05 8.9610490693204484e-05 0 -0.00041242268705048087 0.00051433865024095649 0 -0.00053420602742970202 0.0020041859129440115 0 -8.6698612998329183e-05 0.0012796379346118351 0 -0.00081441946808303971 0.0013468263933437386 0 -8.6698612998329183e-05 0.0012796379346118351 0 -0.00041242268705048087 0.00051433865024095649 0 -0.00081441946808303971 0.0013468263933437386 0 -0.00041242268705048087 0.00051433865024095649 0 -0.00081441946808303971 0.0013468263933437386 0 -0.00061362234702552049 0.00046591577987584469 0 -0.00081441946808303971 0.0013468263933437386 0 -0.001158589042670338 0.0017339255765764197 0 -0.00095739484164338311 0.0012255257093211108 0 -0.00081441946808303971 0.0013468263933437386 0 -0.00061362234702552049 0.00046591577987584469 0 -0.00095739484164338311 0.0012255257093211108 0 -0.00061362234702552049 0.00046591577987584469 0 -0.00091881185252263252 0.00061067248403842017 0 -0.00095739484164338311 0.0012255257093211108 0 -0.00048355110312427527 -0.00017242738923700892 0 -0.00091881185252263252 0.00061067248403842017 0 -0.00076831667400115232 -0.00014193598409006116 0 -0.00048355110312427527 -0.00017242738923700892 0 -0.00061362234702552049 0.00046591577987584469 0 -0.00091881185252263252 0.00061067248403842017 0 -0.00048355110312427527 -0.00017242738923700892 0 -0.00061362234702552049 0.00046591577987584469 0 -0.00018285199932083636 -0.00029054546927473823 0 -0.00048355110312427527 -0.00017242738923700892 0 -0.00018285199932083636 -0.00029054546927473823 0 -0.00023938115767398798 -0.0007986802496284432 0 -0.00023938115767398798 -0.0007986802496284432 0 -0.00043274718294109129 -0.00067790839336239177 0 -0.00022692697236291739 -0.0012054238505025184 0 -0.00048355110312427527 -0.00017242738923700892 0 -0.00023938115767398798 -0.0007986802496284432 0 -0.00043274718294109129 -0.00067790839336239177 0 -0.00043274718294109129 -0.00067790839336239177 0 -0.00066567240060578505 -0.00061383466491171353 0 -0.00076831667400115232 -0.00014193598409006116 0 -0.00048355110312427527 -0.00017242738923700892 0 -0.00043274718294109129 -0.00067790839336239177 0 -0.00076831667400115232 -0.00014193598409006116 0 0.00020766645613818832 -0.0016293333075525249 0 0.00014944928912555717 -0.00052689984325609803 0 2.2309062902317892e-05 -0.0011440967403800585 0 0.00020766645613818832 -0.0016293333075525249 0 0.00058860537239630972 -0.00074508321066057558 0 0.00014944928912555717 -0.00052689984325609803 0 -4.0688375402213297e-05 8.9610490693204484e-05 0 -0.00018285199932083636 -0.00029054546927473823 0 0.00014944928912555717 -0.00052689984325609803 0 -0.00018285199932083636 -0.00029054546927473823 0 0.00014944928912555717 -0.00052689984325609803 0 2.2309062902317892e-05 -0.0011440967403800585 0 -0.00018285199932083636 -0.00029054546927473823 0 -0.00023938115767398798 -0.0007986802496284432 0 2.2309062902317892e-05 -0.0011440967403800585 0 -0.00023938115767398798 -0.0007986802496284432 0 2.2309062902317892e-05 -0.0011440967403800585 0 -8.2263711036554486e-05 -0.0017676221637587487 0 0.00020766645613818832 -0.0016293333075525249 0 2.2309062902317892e-05 -0.0011440967403800585 0 -8.2263711036554486e-05 -0.0017676221637587487 0 4.2869949141739209e-05 -0.0026745734603959297 0 0.00020766645613818832 -0.0016293333075525249 0 -8.2263711036554486e-05 -0.0017676221637587487 0 -0.00023938115767398798 -0.0007986802496284432 0 -8.2263711036554486e-05 -0.0017676221637587487 0 -0.00022692697236291739 -0.0012054238505025184 0 -8.2263711036554486e-05 -0.0017676221637587487 0 -0.00013342393314580699 -0.0015956888646265781 0 -0.00022692697236291739 -0.0012054238505025184 0 -0.00013342393314580699 -0.0015956888646265781 0 -1.6884902890421368e-07 -0.0025133845641589609 0 -6.26379660671692e-07 -0.0012021840610766678 0 -8.2263711036554486e-05 -0.0017676221637587487 0 -0.00013342393314580699 -0.0015956888646265781 0 -1.6884902890421368e-07 -0.0025133845641589609 0 4.2869949141739209e-05 -0.0026745734603959297 0 -8.2263711036554486e-05 -0.0017676221637587487 0 -1.6884902890421368e-07 -0.0025133845641589609 0 -0.00033892250508623479 -0.00096715489611914017 0 -0.00052297872324535977 -0.00084244970141553394 0 -0.00066567240060578505 -0.00061383466491171353 0 -0.00043274718294109129 -0.00067790839336239177 0 -0.00033892250508623479 -0.00096715489611914017 0 -0.00066567240060578505 -0.00061383466491171353 0 -0.00043274718294109129 -0.00067790839336239177 0 -0.00033892250508623479 -0.00096715489611914017 0 -0.00022692697236291739 -0.0012054238505025184 0 -0.00013342393314580699 -0.0015956888646265781 0 -0.00022692697236291739 -0.0012054238505025184 0 -0.00018214436513172135 -0.0011609239444616553 0 -0.00033892250508623479 -0.00096715489611914017 0 -0.00022692697236291739 -0.0012054238505025184 0 -0.00018214436513172135 -0.0011609239444616553 0 -0.00018214436513172135 -0.0011609239444616553 0 -6.26379660671692e-07 -0.0012021840610766678 0 -0.00016523376231403336 -0.00071296636479651807 0 -0.00013342393314580699 -0.0015956888646265781 0 -0.00018214436513172135 -0.0011609239444616553 0 -6.26379660671692e-07 -0.0012021840610766678 0 -6.26379660671692e-07 -0.0012021840610766678 0 -0.00016523376231403336 -0.00071296636479651807 0 -2.5745282876775745e-07 0.0001097617639780981 0 -0.00033892250508623479 -0.00096715489611914017 0 -0.00018214436513172135 -0.0011609239444616553 0 -0.00016523376231403336 -0.00071296636479651807 0 -0.00033892250508623479 -0.00096715489611914017 0 -0.00052297872324535977 -0.00084244970141553394 0 -0.00016523376231403336 -0.00071296636479651807 0 -0.00016523376231403336 -0.00071296636479651807 0 -2.5745282876775745e-07 0.0001097617639780981 0 -6.9162403330443409e-06 0.0004660163793073462 0 -0.00052297872324535977 -0.00084244970141553394 0 -0.00016523376231403336 -0.00071296636479651807 0 -0.00092606873428507355 -0.0011711264047207664 0 -0.00034715366287112659 -0.00058790817754697587 0 -0.00049063460153657467 -0.00036785967096782931 0 -2.5745282876775745e-07 0.0001097617639780981 0 -6.9162403330443409e-06 0.0004660163793073462 0 4.0734017290130217e-07 0.0014205092162907524 0 -0.00092606873428507355 -0.0011711264047207664 0 -0.00092960888788616645 -0.00073701484706543941 0 -0.001280919978481804 -0.001023443556202224 0 -0.00052297872324535977 -0.00084244970141553394 0 -0.00092606873428507355 -0.0011711264047207664 0 -0.00092960888788616645 -0.00073701484706543941 0 -0.00092960888788616645 -0.00073701484706543941 0 -0.0013364117198233552 -0.00068441865616029353 0 -0.001280919978481804 -0.001023443556202224 0 -0.00092960888788616645 -0.00073701484706543941 0 -0.0013364117198233552 -0.00068441865616029353 0 -0.0011121357359489686 -0.00032039435525852832 0 -0.00052297872324535977 -0.00084244970141553394 0 -0.00066567240060578505 -0.00061383466491171353 0 -0.00092960888788616645 -0.00073701484706543941 0 -0.00066567240060578505 -0.00061383466491171353 0 -0.00092960888788616645 -0.00073701484706543941 0 -0.0011121357359489686 -0.00032039435525852832 0 -0.0013364117198233552 -0.00068441865616029353 0 -0.0016049531886201897 -0.0011986055779334307 0 -0.0018457220137905502 -0.00016055323819966514 0 -0.0021404986182695495 0.00041498097559715933 0 -0.0021359360141032504 0.00043487976635728616 0 -0.0020249636408952417 0.00050191947595467756 0 -0.0010730632380027184 0.00025705920254255312 0 -0.0020385143544951181 7.3345188846456766e-05 0 -0.0013364117198233552 -0.00068441865616029353 0 -0.0016049531886201897 -0.0011986055779334307 0 -0.001280919978481804 -0.001023443556202224 0 -0.00092606873428507355 -0.0011711264047207664 0 -0.0016049531886201897 -0.0011986055779334307 0 -0.001280919978481804 -0.001023443556202224 0 -6.9162403330443409e-06 0.0004660163793073462 0 7.8242162463365488e-05 0.001020820817946055 0 4.0734017290130217e-07 0.0014205092162907524 0 -0.00049063460153657467 -0.00036785967096782931 0 -0.0010730632380027184 0.00025705920254255312 0 -0.0010730632380027184 0.00025705920254255312 0 -6.7311223086394148e-07 0.0014218361830870205 0 -0.0010730632380027184 0.00025705920254255312 0 -0.00039624396202924479 0.0027756834671827085 0 -1.745037445356142e-05 0.00178072606286119 0 4.89310315139575e-07 0.0014229088927312397 0 -5.0331687451078112e-07 0.002210548831954675 0 -1.745037445356142e-05 0.00178072606286119 0 -5.0331687451078112e-07 0.002210548831954675 0 8.669218190800547e-06 0.0024029494139826634 0 -0.0021404986182695495 0.00041498097559715933 0 -0.0020661716979712024 0.00048716146467440264 0 -0.0020828701842366278 0.00046190575830209373 0 -5.0331687451078112e-07 0.002210548831954675 0 5.0107165371449382e-07 0.0029986043210233084 0 8.669218190800547e-06 0.0024029494139826634 0 -8.8274531992429903e-10 0.0029997137137395893 0 -0.00039624396202924479 0.0027756834671827085 0 -6.7595507786509203e-05 0.0051490441677278891 0 -0.00027700577582543849 0.0046960677934676388 0 0.00060450851177576675 0.0048791353614245411 0 0.0015859219294556337 0.0090643684689440829 0 0.0017787599213694961 0.0089088310618147086 0 0.0019115950223884922 0.008902660304370846 0 -0.00039511912805665505 0.0038215699400707811 0 0.0015994049875698235 0.0068898871977670492 0 -0.00039624396202924479 0.0027756834671827085 0 -0.00039511912805665505 0.0038215699400707811 0 0.0015859219294556337 0.0090643684689440829 0 0.0017787599213694961 0.0089088310618147086 0 0.0015765683012875754 0.0088962370161876029 0 -0.0021404986182695495 0.00041498097559715933 0 -0.0020828701842366278 0.00046190575830209373 0 -0.0021359360141032504 0.00043487976635728616 0 -0.00039511912805665505 0.0038215699400707811 0 -0.0029050613839119097 0.00040195021756835861 0 -0.00039511912805665505 0.0038215699400707811 0 -0.0006623066646597581 0.0049044278495389768 0 -0.0022779676962005717 0.00043950224977923569 0 -0.0021359360141032504 0.00043487976635728616 0 -0.0023075242570809356 0.00058080909485530661 0 -0.0021359360141032504 0.00043487976635728616 0 -0.0023075242570809356 0.00058080909485530661 0 -0.0020249636408952417 0.00050191947595467756 0 -0.0023075242570809356 0.00058080909485530661 0 -0.0022256731146111071 0.0013875333343722953 0 -0.0020249636408952417 0.00050191947595467756 0 0.0015859219294556337 0.0090643684689440829 0 0.00098686250329661643 0.008927381761570357 0 0.0015765683012875754 0.0088962370161876029 0 0.001613788603566947 0.0086480103981309599 0 0.001891173218083627 0.0087668647099862686 0 0.0020207711294291798 0.0084991697379934797 0 0.0017787599213694961 0.0089088310618147086 0 0.0015765683012875754 0.0088962370161876029 0 0.001891173218083627 0.0087668647099862686 0 0.0015765683012875754 0.0088962370161876029 0 0.001613788603566947 0.0086480103981309599 0 0.001891173218083627 0.0087668647099862686 0 0.00098686250329661643 0.008927381761570357 0 0.0015765683012875754 0.0088962370161876029 0 0.001613788603566947 0.0086480103981309599 0 0.00098686250329661643 0.008927381761570357 0 0.001613788603566947 0.0086480103981309599 0 0.0014257047347765344 0.0080598578463744464 0 0.001613788603566947 0.0086480103981309599 0 0.0014257047347765344 0.0080598578463744464 0 0.0020207711294291798 0.0084991697379934797 0 0.0014257047347765344 0.0080598578463744464 0 0.0020207711294291798 0.0084991697379934797 0 0.0021328161375736006 0.0078545895576234894 0 0.0014257047347765344 0.0080598578463744464 0 -0.00049059387252155804 0.0076310512975052737 0 0.00062180307480089734 0.0065549204517522325 0 -0.0006623066646597581 0.0049044278495389768 0 -0.0012592024998201606 0.0043698334114968141 0 0.00098686250329661643 0.008927381761570357 0 0.0014257047347765344 0.0080598578463744464 0 -0.00049059387252155804 0.0076310512975052737 0 -0.0022256731146111071 0.0013875333343722953 0 -0.0020249636408952417 0.00050191947595467756 0 -0.0017643780542355332 0.0020444643857149714 0 -0.0013434991560884498 0.00094983931460809398 0 -0.0011827591545458338 0.00033631078307750571 0 -0.0018457220137905502 -0.00016055323819966514 0 -0.0013434991560884498 0.00094983931460809398 0 -0.0018457220137905502 -0.00016055323819966514 0 -0.0017643780542355332 0.0020444643857149714 0 -0.0020385143544951181 7.3345188846456766e-05 0 -0.0017517368738078733 0.0020256624918740377 0 -0.0013434991560884498 0.00094983931460809398 0 -0.00091881185252263252 0.00061067248403842017 0 -0.0012292050304329 0.0017820325037877455 0 -0.00091881185252263252 0.00061067248403842017 0 -0.0011827591545458338 0.00033631078307750571 0 -0.00076831667400115232 -0.00014193598409006116 0 -0.0013434991560884498 0.00094983931460809398 0 -0.00091881185252263252 0.00061067248403842017 0 -0.0011827591545458338 0.00033631078307750571 0 -0.0011827591545458338 0.00033631078307750571 0 -0.00076831667400115232 -0.00014193598409006116 0 -0.0011121357359489686 -0.00032039435525852832 0 -0.00066567240060578505 -0.00061383466491171353 0 -0.00076831667400115232 -0.00014193598409006116 0 -0.0011121357359489686 -0.00032039435525852832 0 -0.0013364117198233552 -0.00068441865616029353 0 -0.0011121357359489686 -0.00032039435525852832 0 -0.0018457220137905502 -0.00016055323819966514 0 -0.0011827591545458338 0.00033631078307750571 0 -0.0011121357359489686 -0.00032039435525852832 0 -0.0018457220137905502 -0.00016055323819966514 0 0.0013266125950655197 0.0088825212800488496 0 0.00096766256172943282 0.0093208883389240913 0 0.00068160834826315052 0.0082376947919520129 0 0.0014204093437856047 0.0081968927334307943 0 0.0013266125950655197 0.0088825212800488496 0 0.00068160834826315052 0.0082376947919520129 0 1.7046114450643752e-06 0.0058379858365528153 0 0.00030694944647208569 0.0066532116136301632 0 0.00021144031738603604 0.0073315834082737811 0 0.00024488595319382668 0.0065350159914662207 0 0.00075815060901792731 0.0064304037695564692 0 1.7046114450643752e-06 0.0058379858365528153 0 0.00030694944647208569 0.0066532116136301632 0 2.8721233617040943e-05 0.0050091779119318556 0 0.0014204093437856047 0.0081968927334307943 0 0.00030694944647208569 0.0066532116136301632 0 0.0018943628806017902 0.0078152833616852036 0 0.0014204093437856047 0.0081968927334307943 0 0.00030694944647208569 0.0066532116136301632 0 0.00068160834826315052 0.0082376947919520129 0 0.0018943628806017902 0.0078152833616852036 0 0.0019897709678202112 0.0083442990132422904 0 0.0021024200629117364 0.0084867311183691625 0 1.7046114450643752e-06 0.0058379858365528153 0 2.8721233617040943e-05 0.0050091779119318556 0 -7.7425501190100039e-07 0.0044173531899654589 0 0.0014204093437856047 0.0081968927334307943 0 0.0019060573018178607 0.0086948600349605523 0 0.0013266125950655197 0.0088825212800488496 0 0.0019897709678202112 0.0083442990132422904 0 0.0019060573018178607 0.0086948600349605523 0 0.0020622372849953114 0.0085455493441752434 0 0.0014204093437856047 0.0081968927334307943 0 0.0019897709678202112 0.0083442990132422904 0 0.0019060573018178607 0.0086948600349605523 0 0.0014204093437856047 0.0081968927334307943 0 0.0018943628806017902 0.0078152833616852036 0 0.0019897709678202112 0.0083442990132422904 0 0.0019060573018178607 0.0086948600349605523 0 0.0020590752258299091 0.0086905431090390887 0 0.0020622372849953114 0.0085455493441752434 0 0.0020590752258299091 0.0086905431090390887 0 0.0020983007307858641 0.0085777245546976803 0 0.0020075520480100509 0.0087787627160064979 0 0.0020590752258299091 0.0086905431090390887 0 0.0020622372849953114 0.0085455493441752434 0 0.0020983007307858641 0.0085777245546976803 0 0.0019897709678202112 0.0083442990132422904 0 0.0020622372849953114 0.0085455493441752434 0 0.0021024200629117364 0.0084867311183691625 0 0.0020622372849953114 0.0085455493441752434 0 0.0021024200629117364 0.0084867311183691625 0 0.0020983007307858641 0.0085777245546976803 0 2.8721233617040943e-05 0.0050091779119318556 0 -7.7425501190100039e-07 0.0044173531899654589 0 -7.7431719868690114e-05 0.0041803819633538658 0 0.00075815060901792731 0.0064304037695564692 0 0.0011703327121950669 0.0062397127274346886 0 0.0018943628806017902 0.0078152833616852036 0 0.0021024200629117364 0.0084867311183691625 0 0.0021481517962586732 0.0085942149265641563 0 0.0014622780230195845 0.0064705873575412257 0 0.0011703327121950669 0.0062397127274346886 0 -0.00039624396202924479 0.0027756834671827085 0 0.0011703327121950669 0.0062397127274346886 0 -6.7595507786509203e-05 0.0051490441677278891 0 0.0014841477753051462 0.0050638802821201898 0 0.00060450851177576675 0.0048791353614245411 0 7.2889455720390229e-07 0.0030017391665191967 0 0.0001682316823898091 0.0033504543887573966 0 -7.7431719868690114e-05 0.0041803819633538658 0 7.2889455720390229e-07 0.0030017391665191967 0 -7.7425501190100039e-07 0.0044173531899654589 0 -7.7431719868690114e-05 0.0041803819633538658 0 0.0011703327121950669 0.0062397127274346886 0 0.0015994049875698235 0.0068898871977670492 0 0.0020983007307858641 0.0085777245546976803 0 0.0019115950223884922 0.008902660304370846 0 0.0020075520480100509 0.0087787627160064979 0 0.0017787599213694961 0.0089088310618147086 0 0.0019115950223884922 0.008902660304370846 0 0.0020075520480100509 0.0087787627160064979 0 0.0017787599213694961 0.0089088310618147086 0 0.0020075520480100509 0.0087787627160064979 0 0.001891173218083627 0.0087668647099862686 0 0.0020075520480100509 0.0087787627160064979 0 0.001891173218083627 0.0087668647099862686 0 0.0020580819826227078 0.0088104909842273635 0 0.001891173218083627 0.0087668647099862686 0 0.0020207711294291798 0.0084991697379934797 0 0.0020580819826227078 0.0088104909842273635 0 0.0020207711294291798 0.0084991697379934797 0 0.0020580819826227078 0.0088104909842273635 0 0.001952577422107566 0.0089645720148438957 0 0.0020580819826227078 0.0088104909842273635 0 0.0017912581919420688 0.0093404488897693132 0 0.001952577422107566 0.0089645720148438957 0 0.0020590752258299091 0.0086905431090390887 0 0.0020075520480100509 0.0087787627160064979 0 0.0020580819826227078 0.0088104909842273635 0 0.0019060573018178607 0.0086948600349605523 0 0.0020590752258299091 0.0086905431090390887 0 0.0020580819826227078 0.0088104909842273635 0 0.0019060573018178607 0.0086948600349605523 0 0.0017362207055278242 0.0090774923540797598 0 0.0013266125950655197 0.0088825212800488496 0 0.0020580819826227078 0.0088104909842273635 0 0.0017362207055278242 0.0090774923540797598 0 0.0017912581919420688 0.0093404488897693132 0 0.0019060573018178607 0.0086948600349605523 0 0.0020580819826227078 0.0088104909842273635 0 0.0017362207055278242 0.0090774923540797598 0 0.0017362207055278242 0.0090774923540797598 0 0.0017912581919420688 0.0093404488897693132 0 0.0014420774486425863 0.0095060232775959052 0 0.0014420774486425863 0.0095060232775959052 0 0.0015251551612398418 0.0098916496894986845 0 0.0012224275731477351 0.010299875937378264 0 0.0017912581919420688 0.0093404488897693132 0 0.0014420774486425863 0.0095060232775959052 0 0.0015251551612398418 0.0098916496894986845 0 0.0017362207055278242 0.0090774923540797598 0 0.0014420774486425863 0.0095060232775959052 0 0.0013266125950655197 0.0088825212800488496 0 0.0014420774486425863 0.0095060232775959052 0 0.0013266125950655197 0.0088825212800488496 0 0.00096766256172943282 0.0093208883389240913 0 0.0015431909160739119 0.010272106636765812 0 0.0017408710009980866 0.010050136673133422 0 0.0015285687808415133 0.010599016059489057 0 0.0015431909160739119 0.010272106636765812 0 0.0017578332657503558 0.0096725272538709731 0 0.0017408710009980866 0.010050136673133422 0 0.0015431909160739119 0.010272106636765812 0 0.0015251551612398418 0.0098916496894986845 0 0.0017578332657503558 0.0096725272538709731 0 0.0015431909160739119 0.010272106636765812 0 0.0015251551612398418 0.0098916496894986845 0 0.0012224275731477351 0.010299875937378264 0 0.0017912581919420688 0.0093404488897693132 0 0.0017578332657503558 0.0096725272538709731 0 0.001952577422107566 0.0089645720148438957 0 0.0017912581919420688 0.0093404488897693132 0 0.0015251551612398418 0.0098916496894986845 0 0.0017578332657503558 0.0096725272538709731 0 0.0017578332657503558 0.0096725272538709731 0 0.0018539876793673825 0.0095419891608981237 0 0.0017408710009980866 0.010050136673133422 0 0.0017578332657503558 0.0096725272538709731 0 0.001952577422107566 0.0089645720148438957 0 0.0018539876793673825 0.0095419891608981237 0 0.001952577422107566 0.0089645720148438957 0 0.0019493134335169945 0.0089297120033386568 0 0.0018539876793673825 0.0095419891608981237 0 0.001952577422107566 0.0089645720148438957 0 0.0019493134335169945 0.0089297120033386568 0 0.0021328161375736006 0.0078545895576234894 0 0.0020207711294291798 0.0084991697379934797 0 0.001952577422107566 0.0089645720148438957 0 0.0021328161375736006 0.0078545895576234894 0 0.0019493134335169945 0.0089297120033386568 0 0.0020142058925794594 0.0092642437147452284 0 0.002161710541206549 0.0088112400351206127 0 0.0020142058925794594 0.0092642437147452284 0 0.0020868553155051267 0.0093335033383987187 0 0.0020935851957599653 0.0091317275882054211 0 0.0020868553155051267 0.0093335033383987187 0 0.0020935851957599653 0.0091317275882054211 0 0.0020921615538172563 0.009028963637763272 0 0.0020142058925794594 0.0092642437147452284 0 0.0020868553155051267 0.0093335033383987187 0 0.0018502096828325839 0.0097609849556433252 0 0.0020868553155051267 0.0093335033383987187 0 0.0018502096828325839 0.0097609849556433252 0 0.0017830759367322843 0.009958412577620623 0 0.0019936988080011494 0.0093988690514379934 0 0.0022127804812143445 0.0096048356454472555 0 0.0019493134335169945 0.0089297120033386568 0 0.0020142058925794594 0.0092642437147452284 0 0.0018539876793673825 0.0095419891608981237 0 0.0020142058925794594 0.0092642437147452284 0 0.0018502096828325839 0.0097609849556433252 0 0.0018539876793673825 0.0095419891608981237 0 0.0018502096828325839 0.0097609849556433252 0 0.0018539876793673825 0.0095419891608981237 0 0.0017408710009980866 0.010050136673133422 0 0.0018502096828325839 0.0097609849556433252 0 0.0017408710009980866 0.010050136673133422 0 0.0017541676308935172 0.010179310954885161 0 0.0017830759367322843 0.009958412577620623 0 0.0017396636424620656 0.010086292847030413 0 0.0017863150653635675 0.010077040273756482 0 0.0018502096828325839 0.0097609849556433252 0 0.0017830759367322843 0.009958412577620623 0 0.0017396636424620656 0.010086292847030413 0 0.0018502096828325839 0.0097609849556433252 0 0.0017541676308935172 0.010179310954885161 0 0.0017396636424620656 0.010086292847030413 0 0.0017541676308935172 0.010179310954885161 0 0.0017396636424620656 0.010086292847030413 0 0.0017616421915680844 0.010463423422237293 0 0.0017396636424620656 0.010086292847030413 0 0.0017616421915680844 0.010463423422237293 0 0.0017863150653635675 0.010077040273756482 0 0.0017616421915680844 0.010463423422237293 0 0.0017863150653635675 0.010077040273756482 0 0.0021090219132033471 0.0099609511760597406 0 0.0016970719151801143 0.010617399331655368 0 0.0016309119446244718 0.0099759845321960514 0 0.0017616421915680844 0.010463423422237293 0 0.0015678398878809254 0.011255509897009679 0 0.0014862017552732274 0.010909217887565768 0 0.0017616421915680844 0.010463423422237293 0 0.0016330268024365303 0.010530493952875556 0 0.0014862017552732274 0.010909217887565768 0 0.0017408710009980866 0.010050136673133422 0 0.0016330268024365303 0.010530493952875556 0 0.0015285687808415133 0.010599016059489057 0 0.0017408710009980866 0.010050136673133422 0 0.0017541676308935172 0.010179310954885161 0 0.0016330268024365303 0.010530493952875556 0 0.0017541676308935172 0.010179310954885161 0 0.0017616421915680844 0.010463423422237293 0 0.0016330268024365303 0.010530493952875556 0 0.00074210146618250514 0.0060491620555804372 0 0.00026207560459578361 0.005488075706261638 0 -0.0014504878624436537 0.0029126403723253578 0 -0.00066464407251115218 0.0032193905431050496 0 -0.0014364069354616386 0.0019261355970809943 0 0.002375593463821388 0.0087593256155681226 0 0.0021349654933225095 0.0088439471079080952 0 0.0019395534569778274 0.008918624658550112 0 -0.0014504878624436537 0.0029126403723253578 0 -0.0005054707627827153 0.0050507470143519436 0 -0.00066464407251115218 0.0032193905431050496 0 0.002375593463821388 0.0087593256155681226 0 0.0021349654933225095 0.0088439471079080952 0 0.0022481723373068028 0.0088343069648263786 0 -0.00081441946808303971 0.0013468263933437386 0 -0.001158589042670338 0.0017339255765764197 0 -0.0014364069354616386 0.0019261355970809943 0 -0.0014504878624436537 0.0029126403723253578 0 -0.001158589042670338 0.0017339255765764197 0 -0.0014364069354616386 0.0019261355970809943 0 -0.0014504878624436537 0.0029126403723253578 0 -0.001158589042670338 0.0017339255765764197 0 -0.0012292050304329 0.0017820325037877455 0 -0.001158589042670338 0.0017339255765764197 0 -0.0012292050304329 0.0017820325037877455 0 -0.00095739484164338311 0.0012255257093211108 0 -0.00091881185252263252 0.00061067248403842017 0 -0.0012292050304329 0.0017820325037877455 0 -0.00095739484164338311 0.0012255257093211108 0 -0.00049059387252155804 0.0076310512975052737 0 -0.0014504878624436537 0.0029126403723253578 0 -0.0005054707627827153 0.0050507470143519436 0 -0.0012592024998201606 0.0043698334114968141 0 -0.0015023517614044452 0.0031818940251474447 0 -0.0022256731146111071 0.0013875333343722953 0 -0.0014504878624436537 0.0029126403723253578 0 -0.0017643780542355332 0.0020444643857149714 0 -0.0013434991560884498 0.00094983931460809398 0 -0.0012292050304329 0.0017820325037877455 0 -0.0017643780542355332 0.0020444643857149714 0 -0.0014504878624436537 0.0029126403723253578 0 -0.0012292050304329 0.0017820325037877455 0 -0.0017643780542355332 0.0020444643857149714 0 0.0019349914820085841 0.0075231189781482322 0 0.00074210146618250514 0.0060491620555804372 0 0.00062180307480089734 0.0065549204517522325 0 0.0021328161375736006 0.0078545895576234894 0 -0.00066464407251115218 0.0032193905431050496 0 -0.00049059387252155804 0.0076310512975052737 0 0.00062180307480089734 0.0065549204517522325 0 -0.0005054707627827153 0.0050507470143519436 0 0.00062180307480089734 0.0065549204517522325 0 -0.0005054707627827153 0.0050507470143519436 0 -0.00066464407251115218 0.0032193905431050496 0 0.0014257047347765344 0.0080598578463744464 0 0.00062180307480089734 0.0065549204517522325 0 0.0021328161375736006 0.0078545895576234894 0 0.0019493134335169945 0.0089297120033386568 0 0.0021328161375736006 0.0078545895576234894 0 0.002161710541206549 0.0088112400351206127 0 0.0021328161375736006 0.0078545895576234894 0 0.002161710541206549 0.0088112400351206127 0 0.002375593463821388 0.0087593256155681226 0 0.002161710541206549 0.0088112400351206127 0 0.002375593463821388 0.0087593256155681226 0 0.0022406462146258737 0.0088764602109764387 0 0.002375593463821388 0.0087593256155681226 0 0.0022406462146258737 0.0088764602109764387 0 0.0022481723373068028 0.0088343069648263786 0 0.0022406462146258737 0.0088764602109764387 0 0.0021612224803648364 0.0089964358737758109 0 0.0021633883526873789 0.0088943770107211811 0 0.0022406462146258737 0.0088764602109764387 0 0.002192440997205483 0.0088416837683866663 0 0.0022481723373068028 0.0088343069648263786 0 0.0022406462146258737 0.0088764602109764387 0 0.0021633883526873789 0.0088943770107211811 0 0.002192440997205483 0.0088416837683866663 0 0.0020142058925794594 0.0092642437147452284 0 0.002161710541206549 0.0088112400351206127 0 0.0021612224803648364 0.0089964358737758109 0 0.0020142058925794594 0.0092642437147452284 0 0.0021612224803648364 0.0089964358737758109 0 0.0020935851957599653 0.0091317275882054211 0 0.002161710541206549 0.0088112400351206127 0 0.0022406462146258737 0.0088764602109764387 0 0.0021612224803648364 0.0089964358737758109 0 0.0021612224803648364 0.0089964358737758109 0 0.0020935851957599653 0.0091317275882054211 0 0.0021633883526873789 0.0088943770107211811 0 0.0020935851957599653 0.0091317275882054211 0 0.0021633883526873789 0.0088943770107211811 0 0.0020905303738375466 0.008899898491335323 0 0.0021633883526873789 0.0088943770107211811 0 0.0021375286506292611 0.0087435263647012672 0 0.0020905303738375466 0.008899898491335323 0 0.0021633883526873789 0.0088943770107211811 0 0.002192440997205483 0.0088416837683866663 0 0.0021375286506292611 0.0087435263647012672 0 0.0020410912308902879 0.0087297759622918993 0 0.002192440997205483 0.0088416837683866663 0 0.0021375286506292611 0.0087435263647012672 0 0.0020410912308902879 0.0087297759622918993 0 0.002192440997205483 0.0088416837683866663 0 0.0021349654933225095 0.0088439471079080952 0 0.002192440997205483 0.0088416837683866663 0 0.0021349654933225095 0.0088439471079080952 0 0.0022481723373068028 0.0088343069648263786 0 0.0020410912308902879 0.0087297759622918993 0 0.0021349654933225095 0.0088439471079080952 0 0.0019395534569778274 0.008918624658550112 0 0.0017441372541597664 0.0085749039696369819 0 0.0020410912308902879 0.0087297759622918993 0 0.0019395534569778274 0.008918624658550112 0 0.0017441372541597664 0.0085749039696369819 0 0.0020410912308902879 0.0087297759622918993 0 0.0019317353445221569 0.0082389318400932551 0 0.0015685802149596549 0.0088889991172956696 0 0.0020103229421651833 0.0080831214184198287 0 0.0016170513652167158 0.0079824973471092596 0 0.0015978268457160546 0.0082547681561696389 0 0.0019317353445221569 0.0082389318400932551 0 0.0021616784958554459 0.0087830264971806224 0 0.0017741442151682795 0.0080434307663917112 0 0.0020410912308902879 0.0087297759622918993 0 0.0019317353445221569 0.0082389318400932551 0 0.0021375286506292611 0.0087435263647012672 0 0.0019317353445221569 0.0082389318400932551 0 0.0021375286506292611 0.0087435263647012672 0 0.001966510170855688 0.00780091635587083 0 0.0021375286506292611 0.0087435263647012672 0 0.0017949883455216273 0.008751061099154368 0 0.0020346696915743969 0.00874874874751954 0 0.0017949883455216273 0.008751061099154368 0 0.0019026163495414795 0.0085833469851536622 0 0.0020346696915743969 0.00874874874751954 0 0.0016170513652167158 0.0079824973471092596 0 0.0019317353445221569 0.0082389318400932551 0 0.001966510170855688 0.00780091635587083 0 0.0016170513652167158 0.0079824973471092596 0 0.0015588398908850702 0.0076424889901962464 0 0.001966510170855688 0.00780091635587083 0 0.0016271886532670148 0.0087378580617544343 0 0.0017741442151682795 0.0080434307663917112 0 0.0015588398908850702 0.0076424889901962464 0 0.0015927349069615197 0.0071525898657566478 0 0.001966510170855688 0.00780091635587083 0 0.0012342809613494082 0.0082912746751652409 0 0.0017949883455216273 0.008751061099154368 0 0.0017430021392580684 0.0084140858792951748 0 0.0017949883455216273 0.008751061099154368 0 0.0017430021392580684 0.0084140858792951748 0 0.0019026163495414795 0.0085833469851536622 0 0.0017430021392580684 0.0084140858792951748 0 0.0019026163495414795 0.0085833469851536622 0 0.0020101573890110684 0.0083930369803185637 0 0.0019026163495414795 0.0085833469851536622 0 0.0020101573890110684 0.0083930369803185637 0 0.0020346696915743969 0.00874874874751954 0 0.0017430021392580684 0.0084140858792951748 0 0.0020101573890110684 0.0083930369803185637 0 0.0016278966393218262 0.0079525143623685561 0 0.00046230190364164082 0.0044131755751162464 0 0.00053687546611707639 0.004513515922940305 0 0.00065944242667242568 0.004487045171971616 0 0.0011821596623819788 0.0063292588259007583 0 0.0012404728191998326 0.0066942483906257001 0 0.00053687546611707639 0.004513515922940305 0 0.00043916293794858343 0.0044868954034131591 0 0.00046746567207121619 0.0045475292397990537 0 0.00046230190364164082 0.0044131755751162464 0 0.00053687546611707639 0.004513515922940305 0 0.00043916293794858343 0.0044868954034131591 0 0.0012342809613494082 0.0082912746751652409 0 0.0017430021392580684 0.0084140858792951748 0 0.0016278966393218262 0.0079525143623685561 0 5.007071430541242e-05 0.0045437651293922269 0 0.00021125938641315689 0.0045017630148493385 0 0.00030100863221122799 0.0045748830257563555 0 0.00029701720751786455 0.0018859164765505528 0 0.00059632218327635117 0.0019393181491842769 0 0.00054626982375005303 0.0020321714469929953 0 7.803938259246856e-05 0.0040349226281359406 0 0.00041592434773429418 0.0028533300084894707 0 9.7987998731212148e-05 0.004490493310378001 0 0.00023185927907268912 0.0044018160275883633 0 7.728639619760732e-05 0.004395235387472423 0 9.7987998731212148e-05 0.004490493310378001 0 0.00021125938641315689 0.0045017630148493385 0 0.00023185927907268912 0.0044018160275883633 0 9.7987998731212148e-05 0.004490493310378001 0 5.1027400636980932e-05 0.004550054127131364 0 -2.6346251250377848e-05 0.0044470650653747048 0 9.7987998731212148e-05 0.004490493310378001 0 7.728639619760732e-05 0.004395235387472423 0 -2.6346251250377848e-05 0.0044470650653747048 0 9.7987998731212148e-05 0.004490493310378001 0 5.007071430541242e-05 0.0045437651293922269 0 0.00021125938641315689 0.0045017630148493385 0 -1.6356878032661037e-05 0.004260397385987799 0 7.803938259246856e-05 0.0040349226281359406 0 0.00046230190364164082 0.0044131755751162464 0 0.00035379476572208973 0.004458671750337026 0 0.00023185927907268912 0.0044018160275883633 0 0.00041592434773429418 0.0028533300084894707 0 0.00015379741356126071 0.0036304380951704437 0 0.00030100863221122799 0.0045748830257563555 0 0.00033763272349930982 0.0045093109408705983 0 0.00028040894650369335 0.0045114757709721082 0 0.00033763272349930982 0.0045093109408705983 0 0.00028040894650369335 0.0045114757709721082 0 0.00028548807992708429 0.0044692887148633943 0 0.00021125938641315689 0.0045017630148493385 0 0.00030100863221122799 0.0045748830257563555 0 0.00028040894650369335 0.0045114757709721082 0 0.00021125938641315689 0.0045017630148493385 0 0.00028040894650369335 0.0045114757709721082 0 0.00028548807992708429 0.0044692887148633943 0 0.00031759108935466753 0.0045455824421188817 0 0.00033763272349930982 0.0045093109408705983 0 0.00046746567207121619 0.0045475292397990537 0 0.00033763272349930982 0.0045093109408705983 0 0.00043916293794858343 0.0044868954034131591 0 0.00035379476572208973 0.004458671750337026 0 0.00041592434773429418 0.0028533300084894707 0 0.0010641473332113531 0.0020209636921875692 0 0.00033763272349930982 0.0045093109408705983 0 0.00043916293794858343 0.0044868954034131591 0 0.00046746567207121619 0.0045475292397990537 0 0.00046230190364164082 0.0044131755751162464 0 0.00043916293794858343 0.0044868954034131591 0 0.00035379476572208973 0.004458671750337026 0 0.00035379476572208973 0.004458671750337026 0 0.00023185927907268912 0.0044018160275883633 0 0.00028548807992708429 0.0044692887148633943 0 0.00021125938641315689 0.0045017630148493385 0 0.00023185927907268912 0.0044018160275883633 0 0.00028548807992708429 0.0044692887148633943 0 0.00033763272349930982 0.0045093109408705983 0 0.00035379476572208973 0.004458671750337026 0 0.00028548807992708429 0.0044692887148633943 0 0.0011821596623819788 0.0063292588259007583 0 0.0011203273920083121 0.0064812612895798665 0 0.00046230190364164082 0.0044131755751162464 0 0.00023185927907268912 0.0044018160275883633 0 0.00012818441033540692 0.0042873468344092128 0 0.0020101573890110684 0.0083930369803185637 0 0.0021158316925544893 0.0086674642697276792 0 0.0020346696915743969 0.00874874874751954 0 0.00023185927907268912 0.0044018160275883633 0 0.00012818441033540692 0.0042873468344092128 0 7.728639619760732e-05 0.004395235387472423 0 0.00012818441033540692 0.0042873468344092128 0 7.728639619760732e-05 0.004395235387472423 0 -4.503229669963979e-05 0.0043530987034495891 0 0.0021158316925544893 0.0086674642697276792 0 0.0020956111801781136 0.0088420093501398993 0 0.0020346696915743969 0.00874874874751954 0 0.0021158316925544893 0.0086674642697276792 0 0.0020956111801781136 0.0088420093501398993 0 0.0021746424937661834 0.0088414855937506715 0 0.0020956111801781136 0.0088420093501398993 0 0.0020346696915743969 0.00874874874751954 0 0.0020905303738375466 0.008899898491335323 0 0.0021375286506292611 0.0087435263647012672 0 0.0020346696915743969 0.00874874874751954 0 0.0020905303738375466 0.008899898491335323 0 0.0020956111801781136 0.0088420093501398993 0 0.0020905303738375466 0.008899898491335323 0 0.0020921615538172563 0.009028963637763272 0 0.0020935851957599653 0.0091317275882054211 0 0.0020905303738375466 0.008899898491335323 0 0.0020921615538172563 0.009028963637763272 0 0.0020868553155051267 0.0093335033383987187 0 0.0020921615538172563 0.009028963637763272 0 0.0022330162439495251 0.0090628840393689961 0 0.0020921615538172563 0.009028963637763272 0 0.0022330162439495251 0.0090628840393689961 0 0.0021746424937661834 0.0088414855937506715 0 0.0020868553155051267 0.0093335033383987187 0 0.0024198622007828661 0.0091990750465755621 0 0.0022330162439495251 0.0090628840393689961 0 0.0024198622007828661 0.0091990750465755621 0 0.0022330162439495251 0.0090628840393689961 0 0.002410739014368102 0.0090103955474165158 0 -1.4104142976817713e-05 0.0043820079756890654 0 -0.00017991987938620045 0.0042903698447470905 0 5.5390155475576976e-05 0.0046035237014247932 0 0.0022330162439495251 0.0090628840393689961 0 0.0021746424937661834 0.0088414855937506715 0 0.002410739014368102 0.0090103955474165158 0 0.0010401225751165567 0.0066072105662569013 0 0.0011456096079778542 0.0065467159499270683 0 -1.4104142976817713e-05 0.0043820079756890654 0 -0.00017991987938620045 0.0042903698447470905 0 -0.00018587151838990411 0.0042549925892955689 0 0.0020956111801781136 0.0088420093501398993 0 0.0020921615538172563 0.009028963637763272 0 0.0021746424937661834 0.0088414855937506715 0 0.00039905877815006309 0.0048360938430632187 0 0.00033445051036611387 0.0046312109834626067 0 5.5390155475576976e-05 0.0046035237014247932 0 0.0017830759367322843 0.009958412577620623 0 0.0017863150653635675 0.010077040273756482 0 0.0017879749675167357 0.010107397075699345 0 0.00033445051036611387 0.0046312109834626067 0 0.0004648985642005894 0.0045542132307611035 0 0.00050100785680883822 0.0047442010767174761 0 0.00039905877815006309 0.0048360938430632187 0 0.00033445051036611387 0.0046312109834626067 0 0.00050100785680883822 0.0047442010767174761 0 0.0017863150653635675 0.010077040273756482 0 0.0021090219132033471 0.0099609511760597406 0 0.0020050789753696691 0.0099067009168762425 0 0.0015556087236889954 0.0089354854799795526 0 0.0014512929054000332 0.0082015793996083487 0 0.0013961930535455773 0.0088533059495401502 0 0.0013147980716967072 0.0088110666563998522 0 0.001512453457281503 0.008653004922479968 0 0.0016309119446244718 0.0099759845321960514 0 0.0015556087236889954 0.0089354854799795526 0 0.0014831957342210792 0.009532017117638349 0 0.0015556087236889954 0.0089354854799795526 0 0.0015556087236889954 0.0089354854799795526 0 0.0011456096079778542 0.0065467159499270683 0 0.0024198622007828661 0.0091990750465755621 0 0.0026457509175948561 0.0091493150304925771 0 0.002410739014368102 0.0090103955474165158 0 0.0022127804812143445 0.0096048356454472555 0 0.0015556087236889954 0.0089354854799795526 0 0.00033445051036611387 0.0046312109834626067 0 5.5390155475576976e-05 0.0046035237014247932 0 0.00019943925926583505 0.0044804101037381168 0 -1.4104142976817713e-05 0.0043820079756890654 0 5.5390155475576976e-05 0.0046035237014247932 0 0.00019943925926583505 0.0044804101037381168 0 -1.4104142976817713e-05 0.0043820079756890654 0 0.00019943925926583505 0.0044804101037381168 0 0.0001076757343774187 0.0042574756897220713 0 0.00019943925926583505 0.0044804101037381168 0 0.00028870161535512822 0.0043660733854780564 0 0.0001076757343774187 0.0042574756897220713 0 0.00033445051036611387 0.0046312109834626067 0 0.00019943925926583505 0.0044804101037381168 0 0.00036758226528240431 0.0044851492552878377 0 0.00019943925926583505 0.0044804101037381168 0 0.00028870161535512822 0.0043660733854780564 0 0.00036758226528240431 0.0044851492552878377 0 0.00036758226528240431 0.0044851492552878377 0 0.00039813132283844833 0.0043876532292688739 0 0.00050125772994633619 0.0044194565736205369 0 0.00036758226528240431 0.0044851492552878377 0 0.0004648985642005894 0.0045542132307611035 0 0.00050125772994633619 0.0044194565736205369 0 0.00028870161535512822 0.0043660733854780564 0 0.00036758226528240431 0.0044851492552878377 0 0.00039813132283844833 0.0043876532292688739 0 0.00033445051036611387 0.0046312109834626067 0 0.00036758226528240431 0.0044851492552878377 0 0.0004648985642005894 0.0045542132307611035 0 -0.00035452811389124149 0.0040763357637771946 0 -0.00034057203315706496 0.0042103758721963236 0 -0.0011326950535887833 0.0041325335830058136 0 -0.0012361614758862138 0.0041044403568935269 0 -0.00076229723705409217 0.0041270022357240222 0 0.00028870161535512822 0.0043660733854780564 0 0.00043276174221797099 0.0042818397866490757 0 0.0001076757343774187 0.0042574756897220713 0 -0.0011326950535887833 0.0041325335830058136 0 -0.0011776205458986966 0.0039951310559736847 0 -0.0012868647197642337 0.0038490142874071172 0 -0.0011326950535887833 0.0041325335830058136 0 -0.0011776205458986966 0.0039951310559736847 0 -0.0012361614758862138 0.0041044403568935269 0 0.00039813132283844833 0.0043876532292688739 0 0.00043276174221797099 0.0042818397866490757 0 0.00050125772994633619 0.0044194565736205369 0 0.00028870161535512822 0.0043660733854780564 0 0.00039813132283844833 0.0043876532292688739 0 0.00043276174221797099 0.0042818397866490757 0 -0.0011326950535887833 0.0041325335830058136 0 -0.0008060714801608964 0.0043204894630582994 0 -0.00076229723705409217 0.0041270022357240222 0 -0.00076229723705409217 0.0041270022357240222 0 -0.00060570895239423644 0.0044631165453557428 0 -0.00034716944037398661 0.004383668519841258 0 -0.0008060714801608964 0.0043204894630582994 0 -0.00076229723705409217 0.0041270022357240222 0 -0.00060570895239423644 0.0044631165453557428 0 -0.0011326950535887833 0.0041325335830058136 0 -0.0008060714801608964 0.0043204894630582994 0 -0.00073311375375124217 0.0045523838553902761 0 -0.0008060714801608964 0.0043204894630582994 0 -0.00060570895239423644 0.0044631165453557428 0 -0.00073311375375124217 0.0045523838553902761 0 -0.00060570895239423644 0.0044631165453557428 0 -0.00073311375375124217 0.0045523838553902761 0 -0.00054881056019961548 0.0045571211027499985 0 -0.0011326950535887833 0.0041325335830058136 0 -0.0016639788504641663 0.0037499015869629586 0 -0.0012868647197642337 0.0038490142874071172 0 -0.0012654433212520393 0.0039767954629304483 0 -0.00094598165668730049 0.0045401469054645628 0 -0.0016639788504641663 0.0037499015869629586 0 -0.0012868647197642337 0.0038490142874071172 0 -0.0013963647910525683 0.0035541723021195685 0 -0.0012868647197642337 0.0038490142874071172 0 -0.0011667735279347979 0.0036769757254320715 0 -0.0011024532603439103 0.0038471989477412019 0 -0.0012868647197642337 0.0038490142874071172 0 -0.0011667735279347979 0.0036769757254320715 0 -0.0013963647910525683 0.0035541723021195685 0 -0.0011776205458986966 0.0039951310559736847 0 -0.0012868647197642337 0.0038490142874071172 0 -0.0011024532603439103 0.0038471989477412019 0 0.00012818441033540692 0.0042873468344092128 0 -0.00017991987938620045 0.0042903698447470905 0 -4.503229669963979e-05 0.0043530987034495891 0 0.0011203273920083121 0.0064812612895798665 0 0.0010401225751165567 0.0066072105662569013 0 -0.00017991987938620045 0.0042903698447470905 0 -4.503229669963979e-05 0.0043530987034495891 0 -0.00018587151838990411 0.0042549925892955689 0 -0.00015715908505986695 0.0043793747359528136 0 -4.503229669963979e-05 0.0043530987034495891 0 -0.00018587151838990411 0.0042549925892955689 0 -0.00015715908505986695 0.0043793747359528136 0 -4.503229669963979e-05 0.0043530987034495891 0 -2.6346251250377848e-05 0.0044470650653747048 0 7.728639619760732e-05 0.004395235387472423 0 -4.503229669963979e-05 0.0043530987034495891 0 -2.6346251250377848e-05 0.0044470650653747048 0 -0.00076229723705409217 0.0041270022357240222 0 -0.00018587151838990411 0.0042549925892955689 0 -0.00034716944037398661 0.004383668519841258 0 -0.00034057203315706496 0.0042103758721963236 0 -0.00020392744659989399 0.0042370539290340903 0 -1.4104142976817713e-05 0.0043820079756890654 0 0.0001076757343774187 0.0042574756897220713 0 -0.00018587151838990411 0.0042549925892955689 0 -0.00015715908505986695 0.0043793747359528136 0 -0.00018587151838990411 0.0042549925892955689 0 -0.00034716944037398661 0.004383668519841258 0 -0.00060570895239423644 0.0044631165453557428 0 -0.00034716944037398661 0.004383668519841258 0 -0.00019157139560965799 0.0045381674158549538 0 -0.00015715908505986695 0.0043793747359528136 0 -0.00034716944037398661 0.004383668519841258 0 -0.00019157139560965799 0.0045381674158549538 0 -0.00060570895239423644 0.0044631165453557428 0 -0.0004666032858305444 0.0044850184607589062 0 -0.00054881056019961548 0.0045571211027499985 0 -0.00056537807778597076 0.004469538027755072 0 -0.00036111131088306013 0.0045073896514528774 0 -0.000316041418087139 0.0045010466172260453 0 -0.0004666032858305444 0.0044850184607589062 0 -0.00042772097165042329 0.0046260219346006045 0 5.1027400636980932e-05 0.004550054127131364 0 -0.00019157139560965799 0.0045381674158549538 0 -2.6346251250377848e-05 0.0044470650653747048 0 7.803938259246856e-05 0.0040349226281359406 0 -0.00036111131088306013 0.0045073896514528774 0 -0.00015715908505986695 0.0043793747359528136 0 -0.00019157139560965799 0.0045381674158549538 0 -2.6346251250377848e-05 0.0044470650653747048 0 7.803938259246856e-05 0.0040349226281359406 0 -0.00032440939629136756 0.001501357948104403 0 -0.00032440939629136756 0.001501357948104403 0 -0.0015644758043267147 -0.0013992102381229193 0 -0.00073311375375124217 0.0045523838553902761 0 -0.00054881056019961548 0.0045571211027499985 0 -0.00055279364685570788 0.0046586945347444238 0 -0.0004666032858305444 0.0044850184607589062 0 -0.00042772097165042329 0.0046260219346006045 0 -0.00054881056019961548 0.0045571211027499985 0 -0.00032440939629136756 0.001501357948104403 0 -0.0021371186206311662 0.0018952267340041913 0 -0.00042772097165042329 0.0046260219346006045 0 -0.00054881056019961548 0.0045571211027499985 0 -0.00055279364685570788 0.0046586945347444238 0 -0.0010765843153726176 0.0008044767873031756 0 -0.0015042270011708084 0.0008929286542117325 0 -0.0013332249856854994 0.0010927824915203772 0 -0.0046763664303931599 -0.0018356091677671242 0 -0.0050162205026206639 -0.0017858915560825413 0 -0.0051063231395114261 -0.001380929132190196 0 -0.0015644758043267147 -0.0013992102381229193 0 -0.0033256917241292587 -0.0027813346151842975 0 -0.0021371186206311662 0.0018952267340041913 0 -0.0015644758043267147 -0.0013992102381229193 0 -0.0048537583992176257 -0.0020434270023182879 0 -0.0046763664303931599 -0.0018356091677671242 0 -0.0050162205026206639 -0.0017858915560825413 0 0.0004322191176158832 -0.0011168104447131777 0 0.00033488062786492701 -0.001408231098243884 0 4.0738691004755716e-05 -0.0014038017984539732 0 -0.0015644758043267147 -0.0013992102381229193 0 0.00083093457358328034 -0.003278433073529203 0 0.00062315756154127512 -0.0013500649246344146 0 0.00033488062786492701 -0.001408231098243884 0 0.00025198919079960229 -0.0018327572987852073 0 0.0004322191176158832 -0.0011168104447131777 0 0.00062315756154127512 -0.0013500649246344146 0 0.00033488062786492701 -0.001408231098243884 0 -0.0013963647910525683 0.0035541723021195685 0 -0.0015696236677979077 0.0031984345844523233 0 -0.0011575189425519416 0.00343642844942769 0 -0.0011667735279347979 0.0036769757254320715 0 -0.0013963647910525683 0.0035541723021195685 0 -0.0011575189425519416 0.00343642844942769 0 -0.00094598165668730049 0.0045401469054645628 0 -0.0021371186206311662 0.0018952267340041913 0 -0.0016639788504641663 0.0037499015869629586 0 -0.0020497578533357529 0.0032840775986882884 0 -0.0016685751936656131 0.0034463420609691471 0 -0.0020497578533357529 0.0032840775986882884 0 -0.0016685751936656131 0.0034463420609691471 0 -0.0015696236677979077 0.0031984345844523233 0 -0.0013963647910525683 0.0035541723021195685 0 -0.0016685751936656131 0.0034463420609691471 0 -0.0015696236677979077 0.0031984345844523233 0 -0.0016639788504641663 0.0037499015869629586 0 -0.0013963647910525683 0.0035541723021195685 0 -0.0016685751936656131 0.0034463420609691471 0 -0.0048537583992176257 -0.0020434270023182879 0 -0.0050162205026206639 -0.0017858915560825413 0 -0.0054642316193004772 -0.0018695111639795434 0 -0.0021371186206311662 0.0018952267340041913 0 -0.0036224828627059108 0.00067362754372995558 0 -0.0050162205026206639 -0.0017858915560825413 0 -0.0052434200243873944 -0.0017033538103534555 0 -0.0054642316193004772 -0.0018695111639795434 0 -0.0050162205026206639 -0.0017858915560825413 0 -0.0052434200243873944 -0.0017033538103534555 0 -0.0051063231395114261 -0.001380929132190196 0 -0.0052434200243873944 -0.0017033538103534555 0 -0.0055312599104490514 -0.0017324782847381252 0 -0.0051063231395114261 -0.001380929132190196 0 -0.0052434200243873944 -0.0017033538103534555 0 -0.0054642316193004772 -0.0018695111639795434 0 -0.0055312599104490514 -0.0017324782847381252 0 -0.0051777001321444234 -0.0018521817595248307 0 -0.0055441018788212363 -0.0018169160906700891 0 -0.0050794580996880471 -0.0014312842816070095 0 -0.0054642316193004772 -0.0018695111639795434 0 -0.0055312599104490514 -0.0017324782847381252 0 -0.0055607665688035034 -0.0017176490100787457 0 -0.0015696236677979077 0.0031984345844523233 0 -0.001141258552959381 0.0031180257901123921 0 -0.0011575189425519416 0.00343642844942769 0 -0.0055312599104490514 -0.0017324782847381252 0 -0.0055441018788212363 -0.0018169160906700891 0 -0.0055607665688035034 -0.0017176490100787457 0 -0.0060718572694562845 -0.0021654571853988941 0 -0.0039549026732782393 -0.00033940549476634203 0 -0.0036224828627059108 0.00067362754372995558 0 -0.0039549026732782393 -0.00033940549476634203 0 -0.0051777001321444234 -0.0018521817595248307 0 -0.0054188943478733383 -0.0021577163106542021 0 -0.0049640196834445406 -0.0021899640267083976 0 -0.0051777001321444234 -0.0018521817595248307 0 -0.0055441018788212363 -0.0018169160906700891 0 -0.0054188943478733383 -0.0021577163106542021 0 -0.0054188943478733383 -0.0021577163106542021 0 -0.005982012267651245 -0.0019433998892801367 0 -0.005648873927344646 -0.0024843538316144361 0 -0.0033256917241292587 -0.0027813346151842975 0 -0.0036095283742326027 -0.0039207979841947406 0 -0.0055441018788212363 -0.0018169160906700891 0 -0.0054188943478733383 -0.0021577163106542021 0 -0.005982012267651245 -0.0019433998892801367 0 -0.0055312599104490514 -0.0017324782847381252 0 -0.0055441018788212363 -0.0018169160906700891 0 -0.005982012267651245 -0.0019433998892801367 0 -0.0059230695973359728 -0.0019010114574599995 0 -0.0033256917241292587 -0.0027813346151842975 0 -0.0015659120082454833 -0.0051909172794548488 0 -0.0016780762812010654 -0.0050606387114190054 0 -0.0015348460247075956 -0.0049746308661309333 0 -0.005648873927344646 -0.0024843538316144361 0 -0.0051276236780218058 -0.0025960513651843548 0 -0.0052588004542808561 -0.0031393880470031114 0 -0.0036095283742326027 -0.0039207979841947406 0 -0.0037773013947166954 -0.0037390675190313652 0 -0.0054188943478733383 -0.0021577163106542021 0 -0.005648873927344646 -0.0024843538316144361 0 -0.0051276236780218058 -0.0025960513651843548 0 -0.0054188943478733383 -0.0021577163106542021 0 -0.0051276236780218058 -0.0025960513651843548 0 -0.0049640196834445406 -0.0021899640267083976 0 -0.0010564851614023342 -0.0031330234004664412 0 -0.0011257164976757517 -0.003254800840395164 0 -0.0010644690282559093 -0.0032285009375479477 0 -0.0011257164976757517 -0.003254800840395164 0 -0.0010644690282559093 -0.0032285009375479477 0 -0.00109251618710742 -0.0033256116703842516 0 -0.0033256917241292587 -0.0027813346151842975 0 0.00048026656578164807 -0.0062298214808644177 0 -0.0009957388136108301 -0.0032214920575871996 0 -0.0010644690282559093 -0.0032285009375479477 0 -0.00109251618710742 -0.0033256116703842516 0 -0.0010564851614023342 -0.0031330234004664412 0 -0.0009957388136108301 -0.0032214920575871996 0 -0.0010644690282559093 -0.0032285009375479477 0 -0.0015659120082454833 -0.0051909172794548488 0 -0.0013277919943128107 -0.0050718276376446282 0 -0.0015348460247075956 -0.0049746308661309333 0 0.00048026656578164807 -0.0062298214808644177 0 -0.00039035893237089852 -0.006682024092286752 0 0.001227945428355129 -0.0083454625938141121 0 0.0011877289083416756 -0.0083008113130931347 0 0.0010409356980724865 -0.0083461523164165032 0 0.00048026656578164807 -0.0062298214808644177 0 0.0014628411601402022 -0.0086276772389663869 0 0.0012225713373442242 -0.0083565891681823649 0 0.0012431969384772213 -0.0083099200803934126 0 0.0011877289083416756 -0.0083008113130931347 0 0.0010506611772140677 -0.0054087826681329144 0 0.0011882283792035615 -0.0056887671674095627 0 0.00091809348161561483 -0.0055772752630935942 0 0.00083093457358328034 -0.003278433073529203 0 0.00048026656578164807 -0.0062298214808644177 0 0.00048026656578164807 -0.0062298214808644177 0 0.0021647456452670941 -0.0066331079037867105 0 0.0012225713373442242 -0.0083565891681823649 0 0.0012431969384772213 -0.0083099200803934126 0 0.0013163098884027679 -0.0083031640038911496 0 0.00048026656578164807 -0.0062298214808644177 0 0.0014372335001193966 -0.0078824873752329199 0 0.0021647456452670941 -0.0066331079037867105 0 0.0019221115640494786 -0.0088686380865638965 0 0.0018263267441705261 -0.0073417998694137289 0 0.0015740920276594464 -0.0075286941142373859 0 0.0015948230511909128 -0.0072505175300022354 0 0.0015740920276594464 -0.0075286941142373859 0 0.0015948230511909128 -0.0072505175300022354 0 0.0012440140599928498 -0.0077022096348305525 0 0.0029682018524846889 -0.0030930638819447768 0 0.0027693165573717034 -0.0033409340569011655 0 0.0026554587016848646 -0.002459783212341336 0 0.0027693165573717034 -0.0033409340569011655 0 0.0019232676713050816 -0.0029142316224408686 0 0.0026554587016848646 -0.002459783212341336 0 0.00083093457358328034 -0.003278433073529203 0 0.0014438220134634001 -0.0020566646839446771 0 0.00083093457358328034 -0.003278433073529203 0 0.0021647456452670941 -0.0066331079037867105 0 0.0021647456452670941 -0.0066331079037867105 0 0.0023507163846604811 -0.0056263429252195055 0 0.0030874534975830889 -0.0088526388008052428 0 0.0025380694740145572 -0.0085987953469958273 0 0.0025985385439813735 -0.0089226959222712347 0 0.0030874534975830889 -0.0088526388008052428 0 0.0026900322583275605 -0.0090939423124177521 0 0.0026992182448900828 -0.0093524990706986208 0 0.0030874534975830889 -0.0088526388008052428 0 0.0025985385439813735 -0.0089226959222712347 0 0.0026900322583275605 -0.0090939423124177521 0 0.0025985385439813735 -0.0089226959222712347 0 0.0026900322583275605 -0.0090939423124177521 0 0.0024472836753771389 -0.0091513629172485095 0 0.0024472836753771389 -0.0091513629172485095 0 0.0022678981738873606 -0.008869415082792707 0 0.0021391242205058376 -0.0093397470169063468 0 0.0025985385439813735 -0.0089226959222712347 0 0.0024472836753771389 -0.0091513629172485095 0 0.0022678981738873606 -0.008869415082792707 0 0.0022678981738873606 -0.008869415082792707 0 0.0018847073725675623 -0.008867363338407484 0 0.0021391242205058376 -0.0093397470169063468 0 0.0015322437271926414 -0.0093530899170091112 0 0.0018847073725675623 -0.008867363338407484 0 0.0021391242205058376 -0.0093397470169063468 0 0.0022678981738873606 -0.008869415082792707 0 0.0018847073725675623 -0.008867363338407484 0 0.0019853282112844927 -0.0083167003758151253 0 0.0025380694740145572 -0.0085987953469958273 0 0.0022678981738873606 -0.008869415082792707 0 0.0019853282112844927 -0.0083167003758151253 0 0.0025380694740145572 -0.0085987953469958273 0 0.0025985385439813735 -0.0089226959222712347 0 0.0022678981738873606 -0.008869415082792707 0 0.0019232676713050816 -0.0029142316224408686 0 0.0016132900353933999 -0.0022677300959782318 0 0.0020834928858000407 -0.002325368190469817 0 0.0023507163846604811 -0.0056263429252195055 0 0.0015609596422216383 -0.0058973150396598459 0 0.0019232676713050816 -0.0029142316224408686 0 0.0016132900353933999 -0.0022677300959782318 0 0.0011047929312791637 -0.0024860391576194342 0 0.0016132900353933999 -0.0022677300959782318 0 0.0011047929312791637 -0.0024860391576194342 0 0.0011383393509046371 -0.001867626957009398 0 0.00077794748980502724 0.0044813656813582322 0 0.00065944242667242568 0.004487045171971616 0 0.00066223216961011405 0.0045175658627145641 0 0.00047458873027172766 -0.0019912524266472481 0 0.0011047929312791637 -0.0024860391576194342 0 0.0011383393509046371 -0.001867626957009398 0 0.00053687546611707639 0.004513515922940305 0 0.00065944242667242568 0.004487045171971616 0 0.00066223216961011405 0.0045175658627145641 0 0.0016132900353933999 -0.0022677300959782318 0 0.0018238039326350201 -0.0017271177683001967 0 0.0020834928858000407 -0.002325368190469817 0 0.0016132900353933999 -0.0022677300959782318 0 0.0011383393509046371 -0.001867626957009398 0 0.0018238039326350201 -0.0017271177683001967 0 0.00053687546611707639 0.004513515922940305 0 0.00066223216961011405 0.0045175658627145641 0 0.00048718095396255807 0.00452936699293526 0 0.00077745790216112028 0.0011900294579753948 0 0.0010641473332113531 0.0020209636921875692 0 0.00039612408934707578 0.0029606880864544204 0 0.0010641473332113531 0.0020209636921875692 0 0.0010641473332113531 0.0020209636921875692 0 0.0010479004658305497 -0.00010215380153439832 0 0.0023378191780506967 -0.0018361398650644887 0 0.0026554587016848646 -0.002459783212341336 0 0.0020834928858000407 -0.002325368190469817 0 0.0018238039326350201 -0.0017271177683001967 0 0.0023378191780506967 -0.0018361398650644887 0 0.0020834928858000407 -0.002325368190469817 0 0.00068530377519983928 0.001420315979496821 0 0.00088789268085897178 0.0014643882151514397 0 0.00063858945772025477 0.0015061080373842048 0 0.00041592434773429418 0.0028533300084894707 0 0.0010479004658305497 -0.00010215380153439832 0 0.0010479004658305497 -0.00010215380153439832 0 0.0014438220134634001 -0.0020566646839446771 0 -0.00032440939629136756 0.001501357948104403 0 0.0010479004658305497 -0.00010215380153439832 0 0.0004322191176158832 -0.0011168104447131777 0 -0.00016125997594176883 -0.00098318526376755611 0 4.0738691004755716e-05 -0.0014038017984539732 0 0.00029701720751786455 0.0018859164765505528 0 8.0718797724035234e-05 0.0021261110164390576 0 0.00054626982375005303 0.0020321714469929953 0 0.00033488062786492701 -0.001408231098243884 0 0.00025198919079960229 -0.0018327572987852073 0 4.0738691004755716e-05 -0.0014038017984539732 0 0.0019232676713050816 -0.0029142316224408686 0 0.0026554587016848646 -0.002459783212341336 0 0.0020834928858000407 -0.002325368190469817 0 -0.001130975078375144 0.0097640043647695372 0 -0.0010144408936674984 0.0098284370459208736 0 -0.0010322645976695922 0.0097564161905696768 0 -0.001130975078375144 0.0097640043647695372 0 -0.0010144408936674984 0.0098284370459208736 0 -0.001108269556032471 0.0099134548953883524 0 -0.001130975078375144 0.0097640043647695372 0 -0.0013101525592225305 0.0095829600725853819 0 -0.0010322645976695922 0.0097564161905696768 0 -0.001130975078375144 0.0097640043647695372 0 -0.0013101525592225305 0.0095829600725853819 0 -0.0012950612941823997 0.0098674358670087624 0 -0.001130975078375144 0.0097640043647695372 0 -0.0012950612941823997 0.0098674358670087624 0 -0.001108269556032471 0.0099134548953883524 0 -0.001108269556032471 0.0099134548953883524 0 -0.0010722987771931032 0.010106298932041211 0 -0.0012825350606768531 0.010063055394021926 0 -0.0012950612941823997 0.0098674358670087624 0 -0.0014101018687035136 0.010026642801729949 0 -0.0012825350606768531 0.010063055394021926 0 -0.0012950612941823997 0.0098674358670087624 0 -0.001108269556032471 0.0099134548953883524 0 -0.0012825350606768531 0.010063055394021926 0 -0.001108269556032471 0.0099134548953883524 0 -0.00096487748981503732 0.0099313674986795369 0 -0.0010722987771931032 0.010106298932041211 0 -9.6273216495352303e-05 0.014263887518035777 0 2.6663478217176184e-05 0.013971054213120577 0 -0.0010144408936674984 0.0098284370459208736 0 -0.001108269556032471 0.0099134548953883524 0 -0.00096487748981503732 0.0099313674986795369 0 0.00083282880419878772 0.018462433691047102 0 0.00082071021984469323 0.018137103538084259 0 0.00039053074280122563 0.018353164679979321 0 0.00083282880419878772 0.018462433691047102 0 0.00045164187963820447 0.018790954197992465 0 0.00039053074280122563 0.018353164679979321 0 -9.6273216495352303e-05 0.014263887518035777 0 -0.00019294211487540624 0.014056789933578352 0 -0.0010144408936674984 0.0098284370459208736 0 -0.00094956613165588833 0.0098950846817786129 0 -0.00098126243374753236 0.0098368487291400439 0 -0.0010144408936674984 0.0098284370459208736 0 -0.00096487748981503732 0.0099313674986795369 0 -0.00094956613165588833 0.0098950846817786129 0 -0.00098126243374753236 0.0098368487291400439 0 -0.0009603428678357658 0.0098774733896270159 0 -0.0010322645976695922 0.0097564161905696768 0 -0.00027815196982536718 0.0086974395013548599 0 -0.00093872774222574342 0.0094861461671989899 0 -0.0010144408936674984 0.0098284370459208736 0 -0.00098126243374753236 0.0098368487291400439 0 -0.0010322645976695922 0.0097564161905696768 0 -0.00094956613165588833 0.0098950846817786129 0 -0.00098126243374753236 0.0098368487291400439 0 -0.00096173997413290789 0.0099116564761485559 0 -0.00098126243374753236 0.0098368487291400439 0 -0.0009603428678357658 0.0098774733896270159 0 -0.00096173997413290789 0.0099116564761485559 0 -0.0009603428678357658 0.0098774733896270159 0 -0.00096173997413290789 0.0099116564761485559 0 -0.00096414435917342581 0.009954110388206823 0 -0.00027815196982536718 0.0086974395013548599 0 -0.00051494899629078673 0.012511423546375636 0 -1.9715681090209669e-05 0.0085641207791248078 0 -0.00066078191096795226 0.0084079205462058489 0 -0.0006598553121077203 0.0090158631436838884 0 -1.9715681090209669e-05 0.0085641207791248078 0 -0.00066078191096795226 0.0084079205462058489 0 -0.00033931057229656485 0.0082015235230044059 0 -0.00066078191096795226 0.0084079205462058489 0 -0.0006598553121077203 0.0090158631436838884 0 -0.0012637184206901848 0.0087525666897966085 0 -0.0012654936787674948 0.0095589696723946162 0 -0.00093872774222574342 0.0094861461671989899 0 -0.0013101525592225305 0.0095829600725853819 0 -0.0006598553121077203 0.0090158631436838884 0 -0.0012637184206901848 0.0087525666897966085 0 -0.0031377224447729688 -0.001024338664182295 0 -0.0031122308700067491 -0.0010053980008061722 0 -0.0032677904594580194 -0.00062098176845307206 0 -0.00066078191096795226 0.0084079205462058489 0 -0.0012637184206901848 0.0087525666897966085 0 -0.00092241255605187973 0.0078425124873553412 0 -0.0022502399812770277 0.0045915285719806296 0 -0.0023004214503433711 0.00048306089946829054 0 -0.0027118746130984999 -0.0025187993459702528 0 -0.0029119205237138389 -0.0028831007322563411 0 -0.0027221609407031317 -0.003159760159064114 0 -0.0029119205237138389 -0.0028831007322563411 0 -0.0031818022055317779 -0.0028761904574823123 0 -0.0030143924554320379 -0.0032178730312256358 0 -0.0027118746130984999 -0.0025187993459702528 0 -0.0029119205237138389 -0.0028831007322563411 0 -0.0029706504897690092 -0.0026463368606021642 0 -0.0029119205237138389 -0.0028831007322563411 0 -0.0029706504897690092 -0.0026463368606021642 0 -0.0031818022055317779 -0.0028761904574823123 0 -0.0029706504897690092 -0.0026463368606021642 0 -0.0031420286650571663 -0.0025011486928670857 0 -0.00308037535555541 -0.0021856157384356869 0 -0.0027118746130984999 -0.0025187993459702528 0 -0.0029706504897690092 -0.0026463368606021642 0 -0.00308037535555541 -0.0021856157384356869 0 -0.0031420286650571663 -0.0025011486928670857 0 -0.0034705542534070872 -0.0023329154575443276 0 -0.0032670711842956958 -0.0020578861373974251 0 -0.0031420286650571663 -0.0025011486928670857 0 -0.0033526575983738823 -0.0026109693046631878 0 -0.0034705542534070872 -0.0023329154575443276 0 -0.0031420286650571663 -0.0025011486928670857 0 -0.0033526575983738823 -0.0026109693046631878 0 -0.0031818022055317779 -0.0028761904574823123 0 -0.0029706504897690092 -0.0026463368606021642 0 -0.0031420286650571663 -0.0025011486928670857 0 -0.0031818022055317779 -0.0028761904574823123 0 -0.0031818022055317779 -0.0028761904574823123 0 -0.0035738368018961007 -0.0027702484989151721 0 -0.0033059007483725519 -0.003197157829395717 0 -0.0033526575983738823 -0.0026109693046631878 0 -0.0031818022055317779 -0.0028761904574823123 0 -0.0035738368018961007 -0.0027702484989151721 0 -0.0035738368018961007 -0.0027702484989151721 0 -0.0039273032660356484 -0.0028664768608275973 0 -0.00362409657376916 -0.0032015937563096941 0 -0.0035738368018961007 -0.0027702484989151721 0 -0.0039273032660356484 -0.0028664768608275973 0 -0.0038762098147717863 -0.0024455175162701589 0 -0.0039273032660356484 -0.0028664768608275973 0 -0.0038762098147717863 -0.0024455175162701589 0 -0.0042589534392768243 -0.0024703659429415057 0 -0.0033526575983738823 -0.0026109693046631878 0 -0.0035738368018961007 -0.0027702484989151721 0 -0.0034705542534070872 -0.0023329154575443276 0 -0.0038762098147717863 -0.0024455175162701589 0 -0.0034705542534070872 -0.0023329154575443276 0 -0.003757940590305819 -0.0020577269175086049 0 -0.0035738368018961007 -0.0027702484989151721 0 -0.0038762098147717863 -0.0024455175162701589 0 -0.0034705542534070872 -0.0023329154575443276 0 -0.0034705542534070872 -0.0023329154575443276 0 -0.0034943448433728073 -0.0018208180893373252 0 -0.0032670711842956958 -0.0020578861373974251 0 -0.0034705542534070872 -0.0023329154575443276 0 -0.003757940590305819 -0.0020577269175086049 0 -0.0034943448433728073 -0.0018208180893373252 0 -0.003757940590305819 -0.0020577269175086049 0 -0.0034943448433728073 -0.0018208180893373252 0 -0.0036835912722293141 -0.0017584327566007958 0 -0.0038762098147717863 -0.0024455175162701589 0 -0.003757940590305819 -0.0020577269175086049 0 -0.0041430065731987318 -0.0020134273811341038 0 -0.003757940590305819 -0.0020577269175086049 0 -0.0039114024528403048 -0.0017330208773907109 0 -0.0041430065731987318 -0.0020134273811341038 0 -0.003757940590305819 -0.0020577269175086049 0 -0.0039114024528403048 -0.0017330208773907109 0 -0.0036835912722293141 -0.0017584327566007958 0 -0.0039114024528403048 -0.0017330208773907109 0 -0.0036835912722293141 -0.0017584327566007958 0 -0.0035595174087614499 -0.0013910129935364144 0 -0.0034943448433728073 -0.0018208180893373252 0 -0.0032901661544806576 -0.0011061116440329918 0 -0.0035595174087614499 -0.0013910129935364144 0 -0.0034943448433728073 -0.0018208180893373252 0 -0.0036835912722293141 -0.0017584327566007958 0 -0.0035595174087614499 -0.0013910129935364144 0 -0.0034943448433728073 -0.0018208180893373252 0 -0.0032670711842956958 -0.0020578861373974251 0 -0.0032901661544806576 -0.0011061116440329918 0 -0.0022502399812770277 0.0045915285719806296 0 -0.0023558753558996712 0.0040136602280028558 0 -0.0032670711842956958 -0.0020578861373974251 0 -0.00308037535555541 -0.0021856157384356869 0 -0.0032901661544806576 -0.0011061116440329918 0 -0.0029034138985244919 -0.0022641448123962402 0 -0.0033330608250429082 -0.00091434008621785895 0 -0.0031377224447729688 -0.001024338664182295 0 -0.0031125543168820722 -0.00094510199384076603 0 -0.0032901661544806576 -0.0011061116440329918 0 -0.0013101525592225305 0.0095829600725853819 0 -0.0012637184206901848 0.0087525666897966085 0 -0.0014912657886439922 0.0097440251075616643 0 -0.0027118746130984999 -0.0025187993459702528 0 -0.00308037535555541 -0.0021856157384356869 0 -0.0032901661544806576 -0.0011061116440329918 0 -0.0031377224447729688 -0.001024338664182295 0 -0.0031122308700067491 -0.0010053980008061722 0 -0.0032901661544806576 -0.0011061116440329918 0 -0.0031420286650571663 -0.0025011486928670857 0 -0.0032670711842956958 -0.0020578861373974251 0 -0.00308037535555541 -0.0021856157384356869 0 -0.0051276236780218058 -0.0025960513651843548 0 -0.0046628818919963793 -0.0025672229860209512 0 -0.0049640196834445406 -0.0021899640267083976 0 -0.0051276236780218058 -0.0025960513651843548 0 -0.0046628818919963793 -0.0025672229860209512 0 -0.0047287623198393018 -0.0030959742830653498 0 -0.0046628818919963793 -0.0025672229860209512 0 -0.0042589534392768243 -0.0024703659429415057 0 -0.0045670881163053087 -0.002007444166972528 0 -0.0046628818919963793 -0.0025672229860209512 0 -0.0042589534392768243 -0.0024703659429415057 0 -0.0043218603015230186 -0.0029427007227559626 0 -0.0046628818919963793 -0.0025672229860209512 0 -0.0047287623198393018 -0.0030959742830653498 0 -0.0043218603015230186 -0.0029427007227559626 0 -0.0039273032660356484 -0.0028664768608275973 0 -0.0042589534392768243 -0.0024703659429415057 0 -0.0043218603015230186 -0.0029427007227559626 0 -0.0038762098147717863 -0.0024455175162701589 0 -0.0042589534392768243 -0.0024703659429415057 0 -0.0041430065731987318 -0.0020134273811341038 0 -0.0042589534392768243 -0.0024703659429415057 0 -0.0041430065731987318 -0.0020134273811341038 0 -0.0045670881163053087 -0.002007444166972528 0 -0.0039114024528403048 -0.0017330208773907109 0 -0.0041430065731987318 -0.0020134273811341038 0 -0.0044100733455432672 -0.0014791147862434283 0 -0.0045670881163053087 -0.002007444166972528 0 -0.0048447448483067215 -0.001788373973529025 0 -0.0044100733455432672 -0.0014791147862434283 0 -0.0041430065731987318 -0.0020134273811341038 0 -0.0045670881163053087 -0.002007444166972528 0 -0.0044100733455432672 -0.0014791147862434283 0 -0.0046628818919963793 -0.0025672229860209512 0 -0.0045670881163053087 -0.002007444166972528 0 -0.0049640196834445406 -0.0021899640267083976 0 -0.0045670881163053087 -0.002007444166972528 0 -0.0048447448483067215 -0.001788373973529025 0 -0.0049640196834445406 -0.0021899640267083976 0 -0.0051777001321444234 -0.0018521817595248307 0 -0.0048447448483067215 -0.001788373973529025 0 -0.0049640196834445406 -0.0021899640267083976 0 -0.005116646481450559 -0.00090188080585921289 0 -0.0043786370770972638 -0.001087304892066984 0 -0.0045173452196147264 -0.00048709365842798289 0 -0.0039549026732782393 -0.00033940549476634203 0 -0.0045608171442900053 -0.001303451436579611 0 -0.0039549026732782393 -0.00033940549476634203 0 -0.0024093226197220837 0.0016141657651641561 0 -0.0048447448483067215 -0.001788373973529025 0 -0.0050794580996880471 -0.0014312842816070095 0 -0.0044100733455432672 -0.0014791147862434283 0 -0.0051777001321444234 -0.0018521817595248307 0 -0.0048447448483067215 -0.001788373973529025 0 -0.0050794580996880471 -0.0014312842816070095 0 -0.0043786370770972638 -0.001087304892066984 0 -0.0040869205170672319 -0.0005530869942146886 0 -0.0045173452196147264 -0.00048709365842798289 0 -0.0043786370770972638 -0.001087304892066984 0 -0.0040869205170672319 -0.0005530869942146886 0 -0.0038225632862469317 -0.0007719559202975059 0 -0.0007152373134441069 0.0036043092314147892 0 -0.00079650753165862957 0.0033764091257133992 0 -0.00046805586443844909 0.0036142918794130306 0 -0.0040869205170672319 -0.0005530869942146886 0 -0.0045173452196147264 -0.00048709365842798289 0 -0.0038725512548106779 -2.8425745230782137e-05 0 -0.0024093226197220837 0.0016141657651641561 0 -0.0026595298043919535 0.00227763692664753 0 -0.0007152373134441069 0.0036043092314147892 0 -0.00079650753165862957 0.0033764091257133992 0 -0.00091721993698863462 0.00367094477111097 0 -0.00079650753165862957 0.0033764091257133992 0 -0.0011575189425519416 0.00343642844942769 0 -0.00091721993698863462 0.00367094477111097 0 -0.001141258552959381 0.0031180257901123921 0 -0.00079650753165862957 0.0033764091257133992 0 -0.0011575189425519416 0.00343642844942769 0 -0.0011667735279347979 0.0036769757254320715 0 -0.0011575189425519416 0.00343642844942769 0 -0.00091721993698863462 0.00367094477111097 0 -0.0031125543168820722 -0.00094510199384076603 0 -0.0032901661544806576 -0.0011061116440329918 0 -0.0034265518349196021 -0.00071173337270474953 0 -0.0013101525592225305 0.0095829600725853819 0 -0.0012950612941823997 0.0098674358670087624 0 -0.0014912657886439922 0.0097440251075616643 0 -0.0045608171442900053 -0.001303451436579611 0 -0.0035366682862424579 -0.0014076596197127452 0 -0.0039114024528403048 -0.0017330208773907109 0 -0.0044100733455432672 -0.0014791147862434283 0 -0.0035595174087614499 -0.0013910129935364144 0 -0.0032901661544806576 -0.0011061116440329918 0 -0.0035595174087614499 -0.0013910129935364144 0 -0.0037072891489956096 -0.0010118642290032934 0 -0.0043786370770972638 -0.001087304892066984 0 -0.0035595174087614499 -0.0013910129935364144 0 -0.0037072891489956096 -0.0010118642290032934 0 -0.0043786370770972638 -0.001087304892066984 0 -0.0037072891489956096 -0.0010118642290032934 0 -0.0038225632862469317 -0.0007719559202975059 0 -0.0037072891489956096 -0.0010118642290032934 0 -0.0038225632862469317 -0.0007719559202975059 0 -0.0034265518349196021 -0.00071173337270474953 0 -0.0032901661544806576 -0.0011061116440329918 0 -0.0037072891489956096 -0.0010118642290032934 0 -0.0034265518349196021 -0.00071173337270474953 0 -0.0034265518349196021 -0.00071173337270474953 0 -0.0036612132887790471 -0.00039776469765017883 0 -0.0033996622958076448 0.00034492043028374892 0 -0.0036612132887790471 -0.00039776469765017883 0 -0.0038918159400126466 3.0873877192341971e-05 0 -0.0033996622958076448 0.00034492043028374892 0 -0.0038225632862469317 -0.0007719559202975059 0 -0.0034265518349196021 -0.00071173337270474953 0 -0.0036612132887790471 -0.00039776469765017883 0 -0.0040869205170672319 -0.0005530869942146886 0 -0.0038225632862469317 -0.0007719559202975059 0 -0.0036612132887790471 -0.00039776469765017883 0 -0.0029414169335523132 -2.5772138561175317e-05 0 -0.0026595298043919535 0.00227763692664753 0 -0.0040869205170672319 -0.0005530869942146886 0 -0.0036612132887790471 -0.00039776469765017883 0 -0.0038725512548106779 -2.8425745230782137e-05 0 -0.0014912657886439922 0.0097440251075616643 0 -0.0014101018687035136 0.010026642801729949 0 -0.0015203920381504849 0.010052467164294374 0 -0.0031125543168820722 -0.00094510199384076603 0 -0.0034265518349196021 -0.00071173337270474953 0 -0.0033996622958076448 0.00034492043028374892 0 -0.0012950612941823997 0.0098674358670087624 0 -0.0014912657886439922 0.0097440251075616643 0 -0.0014101018687035136 0.010026642801729949 0 -0.0023558753558996712 0.0040136602280028558 0 -0.001695029484860703 0.0064517600228606925 0 -0.0014101018687035136 0.010026642801729949 0 -0.0014327462616780401 0.010105699340337816 0 -0.0012825350606768531 0.010063055394021926 0 -0.0014185364541652165 0.010233274449094307 0 -0.001288389338464853 0.010068092647678285 0 -0.0014327462616780401 0.010105699340337816 0 -0.0014648247979972863 0.010084368368451408 0 -0.0014773588558962816 0.010124428331758382 0 -0.0014101018687035136 0.010026642801729949 0 -0.0014327462616780401 0.010105699340337816 0 -0.0014648247979972863 0.010084368368451408 0 -0.00080533398423767572 0.0081007604764298351 0 -0.001695029484860703 0.0064517600228606925 0 -0.0014101018687035136 0.010026642801729949 0 -0.0014648247979972863 0.010084368368451408 0 -0.0015203920381504849 0.010052467164294374 0 -0.00034210392544709825 0.0056896500084920162 0 -0.0013144431730540362 0.0063258558523637811 0 -0.0010112238984077095 0.0073446120289084576 0 -0.001695029484860703 0.0064517600228606925 0 -0.00021124745737786078 0.010110113593601507 0 -0.0014648247979972863 0.010084368368451408 0 -0.0014784639717454974 0.010067144018727893 0 -0.0014773588558962816 0.010124428331758382 0 -0.0026595298043919535 0.00227763692664753 0 -0.001695029484860703 0.0064517600228606925 0 -0.0014134379326363488 0.0049609687322941113 0 -0.00034210392544709825 0.0056896500084920162 0 -0.0013144431730540362 0.0063258558523637811 0 -0.0014134379326363488 0.0049609687322941113 0 -0.0013144431730540362 0.0063258558523637811 0 -0.002274560328312632 0.0064338136064442976 0 -0.0014784639717454974 0.010067144018727893 0 -0.0014773588558962816 0.010124428331758382 0 -0.0014887255015517251 0.010123306046228204 0 -0.00031494120313138547 0.011439772293048558 0 -0.00021124745737786078 0.010110113593601507 0 -0.0013144431730540362 0.0063258558523637811 0 -0.0010112238984077095 0.0073446120289084576 0 -0.0019767647062609596 0.0073777274122624149 0 -0.00021124745737786078 0.010110113593601507 0 -0.00040954367131575294 0.00793182224131273 0 0.00041368493669715348 0.010314501962688162 0 0.00014217477326946361 0.010126442956795526 0 0.00024435195514423017 0.010449897715330194 0 0.00049156979706584103 0.010117593108745692 0 0.00041368493669715348 0.010314501962688162 0 0.00014217477326946361 0.010126442956795526 0 -0.00021124745737786078 0.010110113593601507 0 0.00050792202143311218 0.012280031162897921 0 0.0025883043654026166 0.01597521271369693 0 0.0025508386840072217 0.016056899127554519 0 0.0023627630392694591 0.015955227678798218 0 0.0004820411279896691 0.012675442669211697 0 0.00050792202143311218 0.012280031162897921 0 0.0025883043654026166 0.01597521271369693 0 0.0025523618551891052 0.016049641319575359 0 0.0027592470740887848 0.015901929098121118 0 0.00050792202143311218 0.012280031162897921 0 0.0011717289548068852 0.011783845378042212 0 0.00222417237013187 0.016292056376413577 0 0.0023627630392694591 0.015955227678798218 0 0.0020690999510290789 0.015821780817499159 0 -0.00031494120313138547 0.011439772293048558 0 0.00050792202143311218 0.012280031162897921 0 0.00222417237013187 0.016292056376413577 0 0.0025508386840072217 0.016056899127554519 0 0.0023627630392694591 0.015955227678798218 0 0.00016582175631856547 0.011622659557715928 0 0.00028699225907333507 0.011619046904784124 0 0.00034272545747022245 0.011491754855525043 0 -0.00031494120313138547 0.011439772293048558 0 0.00077023557325128311 0.015288209055769483 0 -0.0014416535480712878 0.010235924312955606 0 -0.0015969254549561569 0.010383482423688133 0 -0.0012962725203326851 0.010362290474788718 0 0.00222417237013187 0.016292056376413577 0 0.0015425391142266298 0.015833422719678227 0 0.0012637627380537768 0.016322100051985509 0 0.00222417237013187 0.016292056376413577 0 0.0015425391142266298 0.015833422719678227 0 0.0020690999510290789 0.015821780817499159 0 -0.0014185364541652165 0.010233274449094307 0 -0.00031494120313138547 0.011439772293048558 0 -0.0011776205458986966 0.0039951310559736847 0 -0.0011024532603439103 0.0038471989477412019 0 -0.0010798370757504794 0.0039749761111607558 0 -0.0011024532603439103 0.0038471989477412019 0 -0.00096910979114676736 0.0038962847096205714 0 -0.0010798370757504794 0.0039749761111607558 0 -0.0011667735279347979 0.0036769757254320715 0 -0.0011024532603439103 0.0038471989477412019 0 -0.00091721993698863462 0.00367094477111097 0 -0.00091721993698863462 0.00367094477111097 0 -0.00096910979114676736 0.0038962847096205714 0 -0.00080519759101516032 0.0038898685801169413 0 -0.00096910979114676736 0.0038962847096205714 0 -0.00080519759101516032 0.0038898685801169413 0 -0.0009662341591592517 0.0040011587141475435 0 -0.0011024532603439103 0.0038471989477412019 0 -0.00091721993698863462 0.00367094477111097 0 -0.00096910979114676736 0.0038962847096205714 0 -0.00080519759101516032 0.0038898685801169413 0 -0.00068135297280255008 0.0037556055140845778 0 -0.00062150370005708395 0.0039277461208253846 0 -0.00091721993698863462 0.00367094477111097 0 -0.00080519759101516032 0.0038898685801169413 0 -0.00068135297280255008 0.0037556055140845778 0 -0.0007152373134441069 0.0036043092314147892 0 -0.00091721993698863462 0.00367094477111097 0 -0.00068135297280255008 0.0037556055140845778 0 -0.0007152373134441069 0.0036043092314147892 0 -0.00046805586443844909 0.0036142918794130306 0 -0.00068135297280255008 0.0037556055140845778 0 -0.00046805586443844909 0.0036142918794130306 0 -0.00068135297280255008 0.0037556055140845778 0 -0.00063418670191852018 0.0039162317412613657 0 -0.0026595298043919535 0.00227763692664753 0 -0.00094036962437263794 0.0052575162879758795 0 -0.0010091477972616772 0.0039942866263590008 0 -0.00094036962437263794 0.0052575162879758795 0 -0.00040954367131575294 0.00793182224131273 0 -0.00011664643247853802 0.0058300513074272496 0 -0.00094036962437263794 0.0052575162879758795 0 -0.00040954367131575294 0.00793182224131273 0 -0.0013144431730540362 0.0063258558523637811 0 -0.002274560328312632 0.0064338136064442976 0 -0.0019767647062609596 0.0073777274122624149 0 -0.00062291648740309645 0.0061358504776091441 0 -0.0005280847184391329 0.0064361329232264135 0 -0.00080189101081587749 0.0064437961317921925 0 0.00048529192777564505 0.008644384223091113 0 0.00057581693438516564 0.008522814975868603 0 0.00041849921665125219 0.0084348860888845672 0 -0.00040954367131575294 0.00793182224131273 0 0.0011717289548068852 0.011783845378042212 0 0.00048529192777564505 0.008644384223091113 0 0.00057581693438516564 0.008522814975868603 0 0.00070585977922125965 0.0086308214285590896 0 0.00057581693438516564 0.008522814975868603 0 0.00069427043947082093 0.0083805917412957381 0 0.00041849921665125219 0.0084348860888845672 0 -0.00011664643247853802 0.0058300513074272496 0 0.0008899488339563378 0.0061796795132931931 0 0.00057581693438516564 0.008522814975868603 0 0.00070585977922125965 0.0086308214285590896 0 0.00069427043947082093 0.0083805917412957381 0 -0.00080519759101516032 0.0038898685801169413 0 -0.00062150370005708395 0.0039277461208253846 0 -0.00073695061037684477 0.0041361218801603487 0 -0.00080519759101516032 0.0038898685801169413 0 -0.00073695061037684477 0.0041361218801603487 0 -0.0009662341591592517 0.0040011587141475435 0 -0.00094036962437263794 0.0052575162879758795 0 -0.00011664643247853802 0.0058300513074272496 0 -0.00035452811389124149 0.0040763357637771946 0 -0.00011664643247853802 0.0058300513074272496 0 0.00043276174221797099 0.0042818397866490757 0 0.00072784939947781349 0.0042970115611911915 0 0.00050125772994633619 0.0044194565736205369 0 -0.0012361614758862138 0.0041044403568935269 0 -0.00073695061037684477 0.0041361218801603487 0 -0.0009662341591592517 0.0040011587141475435 0 -0.00096910979114676736 0.0038962847096205714 0 -0.0009662341591592517 0.0040011587141475435 0 -0.0010798370757504794 0.0039749761111607558 0 -0.0011776205458986966 0.0039951310559736847 0 -0.0012361614758862138 0.0041044403568935269 0 -0.0010798370757504794 0.0039749761111607558 0 -0.0012361614758862138 0.0041044403568935269 0 -0.0009662341591592517 0.0040011587141475435 0 -0.0010798370757504794 0.0039749761111607558 0 0.00072784939947781349 0.0042970115611911915 0 0.00050125772994633619 0.0044194565736205369 0 0.00061465374837143974 0.0044996919227264761 0 0.0004648985642005894 0.0045542132307611035 0 0.00061465374837143974 0.0044996919227264761 0 0.00050100785680883822 0.0047442010767174761 0 0.0008899488339563378 0.0061796795132931931 0 0.0014512929054000332 0.0082015793996083487 0 0.0004648985642005894 0.0045542132307611035 0 0.00050125772994633619 0.0044194565736205369 0 0.00061465374837143974 0.0044996919227264761 0 0.00095850133943347314 0.0082264530572161657 0 0.00081297768485976557 0.008123916636364182 0 0.0012106896944013761 0.007824712451331638 0 0.0017125375623204084 0.011043485197182233 0 0.0015864540078488975 0.010993714645619277 0 0.0015228533101114482 0.011197624141016311 0 0.00081297768485976557 0.008123916636364182 0 0.00069427043947082093 0.0083805917412957381 0 0.00041849921665125219 0.0084348860888845672 0 0.00095850133943347314 0.0082264530572161657 0 0.00081297768485976557 0.008123916636364182 0 0.00069427043947082093 0.0083805917412957381 0 0.00070585977922125965 0.0086308214285590896 0 0.00095850133943347314 0.0082264530572161657 0 0.00069427043947082093 0.0083805917412957381 0 0.0013114805992163808 0.0095231849104983491 0 0.0011717289548068852 0.011783845378042212 0 0.0014031040831455977 0.011059992471058488 0 0.0020605896940837139 0.012961775280765711 0 0.0015864540078488975 0.010993714645619277 0 0.0016839719644618728 0.010843665938519672 0 0.0014290337536220421 0.01088892563891382 0 0.0012446546411993195 0.011350993255687699 0 0.0015933199810243106 0.011326380887040506 0 0.001289355484702827 0.01158117958032635 0 0.0017125375623204084 0.011043485197182233 0 0.0015864540078488975 0.010993714645619277 0 0.0016839719644618728 0.010843665938519672 0 0.0017125375623204084 0.011043485197182233 0 0.0016839719644618728 0.010843665938519672 0 0.0019088734746840062 0.010879694426034203 0 0.0019616516691853937 0.010786276959202536 0 0.0016839719644618728 0.010843665938519672 0 0.0019088734746840062 0.010879694426034203 0 0.0016309119446244718 0.0099759845321960514 0 0.0014031040831455977 0.011059992471058488 0 0.0013114805992163808 0.0095231849104983491 0 0.0014512929054000332 0.0082015793996083487 0 0.0016309119446244718 0.0099759845321960514 0 0.0014512929054000332 0.0082015793996083487 0 0.001849307753681344 0.015548634409030848 0 0.0016701025170985642 0.014971605481029618 0 0.0020014147216776269 0.015182938682716496 0 0.001849307753681344 0.015548634409030848 0 0.0021049791947128035 0.015482610753369866 0 0.0020014147216776269 0.015182938682716496 0 0.001849307753681344 0.015548634409030848 0 0.0014945913902919131 0.015345851091788463 0 0.0016701025170985642 0.014971605481029618 0 0.001849307753681344 0.015548634409030848 0 0.0014945913902919131 0.015345851091788463 0 0.0015425391142266298 0.015833422719678227 0 0.0014945913902919131 0.015345851091788463 0 0.0015425391142266298 0.015833422719678227 0 0.0011420486191949064 0.015495008986166669 0 0.001849307753681344 0.015548634409030848 0 0.0015425391142266298 0.015833422719678227 0 0.0020690999510290789 0.015821780817499159 0 0.001849307753681344 0.015548634409030848 0 0.0020690999510290789 0.015821780817499159 0 0.0021049791947128035 0.015482610753369866 0 0.0023627630392694591 0.015955227678798218 0 0.0020690999510290789 0.015821780817499159 0 0.0023735120743019239 0.015575341202865873 0 0.0023735120743019239 0.015575341202865873 0 0.0027592470740887848 0.015901929098121118 0 0.0025074262864231817 0.014707157351218272 0 0.0011717289548068852 0.011783845378042212 0 0.0020605896940837139 0.012961775280765711 0 0.0015864540078488975 0.010993714645619277 0 0.0015228533101114482 0.011197624141016311 0 0.0014290337536220421 0.01088892563891382 0 0.0020690999510290789 0.015821780817499159 0 0.0023735120743019239 0.015575341202865873 0 0.0021049791947128035 0.015482610753369866 0 0.0025883043654026166 0.01597521271369693 0 0.0023627630392694591 0.015955227678798218 0 0.0023735120743019239 0.015575341202865873 0 0.0025883043654026166 0.01597521271369693 0 0.0023735120743019239 0.015575341202865873 0 0.0027592470740887848 0.015901929098121118 0 0.0023735120743019239 0.015575341202865873 0 0.0021049791947128035 0.015482610753369866 0 0.0022469506298650162 0.01512475922484572 0 0.0021049791947128035 0.015482610753369866 0 0.0022469506298650162 0.01512475922484572 0 0.0020014147216776269 0.015182938682716496 0 0.0023735120743019239 0.015575341202865873 0 0.0022469506298650162 0.01512475922484572 0 0.0025074262864231817 0.014707157351218272 0 0.0022469506298650162 0.01512475922484572 0 0.0023768697169321484 0.014714988424324761 0 0.0025074262864231817 0.014707157351218272 0 0.0022469506298650162 0.01512475922484572 0 0.0023768697169321484 0.014714988424324761 0 0.0020135839041712051 0.014881822127057506 0 0.0023768697169321484 0.014714988424324761 0 0.0026459658617873174 0.014697384042394993 0 0.0015708899026494858 0.014005320126671843 0 0.002148156135062263 0.013129364537050462 0 0.0020605896940837139 0.012961775280765711 0 0.0020135839041712051 0.014881822127057506 0 0.0016701025170985642 0.014971605481029618 0 0.0015708899026494858 0.014005320126671843 0 0.0023768697169321484 0.014714988424324761 0 0.0020135839041712051 0.014881822127057506 0 0.0015708899026494858 0.014005320126671843 0 0.0020135839041712051 0.014881822127057506 0 0.0016701025170985642 0.014971605481029618 0 0.0020014147216776269 0.015182938682716496 0 0.0022469506298650162 0.01512475922484572 0 0.0020135839041712051 0.014881822127057506 0 0.0020014147216776269 0.015182938682716496 0 0.0014945913902919131 0.015345851091788463 0 0.0016701025170985642 0.014971605481029618 0 0.0012014331933963734 0.014779785347141812 0 0.0016701025170985642 0.014971605481029618 0 0.0012014331933963734 0.014779785347141812 0 0.0015708899026494858 0.014005320126671843 0 0.0012014331933963734 0.014779785347141812 0 0.00085152396658099534 0.014639452636878467 0 0.00077698891779662163 0.015139346973571798 0 0.0012014331933963734 0.014779785347141812 0 0.00077698891779662163 0.015139346973571798 0 0.0011420486191949064 0.015495008986166669 0 0.0014945913902919131 0.015345851091788463 0 0.0012014331933963734 0.014779785347141812 0 0.0011420486191949064 0.015495008986166669 0 0.00077698891779662163 0.015139346973571798 0 0.000422236066653036 0.015538135564557016 0 0.00056069767590325142 0.014782153530732268 0 0.00077698891779662163 0.015139346973571798 0 0.00071667744024949179 0.015655872312723917 0 0.000422236066653036 0.015538135564557016 0 0.00085152396658099534 0.014639452636878467 0 0.00077698891779662163 0.015139346973571798 0 0.00056069767590325142 0.014782153530732268 0 0.00071667744024949179 0.015655872312723917 0 0.0005406965302736862 0.01601421284051931 0 0.000422236066653036 0.015538135564557016 0 0.00071667744024949179 0.015655872312723917 0 0.0005406965302736862 0.01601421284051931 0 0.00090602423049835116 0.01598521458490805 0 0.0015425391142266298 0.015833422719678227 0 0.0011420486191949064 0.015495008986166669 0 0.00090602423049835116 0.01598521458490805 0 0.00071667744024949179 0.015655872312723917 0 0.0011420486191949064 0.015495008986166669 0 0.00090602423049835116 0.01598521458490805 0 0.00077698891779662163 0.015139346973571798 0 0.00071667744024949179 0.015655872312723917 0 0.0011420486191949064 0.015495008986166669 0 0.00077023557325128311 0.015288209055769483 0 0.00093453831201543481 0.017306416346095803 0 0.0015425391142266298 0.015833422719678227 0 0.00090602423049835116 0.01598521458490805 0 0.0012637627380537768 0.016322100051985509 0 0.00090602423049835116 0.01598521458490805 0 0.0012637627380537768 0.016322100051985509 0 0.00052965983601736832 0.016397200027093151 0 0.0005406965302736862 0.01601421284051931 0 0.00090602423049835116 0.01598521458490805 0 0.00052965983601736832 0.016397200027093151 0 0.0015562292726608567 0.017780898271753807 0 0.0010796873999206658 0.017843423893330823 0 0.0011988894289601043 0.018122500071970415 0 0.0010796873999206658 0.017843423893330823 0 0.0011988894289601043 0.018122500071970415 0 0.00082071021984469323 0.018137103538084259 0 -0.0012962725203326851 0.010362290474788718 0 -0.0010722987771931032 0.010106298932041211 0 -0.0012711965782067878 0.010191350213110328 0 0.00077023557325128311 0.015288209055769483 0 2.6663478217176184e-05 0.013971054213120577 0 -0.0010722987771931032 0.010106298932041211 0 -0.0012825350606768531 0.010063055394021926 0 -0.0012711965782067878 0.010191350213110328 0 -0.0014416535480712878 0.010235924312955606 0 -0.0012825350606768531 0.010063055394021926 0 -0.0012711965782067878 0.010191350213110328 0 -0.0014416535480712878 0.010235924312955606 0 -0.0012962725203326851 0.010362290474788718 0 -0.0012711965782067878 0.010191350213110328 0 0.00082071021984469323 0.018137103538084259 0 0.00060171587782603924 0.01790562626500666 0 0.00039053074280122563 0.018353164679979321 0 0.00083282880419878772 0.018462433691047102 0 0.0011988894289601043 0.018122500071970415 0 0.00082071021984469323 0.018137103538084259 0 0.00093453831201543481 0.017306416346095803 0 0.00031962575066844242 0.017280282531242318 0 0.00052965983601736832 0.016397200027093151 0 0.00011797446942759739 0.016673094865204421 0 0.00026660717037863967 0.016155535030087008 0 0.0010796873999206658 0.017843423893330823 0 0.00082071021984469323 0.018137103538084259 0 0.00060171587782603924 0.01790562626500666 0 0.0005406965302736862 0.01601421284051931 0 0.00052965983601736832 0.016397200027093151 0 0.00026660717037863967 0.016155535030087008 0 0.00026660717037863967 0.016155535030087008 0 0.00010790621956382023 0.015919190381938803 0 -7.0131620105034619e-05 0.016576422136639977 0 0.00011797446942759739 0.016673094865204421 0 0.00026660717037863967 0.016155535030087008 0 -7.0131620105034619e-05 0.016576422136639977 0 0.00026660717037863967 0.016155535030087008 0 0.000422236066653036 0.015538135564557016 0 0.00010790621956382023 0.015919190381938803 0 0.0005406965302736862 0.01601421284051931 0 0.00026660717037863967 0.016155535030087008 0 0.000422236066653036 0.015538135564557016 0 0.000422236066653036 0.015538135564557016 0 0.00010790621956382023 0.015919190381938803 0 0.00016721919276079786 0.015064387454626856 0 0.00010790621956382023 0.015919190381938803 0 0.00016721919276079786 0.015064387454626856 0 -0.00011232955827305115 0.016113283686565338 0 0.00016721919276079786 0.015064387454626856 0 0.00021191439827613232 0.014239868831635272 0 -5.3177786471840509e-05 0.014964827260977443 0 0.00016721919276079786 0.015064387454626856 0 -0.00015059272534693899 0.015733370182791469 0 -5.3177786471840509e-05 0.014964827260977443 0 0.00016721919276079786 0.015064387454626856 0 0.00046044058832957592 0.014169714481791921 0 0.00021191439827613232 0.014239868831635272 0 0.00016721919276079786 0.015064387454626856 0 0.00056069767590325142 0.014782153530732268 0 0.00046044058832957592 0.014169714481791921 0 0.000422236066653036 0.015538135564557016 0 0.00016721919276079786 0.015064387454626856 0 0.00056069767590325142 0.014782153530732268 0 0.00056069767590325142 0.014782153530732268 0 0.00094218842568375154 0.013846643782581549 0 0.00046044058832957592 0.014169714481791921 0 0.0012014331933963734 0.014779785347141812 0 0.00085152396658099534 0.014639452636878467 0 0.00094218842568375154 0.013846643782581549 0 0.00085152396658099534 0.014639452636878467 0 0.00056069767590325142 0.014782153530732268 0 0.00094218842568375154 0.013846643782581549 0 0.0012014331933963734 0.014779785347141812 0 0.00094218842568375154 0.013846643782581549 0 0.0015708899026494858 0.014005320126671843 0 0.00094218842568375154 0.013846643782581549 0 0.00079508535660078076 0.013228010776042428 0 0.0011940467790690047 0.012660996704486021 0 0.00094218842568375154 0.013846643782581549 0 0.00079508535660078076 0.013228010776042428 0 0.00046044058832957592 0.014169714481791921 0 0.00049814532834745672 0.013190675907918042 0 0.0010300798514485598 0.011985154556400687 0 0.00070312734194475995 0.012011387973403618 0 0.00079508535660078076 0.013228010776042428 0 0.00046044058832957592 0.014169714481791921 0 0.00049814532834745672 0.013190675907918042 0 0.00079508535660078076 0.013228010776042428 0 0.00049814532834745672 0.013190675907918042 0 0.0010300798514485598 0.011985154556400687 0 0.00079508535660078076 0.013228010776042428 0 0.0011940467790690047 0.012660996704486021 0 0.0010300798514485598 0.011985154556400687 0 0.00049814532834745672 0.013190675907918042 0 4.919882287927025e-05 0.013992271442380319 0 0.00014912669341036658 0.012869375303334788 0 4.919882287927025e-05 0.013992271442380319 0 0.00021191439827613232 0.014239868831635272 0 -5.3177786471840509e-05 0.014964827260977443 0 0.00049814532834745672 0.013190675907918042 0 4.919882287927025e-05 0.013992271442380319 0 0.00021191439827613232 0.014239868831635272 0 0.00046044058832957592 0.014169714481791921 0 0.00049814532834745672 0.013190675907918042 0 0.00021191439827613232 0.014239868831635272 0 0.0016330268024365303 0.010530493952875556 0 0.0015285687808415133 0.010599016059489057 0 0.0013614927778843331 0.011111499991104418 0 0.0016330268024365303 0.010530493952875556 0 0.0013614927778843331 0.011111499991104418 0 0.0014862017552732274 0.010909217887565768 0 0.0015285687808415133 0.010599016059489057 0 0.0013614927778843331 0.011111499991104418 0 0.0013666685895877997 0.01092345214709897 0 0.0013614927778843331 0.011111499991104418 0 0.0014862017552732274 0.010909217887565768 0 0.0013527187737030579 0.011193056988078069 0 0.0015678398878809254 0.011255509897009679 0 0.0012446546411993195 0.011350993255687699 0 0.0013527187737030579 0.011193056988078069 0 0.0015678398878809254 0.011255509897009679 0 0.0014862017552732274 0.010909217887565768 0 0.0013527187737030579 0.011193056988078069 0 0.0013614927778843331 0.011111499991104418 0 0.0013527187737030579 0.011193056988078069 0 0.001289355484702827 0.01158117958032635 0 0.0012446546411993195 0.011350993255687699 0 0.0013527187737030579 0.011193056988078069 0 0.001289355484702827 0.01158117958032635 0 0.0013614927778843331 0.011111499991104418 0 0.001289355484702827 0.01158117958032635 0 0.0013483756939558483 0.011659713954647414 0 0.0013614927778843331 0.011111499991104418 0 0.0013483756939558483 0.011659713954647414 0 0.0013666685895877997 0.01092345214709897 0 0.0013483756939558483 0.011659713954647414 0 0.0016737364957128079 0.012533758824212041 0 0.0013314525073849811 0.012021041814356852 0 0.001289355484702827 0.01158117958032635 0 0.0013483756939558483 0.011659713954647414 0 0.0016737364957128079 0.012533758824212041 0 0.0026459658617873174 0.014697384042394993 0 0.0015708899026494858 0.014005320126671843 0 0.0016737364957128079 0.012533758824212041 0 0.0015933199810243106 0.011326380887040506 0 0.001289355484702827 0.01158117958032635 0 0.0016737364957128079 0.012533758824212041 0 0.0020605896940837139 0.012961775280765711 0 0.0017535501582112017 0.012572635140400645 0 0.00094218842568375154 0.013846643782581549 0 0.0015708899026494858 0.014005320126671843 0 0.0016737364957128079 0.012533758824212041 0 0.00094218842568375154 0.013846643782581549 0 0.0011940467790690047 0.012660996704486021 0 0.0016737364957128079 0.012533758824212041 0 0.0011940467790690047 0.012660996704486021 0 0.0016737364957128079 0.012533758824212041 0 0.0013314525073849811 0.012021041814356852 0 0.0011940467790690047 0.012660996704486021 0 0.0010300798514485598 0.011985154556400687 0 0.0013314525073849811 0.012021041814356852 0 0.0010300798514485598 0.011985154556400687 0 0.0012143774237486353 0.011226085427002866 0 0.000940119914178972 0.010848474463602384 0 0.0010300798514485598 0.011985154556400687 0 0.0013314525073849811 0.012021041814356852 0 0.0012143774237486353 0.011226085427002866 0 0.0013483756939558483 0.011659713954647414 0 0.0013314525073849811 0.012021041814356852 0 0.0012143774237486353 0.011226085427002866 0 0.0013483756939558483 0.011659713954647414 0 0.0012143774237486353 0.011226085427002866 0 0.0013666685895877997 0.01092345214709897 0 0.0012143774237486353 0.011226085427002866 0 0.0012224275731477351 0.010299875937378264 0 0.0013666685895877997 0.01092345214709897 0 0.0012143774237486353 0.011226085427002866 0 0.0012224275731477351 0.010299875937378264 0 0.000940119914178972 0.010848474463602384 0 0.0015431909160739119 0.010272106636765812 0 0.0012224275731477351 0.010299875937378264 0 0.0013666685895877997 0.01092345214709897 0 0.0015431909160739119 0.010272106636765812 0 0.0015285687808415133 0.010599016059489057 0 0.0013666685895877997 0.01092345214709897 0 0.00096766256172943282 0.0093208883389240913 0 0.00067903340384982598 0.0098820755971448584 0 0.00038232465925967075 0.0085063651368017593 0 0.0014420774486425863 0.0095060232775959052 0 0.0012224275731477351 0.010299875937378264 0 0.00096766256172943282 0.0093208883389240913 0 0.0012224275731477351 0.010299875937378264 0 0.00096766256172943282 0.0093208883389240913 0 0.00067903340384982598 0.0098820755971448584 0 0.0012224275731477351 0.010299875937378264 0 0.00067903340384982598 0.0098820755971448584 0 0.000940119914178972 0.010848474463602384 0 0.00073050287822065913 0.010028995913244574 0 0.00050867053862724168 0.010781045113579512 0 0.00067903340384982598 0.0098820755971448584 0 5.874833303144592e-05 0.010463459264076443 0 9.7966490199732494e-05 0.0091260148760795926 0 0.00067903340384982598 0.0098820755971448584 0 0.000940119914178972 0.010848474463602384 0 0.00091846276671216727 0.011147177652683769 0 0.0010300798514485598 0.011985154556400687 0 0.00091846276671216727 0.011147177652683769 0 0.00070312734194475995 0.012011387973403618 0 0.0010300798514485598 0.011985154556400687 0 0.000940119914178972 0.010848474463602384 0 0.00091846276671216727 0.011147177652683769 0 5.874833303144592e-05 0.010463459264076443 0 9.7966490199732494e-05 0.0091260148760795926 0 -9.2771841158475487e-06 0.010230681064028111 0 -3.517932593477512e-08 0.0086744448344654723 0 9.7966490199732494e-05 0.0091260148760795926 0 -9.2771841158475487e-06 0.010230681064028111 0 -3.517932593477512e-08 0.0086744448344654723 0 9.7966490199732494e-05 0.0091260148760795926 0 1.2430633853454922e-07 0.0072562005801973936 0 0.00067903340384982598 0.0098820755971448584 0 9.7966490199732494e-05 0.0091260148760795926 0 0.00038232465925967075 0.0085063651368017593 0 9.7966490199732494e-05 0.0091260148760795926 0 0.00038232465925967075 0.0085063651368017593 0 1.2430633853454922e-07 0.0072562005801973936 0 0.00038232465925967075 0.0085063651368017593 0 1.2430633853454922e-07 0.0072562005801973936 0 0.00021144031738603604 0.0073315834082737811 0 1.7046114450643752e-06 0.0058379858365528153 0 1.2430633853454922e-07 0.0072562005801973936 0 0.00021144031738603604 0.0073315834082737811 0 0.00030694944647208569 0.0066532116136301632 0 0.00021144031738603604 0.0073315834082737811 0 0.00068160834826315052 0.0082376947919520129 0 0.00096766256172943282 0.0093208883389240913 0 0.00038232465925967075 0.0085063651368017593 0 0.00068160834826315052 0.0082376947919520129 0 0.00038232465925967075 0.0085063651368017593 0 0.00021144031738603604 0.0073315834082737811 0 0.00068160834826315052 0.0082376947919520129 0 0.00014912669341036658 0.012869375303334788 0 3.2128653415156422e-05 0.011517260094257721 0 -3.4765120382788234e-05 0.012837374320952761 0 0.00014912669341036658 0.012869375303334788 0 -3.4765120382788234e-05 0.012837374320952761 0 -5.3912151433912158e-05 0.013859911250610254 0 4.919882287927025e-05 0.013992271442380319 0 0.00014912669341036658 0.012869375303334788 0 -5.3912151433912158e-05 0.013859911250610254 0 0.00011259453515606006 0.012683902278431356 0 0.00035586141309526265 0.011794622240028602 0 0.00049814532834745672 0.013190675907918042 0 0.00014912669341036658 0.012869375303334788 0 0.00070312734194475995 0.012011387973403618 0 0.00050867053862724168 0.010781045113579512 0 0.00035586141309526265 0.011794622240028602 0 5.874833303144592e-05 0.010463459264076443 0 6.3662777873163683e-05 0.01149075710824869 0 -9.2771841158475487e-06 0.010230681064028111 0 6.3662777873163683e-05 0.01149075710824869 0 3.2128653415156422e-05 0.011517260094257721 0 -9.2771841158475487e-06 0.010230681064028111 0 0.00014912669341036658 0.012869375303334788 0 6.3662777873163683e-05 0.01149075710824869 0 3.2128653415156422e-05 0.011517260094257721 0 3.2128653415156422e-05 0.011517260094257721 0 -9.2771841158475487e-06 0.010230681064028111 0 -4.6446374911800472e-08 0.010092929833736478 0 -3.517932593477512e-08 0.0086744448344654723 0 -9.2771841158475487e-06 0.010230681064028111 0 -4.6446374911800472e-08 0.010092929833736478 0 3.2128653415156422e-05 0.011517260094257721 0 -4.6446374911800472e-08 0.010092929833736478 0 -2.2996493445666797e-08 0.011511344787902576 0 3.2128653415156422e-05 0.011517260094257721 0 -2.2996493445666797e-08 0.011511344787902576 0 -3.4765120382788234e-05 0.012837374320952761 0 -2.2996493445666797e-08 0.011511344787902576 0 -3.4765120382788234e-05 0.012837374320952761 0 -1.2613248922583898e-07 0.012929725487918082 0 -1.2613248922583898e-07 0.012929725487918082 0 -8.8697728200887266e-05 0.013901285767882887 0 -2.1874451122899402e-07 0.014348387552636932 0 -3.4765120382788234e-05 0.012837374320952761 0 -8.8697728200887266e-05 0.013901285767882887 0 -0.00013879143404954544 0.014229428255250934 0 -3.4765120382788234e-05 0.012837374320952761 0 -1.2613248922583898e-07 0.012929725487918082 0 -8.8697728200887266e-05 0.013901285767882887 0 -3.4765120382788234e-05 0.012837374320952761 0 -0.00013879143404954544 0.014229428255250934 0 -5.3912151433912158e-05 0.013859911250610254 0 -0.00013879143404954544 0.014229428255250934 0 -0.00022315049932829359 0.015264481652961372 0 -0.00016571013396660513 0.014871211350906823 0 -0.00013879143404954544 0.014229428255250934 0 -5.3912151433912158e-05 0.013859911250610254 0 -0.00016571013396660513 0.014871211350906823 0 -0.00022315049932829359 0.015264481652961372 0 -0.00018945069801651573 0.015235691106684901 0 -0.00024405064357306132 0.016079650406070605 0 -0.00013879143404954544 0.014229428255250934 0 -0.00022315049932829359 0.015264481652961372 0 -0.00018945069801651573 0.015235691106684901 0 -8.8697728200887266e-05 0.013901285767882887 0 -0.00018945069801651573 0.015235691106684901 0 -2.1874451122899402e-07 0.014348387552636932 0 -8.8697728200887266e-05 0.013901285767882887 0 -0.00013879143404954544 0.014229428255250934 0 -0.00018945069801651573 0.015235691106684901 0 -0.00018945069801651573 0.015235691106684901 0 -2.1874451122899402e-07 0.014348387552636932 0 -2.2387506590223282e-07 0.01576641635845312 0 -2.2387506590223282e-07 0.01576641635845312 0 -9.0743838351750038e-07 0.01718533313569964 0 -0.00018786998430963015 0.016321438590069345 0 -9.0743838351750038e-07 0.01718533313569964 0 -0.00018786998430963015 0.016321438590069345 0 -0.00021481446530907647 0.017130562404926459 0 -0.00018945069801651573 0.015235691106684901 0 -0.00018786998430963015 0.016321438590069345 0 -0.00026184035489853585 0.016379372518028196 0 -0.00018945069801651573 0.015235691106684901 0 -2.2387506590223282e-07 0.01576641635845312 0 -0.00018786998430963015 0.016321438590069345 0 2.3801755088254999e-06 0.018607514365176284 0 -7.9046748750481431e-05 0.020201912637384425 0 -2.4346552265188917e-06 0.01876369468840253 0 1.0647460826420836e-06 0.018601129537126733 0 -0.00021481446530907647 0.017130562404926459 0 -7.6101388735039271e-05 0.016870257622244329 0 -2.9321272210508787e-09 0.018603740425525567 0 -0.00012691704248477833 0.018560911061397217 0 -9.0743838351750038e-07 0.01718533313569964 0 1.0647460826420836e-06 0.018601129537126733 0 -0.00021481446530907647 0.017130562404926459 0 -0.00018786998430963015 0.016321438590069345 0 -0.00021481446530907647 0.017130562404926459 0 -0.00034562883644905662 0.016729678337178668 0 -0.00021481446530907647 0.017130562404926459 0 -7.6101388735039271e-05 0.016870257622244329 0 -0.00034562883644905662 0.016729678337178668 0 -7.6101388735039271e-05 0.016870257622244329 0 -0.00034562883644905662 0.016729678337178668 0 -0.00087163552566913772 0.017101789713658219 0 -0.00012691704248477833 0.018560911061397217 0 -0.00060706378356212981 0.018924152008213291 0 -0.00034562883644905662 0.016729678337178668 0 -0.00038622900053611253 0.017245039634423524 0 -0.00026184035489853585 0.016379372518028196 0 -0.00034562883644905662 0.016729678337178668 0 -0.00038622900053611253 0.017245039634423524 0 -0.00087163552566913772 0.017101789713658219 0 -0.00018945069801651573 0.015235691106684901 0 -0.00026184035489853585 0.016379372518028196 0 -0.00024405064357306132 0.016079650406070605 0 -0.00018786998430963015 0.016321438590069345 0 -0.00034562883644905662 0.016729678337178668 0 -0.00026184035489853585 0.016379372518028196 0 -0.00038622900053611253 0.017245039634423524 0 -0.00026184035489853585 0.016379372518028196 0 -0.00033883972607975384 0.01738792073773588 0 -0.00026184035489853585 0.016379372518028196 0 -0.00024405064357306132 0.016079650406070605 0 -0.00033883972607975384 0.01738792073773588 0 -0.00024405064357306132 0.016079650406070605 0 -0.00031387542194101969 0.016635936611690522 0 -0.00033883972607975384 0.01738792073773588 0 -0.00033883972607975384 0.01738792073773588 0 -0.00038279770135233725 0.017024760675336554 0 -0.00049069841861280612 0.018062657180523443 0 -0.00033883972607975384 0.01738792073773588 0 -0.00061172406099398971 0.018803248042315139 0 -0.00049069841861280612 0.018062657180523443 0 -0.00031387542194101969 0.016635936611690522 0 -0.00033883972607975384 0.01738792073773588 0 -0.00038279770135233725 0.017024760675336554 0 -0.00038622900053611253 0.017245039634423524 0 -0.00033883972607975384 0.01738792073773588 0 -0.00079122320177944967 0.019232745531248634 0 -0.00033883972607975384 0.01738792073773588 0 -0.00079122320177944967 0.019232745531248634 0 -0.00061172406099398971 0.018803248042315139 0 -0.00038622900053611253 0.017245039634423524 0 -0.00087163552566913772 0.017101789713658219 0 -0.00079122320177944967 0.019232745531248634 0 -0.00060706378356212981 0.018924152008213291 0 -0.00077540778376196298 0.019187844687945384 0 -0.00079122320177944967 0.019232745531248634 0 -0.00061172406099398971 0.018803248042315139 0 -0.00051564688690017215 0.019701545544577179 0 -0.00061172406099398971 0.018803248042315139 0 -0.00051642454708700951 0.019341374703602435 0 -0.00051564688690017215 0.019701545544577179 0 -0.00061172406099398971 0.018803248042315139 0 -0.00055007161031692272 0.018741909712796413 0 -0.00049069841861280612 0.018062657180523443 0 -0.00055007161031692272 0.018741909712796413 0 -0.00051642454708700951 0.019341374703602435 0 -0.00053384482620918463 0.01871866815846519 0 -0.00061172406099398971 0.018803248042315139 0 -0.00055007161031692272 0.018741909712796413 0 -0.00051642454708700951 0.019341374703602435 0 -0.00051642454708700951 0.019341374703602435 0 -0.00051564688690017215 0.019701545544577179 0 -0.00039201918814943517 0.019933056441146613 0 -0.00038279770135233725 0.017024760675336554 0 -0.00049069841861280612 0.018062657180523443 0 -0.00050233819487928389 0.017753149680455552 0 -0.00049069841861280612 0.018062657180523443 0 -0.00050233819487928389 0.017753149680455552 0 -0.00053384482620918463 0.01871866815846519 0 -0.00055007161031692272 0.018741909712796413 0 -0.00049069841861280612 0.018062657180523443 0 -0.00053384482620918463 0.01871866815846519 0 -0.00038279770135233725 0.017024760675336554 0 -0.00039811066198482212 0.016917835954896744 0 -0.00027370082255070548 0.015923698206317727 0 -0.00038279770135233725 0.017024760675336554 0 -0.00039811066198482212 0.016917835954896744 0 -0.00050233819487928389 0.017753149680455552 0 -0.00039811066198482212 0.016917835954896744 0 -0.00040938093727445709 0.016980999747942243 0 -0.00050233819487928389 0.017753149680455552 0 -0.00039811066198482212 0.016917835954896744 0 -0.00029990681308442928 0.016383653755270681 0 -0.00027370082255070548 0.015923698206317727 0 -0.00039811066198482212 0.016917835954896744 0 -0.00029990681308442928 0.016383653755270681 0 -0.00040938093727445709 0.016980999747942243 0 -0.00029990681308442928 0.016383653755270681 0 -0.00015059272534693899 0.015733370182791469 0 -0.00011232955827305115 0.016113283686565338 0 0.00016721919276079786 0.015064387454626856 0 -0.00015059272534693899 0.015733370182791469 0 -0.00011232955827305115 0.016113283686565338 0 -0.00015059272534693899 0.015733370182791469 0 -5.3177786471840509e-05 0.014964827260977443 0 -0.00027370082255070548 0.015923698206317727 0 -0.00029990681308442928 0.016383653755270681 0 -0.00015059272534693899 0.015733370182791469 0 -0.00027370082255070548 0.015923698206317727 0 -5.3177786471840509e-05 0.014964827260977443 0 -0.00027370082255070548 0.015923698206317727 0 -0.00016571013396660513 0.014871211350906823 0 4.919882287927025e-05 0.013992271442380319 0 -5.3177786471840509e-05 0.014964827260977443 0 -0.00016571013396660513 0.014871211350906823 0 4.919882287927025e-05 0.013992271442380319 0 -5.3912151433912158e-05 0.013859911250610254 0 -0.00016571013396660513 0.014871211350906823 0 -0.00038279770135233725 0.017024760675336554 0 -0.00027370082255070548 0.015923698206317727 0 -0.00028415980948761618 0.016047606792255434 0 -0.00022315049932829359 0.015264481652961372 0 -0.00016571013396660513 0.014871211350906823 0 -0.00028415980948761618 0.016047606792255434 0 -0.00024405064357306132 0.016079650406070605 0 -0.00031387542194101969 0.016635936611690522 0 -0.00028415980948761618 0.016047606792255434 0 -0.00022315049932829359 0.015264481652961372 0 -0.00024405064357306132 0.016079650406070605 0 -0.00028415980948761618 0.016047606792255434 0 -0.00031387542194101969 0.016635936611690522 0 -0.00038279770135233725 0.017024760675336554 0 -0.00028415980948761618 0.016047606792255434 0 -0.00027370082255070548 0.015923698206317727 0 -0.00016571013396660513 0.014871211350906823 0 -0.00028415980948761618 0.016047606792255434 0 -2.0348982898709187e-07 0.024997229884370437 0 -6.4140328291395309e-05 0.023779507552864183 0 -0.00013147766555639606 0.024275200979358168 0 -2.0348982898709187e-07 0.024997229884370437 0 -5.868412235073883e-05 0.023465466681235888 0 -1.5832296199355265e-07 0.022291103943910529 0 -2.0348982898709187e-07 0.024997229884370437 0 -5.868412235073883e-05 0.023465466681235888 0 -6.4140328291395309e-05 0.023779507552864183 0 -5.868412235073883e-05 0.023465466681235888 0 -1.5832296199355265e-07 0.022291103943910529 0 -1.1859267219115665e-05 0.022723324562679885 0 -5.868412235073883e-05 0.023465466681235888 0 -1.1859267219115665e-05 0.022723324562679885 0 -6.4140328291395309e-05 0.023779507552864183 0 -6.4140328291395309e-05 0.023779507552864183 0 0.00012070840173924515 0.022689075125926321 0 4.0469653499733197e-05 0.023344299631942105 0 -1.1859267219115665e-05 0.022723324562679885 0 -6.4140328291395309e-05 0.023779507552864183 0 0.00012070840173924515 0.022689075125926321 0 0.00012070840173924515 0.022689075125926321 0 -2.4357136619444904e-05 0.022297853127156316 0 -0.00016048531680834134 0.02166805554458948 0 -0.0001975489306981779 0.021339534158561196 0 -0.00015415081421712683 0.021587869859343221 0 -2.4357136619444904e-05 0.022297853127156316 0 5.7916526519880998e-05 0.022044805886809005 0 -0.00016048531680834134 0.02166805554458948 0 -2.4357136619444904e-05 0.022297853127156316 0 -8.66686034816163e-05 0.021685721595370216 0 5.7916526519880998e-05 0.022044805886809005 0 -1.1859267219115665e-05 0.022723324562679885 0 0.00012070840173924515 0.022689075125926321 0 -2.4357136619444904e-05 0.022297853127156316 0 -1.1859267219115665e-05 0.022723324562679885 0 -2.4357136619444904e-05 0.022297853127156316 0 -8.66686034816163e-05 0.021685721595370216 0 -1.5832296199355265e-07 0.022291103943910529 0 -8.66686034816163e-05 0.021685721595370216 0 -5.0527969685741883e-07 0.020271071296077046 0 -1.5832296199355265e-07 0.022291103943910529 0 -1.1859267219115665e-05 0.022723324562679885 0 -8.66686034816163e-05 0.021685721595370216 0 -8.66686034816163e-05 0.021685721595370216 0 0.00035156304970304555 0.020898534544736037 0 5.7916526519880998e-05 0.022044805886809005 0 -8.66686034816163e-05 0.021685721595370216 0 -5.0527969685741883e-07 0.020271071296077046 0 0.00035156304970304555 0.020898534544736037 0 -5.0527969685741883e-07 0.020271071296077046 0 1.7962008336758154e-06 0.018769450473649956 0 0.00035156304970304555 0.020898534544736037 0 7.2602817245700326e-09 0.018767710722573345 0 -0.00013621498666593898 0.020464710413732479 0 -7.9046748750481431e-05 0.020201912637384425 0 -2.4346552265188917e-06 0.01876369468840253 0 -0.00051627010509760216 0.020016848923202143 0 -7.9046748750481431e-05 0.020201912637384425 0 -0.00051627010509760216 0.020016848923202143 0 -0.00049331291897891183 0.02073653113328696 0 -7.9046748750481431e-05 0.020201912637384425 0 -0.00042804737201699244 0.020739101050118346 0 -0.00049331291897891183 0.02073653113328696 0 -0.00013621498666593898 0.020464710413732479 0 -0.0001975489306981779 0.021339534158561196 0 -0.00049331291897891183 0.02073653113328696 0 -0.00031226448451694336 0.020801624816207266 0 -0.00016048531680834134 0.02166805554458948 0 -0.00042804737201699244 0.020739101050118346 0 -0.00049331291897891183 0.02073653113328696 0 -0.00031226448451694336 0.020801624816207266 0 -0.00079122320177944967 0.019232745531248634 0 -0.00031226448451694336 0.020801624816207266 0 -0.00032346201933950233 0.02058436421167311 0 -0.00042804737201699244 0.020739101050118346 0 -0.00079122320177944967 0.019232745531248634 0 -0.00031226448451694336 0.020801624816207266 0 -0.00031226448451694336 0.020801624816207266 0 -0.00032346201933950233 0.02058436421167311 0 -0.00016048531680834134 0.02166805554458948 0 -0.00032346201933950233 0.02058436421167311 0 -0.0003566684531800114 0.020310037285905566 0 -0.00015117002740325138 0.020942476582316863 0 -0.00079122320177944967 0.019232745531248634 0 -0.00051564688690017215 0.019701545544577179 0 -0.0003566684531800114 0.020310037285905566 0 -0.00079122320177944967 0.019232745531248634 0 -0.00032346201933950233 0.02058436421167311 0 -0.0003566684531800114 0.020310037285905566 0 -0.00051564688690017215 0.019701545544577179 0 -0.00039201918814943517 0.019933056441146613 0 -0.00022239272605998391 0.020493199076236136 0 -0.00022239272605998391 0.020493199076236136 0 -0.0003566684531800114 0.020310037285905566 0 -8.0111737320883648e-05 0.020905769982092048 0 -0.00051564688690017215 0.019701545544577179 0 -0.00022239272605998391 0.020493199076236136 0 -0.0003566684531800114 0.020310037285905566 0 -8.0111737320883648e-05 0.020905769982092048 0 7.1862550850711139e-05 0.02130762710745665 0 -0.00015117002740325138 0.020942476582316863 0 -0.0003566684531800114 0.020310037285905566 0 -8.0111737320883648e-05 0.020905769982092048 0 -0.00015117002740325138 0.020942476582316863 0 -8.0111737320883648e-05 0.020905769982092048 0 0.00015470776154325234 0.021428609368204919 0 -2.313084995437399e-05 0.021043034296171555 0 -0.00022239272605998391 0.020493199076236136 0 -8.0111737320883648e-05 0.020905769982092048 0 -2.313084995437399e-05 0.021043034296171555 0 0.00015470776154325234 0.021428609368204919 0 0.00016373449005517828 0.022018335444641778 0 0.00018165763306782378 0.021848392141395875 0 0.00015470776154325234 0.021428609368204919 0 7.1862550850711139e-05 0.02130762710745665 0 0.00027907886679009411 0.021431541830777803 0 -8.0111737320883648e-05 0.020905769982092048 0 0.00015470776154325234 0.021428609368204919 0 7.1862550850711139e-05 0.02130762710745665 0 7.1862550850711139e-05 0.02130762710745665 0 -9.4842608930848329e-05 0.021487629659265293 0 0.00021150935721222619 0.022290257390494533 0 7.1862550850711139e-05 0.02130762710745665 0 0.00021150935721222619 0.022290257390494533 0 0.00027907886679009411 0.021431541830777803 0 -0.00032346201933950233 0.02058436421167311 0 -0.00015117002740325138 0.020942476582316863 0 -9.4842608930848329e-05 0.021487629659265293 0 7.1862550850711139e-05 0.02130762710745665 0 -0.00015117002740325138 0.020942476582316863 0 -9.4842608930848329e-05 0.021487629659265293 0 -0.00032346201933950233 0.02058436421167311 0 -0.00016048531680834134 0.02166805554458948 0 -9.4842608930848329e-05 0.021487629659265293 0 -0.00016048531680834134 0.02166805554458948 0 -9.4842608930848329e-05 0.021487629659265293 0 0.00021150935721222619 0.022290257390494533 0 0.00012070840173924515 0.022689075125926321 0 -0.00016048531680834134 0.02166805554458948 0 0.00021150935721222619 0.022290257390494533 0 -2.0348982898709187e-07 0.024997229884370437 0 -3.2576297215405285e-07 0.024996562850109864 0 -0.00013147766555639606 0.024275200979358168 0 0.00012070840173924515 0.022689075125926321 0 0.00021150935721222619 0.022290257390494533 0 4.0469653499733197e-05 0.023344299631942105 0 -6.4140328291395309e-05 0.023779507552864183 0 4.0469653499733197e-05 0.023344299631942105 0 -0.00013147766555639606 0.024275200979358168 0 4.0469653499733197e-05 0.023344299631942105 0 0.0001501226736126675 0.024034377142515505 0 -0.00013147766555639606 0.024275200979358168 0 0.00019061084641656739 0.022402639066993961 0 0.00016749297841936076 0.022753317497688882 0 0.00021150935721222619 0.022290257390494533 0 4.0469653499733197e-05 0.023344299631942105 0 0.0001501226736126675 0.024034377142515505 0 0.00015470776154325234 0.021428609368204919 0 0.00027907886679009411 0.021431541830777803 0 0.00016373449005517828 0.022018335444641778 0 0.00016373449005517828 0.022018335444641778 0 -0.00010703053556862708 0.022177336661852939 0 0.00012362915937440115 0.022796384630665197 0 0.00027907886679009411 0.021431541830777803 0 0.00016373449005517828 0.022018335444641778 0 -0.00010703053556862708 0.022177336661852939 0 0.00016749297841936076 0.022753317497688882 0 -6.1697845999099282e-05 0.023378246842487529 0 0.0001501226736126675 0.024034377142515505 0 -0.00013396024720195885 0.024578647129049117 0 -0.00013147766555639606 0.024275200979358168 0 -0.00013396024720195885 0.024578647129049117 0 -3.2576297215405285e-07 0.024996562850109864 0 -0.00015561867761717496 0.024222641545012243 0 -0.00013396024720195885 0.024578647129049117 0 -3.2576297215405285e-07 0.024996562850109864 0 -0.00013147766555639606 0.024275200979358168 0 -6.1697845999099282e-05 0.023378246842487529 0 -0.0001580996740298705 0.024069033952355351 0 -3.2576297215405285e-07 0.024996562850109864 0 -0.00015561867761717496 0.024222641545012243 0 -3.9071867806798542e-07 0.024998243288398656 0 -6.3808916592445278e-05 0.024091599062246036 0 -0.00015561867761717496 0.024222641545012243 0 -3.9071867806798542e-07 0.024998243288398656 0 -6.3808916592445278e-05 0.024091599062246036 0 8.4737959472686535e-05 0.024175436077859987 0 -3.9071867806798542e-07 0.024998243288398656 0 -6.3808916592445278e-05 0.024091599062246036 0 -0.00015561867761717496 0.024222641545012243 0 0.0001229208637611493 0.023220458299588662 0 -0.00015561867761717496 0.024222641545012243 0 0.00012362915937440115 0.022796384630665197 0 0.0001229208637611493 0.023220458299588662 0 -0.00010703053556862708 0.022177336661852939 0 -0.00015561867761717496 0.024222641545012243 0 0.00012362915937440115 0.022796384630665197 0 0.00016373449005517828 0.022018335444641778 0 0.00012362915937440115 0.022796384630665197 0 0.00018165763306782378 0.021848392141395875 0 0.00012362915937440115 0.022796384630665197 0 0.00025102955267609402 0.02224312859315463 0 0.00018165763306782378 0.021848392141395875 0 0.00012362915937440115 0.022796384630665197 0 0.0001229208637611493 0.023220458299588662 0 0.00025102955267609402 0.02224312859315463 0 0.0001229208637611493 0.023220458299588662 0 0.00048641588546380815 0.022659286313323774 0 0.00025102955267609402 0.02224312859315463 0 0.0001229208637611493 0.023220458299588662 0 0.00048641588546380815 0.022659286313323774 0 8.4737959472686535e-05 0.024175436077859987 0 -6.3808916592445278e-05 0.024091599062246036 0 0.0001229208637611493 0.023220458299588662 0 8.4737959472686535e-05 0.024175436077859987 0 0.00048641588546380815 0.022659286313323774 0 0.00086903448850801797 0.024116765976167805 0 8.4737959472686535e-05 0.024175436077859987 0 0.00052983629343787871 0.022633195920760549 0 0.00064490489422761401 0.022637353151896706 0 0.0001031662054475582 0.021910934969175577 0 -0.00014670049212220276 0.021368035882934767 0 0.00049738506077365047 0.021140405112826732 0 0.00048641588546380815 0.022659286313323774 0 0.0001031662054475582 0.021910934969175577 0 0.00049738506077365047 0.021140405112826732 0 0.0001031662054475582 0.021910934969175577 0 -0.00014670049212220276 0.021368035882934767 0 -3.5357856702561966e-05 0.021356598959263454 0 0.00048641588546380815 0.022659286313323774 0 0.0001031662054475582 0.021910934969175577 0 0.00025102955267609402 0.02224312859315463 0 0.0001031662054475582 0.021910934969175577 0 -3.5357856702561966e-05 0.021356598959263454 0 0.00025102955267609402 0.02224312859315463 0 -3.5357856702561966e-05 0.021356598959263454 0 0.00025102955267609402 0.02224312859315463 0 6.5018004181419974e-05 0.021494244784848082 0 0.00025102955267609402 0.02224312859315463 0 0.00018165763306782378 0.021848392141395875 0 6.5018004181419974e-05 0.021494244784848082 0 0.00015470776154325234 0.021428609368204919 0 0.00018165763306782378 0.021848392141395875 0 -2.313084995437399e-05 0.021043034296171555 0 0.00018165763306782378 0.021848392141395875 0 -2.313084995437399e-05 0.021043034296171555 0 6.5018004181419974e-05 0.021494244784848082 0 -2.313084995437399e-05 0.021043034296171555 0 6.5018004181419974e-05 0.021494244784848082 0 -8.219753330147694e-05 0.020946958785482101 0 -3.5357856702561966e-05 0.021356598959263454 0 6.5018004181419974e-05 0.021494244784848082 0 -8.219753330147694e-05 0.020946958785482101 0 -8.219753330147694e-05 0.020946958785482101 0 -0.00024424524900023149 0.020393624295424961 0 -0.00013883089054157383 0.02058575335896462 0 -0.00022239272605998391 0.020493199076236136 0 -2.313084995437399e-05 0.021043034296171555 0 -0.00024424524900023149 0.020393624295424961 0 -2.313084995437399e-05 0.021043034296171555 0 -8.219753330147694e-05 0.020946958785482101 0 -0.00024424524900023149 0.020393624295424961 0 -0.00039201918814943517 0.019933056441146613 0 -0.00024424524900023149 0.020393624295424961 0 -0.00047202260747884371 0.019577756576004787 0 -0.00039201918814943517 0.019933056441146613 0 -0.00022239272605998391 0.020493199076236136 0 -0.00024424524900023149 0.020393624295424961 0 -0.00024424524900023149 0.020393624295424961 0 -0.00044010056383482807 0.019916633352363888 0 -0.00047202260747884371 0.019577756576004787 0 -0.00024424524900023149 0.020393624295424961 0 -0.00044010056383482807 0.019916633352363888 0 -0.00013883089054157383 0.02058575335896462 0 -0.00018503714661047507 0.020433236107543846 0 -0.00019889790725712423 0.02012572735042642 0 -0.00044010056383482807 0.019916633352363888 0 -0.00013883089054157383 0.02058575335896462 0 -0.0004566199373865447 0.019226474838280418 0 -0.00014670049212220276 0.021368035882934767 0 -3.5357856702561966e-05 0.021356598959263454 0 -0.00013883089054157383 0.02058575335896462 0 -3.5357856702561966e-05 0.021356598959263454 0 -8.219753330147694e-05 0.020946958785482101 0 -0.00013883089054157383 0.02058575335896462 0 -0.00014670049212220276 0.021368035882934767 0 -0.00013883089054157383 0.02058575335896462 0 -0.00017364016050730571 0.021074440225370191 0 -0.00013883089054157383 0.02058575335896462 0 -0.00017364016050730571 0.021074440225370191 0 7.2290142206130453e-06 0.02090115523191401 0 -0.00017364016050730571 0.021074440225370191 0 7.2290142206130453e-06 0.02090115523191401 0 -8.5586899987789104e-05 0.021074926515872412 0 -0.00017364016050730571 0.021074440225370191 0 -8.5586899987789104e-05 0.021074926515872412 0 -0.0002408529816511404 0.020968776953570436 0 -0.00030923833222224536 0.020637504564119408 0 -0.00028255437897501588 0.020584774561637282 0 -0.00014670049212220276 0.021368035882934767 0 -0.00017364016050730571 0.021074440225370191 0 -0.00014834809660251139 0.021015818999445775 0 -0.00017364016050730571 0.021074440225370191 0 -0.0002408529816511404 0.020968776953570436 0 -0.00014834809660251139 0.021015818999445775 0 -0.00028255437897501588 0.020584774561637282 0 -1.96498802765485e-05 0.020483667850433828 0 -0.00041167949945670302 0.020245250090330919 0 -0.00058261907363529755 0.01998517555929465 0 -0.00043699029888489074 0.020027791504986563 0 -0.00041167949945670302 0.020245250090330919 0 -0.00024778161365031977 0.020166110792911359 0 -3.5654236122627521e-05 0.020490791491588327 0 -0.00041167949945670302 0.020245250090330919 0 -0.00043699029888489074 0.020027791504986563 0 -0.00024778161365031977 0.020166110792911359 0 -0.00061622255922939362 0.020130123117289161 0 -0.00058261907363529755 0.01998517555929465 0 -0.00073212472044730924 0.019915819133125321 0 -0.00061622255922939362 0.020130123117289161 0 -0.00041167949945670302 0.020245250090330919 0 -0.00058261907363529755 0.01998517555929465 0 -0.00058261907363529755 0.01998517555929465 0 -0.0005489317606674353 0.019829075490824299 0 -0.00072290017907144317 0.019747388183835528 0 -0.00058261907363529755 0.01998517555929465 0 -0.0005489317606674353 0.019829075490824299 0 -0.00043699029888489074 0.020027791504986563 0 -0.0005489317606674353 0.019829075490824299 0 -0.00062564346064911548 0.019615753300955479 0 -0.00035007907126683905 0.019806249595546117 0 -0.0018283176031569884 0.021318343773400149 0 -0.00025097832403172876 0.019764509833335654 0 -0.0005489317606674353 0.019829075490824299 0 -0.00062564346064911548 0.019615753300955479 0 -0.00072290017907144317 0.019747388183835528 0 -0.00087730594822968378 0.019742909113805596 0 -0.00030908264227335746 0.019770226859889186 0 -0.00037414578947921891 0.019978964533253908 0 -0.0018283176031569884 0.021318343773400149 0 -0.001065481061901121 0.021546193307313014 0 -0.00030908264227335746 0.019770226859889186 0 -0.00037414578947921891 0.019978964533253908 0 -0.00020391233965116838 0.019907082898375925 0 -0.00035007907126683905 0.019806249595546117 0 -0.00043699029888489074 0.020027791504986563 0 -0.00024778161365031977 0.020166110792911359 0 -0.0005489317606674353 0.019829075490824299 0 -0.00035007907126683905 0.019806249595546117 0 -0.00043699029888489074 0.020027791504986563 0 -0.00035007907126683905 0.019806249595546117 0 -0.00024778161365031977 0.020166110792911359 0 9.0984830918635026e-05 0.020179146145107293 0 -0.00037414578947921891 0.019978964533253908 0 9.0984830918635026e-05 0.020179146145107293 0 -5.6845238300952581e-05 0.019985677336319223 0 -0.00025097832403172876 0.019764509833335654 0 2.6742076499912649e-05 0.020168604282179866 0 -0.00024778161365031977 0.020166110792911359 0 9.0984830918635026e-05 0.020179146145107293 0 -3.5654236122627521e-05 0.020490791491588327 0 9.0984830918635026e-05 0.020179146145107293 0 0.00012349758122533072 0.020050557162296992 0 -5.6845238300952581e-05 0.019985677336319223 0 -0.00039548213122990759 0.02365213437307951 0 -0.0015383007890759986 0.023462785919681897 0 -0.00020391233965116838 0.019907082898375925 0 -5.6845238300952581e-05 0.019985677336319223 0 -1.35682959339602e-05 0.019902663564099178 0 -0.001065481061901121 0.021546193307313014 0 -0.00036360368822468064 0.023018441947013055 0 -0.0018260297587712876 0.023509777851747238 0 -0.00066883124110075649 0.023617253995185283 0 -0.0015842714087213304 0.023246494875041629 0 -0.00030908264227335746 0.019770226859889186 0 -0.00020391233965116838 0.019907082898375925 0 -1.35682959339602e-05 0.019902663564099178 0 -0.00037414578947921891 0.019978964533253908 0 -0.00020391233965116838 0.019907082898375925 0 -5.6845238300952581e-05 0.019985677336319223 0 -0.0006901950641644537 0.023514811651292149 0 -0.00066883124110075649 0.023617253995185283 0 -0.0015842714087213304 0.023246494875041629 0 -0.00030908264227335746 0.019770226859889186 0 -1.35682959339602e-05 0.019902663564099178 0 0.00020841720688821291 0.019802269346059217 0 0.00012349758122533072 0.020050557162296992 0 -5.6845238300952581e-05 0.019985677336319223 0 -1.35682959339602e-05 0.019902663564099178 0 -1.35682959339602e-05 0.019902663564099178 0 0.00020841720688821291 0.019802269346059217 0 0.00016960734464200613 0.019986551887675612 0 0.00012349758122533072 0.020050557162296992 0 -1.35682959339602e-05 0.019902663564099178 0 0.00016960734464200613 0.019986551887675612 0 4.6690349190168435e-07 0.02441429794887608 0 -0.00039858094690700815 0.024325077722404262 0 -3.3828520266630685e-06 0.024115788823939374 0 0.00035869441036400683 0.023838871175628169 0 -0.00063135670505968795 0.023528621385705807 0 -0.00058284261069620094 0.023763724503484886 0 0.00031922111544031428 0.024128637386164744 0 -0.00036360368822468064 0.023018441947013055 0 0.00031922111544031428 0.024128637386164744 0 -0.00039548213122990759 0.02365213437307951 0 -0.00039548213122990759 0.02365213437307951 0 -0.00041000218157180032 0.02392033187566622 0 -0.00039548213122990759 0.02365213437307951 0 -0.00036360368822468064 0.023018441947013055 0 0.00075935263095012746 0.025176068369596342 0 0.00089974372111400992 0.025182960469099416 0 0.00069812684815803759 0.02500114692601052 0 0.00089974372111400992 0.025182960469099416 0 0.00086461625938486625 0.024758363716826871 0 0.00069812684815803759 0.02500114692601052 0 -0.00036360368822468064 0.023018441947013055 0 0.00070888805851620075 0.022461446571490223 0 0.00020841720688821291 0.019802269346059217 0 0.00016960734464200613 0.019986551887675612 0 0.00038229531147205989 0.020350690423143369 0 0.00012349758122533072 0.020050557162296992 0 0.00016960734464200613 0.019986551887675612 0 0.00038229531147205989 0.020350690423143369 0 9.0984830918635026e-05 0.020179146145107293 0 0.00038229531147205989 0.020350690423143369 0 -3.5654236122627521e-05 0.020490791491588327 0 9.0984830918635026e-05 0.020179146145107293 0 0.00012349758122533072 0.020050557162296992 0 0.00038229531147205989 0.020350690423143369 0 0.00038229531147205989 0.020350690423143369 0 0.00012792191953479485 0.020896247168311923 0 0.00049738506077365047 0.021140405112826732 0 0.00086461625938486625 0.024758363716826871 0 0.00086903448850801797 0.024116765976167805 0 0.00066816663722545641 0.02451505768744644 0 0.00070888805851620075 0.022461446571490223 0 0.00064490489422761401 0.022637353151896706 0 0.00038229531147205989 0.020350690423143369 0 -3.5654236122627521e-05 0.020490791491588327 0 0.00012792191953479485 0.020896247168311923 0 -0.0002408529816511404 0.020968776953570436 0 -3.5654236122627521e-05 0.020490791491588327 0 -0.00014834809660251139 0.021015818999445775 0 -3.5654236122627521e-05 0.020490791491588327 0 0.00012792191953479485 0.020896247168311923 0 -0.00014834809660251139 0.021015818999445775 0 -0.00014670049212220276 0.021368035882934767 0 0.00012792191953479485 0.020896247168311923 0 -0.00014834809660251139 0.021015818999445775 0 -0.00014670049212220276 0.021368035882934767 0 0.00012792191953479485 0.020896247168311923 0 0.00049738506077365047 0.021140405112826732 0 0.00086903448850801797 0.024116765976167805 0 8.4737959472686535e-05 0.024175436077859987 0 0.00066816663722545641 0.02451505768744644 0 8.4737959472686535e-05 0.024175436077859987 0 0.00040289550936521489 0.024754516983465442 0 3.8773259614131662e-05 0.024716712880127861 0 0.00086461625938486625 0.024758363716826871 0 0.00066816663722545641 0.02451505768744644 0 0.00040289550936521489 0.024754516983465442 0 8.4737959472686535e-05 0.024175436077859987 0 0.00066816663722545641 0.02451505768744644 0 0.00040289550936521489 0.024754516983465442 0 0.00086461625938486625 0.024758363716826871 0 0.00040289550936521489 0.024754516983465442 0 0.00069812684815803759 0.02500114692601052 0 0.00040289550936521489 0.024754516983465442 0 0.00069812684815803759 0.02500114692601052 0 0.00052210923761471164 0.025112885403992376 0 0.00034021582249279658 0.024549796196035884 0 0.00024669728533032538 0.024604200216593392 0 0.00034956721097377649 0.02425761655862502 0 0.00075935263095012746 0.025176068369596342 0 0.00069812684815803759 0.02500114692601052 0 0.00052210923761471164 0.025112885403992376 0 0.00031922111544031428 0.024128637386164744 0 0.00046094354288788022 0.024787423682282754 0 4.6690349190168435e-07 0.02441429794887608 0 0.00034021582249279658 0.024549796196035884 0 -3.3828520266630685e-06 0.024115788823939374 0 0.00034021582249279658 0.024549796196035884 0 0.00034956721097377649 0.02425761655862502 0 -3.3828520266630685e-06 0.024115788823939374 0 0.00046094354288788022 0.024787423682282754 0 0.00017347080965574515 0.024843750152275194 0 0.00034021582249279658 0.024549796196035884 0 0.00018236312199346375 0.02469164862699938 0 0.00024669728533032538 0.024604200216593392 0 0.00040289550936521489 0.024754516983465442 0 0.00052210923761471164 0.025112885403992376 0 0.00013890160775521229 0.024969208902767978 0 0.00040289550936521489 0.024754516983465442 0 0.00013890160775521229 0.024969208902767978 0 3.8773259614131662e-05 0.024716712880127861 0 0.00017347080965574515 0.024843750152275194 0 4.674399894396571e-05 0.02487897486590547 0 1.62634542986134e-05 0.024896871258429938 0 -3.9071867806798542e-07 0.024998243288398656 0 3.2589849185963447e-07 0.02499955123370411 0 0.00013890160775521229 0.024969208902767978 0 1.62634542986134e-05 0.024896871258429938 0 3.8773259614131662e-05 0.024716712880127861 0 0.00018236312199346375 0.02469164862699938 0 0.0001051369024442789 0.024817217465361925 0 0.00024669728533032538 0.024604200216593392 0 0.00018236312199346375 0.02469164862699938 0 0.0001051369024442789 0.024817217465361925 0 1.62634542986134e-05 0.024896871258429938 0 0.0001051369024442789 0.024817217465361925 0 1.62634542986134e-05 0.024896871258429938 0 3.2589849185963447e-07 0.02499955123370411 0 1.62634542986134e-05 0.024896871258429938 0 3.8773259614131662e-05 0.024716712880127861 0 -3.9071867806798542e-07 0.024998243288398656 0 8.4737959472686535e-05 0.024175436077859987 0 3.8773259614131662e-05 0.024716712880127861 0 -3.9071867806798542e-07 0.024998243288398656 0 -0.00043756617768750871 0.0179107216294991 0 -0.00031895171532534007 0.017222192866702079 0 -0.00054830162661235386 0.017535577674416533 0 -0.00043756617768750871 0.0179107216294991 0 -0.00077132624303930181 0.018099246202543204 0 -0.00068744852960448528 0.018355068820418183 0 -0.00043756617768750871 0.0179107216294991 0 -0.00077132624303930181 0.018099246202543204 0 -0.00054830162661235386 0.017535577674416533 0 -0.00077132624303930181 0.018099246202543204 0 -0.00068744852960448528 0.018355068820418183 0 -0.001001800370813373 0.018495851888710887 0 -0.00068744852960448528 0.018355068820418183 0 -0.001001800370813373 0.018495851888710887 0 -0.0007143228162692927 0.018771979301917662 0 -0.00043756617768750871 0.0179107216294991 0 -5.8187182826288184e-05 0.018263472582989042 0 -0.00040564239096287688 0.018473056553205858 0 -0.00043756617768750871 0.0179107216294991 0 -0.00068744852960448528 0.018355068820418183 0 -0.00040564239096287688 0.018473056553205858 0 -0.00043756617768750871 0.0179107216294991 0 -5.8187182826288184e-05 0.018263472582989042 0 0.00012942305274852062 0.01795345639820901 0 0.00060171587782603924 0.01790562626500666 0 0.00012942305274852062 0.01795345639820901 0 0.00039053074280122563 0.018353164679979321 0 -5.8187182826288184e-05 0.018263472582989042 0 0.00012942305274852062 0.01795345639820901 0 0.00039053074280122563 0.018353164679979321 0 0.00031962575066844242 0.017280282531242318 0 -4.3565357093282333e-05 0.017575331376213438 0 0.00011797446942759739 0.016673094865204421 0 -0.00014779497409764643 0.017161821802689121 0 -7.0131620105034619e-05 0.016576422136639977 0 -0.00014779497409764643 0.017161821802689121 0 -0.00031895171532534007 0.017222192866702079 0 -7.0131620105034619e-05 0.016576422136639977 0 -0.00045760425144744616 0.017841045304877259 0 -4.3565357093282333e-05 0.017575331376213438 0 -0.00043756617768750871 0.0179107216294991 0 -0.00014779497409764643 0.017161821802689121 0 -0.00031895171532534007 0.017222192866702079 0 -0.00031895171532534007 0.017222192866702079 0 -7.0131620105034619e-05 0.016576422136639977 0 -0.00025606972954439564 0.01667517739909816 0 -7.0131620105034619e-05 0.016576422136639977 0 -0.00011232955827305115 0.016113283686565338 0 -0.00025606972954439564 0.01667517739909816 0 0.00010790621956382023 0.015919190381938803 0 -7.0131620105034619e-05 0.016576422136639977 0 -0.00011232955827305115 0.016113283686565338 0 -0.00031895171532534007 0.017222192866702079 0 -0.00025606972954439564 0.01667517739909816 0 -0.00040938093727445709 0.016980999747942243 0 -0.00029990681308442928 0.016383653755270681 0 -0.00011232955827305115 0.016113283686565338 0 -0.00025606972954439564 0.01667517739909816 0 -0.00029990681308442928 0.016383653755270681 0 -0.00025606972954439564 0.01667517739909816 0 -0.00040938093727445709 0.016980999747942243 0 -0.00031895171532534007 0.017222192866702079 0 -0.00040938093727445709 0.016980999747942243 0 -0.00054830162661235386 0.017535577674416533 0 -0.00077132624303930181 0.018099246202543204 0 -0.00054830162661235386 0.017535577674416533 0 -0.0010885151449461529 0.018259039981529654 0 -0.00055978004155308352 0.017665190664523465 0 -0.00079968212751357079 0.018253288143023669 0 -0.00054830162661235386 0.017535577674416533 0 -0.00050233819487928389 0.017753149680455552 0 -0.00052558308858730626 0.018260639986367545 0 -0.00040938093727445709 0.016980999747942243 0 -0.00054830162661235386 0.017535577674416533 0 -0.00050233819487928389 0.017753149680455552 0 -0.00050233819487928389 0.017753149680455552 0 -0.00053384482620918463 0.01871866815846519 0 -0.00052558308858730626 0.018260639986367545 0 -0.00079968212751357079 0.018253288143023669 0 -0.00078157218982304532 0.019103353128751121 0 -0.00053384482620918463 0.01871866815846519 0 -0.00052558308858730626 0.018260639986367545 0 -0.00051398824232699012 0.019070034719000255 0 -0.00051642454708700951 0.019341374703602435 0 -0.00039201918814943517 0.019933056441146613 0 -0.00047202260747884371 0.019577756576004787 0 -0.00051642454708700951 0.019341374703602435 0 -0.00053384482620918463 0.01871866815846519 0 -0.00047202260747884371 0.019577756576004787 0 -0.00053384482620918463 0.01871866815846519 0 -0.00047202260747884371 0.019577756576004787 0 -0.00051398824232699012 0.019070034719000255 0 -0.00047446526558853004 0.019755350460774469 0 -0.00078157218982304532 0.019103353128751121 0 -0.00044010056383482807 0.019916633352363888 0 -0.00047202260747884371 0.019577756576004787 0 -0.00051398824232699012 0.019070034719000255 0 -0.00044010056383482807 0.019916633352363888 0 -0.0010802652755072155 0.019091897955169659 0 -0.00097544792216674189 0.019035764274572091 0 -0.00044010056383482807 0.019916633352363888 0 -0.0004566199373865447 0.019226474838280418 0 -0.00097544792216674189 0.019035764274572091 0 -0.0010802652755072155 0.019091897955169659 0 -0.00097544792216674189 0.019035764274572091 0 -0.001153428149818577 0.018679819723604985 0 -0.00097544792216674189 0.019035764274572091 0 -0.001153428149818577 0.018679819723604985 0 -0.0011975303023188456 0.018719603240555271 0 -0.00097544792216674189 0.019035764274572091 0 -0.0011975303023188456 0.018719603240555271 0 -0.00089470127667846304 0.01867698424657634 0 -0.001217616135598291 0.018657368906180031 0 -0.00079070950137820285 0.019696597892902373 0 -0.00019889790725712423 0.02012572735042642 0 -0.00079070950137820285 0.019696597892902373 0 -0.0004566199373865447 0.019226474838280418 0 -0.00097544792216674189 0.019035764274572091 0 -0.00089470127667846304 0.01867698424657634 0 -0.00077132624303930181 0.018099246202543204 0 -0.0010885151449461529 0.018259039981529654 0 -0.001001800370813373 0.018495851888710887 0 -0.0010885151449461529 0.018259039981529654 0 -0.001153428149818577 0.018679819723604985 0 -0.001001800370813373 0.018495851888710887 0 -0.0010885151449461529 0.018259039981529654 0 -0.0010802652755072155 0.019091897955169659 0 -0.001153428149818577 0.018679819723604985 0 -0.001153428149818577 0.018679819723604985 0 -0.0011975303023188456 0.018719603240555271 0 -0.001001800370813373 0.018495851888710887 0 -0.0011975303023188456 0.018719603240555271 0 -0.001001800370813373 0.018495851888710887 0 -0.0010400476734072871 0.018790246035864374 0 -0.001001800370813373 0.018495851888710887 0 -0.0010400476734072871 0.018790246035864374 0 -0.0007143228162692927 0.018771979301917662 0 -0.0011975303023188456 0.018719603240555271 0 -0.0010400476734072871 0.018790246035864374 0 -0.0012406865856829353 0.019010467383732087 0 -0.0011361989415439385 0.019365183892256249 0 -0.00089247237566502735 0.019461814935361605 0 -0.0010400476734072871 0.018790246035864374 0 -0.00091883482101082583 0.019413862776170143 0 -0.0007143228162692927 0.018771979301917662 0 -0.0010400476734072871 0.018790246035864374 0 -0.0012406865856829353 0.019010467383732087 0 -0.00091883482101082583 0.019413862776170143 0 -0.00030923833222224536 0.020637504564119408 0 -0.00079070950137820285 0.019696597892902373 0 -0.00061622255922939362 0.020130123117289161 0 -0.00078734277637019135 0.020113385688045118 0 -0.00081362937545595502 0.019932080638216249 0 7.2290142206130453e-06 0.02090115523191401 0 -8.5586899987789104e-05 0.021074926515872412 0 8.9551952946992797e-05 0.021001064867014127 0 -0.00093353747381299927 0.019813866337895766 0 -0.00078734277637019135 0.020113385688045118 0 -0.00081362937545595502 0.019932080638216249 0 -0.0011975303023188456 0.018719603240555271 0 -0.0012406865856829353 0.019010467383732087 0 -0.001418087034563786 0.018815963272604496 0 -0.0011361989415439385 0.019365183892256249 0 -0.00079070950137820285 0.019696597892902373 0 -0.00093353747381299927 0.019813866337895766 0 -0.00081362937545595502 0.019932080638216249 0 -0.00086846597206080122 0.019702817821969407 0 -0.00081362937545595502 0.019932080638216249 0 -0.00073212472044730924 0.019915819133125321 0 -0.00086846597206080122 0.019702817821969407 0 -0.00061622255922939362 0.020130123117289161 0 -0.00081362937545595502 0.019932080638216249 0 -0.00073212472044730924 0.019915819133125321 0 -0.00073212472044730924 0.019915819133125321 0 -0.00081528912586172585 0.01971797220900029 0 -0.00072290017907144317 0.019747388183835528 0 -0.00058261907363529755 0.01998517555929465 0 -0.00073212472044730924 0.019915819133125321 0 -0.00072290017907144317 0.019747388183835528 0 -0.00073212472044730924 0.019915819133125321 0 -0.00086846597206080122 0.019702817821969407 0 -0.00081528912586172585 0.01971797220900029 0 -0.00072290017907144317 0.019747388183835528 0 -0.00085763233485715567 0.019570299844145381 0 -0.0011242132508603178 0.01955431029650978 0 -0.00041674804447284488 0.019906607844070182 0 -0.0017687818061802585 0.019186767577660375 0 -0.00086846597206080122 0.019702817821969407 0 -0.00081528912586172585 0.01971797220900029 0 -0.00092424823180193173 0.019558147682787422 0 -0.00081528912586172585 0.01971797220900029 0 -0.00072290017907144317 0.019747388183835528 0 -0.00092424823180193173 0.019558147682787422 0 -0.00062564346064911548 0.019615753300955479 0 -0.00072290017907144317 0.019747388183835528 0 -0.00085763233485715567 0.019570299844145381 0 -0.0018283176031569884 0.021318343773400149 0 -0.0025252444916932307 0.021152130485367304 0 -0.00091883482101082583 0.019413862776170143 0 -0.0009376972504761764 0.019543989040906578 0 -0.00071078059228856698 0.019487333498196705 0 -0.00093353747381299927 0.019813866337895766 0 -0.00091883482101082583 0.019413862776170143 0 -0.0009376972504761764 0.019543989040906578 0 -0.00093353747381299927 0.019813866337895766 0 -0.00086846597206080122 0.019702817821969407 0 -0.0009376972504761764 0.019543989040906578 0 -0.0009376972504761764 0.019543989040906578 0 -0.00083255076859284718 0.019616141841415632 0 -0.00092424823180193173 0.019558147682787422 0 -0.00086846597206080122 0.019702817821969407 0 -0.0009376972504761764 0.019543989040906578 0 -0.00092424823180193173 0.019558147682787422 0 -0.0009376972504761764 0.019543989040906578 0 -0.00071078059228856698 0.019487333498196705 0 -0.00083255076859284718 0.019616141841415632 0 -0.0004625072779496407 0.019503542799019238 0 -0.00052403429506451627 0.019389633860396313 0 -0.00032944470539815755 0.019276046944645155 0 -0.00071078059228856698 0.019487333498196705 0 -0.0004625072779496407 0.019503542799019238 0 -0.00048567637117055733 0.019628127790882976 0 -0.00071078059228856698 0.019487333498196705 0 -0.0004625072779496407 0.019503542799019238 0 -0.00052403429506451627 0.019389633860396313 0 -0.00052403429506451627 0.019389633860396313 0 -0.00057531371035893859 0.019236451137506199 0 -0.00032944470539815755 0.019276046944645155 0 -0.00071078059228856698 0.019487333498196705 0 -0.00052403429506451627 0.019389633860396313 0 -0.00057531371035893859 0.019236451137506199 0 -0.00091883482101082583 0.019413862776170143 0 -0.00071078059228856698 0.019487333498196705 0 -0.00057531371035893859 0.019236451137506199 0 -0.00091883482101082583 0.019413862776170143 0 -0.00057531371035893859 0.019236451137506199 0 -0.0007143228162692927 0.018771979301917662 0 -0.00057531371035893859 0.019236451137506199 0 -0.00032944470539815755 0.019276046944645155 0 -0.00036055473750278103 0.01891392355810911 0 -0.00057531371035893859 0.019236451137506199 0 -0.00036055473750278103 0.01891392355810911 0 -0.0007143228162692927 0.018771979301917662 0 -0.00036055473750278103 0.01891392355810911 0 -0.00040564239096287688 0.018473056553205858 0 -0.0007143228162692927 0.018771979301917662 0 -0.00036055473750278103 0.01891392355810911 0 -0.00040564239096287688 0.018473056553205858 0 -5.3135692387643156e-05 0.018620326309419934 0 -0.00068744852960448528 0.018355068820418183 0 -0.00040564239096287688 0.018473056553205858 0 -0.0007143228162692927 0.018771979301917662 0 -5.8187182826288184e-05 0.018263472582989042 0 0.00039053074280122563 0.018353164679979321 0 -5.3135692387643156e-05 0.018620326309419934 0 0.00039053074280122563 0.018353164679979321 0 0.0002312303138609471 0.018630557686531178 0 -5.3135692387643156e-05 0.018620326309419934 0 0.00045164187963820447 0.018790954197992465 0 0.00039053074280122563 0.018353164679979321 0 0.0002312303138609471 0.018630557686531178 0 -5.8187182826288184e-05 0.018263472582989042 0 -0.00040564239096287688 0.018473056553205858 0 -5.3135692387643156e-05 0.018620326309419934 0 -0.00032944470539815755 0.019276046944645155 0 -0.00036055473750278103 0.01891392355810911 0 -3.9695282701942854e-05 0.01900804393132046 0 -0.00036055473750278103 0.01891392355810911 0 -5.3135692387643156e-05 0.018620326309419934 0 -3.9695282701942854e-05 0.01900804393132046 0 -7.8146881564630384e-05 0.018535949916356424 0 0.00011671193611455843 0.0192673851804653 0 0.0002312303138609471 0.018630557686531178 0 -5.3135692387643156e-05 0.018620326309419934 0 5.2390022472176177e-05 0.01880721828408391 0 0.00045164187963820447 0.018790954197992465 0 0.0002312303138609471 0.018630557686531178 0 5.2390022472176177e-05 0.01880721828408391 0 0.00045164187963820447 0.018790954197992465 0 5.2390022472176177e-05 0.01880721828408391 0 0.00012076429204660024 0.019034347162257634 0 -0.00019294211487540624 0.014056789933578352 0 -1.498251371717415e-05 0.016593888569188222 0 -0.00094956613165588833 0.0098950846817786129 0 -0.00096972618293088416 0.0099388703544838319 0 -0.00096173997413290789 0.0099116564761485559 0 -0.00032944470539815755 0.019276046944645155 0 -3.9695282701942854e-05 0.01900804393132046 0 -2.2850745143375489e-05 0.019291201833056638 0 -0.0004625072779496407 0.019503542799019238 0 -0.00032944470539815755 0.019276046944645155 0 -2.2850745143375489e-05 0.019291201833056638 0 0.00011671193611455843 0.0192673851804653 0 -1.498251371717415e-05 0.016593888569188222 0 -0.0004625072779496407 0.019503542799019238 0 -0.00028752863682436944 0.019425393609929151 0 -0.00037318614797347182 0.019536086397727401 0 -0.0007130373962079353 0.020331896620178199 0 -1.498251371717415e-05 0.016593888569188222 0 -0.0004625072779496407 0.019503542799019238 0 -0.00022647575183272917 0.019193259305147058 0 -0.00028752863682436944 0.019425393609929151 0 -1.498251371717415e-05 0.016593888569188222 0 -0.00051494899629078673 0.012511423546375636 0 -0.00096972618293088416 0.0099388703544838319 0 -0.00096173997413290789 0.0099116564761485559 0 -0.00096414435917342581 0.009954110388206823 0 -0.00022647575183272917 0.019193259305147058 0 -0.00028752863682436944 0.019425393609929151 0 -0.00014809250711933066 0.019529116964293373 0 -0.0027711063781825601 0.015695084040715859 0 -0.0025972746288694991 0.01573117607479051 0 -0.0024811588520327688 0.015496231610970657 0 0.00058223072675576829 0.0082153736072823683 0 0.0005432677103835616 0.0080642183496555525 0 5.9894609514753068e-05 0.0079754344917671704 0 -0.00051494899629078673 0.012511423546375636 0 -0.0006042411513636055 0.011244730768746261 0 -0.00028752863682436944 0.019425393609929151 0 -0.00014809250711933066 0.019529116964293373 0 -0.00024601567738732129 0.019597777289652583 0 -0.00051494899629078673 0.012511423546375636 0 -0.0015577794019111992 0.014959441784948796 0 -0.0006042411513636055 0.011244730768746261 0 -0.0015577794019111992 0.014959441784948796 0 -0.00053560041573995018 0.012736093296531022 0 -0.0004009971766093356 0.01326780247422189 0 -0.0012734280348772947 0.01319155151518841 0 -0.0015577794019111992 0.014959441784948796 0 -0.0013391978929904985 0.017874096975829055 0 -0.0025972746288694991 0.01573117607479051 0 -0.0024811588520327688 0.015496231610970657 0 -0.0022216138111777594 0.015821128435496365 0 -0.00037318614797347182 0.019536086397727401 0 -0.00024601567738732129 0.019597777289652583 0 -0.00048567637117055733 0.019628127790882976 0 -0.00028752863682436944 0.019425393609929151 0 -0.00037318614797347182 0.019536086397727401 0 -0.00024601567738732129 0.019597777289652583 0 -0.0024811588520327688 0.015496231610970657 0 -0.0022406661131975751 0.015229367626391238 0 -0.0022216138111777594 0.015821128435496365 0 -0.0027711063781825601 0.015695084040715859 0 -0.0024811588520327688 0.015496231610970657 0 -0.0028468195692081736 0.015399995377392875 0 -0.0024811588520327688 0.015496231610970657 0 -0.0028468195692081736 0.015399995377392875 0 -0.0026187737110152341 0.015234519376354262 0 -0.0006042411513636055 0.011244730768746261 0 -0.0012571511531291003 0.011829464009237425 0 -0.0026187737110152341 0.015234519376354262 0 -0.0026106016669635163 0.01495430378697662 0 -0.0029154473526374707 0.01509455568682533 0 -0.0028468195692081736 0.015399995377392875 0 -0.0026187737110152341 0.015234519376354262 0 -0.0029154473526374707 0.01509455568682533 0 -0.0032074549808015634 0.013219861168941444 0 -0.00080601383074183064 0.0094787130606617323 0 -0.0012571511531291003 0.011829464009237425 0 -0.00080601383074183064 0.0094787130606617323 0 -0.0026187737110152341 0.015234519376354262 0 -0.0026106016669635163 0.01495430378697662 0 -0.0022406661131975751 0.015229367626391238 0 -0.0024811588520327688 0.015496231610970657 0 -0.0026187737110152341 0.015234519376354262 0 -0.0022406661131975751 0.015229367626391238 0 -0.0032074549808015634 0.013219861168941444 0 -0.0045603772822934907 0.018399809793027425 0 -0.007177202613322475 0.020245352879760196 0 -0.0068058548586517834 0.02005084679895806 0 -0.0067687209472822056 0.020712857228656699 0 -0.0024165091426359814 0.0083735348094096593 0 -0.0015303042028246084 0.0079350277798413849 0 -0.0022317768762022999 0.0069907513569614395 0 -0.0032074549808015634 0.013219861168941444 0 -0.0036903628314603159 0.01365128212618852 0 -0.0031167748174261299 0.00787298472588383 0 -0.0024165091426359814 0.0083735348094096593 0 -0.0022317768762022999 0.0069907513569614395 0 -0.00026489217677434286 0.007058880814209972 0 -2.4951790983583664e-05 0.0072652888279841283 0 -0.0003296039565092585 0.0074079606267012437 0 -0.0014358641994142499 0.0076242822228137826 0 -0.0032074549808015634 0.013219861168941444 0 -0.0061933228795385872 0.020472977644589753 0 -0.0054523083801207581 0.020061205924924094 0 -0.0061879978366799889 0.019616016002009233 0 -0.0068058548586517834 0.02005084679895806 0 -0.0061933228795385872 0.020472977644589753 0 -0.0061879978366799889 0.019616016002009233 0 -0.0068058548586517834 0.02005084679895806 0 -0.0067687209472822056 0.020712857228656699 0 -0.0061933228795385872 0.020472977644589753 0 -0.0067687209472822056 0.020712857228656699 0 -0.0061933228795385872 0.020472977644589753 0 -0.0061958608897683381 0.021332738132914919 0 -0.0061933228795385872 0.020472977644589753 0 -0.0061958608897683381 0.021332738132914919 0 -0.0055787907469581725 0.020988604470168711 0 -0.0045603772822934907 0.018399809793027425 0 -0.0039984380208148368 0.01839455696813623 0 -0.0022406661131975751 0.015229367626391238 0 -0.0018665640471295919 0.015509929726848328 0 -0.0022216138111777594 0.015821128435496365 0 -0.0004625072779496407 0.019503542799019238 0 -0.00037318614797347182 0.019536086397727401 0 -0.00048567637117055733 0.019628127790882976 0 -0.00071078059228856698 0.019487333498196705 0 -0.00048567637117055733 0.019628127790882976 0 -0.00083255076859284718 0.019616141841415632 0 -0.0018665640471295919 0.015509929726848328 0 -0.0022216138111777594 0.015821128435496365 0 -0.0016690065218227198 0.015954113337888726 0 -0.0013391978929904985 0.017874096975829055 0 -0.0010918954424491069 0.017577568411406567 0 -0.0018665640471295919 0.015509929726848328 0 -0.0016690065218227198 0.015954113337888726 0 -0.0014863312659216766 0.015796765732907538 0 -0.0016690065218227198 0.015954113337888726 0 -0.0014863312659216766 0.015796765732907538 0 -0.001103663337819014 0.016097843385321654 0 -0.0036315763488048367 0.01888299470425988 0 -0.0017687818061802585 0.019186767577660375 0 -0.0010918954424491069 0.017577568411406567 0 -0.0017687818061802585 0.019186767577660375 0 -0.0054427200344725809 0.022030878047855088 0 -0.0048048446877600685 0.022113103587884576 0 -0.0045868641955128598 0.022666614874777297 0 -0.0054427200344725809 0.022030878047855088 0 -0.0048048446877600685 0.022113103587884576 0 -0.0048338536389839802 0.021508932999032313 0 -0.0054427200344725809 0.022030878047855088 0 -0.0048338536389839802 0.021508932999032313 0 -0.0055787907469581725 0.020988604470168711 0 -0.0039984380208148368 0.01839455696813623 0 -0.0036315763488048367 0.01888299470425988 0 -0.0061958608897683381 0.021332738132914919 0 -0.0054427200344725809 0.022030878047855088 0 -0.0055787907469581725 0.020988604470168711 0 -0.0031091273289022042 0.022814991279371581 0 -0.003700427079942828 0.022512253861505668 0 -0.0038760078542671105 0.022751161067211315 0 -0.0034291850154270775 0.022451568622204793 0 -0.0036423830694722195 0.022876265671334457 0 -0.003059334626119277 0.022837505730598277 0 -0.0034291850154270775 0.022451568622204793 0 -0.003059334626119277 0.022837505730598277 0 -0.0030781732951018141 0.022444977450356805 0 -0.0029344256211190616 0.023371112181272236 0 -0.0036423830694722195 0.022876265671334457 0 -0.003059334626119277 0.022837505730598277 0 -0.0018283176031569884 0.021318343773400149 0 -0.0036383010836899842 0.022589023488338602 0 -0.003700427079942828 0.022512253861505668 0 -0.0038760078542671105 0.022751161067211315 0 -0.0042616451095153999 0.022248450723442201 0 -0.0036383010836899842 0.022589023488338602 0 -0.0041546592882172788 0.022342638620024703 0 -0.0037702997120458086 0.022408363796483987 0 -0.0042616451095153999 0.022248450723442201 0 -0.0037294035093414259 0.022065906051518803 0 -0.0036423830694722195 0.022876265671334457 0 -0.0037702997120458086 0.022408363796483987 0 -0.0042616451095153999 0.022248450723442201 0 -0.0034291850154270775 0.022451568622204793 0 -0.0036423830694722195 0.022876265671334457 0 -0.0037702997120458086 0.022408363796483987 0 -0.0034291850154270775 0.022451568622204793 0 -0.0037702997120458086 0.022408363796483987 0 -0.0037294035093414259 0.022065906051518803 0 -0.0025252444916932307 0.021152130485367304 0 -0.0017687818061802585 0.019186767577660375 0 -0.0038760078542671105 0.022751161067211315 0 -0.0042616451095153999 0.022248450723442201 0 -0.0045868641955128598 0.022666614874777297 0 -0.0048048446877600685 0.022113103587884576 0 -0.0042616451095153999 0.022248450723442201 0 -0.0045868641955128598 0.022666614874777297 0 -0.0048338536389839802 0.021508932999032313 0 -0.0042616451095153999 0.022248450723442201 0 -0.0040812058614773288 0.021550492721984879 0 -0.0048048446877600685 0.022113103587884576 0 -0.0048338536389839802 0.021508932999032313 0 -0.0042616451095153999 0.022248450723442201 0 -0.0042616451095153999 0.022248450723442201 0 -0.0040812058614773288 0.021550492721984879 0 -0.0037294035093414259 0.022065906051518803 0 -0.0040812058614773288 0.021550492721984879 0 -0.0037294035093414259 0.022065906051518803 0 -0.0035500722470133109 0.021615850212358869 0 -0.0035500722470133109 0.021615850212358869 0 -0.0032995294995721014 0.02206923929235478 0 -0.0030917411784535057 0.021716029687523657 0 -0.0037294035093414259 0.022065906051518803 0 -0.0035500722470133109 0.021615850212358869 0 -0.0032995294995721014 0.02206923929235478 0 -0.0034291850154270775 0.022451568622204793 0 -0.0037294035093414259 0.022065906051518803 0 -0.0032995294995721014 0.02206923929235478 0 -0.0034291850154270775 0.022451568622204793 0 -0.0032995294995721014 0.02206923929235478 0 -0.0030781732951018141 0.022444977450356805 0 -0.0036535351328359921 0.020944877607799842 0 -0.0030839429352397659 0.021177373476784382 0 -0.0030529316116188611 0.020365971347408651 0 -0.0035500722470133109 0.021615850212358869 0 -0.0030917411784535057 0.021716029687523657 0 -0.0030839429352397659 0.021177373476784382 0 -0.0035500722470133109 0.021615850212358869 0 -0.0036535351328359921 0.020944877607799842 0 -0.0030839429352397659 0.021177373476784382 0 -0.0040812058614773288 0.021550492721984879 0 -0.0035500722470133109 0.021615850212358869 0 -0.0036535351328359921 0.020944877607799842 0 -0.0036535351328359921 0.020944877607799842 0 -0.0043569992584663094 0.020850189745490237 0 -0.003858310301925899 0.020224647150833282 0 -0.0048338536389839802 0.021508932999032313 0 -0.0040812058614773288 0.021550492721984879 0 -0.0043569992584663094 0.020850189745490237 0 -0.0040812058614773288 0.021550492721984879 0 -0.0036535351328359921 0.020944877607799842 0 -0.0043569992584663094 0.020850189745490237 0 -0.0046298991085759085 0.020152573988816393 0 -0.003858310301925899 0.020224647150833282 0 -0.0041183895287652782 0.019607148750051429 0 -0.0043569992584663094 0.020850189745490237 0 -0.0046298991085759085 0.020152573988816393 0 -0.003858310301925899 0.020224647150833282 0 -0.0043569992584663094 0.020850189745490237 0 -0.0046298991085759085 0.020152573988816393 0 -0.004990392591252662 0.020736247520191053 0 -0.0036535351328359921 0.020944877607799842 0 -0.003858310301925899 0.020224647150833282 0 -0.0030529316116188611 0.020365971347408651 0 -0.003858310301925899 0.020224647150833282 0 -0.003307057866086456 0.019453447102253444 0 -0.0030529316116188611 0.020365971347408651 0 -0.0061933228795385872 0.020472977644589753 0 -0.0055787907469581725 0.020988604470168711 0 -0.0054523083801207581 0.020061205924924094 0 -0.0055787907469581725 0.020988604470168711 0 -0.004990392591252662 0.020736247520191053 0 -0.0054523083801207581 0.020061205924924094 0 -0.0048338536389839802 0.021508932999032313 0 -0.0043569992584663094 0.020850189745490237 0 -0.004990392591252662 0.020736247520191053 0 -0.0048338536389839802 0.021508932999032313 0 -0.0055787907469581725 0.020988604470168711 0 -0.004990392591252662 0.020736247520191053 0 -0.0046298991085759085 0.020152573988816393 0 -0.0054523083801207581 0.020061205924924094 0 -0.004689036398686953 0.019360080627313474 0 -0.0046298991085759085 0.020152573988816393 0 -0.004990392591252662 0.020736247520191053 0 -0.0054523083801207581 0.020061205924924094 0 -0.0054523083801207581 0.020061205924924094 0 -0.0054072559460217277 0.019014608825610176 0 -0.0061879978366799889 0.019616016002009233 0 -0.0033138155357372088 0.016536246605680979 0 -0.0037449381313374793 0.017188712162161886 0 -0.0054523083801207581 0.020061205924924094 0 -0.0054072559460217277 0.019014608825610176 0 -0.004689036398686953 0.019360080627313474 0 -0.0054072559460217277 0.019014608825610176 0 -0.004689036398686953 0.019360080627313474 0 -0.0045206810405501235 0.01828060635610438 0 -0.0013554183766396886 0.014196550774295236 0 -0.0017146254015981835 0.014603038642172481 0 -0.0013958347749698221 0.014660488437827248 0 -0.0033138155357372088 0.016536246605680979 0 -0.0031086235891465311 0.016443947985645999 0 -0.0013554183766396886 0.014196550774295236 0 -0.0013958347749698221 0.014660488437827248 0 -0.0010653101787761975 0.014314794114776267 0 -0.0013554183766396886 0.014196550774295236 0 -0.001000878105737486 0.013923480076522306 0 -0.0010653101787761975 0.014314794114776267 0 -0.0039650825765879501 0.018999720486217109 0 -0.003307057866086456 0.019453447102253444 0 -0.0041183895287652782 0.019607148750051429 0 -0.003858310301925899 0.020224647150833282 0 -0.003307057866086456 0.019453447102253444 0 -0.0041183895287652782 0.019607148750051429 0 -0.0046298991085759085 0.020152573988816393 0 -0.004689036398686953 0.019360080627313474 0 -0.0041183895287652782 0.019607148750051429 0 -0.0039650825765879501 0.018999720486217109 0 -0.004689036398686953 0.019360080627313474 0 -0.0041183895287652782 0.019607148750051429 0 -0.0039650825765879501 0.018999720486217109 0 -0.004689036398686953 0.019360080627313474 0 -0.0045206810405501235 0.01828060635610438 0 -0.0039650825765879501 0.018999720486217109 0 -0.0045206810405501235 0.01828060635610438 0 -0.0033468585562863719 0.018412388933526279 0 -0.0039650825765879501 0.018999720486217109 0 -0.003307057866086456 0.019453447102253444 0 -0.0033468585562863719 0.018412388933526279 0 -0.0045206810405501235 0.01828060635610438 0 -0.0033468585562863719 0.018412388933526279 0 -0.0035111666285412486 0.017405632666928187 0 -0.0031086235891465311 0.016443947985645999 0 -0.0026973475741004322 0.016276221302502836 0 -0.0017146254015981835 0.014603038642172481 0 -0.0020283794670333307 0.015178323696861677 0 -0.0016893128293797651 0.015098359255159935 0 -0.0020283794670333307 0.015178323696861677 0 -0.0016893128293797651 0.015098359255159935 0 -0.0019356206105662845 0.015440390367746864 0 -0.0020283794670333307 0.015178323696861677 0 -0.0020665928863468136 0.015665099695152181 0 -0.0019356206105662845 0.015440390367746864 0 -0.0013958347749698221 0.014660488437827248 0 -0.0011101112109955591 0.014687410558946965 0 -0.0010653101787761975 0.014314794114776267 0 -0.0017146254015981835 0.014603038642172481 0 -0.0016893128293797651 0.015098359255159935 0 -0.0013958347749698221 0.014660488437827248 0 -0.0016893128293797651 0.015098359255159935 0 -0.0013958347749698221 0.014660488437827248 0 -0.0013605904496969035 0.014938198817615007 0 -0.0013958347749698221 0.014660488437827248 0 -0.0013605904496969035 0.014938198817615007 0 -0.0011101112109955591 0.014687410558946965 0 -0.0011101112109955591 0.014687410558946965 0 -0.00076551100959580893 0.014459476547374188 0 -0.00090179933637642986 0.014754562818854804 0 -0.0011101112109955591 0.014687410558946965 0 -0.00076551100959580893 0.014459476547374188 0 -0.0010653101787761975 0.014314794114776267 0 -0.00076551100959580893 0.014459476547374188 0 -0.00039767706549316708 0.014220197247972712 0 -0.00074753485665414183 0.0141926251421705 0 -0.00076551100959580893 0.014459476547374188 0 -0.0010653101787761975 0.014314794114776267 0 -0.00074753485665414183 0.0141926251421705 0 -0.0034926619154169204 0.0069391161425242905 0 -0.003528816008783743 0.0065423932333657933 0 -0.00076551100959580893 0.014459476547374188 0 -0.00039767706549316708 0.014220197247972712 0 -0.00055922174926934041 0.014610105015101469 0 -0.0062861291662174796 -0.0013545520007280762 0 -0.0061643570253657248 -0.0015898550694489358 0 -0.0066363619540600761 -0.0012859327006633173 0 -0.0062861291662174796 -0.0013545520007280762 0 -0.0062999056509585377 -0.0013822486492610924 0 -0.0061643570253657248 -0.0015898550694489358 0 -0.0062999056509585377 -0.0013822486492610924 0 -0.0061643570253657248 -0.0015898550694489358 0 -0.0063727027147191884 -0.0015200464560977487 0 -0.00039767706549316708 0.014220197247972712 0 -0.00051409566315227366 0.014084827281908161 0 -0.00037396840401842909 0.014006504235523005 0 -0.0034926619154169204 0.0069391161425242905 0 -0.0034143292511786779 0.0037477304335060769 0 -0.0062861291662174796 -0.0013545520007280762 0 -0.0062999056509585377 -0.0013822486492610924 0 -0.0062715665843559101 -0.0012000070093652238 0 -0.00039767706549316708 0.014220197247972712 0 -0.00051409566315227366 0.014084827281908161 0 -0.00074753485665414183 0.0141926251421705 0 -0.00051409566315227366 0.014084827281908161 0 -0.00050757903097988074 0.013905419866425133 0 -0.00072796002163559332 0.013957887915096686 0 -0.0034143292511786779 0.0037477304335060769 0 -0.0006187682359010899 0.011192541645593508 0 -0.00051409566315227366 0.014084827281908161 0 -0.00037396840401842909 0.014006504235523005 0 -0.00050757903097988074 0.013905419866425133 0 -0.0029874080253610839 0.0060293039514429901 0 -0.0022317768762022999 0.0069907513569614395 0 -0.0038458851982265617 0.0073611087449113079 0 -0.0031167748174261299 0.00787298472588383 0 -0.0022317768762022999 0.0069907513569614395 0 -0.0038458851982265617 0.0073611087449113079 0 -0.00070582384883426347 0.013730117065884685 0 -0.00050757903097988074 0.013905419866425133 0 -0.00072796002163559332 0.013957887915096686 0 -0.0036903628314603159 0.01365128212618852 0 -0.0006187682359010899 0.011192541645593508 0 -0.0036903628314603159 0.01365128212618852 0 -0.0037449381313374793 0.017188712162161886 0 -0.00070582384883426347 0.013730117065884685 0 -0.00072796002163559332 0.013957887915096686 0 -0.001000878105737486 0.013923480076522306 0 -0.001000878105737486 0.013923480076522306 0 -0.0010653101787761975 0.014314794114776267 0 -0.00074753485665414183 0.0141926251421705 0 -0.00051409566315227366 0.014084827281908161 0 -0.00072796002163559332 0.013957887915096686 0 -0.00074753485665414183 0.0141926251421705 0 -0.00072796002163559332 0.013957887915096686 0 -0.001000878105737486 0.013923480076522306 0 -0.00074753485665414183 0.0141926251421705 0 8.3066530712397877e-05 0.024936557843580478 0 3.2589849185963447e-07 0.02499955123370411 0 1.2913395995137632e-07 0.024999878501376104 0 8.3066530712397877e-05 0.024936557843580478 0 0.00017614877571092032 0.024843422738330796 0 3.2589849185963447e-07 0.02499955123370411 0 8.3066530712397877e-05 0.024936557843580478 0 0.00017614877571092032 0.024843422738330796 0 0.00012880011613954119 0.024917229536992991 0 0.00019625089739340636 0.024778387658346501 0 0.00028290857514161685 0.024526582904278234 0 0.00017614877571092032 0.024843422738330796 0 3.2589849185963447e-07 0.02499955123370411 0 0.00019096339392779294 0.024733148452856679 0 0.0001051369024442789 0.024817217465361925 0 0.00019096339392779294 0.024733148452856679 0 0.00024669728533032538 0.024604200216593392 0 0.0001051369024442789 0.024817217465361925 0 3.2589849185963447e-07 0.02499955123370411 0 0.00019096339392779294 0.024733148452856679 0 0.00017614877571092032 0.024843422738330796 0 0.00019096339392779294 0.024733148452856679 0 0.00030946182092046292 0.024607180287788279 0 0.00019096339392779294 0.024733148452856679 0 0.00024239737766602605 0.024574554582145868 0 0.00030946182092046292 0.024607180287788279 0 0.00019096339392779294 0.024733148452856679 0 0.00024669728533032538 0.024604200216593392 0 0.00024239737766602605 0.024574554582145868 0 0.00024669728533032538 0.024604200216593392 0 0.00034956721097377649 0.02425761655862502 0 0.00024239737766602605 0.024574554582145868 0 0.00024239737766602605 0.024574554582145868 0 0.00030946182092046292 0.024607180287788279 0 0.00016318754444511635 0.024622010610630983 0 0.00034956721097377649 0.02425761655862502 0 0.00024239737766602605 0.024574554582145868 0 0.00016318754444511635 0.024622010610630983 0 0.00034742079666829576 0.024164654773520575 0 0.00015329790550599258 0.023310605042381687 0 0.00030946182092046292 0.024607180287788279 0 0.00026466890307290532 0.024264468841237889 0 0.00016318754444511635 0.024622010610630983 0 0.00030946182092046292 0.024607180287788279 0 0.00053652025736026262 0.024220139138440663 0 0.00026466890307290532 0.024264468841237889 0 0.00017614877571092032 0.024843422738330796 0 0.00030946182092046292 0.024607180287788279 0 0.00053652025736026262 0.024220139138440663 0 0.00026466890307290532 0.024264468841237889 0 -0.00026835783994194065 0.024008754515120377 0 0.00049022839390313547 0.023216296329287376 0 0.00053652025736026262 0.024220139138440663 0 0.00026466890307290532 0.024264468841237889 0 0.00049022839390313547 0.023216296329287376 0 -0.000313277379010883 0.020334613831516538 0 -0.0012896368009603623 0.019913806884559321 0 -0.0010505464358720672 0.021167821598252069 0 -0.0012896368009603623 0.019913806884559321 0 -0.0010505464358720672 0.021167821598252069 0 -0.0017998405948632108 0.020514676866851975 0 -0.0010505464358720672 0.021167821598252069 0 -0.00078052550456775174 0.022196068522862 0 -0.0015042420478850473 0.022067529938707739 0 -0.0010505464358720672 0.021167821598252069 0 -0.0015042420478850473 0.022067529938707739 0 -0.0019382729587377357 0.021363216823550739 0 0.00026466890307290532 0.024264468841237889 0 -0.00026835783994194065 0.024008754515120377 0 0.00016318754444511635 0.024622010610630983 0 -0.0010505464358720672 0.021167821598252069 0 0.00020023836535241652 0.022030324838109589 0 -0.00078052550456775174 0.022196068522862 0 -0.00028842452435930648 0.02217116044299541 0 0.00015329790550599258 0.023310605042381687 0 -0.000313277379010883 0.020334613831516538 0 -0.0010505464358720672 0.021167821598252069 0 0.00020023836535241652 0.022030324838109589 0 0.00034956721097377649 0.02425761655862502 0 0.00020023836535241652 0.022030324838109589 0 -0.00033546140597620914 0.023060476575366237 0 0.00020023836535241652 0.022030324838109589 0 -0.00033546140597620914 0.023060476575366237 0 -0.00078052550456775174 0.022196068522862 0 -0.00033546140597620914 0.023060476575366237 0 -0.00052980468315034796 0.023793800721118377 0 -3.3828520266630685e-06 0.024115788823939374 0 -0.00039858094690700815 0.024325077722404262 0 -0.00052980468315034796 0.023793800721118377 0 -3.3828520266630685e-06 0.024115788823939374 0 0.00034956721097377649 0.02425761655862502 0 -0.00033546140597620914 0.023060476575366237 0 -3.3828520266630685e-06 0.024115788823939374 0 -0.00042777293516473979 0.024239362763889934 0 -0.0014755297601603626 0.02369613482305219 0 -0.0010260722359412516 0.023482896424267687 0 -0.0014755297601603626 0.02369613482305219 0 -0.0010260722359412516 0.023482896424267687 0 -0.0013699413071064711 0.023210500993320903 0 -0.00042777293516473979 0.024239362763889934 0 -0.00052980468315034796 0.023793800721118377 0 -0.0010260722359412516 0.023482896424267687 0 -0.00033546140597620914 0.023060476575366237 0 -0.00052980468315034796 0.023793800721118377 0 -0.0010260722359412516 0.023482896424267687 0 -0.00033546140597620914 0.023060476575366237 0 -0.0010260722359412516 0.023482896424267687 0 -0.0011479094490761644 0.022785610420182043 0 -0.0013699413071064711 0.023210500993320903 0 -0.0011479094490761644 0.022785610420182043 0 -0.0018249845394496041 0.022875945363513814 0 -0.0010260722359412516 0.023482896424267687 0 -0.0013699413071064711 0.023210500993320903 0 -0.0011479094490761644 0.022785610420182043 0 -0.0011479094490761644 0.022785610420182043 0 -0.0015042420478850473 0.022067529938707739 0 -0.0018249845394496041 0.022875945363513814 0 -0.0011479094490761644 0.022785610420182043 0 -0.00078052550456775174 0.022196068522862 0 -0.0015042420478850473 0.022067529938707739 0 -0.00033546140597620914 0.023060476575366237 0 -0.0011479094490761644 0.022785610420182043 0 -0.00078052550456775174 0.022196068522862 0 -0.0015042420478850473 0.022067529938707739 0 -0.0022318975601808297 0.022089799165645532 0 -0.0019382729587377357 0.021363216823550739 0 -0.0022318975601808297 0.022089799165645532 0 -0.0018249845394496041 0.022875945363513814 0 -0.0025879677322748701 0.02255785258444391 0 -0.0015042420478850473 0.022067529938707739 0 -0.0022318975601808297 0.022089799165645532 0 -0.0018249845394496041 0.022875945363513814 0 -0.0014755297601603626 0.02369613482305219 0 -0.0018249845394496041 0.022875945363513814 0 -0.0024457280835144773 0.023009996579425707 0 -0.0018260297587712876 0.023509777851747238 0 -0.0015842714087213304 0.023246494875041629 0 -0.0024457280835144773 0.023009996579425707 0 -0.0015383007890759986 0.023462785919681897 0 -0.0023283203817387782 0.023099964626008718 0 -0.0014755297601603626 0.02369613482305219 0 -0.0013699413071064711 0.023210500993320903 0 -0.0018249845394496041 0.022875945363513814 0 -0.0018249845394496041 0.022875945363513814 0 -0.0024457280835144773 0.023009996579425707 0 -0.0025879677322748701 0.02255785258444391 0 -0.0029344256211190616 0.023371112181272236 0 -0.0018260297587712876 0.023509777851747238 0 -0.0024457280835144773 0.023009996579425707 0 -0.0029344256211190616 0.023371112181272236 0 -0.0024457280835144773 0.023009996579425707 0 -0.003059334626119277 0.022837505730598277 0 -0.0024457280835144773 0.023009996579425707 0 -0.0025879677322748701 0.02255785258444391 0 -0.003059334626119277 0.022837505730598277 0 -0.0025879677322748701 0.02255785258444391 0 -0.003059334626119277 0.022837505730598277 0 -0.0030781732951018141 0.022444977450356805 0 -0.0032995294995721014 0.02206923929235478 0 -0.0030781732951018141 0.022444977450356805 0 -0.0028292658107289211 0.022077888431708766 0 -0.0025879677322748701 0.02255785258444391 0 -0.0030781732951018141 0.022444977450356805 0 -0.0028292658107289211 0.022077888431708766 0 -0.0022318975601808297 0.022089799165645532 0 -0.0025879677322748701 0.02255785258444391 0 -0.0028292658107289211 0.022077888431708766 0 -0.0022318975601808297 0.022089799165645532 0 -0.0028292658107289211 0.022077888431708766 0 -0.0026231260233257909 0.02156827634392347 0 -0.0028292658107289211 0.022077888431708766 0 -0.0030917411784535057 0.021716029687523657 0 -0.0026231260233257909 0.02156827634392347 0 -0.0032995294995721014 0.02206923929235478 0 -0.0028292658107289211 0.022077888431708766 0 -0.0030917411784535057 0.021716029687523657 0 -0.0030917411784535057 0.021716029687523657 0 -0.0030839429352397659 0.021177373476784382 0 -0.0026231260233257909 0.02156827634392347 0 -0.0030839429352397659 0.021177373476784382 0 -0.0025190429162961414 0.02103012414461479 0 -0.0030529316116188611 0.020365971347408651 0 -0.0030839429352397659 0.021177373476784382 0 -0.0025190429162961414 0.02103012414461479 0 -0.0026231260233257909 0.02156827634392347 0 -0.0022318975601808297 0.022089799165645532 0 -0.0026231260233257909 0.02156827634392347 0 -0.0019382729587377357 0.021363216823550739 0 -0.0025190429162961414 0.02103012414461479 0 -0.0026231260233257909 0.02156827634392347 0 -0.0019382729587377357 0.021363216823550739 0 -0.0010505464358720672 0.021167821598252069 0 -0.0019382729587377357 0.021363216823550739 0 -0.0017998405948632108 0.020514676866851975 0 -0.0025190429162961414 0.02103012414461479 0 -0.0019382729587377357 0.021363216823550739 0 -0.0017998405948632108 0.020514676866851975 0 -0.0025190429162961414 0.02103012414461479 0 -0.0017998405948632108 0.020514676866851975 0 -0.0024451084543051418 0.020410678433086495 0 -0.0012896368009603623 0.019913806884559321 0 -0.0017998405948632108 0.020514676866851975 0 -0.0023987215643254387 0.019731738766075185 0 -0.0017998405948632108 0.020514676866851975 0 -0.0024451084543051418 0.020410678433086495 0 -0.0023987215643254387 0.019731738766075185 0 -0.0030529316116188611 0.020365971347408651 0 -0.0024451084543051418 0.020410678433086495 0 -0.0023987215643254387 0.019731738766075185 0 -0.003307057866086456 0.019453447102253444 0 -0.0030529316116188611 0.020365971347408651 0 -0.0023987215643254387 0.019731738766075185 0 -0.0025190429162961414 0.02103012414461479 0 -0.0030529316116188611 0.020365971347408651 0 -0.0024451084543051418 0.020410678433086495 0 -0.003307057866086456 0.019453447102253444 0 -0.0023987215643254387 0.019731738766075185 0 -0.0024505547879081014 0.018826865752783101 0 -0.0012896368009603623 0.019913806884559321 0 -0.0023987215643254387 0.019731738766075185 0 -0.0016786760835532004 0.019118200861672371 0 -0.0023987215643254387 0.019731738766075185 0 -0.0016786760835532004 0.019118200861672371 0 -0.0024505547879081014 0.018826865752783101 0 -0.0016786760835532004 0.019118200861672371 0 -0.0018099492161680485 0.018320770650338415 0 -0.0024505547879081014 0.018826865752783101 0 -0.0018099492161680485 0.018320770650338415 0 -0.0026258160357783759 0.018079329290011138 0 -0.0024505547879081014 0.018826865752783101 0 -0.003307057866086456 0.019453447102253444 0 -0.0033468585562863719 0.018412388933526279 0 -0.0024505547879081014 0.018826865752783101 0 -0.0033468585562863719 0.018412388933526279 0 -0.0026258160357783759 0.018079329290011138 0 -0.0024505547879081014 0.018826865752783101 0 -0.0033468585562863719 0.018412388933526279 0 -0.0035111666285412486 0.017405632666928187 0 -0.0026258160357783759 0.018079329290011138 0 -0.0035111666285412486 0.017405632666928187 0 -0.0020772219927323323 0.016147777289978724 0 -0.0020077244205837881 0.017385322069228062 0 -0.0035111666285412486 0.017405632666928187 0 -0.0026258160357783759 0.018079329290011138 0 -0.0020077244205837881 0.017385322069228062 0 -0.0020283794670333307 0.015178323696861677 0 -0.0020772219927323323 0.016147777289978724 0 -0.0020665928863468136 0.015665099695152181 0 -0.0026973475741004322 0.016276221302502836 0 -0.002076049331115608 0.016100630209488813 0 -0.0015084110840591154 0.016163652235153574 0 -0.0020772219927323323 0.016147777289978724 0 -0.0018490640902834908 0.015588841953501709 0 -0.0015084110840591154 0.016163652235153574 0 -0.0020772219927323323 0.016147777289978724 0 -0.0014111465853837209 0.017278333873346378 0 -0.0020772219927323323 0.016147777289978724 0 -0.0020077244205837881 0.017385322069228062 0 -0.0014111465853837209 0.017278333873346378 0 -0.0018099492161680485 0.018320770650338415 0 -0.0026258160357783759 0.018079329290011138 0 -0.0020077244205837881 0.017385322069228062 0 -0.0020077244205837881 0.017385322069228062 0 -0.0015125988513179671 0.017936164332713594 0 -0.0014111465853837209 0.017278333873346378 0 -0.0018099492161680485 0.018320770650338415 0 -0.0020077244205837881 0.017385322069228062 0 -0.0015125988513179671 0.017936164332713594 0 -0.00030004808736620468 0.018825423731216564 0 -0.00025328612766482237 0.016882060003846219 0 0.001058859404037475 0.020734795628011702 0 -0.0015125988513179671 0.017936164332713594 0 -0.0014111465853837209 0.017278333873346378 0 -0.00080809810975738389 0.018753693636854252 0 -0.00030004808736620468 0.018825423731216564 0 -0.0014111465853837209 0.017278333873346378 0 -0.00039875311436399945 0.020283776097372384 0 -0.00030004808736620468 0.018825423731216564 0 -0.0014111465853837209 0.017278333873346378 0 -0.00025328612766482237 0.016882060003846219 0 -0.0015084110840591154 0.016163652235153574 0 -0.0014111465853837209 0.017278333873346378 0 -0.00025328612766482237 0.016882060003846219 0 -0.00090885683492089369 0.019113290351411225 0 -0.0014494413654512403 0.018171033147760158 0 -0.0015084110840591154 0.016163652235153574 0 -0.00025328612766482237 0.016882060003846219 0 -0.0012436087236557846 0.015613096830629289 0 -0.0015212081697235738 0.021357706522347152 0 -0.0012013650978635626 0.020821748787128676 0 -0.0017111938315756015 0.020784251953256887 0 -0.0015212081697235738 0.021357706522347152 0 -0.00074195995502811403 0.021269447035448991 0 -0.0012013650978635626 0.020821748787128676 0 -0.00041716675452419932 0.023182993186925269 0 -0.00036401610394504955 0.023049692433279211 0 -0.00090885683492089369 0.019113290351411225 0 -0.00017940095369866238 0.021834488325839251 0 -0.0015212081697235738 0.021357706522347152 0 -0.0013374277618200226 0.021928240631183663 0 -0.0012832182244275265 0.021867194708860029 0 -0.0015212081697235738 0.021357706522347152 0 -0.0012832182244275265 0.021867194708860029 0 -0.00074195995502811403 0.021269447035448991 0 -0.00013481879483813469 0.022162036872910698 0 -0.00016424599248508618 0.022973774461072759 0 0.00049022839390313547 0.023216296329287376 0 -0.00013481879483813469 0.022162036872910698 0 -5.7817630861807921e-05 0.021854665479253712 0 0.00049022839390313547 0.023216296329287376 0 -0.00041716675452419932 0.023182993186925269 0 0.00035102305623082209 0.024108604039133882 0 -0.00013481879483813469 0.022162036872910698 0 -0.00025220912116570294 0.022050400772734954 0 -0.00016424599248508618 0.022973774461072759 0 -0.00017940095369866238 0.021834488325839251 0 -8.7099038345275659e-05 0.021806237248837648 0 -0.00014502010810044289 0.022128241553836133 0 -0.00013481879483813469 0.022162036872910698 0 -0.00025220912116570294 0.022050400772734954 0 -0.00018299198508264786 0.02198089745835978 0 -0.00013481879483813469 0.022162036872910698 0 -5.7817630861807921e-05 0.021854665479253712 0 -0.00017940095369866238 0.021834488325839251 0 -0.00015478950253363584 0.021931852546589047 0 -0.00017940095369866238 0.021834488325839251 0 -0.00041716675452419932 0.023182993186925269 0 -0.00030004808736620468 0.018825423731216564 0 0.001058859404037475 0.020734795628011702 0 -0.00039875311436399945 0.020283776097372384 0 -0.0018099492161680485 0.018320770650338415 0 -0.0015125988513179671 0.017936164332713594 0 -0.00080809810975738389 0.018753693636854252 0 -0.0014111465853837209 0.017278333873346378 0 -0.00039875311436399945 0.020283776097372384 0 -0.0007944650287975228 0.022579427624575689 0 -0.0014129606522186539 0.017561235133463651 0 -0.00077327936443158114 0.020587677305520198 0 -0.0016786760835532004 0.019118200861672371 0 -0.0018099492161680485 0.018320770650338415 0 -0.00080809810975738389 0.018753693636854252 0 0.001058859404037475 0.020734795628011702 0 -0.00039875311436399945 0.020283776097372384 0 -0.00025220912116570294 0.022050400772734954 0 -0.00039875311436399945 0.020283776097372384 0 -0.0007944650287975228 0.022579427624575689 0 -0.00025220912116570294 0.022050400772734954 0 -0.0007944650287975228 0.022579427624575689 0 -0.00025220912116570294 0.022050400772734954 0 -0.00016424599248508618 0.022973774461072759 0 -0.000313277379010883 0.020334613831516538 0 -0.0012896368009603623 0.019913806884559321 0 -0.00080809810975738389 0.018753693636854252 0 -0.00028842452435930648 0.02217116044299541 0 -0.00077327936443158114 0.020587677305520198 0 -0.0012896368009603623 0.019913806884559321 0 -0.0016786760835532004 0.019118200861672371 0 -0.00080809810975738389 0.018753693636854252 0 -0.00026835783994194065 0.024008754515120377 0 -0.00016424599248508618 0.022973774461072759 0 0.00049022839390313547 0.023216296329287376 0 -0.00026835783994194065 0.024008754515120377 0 -0.0007944650287975228 0.022579427624575689 0 -0.00016424599248508618 0.022973774461072759 0 0.00028290857514161685 0.024526582904278234 0 0.00035102305623082209 0.024108604039133882 0 0.00012880011613954119 0.024917229536992991 0 0.00011111579248528974 0.02493975031776622 0 0.00010466875308883006 0.02494885201900137 0 0.00010466875308883006 0.02494885201900137 0 9.0221094559997421e-05 0.024964215136690539 0 7.4550958600165957e-05 0.024974670513776095 0 0.00010466875308883006 0.02494885201900137 0 9.0221094559997421e-05 0.024964215136690539 0 0.00010200115868350709 0.024951544914313149 0 0.0001107535766913373 0.024936000901970429 0 0.00011111579248528974 0.02493975031776622 0 0.00010200115868350709 0.024951544914313149 0 0.00011111579248528974 0.02493975031776622 0 0.00010466875308883006 0.02494885201900137 0 0.00010200115868350709 0.024951544914313149 0 0.00010200115868350709 0.024951544914313149 0 9.7932330388101192e-05 0.024961866866965034 0 8.5290601305404318e-05 0.024968985853397324 0 0.0001107535766913373 0.024936000901970429 0 0.00010200115868350709 0.024951544914313149 0 9.7932330388101192e-05 0.024961866866965034 0 8.5290601305404318e-05 0.024968985853397324 0 6.9473440285378743e-05 0.024978020275171257 0 7.7119714195249237e-05 0.024979452805395236 0 9.7932330388101192e-05 0.024961866866965034 0 8.5290601305404318e-05 0.024968985853397324 0 7.7119714195249237e-05 0.024979452805395236 0 9.0221094559997421e-05 0.024964215136690539 0 0.00010200115868350709 0.024951544914313149 0 8.5290601305404318e-05 0.024968985853397324 0 9.0221094559997421e-05 0.024964215136690539 0 8.5290601305404318e-05 0.024968985853397324 0 7.5897052047980382e-05 0.024975770026545829 0 7.5897052047980382e-05 0.024975770026545829 0 6.9473440285378743e-05 0.024978020275171257 0 5.8948248990326267e-05 0.024989769823034313 0 6.5188967060956596e-05 0.024983773066176045 0 4.1293189028918338e-05 0.02498973165865161 0 7.5897052047980382e-05 0.024975770026545829 0 5.8948248990326267e-05 0.024989769823034313 0 7.4550958600165957e-05 0.024974670513776095 0 8.5290601305404318e-05 0.024968985853397324 0 7.5897052047980382e-05 0.024975770026545829 0 6.9473440285378743e-05 0.024978020275171257 0 5.1099969042145721e-05 0.024986172617639101 0 6.9473440285378743e-05 0.024978020275171257 0 7.7119714195249237e-05 0.024979452805395236 0 5.1099969042145721e-05 0.024986172617639101 0 6.9473440285378743e-05 0.024978020275171257 0 2.6052476211292476e-05 0.024989668637931815 0 -1.6672297589697202e-06 0.024999420863027606 0 1.9418054330970826e-09 0.02499999846111834 0 -8.7859690141490204e-08 0.024992749023084026 0 -1.6672297589697202e-06 0.024999420863027606 0 1.9418054330970826e-09 0.02499999846111834 0 -8.0429346200152565e-10 0.025000003154709991 0 5.1099969042145721e-05 0.024986172617639101 0 5.9838253344134174e-08 0.024999992428619281 0 2.6052476211292476e-05 0.024989668637931815 0 5.9838253344134174e-08 0.024999992428619281 0 2.6052476211292476e-05 0.024989668637931815 0 -3.2261105600576724e-08 0.024999986317906411 0 8.8911227975553789e-05 0.025233435174089193 0 -1.7688142896738325e-07 0.024999707925364986 0 4.1293189028918338e-05 0.02498973165865161 0 1.3928998647631331e-08 0.024999987191764668 0 5.8948248990326267e-05 0.024989769823034313 0 1.2913395995137632e-07 0.024999878501376104 0 7.4550958600165957e-05 0.024974670513776095 0 9.0221094559997421e-05 0.024964215136690539 0 7.5897052047980382e-05 0.024975770026545829 0 7.4550958600165957e-05 0.024974670513776095 0 8.3066530712397877e-05 0.024936557843580478 0 0.00010466875308883006 0.02494885201900137 0 7.4550958600165957e-05 0.024974670513776095 0 8.3066530712397877e-05 0.024936557843580478 0 0.00012880011613954119 0.024917229536992991 0 0.00010466875308883006 0.02494885201900137 0 8.3066530712397877e-05 0.024936557843580478 0 1.2913395995137632e-07 0.024999878501376104 0 7.4550958600165957e-05 0.024974670513776095 0 -1.7846408311575111e-08 0.024999849054160788 0 5.3628051737837941e-05 0.024926940040641464 0 1.9497742427136116e-07 0.024999751919698322 0 5.3628051737837941e-05 0.024926940040641464 0 5.5267091471281732e-05 0.024844651871284328 0 6.6972286478684953e-05 0.024844711274274397 0 5.3628051737837941e-05 0.024926940040641464 0 5.2333013462513529e-05 0.024917785631288429 0 5.5267091471281732e-05 0.024844651871284328 0 5.2333013462513529e-05 0.024917785631288429 0 4.8109114493424591e-05 0.024931349212962733 0 4.5265260757846699e-05 0.024945316104731559 0 -0.00014647490304286676 0.024688993962513395 0 -0.00014942918589846464 0.024404318666226773 0 5.3628051737837941e-05 0.024926940040641464 0 5.2333013462513529e-05 0.024917785631288429 0 4.8109114493424591e-05 0.024931349212962733 0 -1.7846408311575111e-08 0.024999849054160788 0 5.3628051737837941e-05 0.024926940040641464 0 4.8109114493424591e-05 0.024931349212962733 0 9.2193498288996526e-10 0.025000000039473357 0 -1.3519514923771683e-06 0.024998183560014462 0 -1.8505270932872692e-09 0.024999997545522467 0 -4.6064958560929294e-08 0.025000043460449695 0 -0.00014647490304286676 0.024688993962513395 0 -0.00014647490304286676 0.024688993962513395 0 -9.925740697508455e-09 0.024999849394969555 0 3.3975813854232893e-07 0.024997892176430756 0 -6.8632448058695306e-10 0.025000000825318766 0 -1.4386352368364533e-07 0.024996582817254524 0 -6.8632448058695306e-10 0.025000000825318766 0 -1.4386352368364533e-07 0.024996582817254524 0 -1.3614591727623783e-09 0.024999984422369063 0 -1.4386352368364533e-07 0.024996582817254524 0 -1.3614591727623783e-09 0.024999984422369063 0 -8.7859690141490204e-08 0.024992749023084026 0 1.9418054330970826e-09 0.02499999846111834 0 -1.3614591727623783e-09 0.024999984422369063 0 -8.7859690141490204e-08 0.024992749023084026 0 -8.7859690141490204e-08 0.024992749023084026 0 -1.0768601611533298e-05 0.024979307716385072 0 -1.2549174231517126e-05 0.024980732385631886 0 9.5772488855591496e-05 0.02501175820455399 0 -0.0001375221669456482 0.02405589318794529 0 -1.6672297589697202e-06 0.024999420863027606 0 -8.7859690141490204e-08 0.024992749023084026 0 -1.2549174231517126e-05 0.024980732385631886 0 8.8911227975553789e-05 0.025233435174089193 0 9.8213548494310764e-05 0.023479846643463531 0 -0.0001375221669456482 0.02405589318794529 0 9.8213548494310764e-05 0.023479846643463531 0 -1.4386352368364533e-07 0.024996582817254524 0 -8.7859690141490204e-08 0.024992749023084026 0 3.4063935123569476e-06 0.024987166334862553 0 -0.00014647490304286676 0.024688993962513395 0 -0.0001375221669456482 0.02405589318794529 0 -0.00045834783002636872 0.02390373385878275 0 -0.00033671477628821432 0.023754491330054413 0 -0.00034205890557431428 0.023866558131070727 0 3.3975813854232893e-07 0.024997892176430756 0 -1.4386352368364533e-07 0.024996582817254524 0 3.4063935123569476e-06 0.024987166334862553 0 -0.00034205890557431428 0.023866558131070727 0 -0.00022878579267120985 0.023828674810870115 0 -0.0002871580228694498 0.023761363584372919 0 -0.00014942918589846464 0.024404318666226773 0 -0.00050451516559651781 0.022882187388037562 0 -0.00050451516559651781 0.022882187388037562 0 -0.00036715094821523729 0.022665994785855945 0 -0.00033671477628821432 0.023754491330054413 0 -0.00034205890557431428 0.023866558131070727 0 -0.0002871580228694498 0.023761363584372919 0 0.0001138140240244421 0.023378762929612159 0 -0.00021335920170410818 0.023317664338686903 0 -2.8310202502443611e-05 0.023534762010176173 0 -0.00036401610394504955 0.023049692433279211 0 9.8213548494310764e-05 0.023479846643463531 0 -0.00031010858337980705 0.020561707427205932 0 -0.00020203033336897475 0.020691973146527456 0 -0.00070874995543714352 0.020745743973211942 0 -0.00074195995502811403 0.021269447035448991 0 -0.00020203033336897475 0.020691973146527456 0 -0.00070874995543714352 0.020745743973211942 0 -0.0001375221669456482 0.02405589318794529 0 -0.00036715094821523729 0.022665994785855945 0 -0.00036715094821523729 0.022665994785855945 0 9.8213548494310764e-05 0.023479846643463531 0 -0.00070874995543714352 0.020745743973211942 0 -0.0010943415674846161 0.020382492947856302 0 -0.0012013650978635626 0.020821748787128676 0 -0.00031010858337980705 0.020561707427205932 0 -0.00070874995543714352 0.020745743973211942 0 -0.0010943415674846161 0.020382492947856302 0 -0.00074195995502811403 0.021269447035448991 0 -0.00070874995543714352 0.020745743973211942 0 -0.0012013650978635626 0.020821748787128676 0 -0.00036715094821523729 0.022665994785855945 0 -0.0012998686850514707 0.021078363613709763 0 -0.00056699618750923628 0.021926939220497994 0 -0.00028650623912341477 0.022257272065242719 0 -0.0012270213838360055 0.022076600318278499 0 -0.00050451516559651781 0.022882187388037562 0 -0.0012998686850514707 0.021078363613709763 0 -1.4945227724584847e-05 0.0249747244908144 0 8.0778477859767891e-06 0.024912940977946659 0 -0.00014623899992729887 0.024922083456748553 0 -0.0014114854513354892 0.020996147222330737 0 -0.0016506079291105317 0.020735754796876366 0 -0.0016683957701130127 0.021033405582339418 0 -0.00050451516559651781 0.022882187388037562 0 -0.00093686118071965613 0.022833931764423044 0 4.5265260757846699e-05 0.024945316104731559 0 -1.4945227724584847e-05 0.0249747244908144 0 8.0778477859767891e-06 0.024912940977946659 0 5.2333013462513529e-05 0.024917785631288429 0 4.5265260757846699e-05 0.024945316104731559 0 8.0778477859767891e-06 0.024912940977946659 0 8.0778477859767891e-06 0.024912940977946659 0 5.5267091471281732e-05 0.024844651871284328 0 -1.9908066960541434e-05 0.024826546882697781 0 5.2333013462513529e-05 0.024917785631288429 0 8.0778477859767891e-06 0.024912940977946659 0 5.5267091471281732e-05 0.024844651871284328 0 8.0778477859767891e-06 0.024912940977946659 0 -1.9908066960541434e-05 0.024826546882697781 0 -0.00014623899992729887 0.024922083456748553 0 -1.9908066960541434e-05 0.024826546882697781 0 -0.00014623899992729887 0.024922083456748553 0 -0.00012876454354474691 0.024680720019875126 0 -0.00014623899992729887 0.024922083456748553 0 -0.0004848386504600172 0.024700078022982137 0 -0.00012876454354474691 0.024680720019875126 0 -0.00093686118071965613 0.022833931764423044 0 -0.0011774341883991253 0.022621624988413244 0 -0.0019587385761799239 0.020713624849702499 0 -0.00206640477891046 0.020603591860611458 0 -0.0018911931083563289 0.020530803972902217 0 -0.0019587385761799239 0.020713624849702499 0 -0.0016506079291105317 0.020735754796876366 0 -0.0018911931083563289 0.020530803972902217 0 -0.0019587385761799239 0.020713624849702499 0 -0.0019319273317141737 0.020819482572963031 0 -0.0018051776199460052 0.020825520973255622 0 -0.0019587385761799239 0.020713624849702499 0 -0.0019319273317141737 0.020819482572963031 0 -0.0020172521432802993 0.020871378293113155 0 -0.0019319273317141737 0.020819482572963031 0 -0.0019749986027615104 0.020885513536482051 0 -0.0020172521432802993 0.020871378293113155 0 -0.0019319273317141737 0.020819482572963031 0 -0.0018051776199460052 0.020825520973255622 0 -0.0019749986027615104 0.020885513536482051 0 -0.0018051776199460052 0.020825520973255622 0 -0.0016506079291105317 0.020735754796876366 0 -0.0016683957701130127 0.021033405582339418 0 -0.0019587385761799239 0.020713624849702499 0 -0.0018051776199460052 0.020825520973255622 0 -0.0016506079291105317 0.020735754796876366 0 -0.0018051776199460052 0.020825520973255622 0 -0.0016683957701130127 0.021033405582339418 0 -0.0019749986027615104 0.020885513536482051 0 -0.0012429128798672039 0.020573686180004439 0 -0.0012998686850514707 0.021078363613709763 0 -0.0014194303181178896 0.020438324594689812 0 -0.0010943415674846161 0.020382492947856302 0 -0.0012013650978635626 0.020821748787128676 0 -0.0014194303181178896 0.020438324594689812 0 -0.0012013650978635626 0.020821748787128676 0 -0.0017111938315756015 0.020784251953256887 0 -0.0014494413654512403 0.018171033147760158 0 -0.0018757558433981671 0.018183379470211425 0 -0.0016683957701130127 0.021033405582339418 0 -0.0019749986027615104 0.020885513536482051 0 -0.0020018107972514351 0.020934642205325593 0 -0.0012998686850514707 0.021078363613709763 0 -0.0018757558433981671 0.018183379470211425 0 -0.0014194303181178896 0.020438324594689812 0 -0.001079780666532122 0.020364430041295067 0 -0.0019044567292378213 0.020188297659759148 0 -0.0014194303181178896 0.020438324594689812 0 -0.0017111938315756015 0.020784251953256887 0 -0.0019044567292378213 0.020188297659759148 0 -0.0020166953644808155 0.019041392466822921 0 -0.0022641917269908729 0.018681209842373054 0 -0.0019749986027615104 0.020885513536482051 0 -0.0020018107972514351 0.020934642205325593 0 -0.0020234523619488049 0.020870281401741509 0 -0.0012436087236557846 0.015613096830629289 0 -0.0016257715754315724 0.015308291631592669 0 -0.0017882948947830703 0.015432984529633703 0 -0.0018757558433981671 0.018183379470211425 0 -0.0020062243183676539 0.015658225497376565 0 -0.0018757558433981671 0.018183379470211425 0 -0.0022641917269908729 0.018681209842373054 0 -0.0018638892642888298 0.015425617407248326 0 -0.0018947853440280137 0.015409782532021602 0 -0.001868905817388833 0.015405792277954669 0 -0.0016257715754315724 0.015308291631592669 0 -0.0018947853440280137 0.015409782532021602 0 -0.0017882948947830703 0.015432984529633703 0 -0.0018947853440280137 0.015409782532021602 0 -0.0017882948947830703 0.015432984529633703 0 -0.0019619688647612363 0.015458701873632187 0 -0.0020772219927323323 0.016147777289978724 0 -0.0018490640902834908 0.015588841953501709 0 -0.0020665928863468136 0.015665099695152181 0 -0.0015084110840591154 0.016163652235153574 0 -0.0012436087236557846 0.015613096830629289 0 -0.0018490640902834908 0.015588841953501709 0 -0.0012436087236557846 0.015613096830629289 0 -0.0017882948947830703 0.015432984529633703 0 -0.0018490640902834908 0.015588841953501709 0 -0.0017882948947830703 0.015432984529633703 0 -0.0018490640902834908 0.015588841953501709 0 -0.0019619688647612363 0.015458701873632187 0 -0.0018490640902834908 0.015588841953501709 0 -0.0020665928863468136 0.015665099695152181 0 -0.0019619688647612363 0.015458701873632187 0 -0.0020665928863468136 0.015665099695152181 0 -0.0019619688647612363 0.015458701873632187 0 -0.0019356206105662845 0.015440390367746864 0 -0.0019619688647612363 0.015458701873632187 0 -0.0019328659090425569 0.015459391625429038 0 -0.0018950371448594153 0.015452455429522581 0 -0.0018947853440280137 0.015409782532021602 0 -0.0019619688647612363 0.015458701873632187 0 -0.0019328659090425569 0.015459391625429038 0 -0.0016165879384773809 0.018307517158876442 0 -0.002679786566411874 0.018105446155848862 0 -0.0023341487131001144 0.019236106297873017 0 -0.001789884159241731 0.016691528239725341 0 -0.0022641917269908729 0.018681209842373054 0 -0.0022641917269908729 0.018681209842373054 0 -0.002172943301780729 0.020109888487662278 0 -0.0018947853440280137 0.015409782532021602 0 -0.0019328659090425569 0.015459391625429038 0 -0.001868905817388833 0.015405792277954669 0 -0.0019587385761799239 0.020713624849702499 0 -0.0020172521432802993 0.020871378293113155 0 -0.00206640477891046 0.020603591860611458 0 -0.0023341487131001144 0.019236106297873017 0 -0.0014745949768423252 0.019027084962488786 0 -0.001595055376043622 0.019686002413960259 0 -0.0016165879384773809 0.018307517158876442 0 -0.0023341487131001144 0.019236106297873017 0 -0.0014745949768423252 0.019027084962488786 0 -0.001595055376043622 0.019686002413960259 0 -0.0019353494423202566 0.02045571511796837 0 -0.0013266738375088977 0.020221010518914527 0 -0.0023341487131001144 0.019236106297873017 0 -0.001595055376043622 0.019686002413960259 0 -0.0019353494423202566 0.02045571511796837 0 -0.00206640477891046 0.020603591860611458 0 -0.0020163763181307373 0.020520498518914604 0 -0.0019353494423202566 0.02045571511796837 0 -0.002172943301780729 0.020109888487662278 0 -0.0019734519923681765 0.020363047422216573 0 -0.00206640477891046 0.020603591860611458 0 -0.0020163763181307373 0.020520498518914604 0 -0.0018911931083563289 0.020530803972902217 0 -0.0020163763181307373 0.020520498518914604 0 -0.0021140738021245909 0.020578698615654287 0 -0.0019353494423202566 0.02045571511796837 0 -0.0021140738021245909 0.020578698615654287 0 -0.0018420059845549311 0.020814178647916955 0 -0.0019353494423202566 0.02045571511796837 0 -0.0018420059845549311 0.020814178647916955 0 -0.0019353494423202566 0.02045571511796837 0 -0.0015548762520481174 0.020822530186239082 0 -0.0019353494423202566 0.02045571511796837 0 -0.0015548762520481174 0.020822530186239082 0 -0.0013266738375088977 0.020221010518914527 0 -0.0015548762520481174 0.020822530186239082 0 -0.0017443673983708427 0.021443267111812866 0 -0.0012439753948734599 0.02122930875082369 0 -0.0018420059845549311 0.020814178647916955 0 -0.0015548762520481174 0.020822530186239082 0 -0.0017443673983708427 0.021443267111812866 0 0.00018928398207729099 0.023412949215900668 0 -0.0001395990970291204 0.022669017123483515 0 -0.0012494349739647788 0.022616393639958394 0 -0.0011650364147352938 0.022259540391365653 0 -0.00038642962098627253 0.021460516180769825 0 -0.00046390134236417793 0.022454391790077435 0 -5.2881731259430851e-06 0.023147479244241893 0 -0.00032379617922404658 0.023307071599018195 0 -0.00046390134236417793 0.022454391790077435 0 -0.00070294292161208398 0.022480696849938225 0 -0.00032379617922404658 0.023307071599018195 0 -0.00046390134236417793 0.022454391790077435 0 -5.2881731259430851e-06 0.023147479244241893 0 -0.001684304770825549 0.021879753675079341 0 -0.0012236637949737542 0.022158243200705866 0 -0.0011846532971911542 0.022161903464118008 0 -0.00083043218021296281 0.022010735883891918 0 -0.00046390134236417793 0.022454391790077435 0 -0.00070294292161208398 0.022480696849938225 0 -0.00032379617922404658 0.023307071599018195 0 -0.00070294292161208398 0.022480696849938225 0 -0.0011846532971911542 0.022161903464118008 0 -0.00083043218021296281 0.022010735883891918 0 -0.00070294292161208398 0.022480696849938225 0 -0.0011846532971911542 0.022161903464118008 0 -0.00032379617922404658 0.023307071599018195 0 -5.2881731259430851e-06 0.023147479244241893 0 9.1651691429276092e-05 0.023408531245889607 0 -5.2881731259430851e-06 0.023147479244241893 0 9.1651691429276092e-05 0.023408531245889607 0 4.7904173191707592e-05 0.023332567093034148 0 6.6982219970260638e-05 0.023286117013008398 0 -5.2881731259430851e-06 0.023147479244241893 0 4.7904173191707592e-05 0.023332567093034148 0 -0.0021140738021245909 0.020578698615654287 0 -0.0018420059845549311 0.020814178647916955 0 -0.0017443673983708427 0.021443267111812866 0 -0.00092154224371810453 0.024270689981222671 0 -0.0013507637273504232 0.023763954964149084 0 -0.00085299994680704196 0.023911529141295174 0 -0.0012494349739647788 0.022616393639958394 0 -0.00028266349798247584 0.023757555572804422 0 -0.0015534844687588839 0.022427702905508506 0 -0.0012494349739647788 0.022616393639958394 0 -0.00092154224371810453 0.024270689981222671 0 -0.00085299994680704196 0.023911529141295174 0 -0.00067907662340563725 0.024138918082719792 0 9.1651691429276092e-05 0.023408531245889607 0 3.9737400248578613e-05 0.02348360127600593 0 -8.1010070726769244e-06 0.023658498115021052 0 -0.00085299994680704196 0.023911529141295174 0 -0.00067907662340563725 0.024138918082719792 0 -0.00040660339045287734 0.024067611089868473 0 -0.00028266349798247584 0.023757555572804422 0 -0.00020180999543879406 0.023873099520492817 0 8.2222824201678952e-05 0.023370944749264676 0 3.9737400248578613e-05 0.02348360127600593 0 4.7904173191707592e-05 0.023332567093034148 0 9.1651691429276092e-05 0.023408531245889607 0 3.9737400248578613e-05 0.02348360127600593 0 4.7904173191707592e-05 0.023332567093034148 0 8.2222824201678952e-05 0.023370944749264676 0 3.9737400248578613e-05 0.02348360127600593 0 7.8336298964799006e-05 0.02349586071557612 0 -0.00020180999543879406 0.023873099520492817 0 8.0696628891496294e-05 0.02411468899318606 0 7.8336298964799006e-05 0.02349586071557612 0 -8.1010070726769244e-06 0.023658498115021052 0 9.7849794924850992e-05 0.023746853838890004 0 3.9737400248578613e-05 0.02348360127600593 0 7.8336298964799006e-05 0.02349586071557612 0 -8.1010070726769244e-06 0.023658498115021052 0 -0.0002492771938548772 0.024366778608069323 0 -0.00054643436247179709 0.024312638575664954 0 -0.0004848386504600172 0.024700078022982137 0 -0.00040660339045287734 0.024067611089868473 0 -0.0002492771938548772 0.024366778608069323 0 5.4504023940878406e-05 0.024166561984418765 0 -0.00040660339045287734 0.024067611089868473 0 -0.0002492771938548772 0.024366778608069323 0 -0.00054643436247179709 0.024312638575664954 0 -0.0015534844687588839 0.022427702905508506 0 -0.0011774341883991253 0.022621624988413244 0 -0.00092154224371810453 0.024270689981222671 0 -0.00067907662340563725 0.024138918082719792 0 -0.00054643436247179709 0.024312638575664954 0 -0.00067907662340563725 0.024138918082719792 0 -0.00040660339045287734 0.024067611089868473 0 -0.00054643436247179709 0.024312638575664954 0 -0.00092154224371810453 0.024270689981222671 0 -0.00054643436247179709 0.024312638575664954 0 -0.0004848386504600172 0.024700078022982137 0 -0.0020163763181307373 0.020520498518914604 0 -0.0021140738021245909 0.020578698615654287 0 -0.0018911931083563289 0.020530803972902217 0 -0.0002492771938548772 0.024366778608069323 0 -0.0004848386504600172 0.024700078022982137 0 -0.00012876454354474691 0.024680720019875126 0 -0.00012876454354474691 0.024680720019875126 0 5.5816464697208009e-05 0.024692231715550454 0 -3.2908946018754362e-07 0.02452528509362149 0 -1.9908066960541434e-05 0.024826546882697781 0 -0.00012876454354474691 0.024680720019875126 0 5.5816464697208009e-05 0.024692231715550454 0 5.5267091471281732e-05 0.024844651871284328 0 9.1562836588401393e-05 0.024699772492693978 0 5.5816464697208009e-05 0.024692231715550454 0 5.5267091471281732e-05 0.024844651871284328 0 -1.9908066960541434e-05 0.024826546882697781 0 5.5816464697208009e-05 0.024692231715550454 0 9.1562836588401393e-05 0.024699772492693978 0 5.5816464697208009e-05 0.024692231715550454 0 0.0001951994569655217 0.024541172409145801 0 9.1562836588401393e-05 0.024699772492693978 0 0.0001951994569655217 0.024541172409145801 0 8.2295508430225029e-05 0.024765662079741995 0 0.0001951994569655217 0.024541172409145801 0 5.4504023940878406e-05 0.024166561984418765 0 0.0001701483552717865 0.024030379723298013 0 0.0001951994569655217 0.024541172409145801 0 5.4504023940878406e-05 0.024166561984418765 0 -3.2908946018754362e-07 0.02452528509362149 0 -0.0002492771938548772 0.024366778608069323 0 -0.00012876454354474691 0.024680720019875126 0 -3.2908946018754362e-07 0.02452528509362149 0 5.5816464697208009e-05 0.024692231715550454 0 0.0001951994569655217 0.024541172409145801 0 -3.2908946018754362e-07 0.02452528509362149 0 -0.0002492771938548772 0.024366778608069323 0 5.4504023940878406e-05 0.024166561984418765 0 -3.2908946018754362e-07 0.02452528509362149 0 -8.1010070726769244e-06 0.023658498115021052 0 5.4504023940878406e-05 0.024166561984418765 0 9.7849794924850992e-05 0.023746853838890004 0 5.4504023940878406e-05 0.024166561984418765 0 0.0001701483552717865 0.024030379723298013 0 9.7849794924850992e-05 0.023746853838890004 0 0.0001701483552717865 0.024030379723298013 0 9.7849794924850992e-05 0.023746853838890004 0 0.00038130893531597876 0.023711685253920794 0 7.8336298964799006e-05 0.02349586071557612 0 9.7849794924850992e-05 0.023746853838890004 0 0.00021151234024573864 0.023548848608803696 0 0.00021870233329955707 0.023443668534197978 0 7.8336298964799006e-05 0.02349586071557612 0 0.00021151234024573864 0.023548848608803696 0 9.7849794924850992e-05 0.023746853838890004 0 0.00021151234024573864 0.023548848608803696 0 0.00038130893531597876 0.023711685253920794 0 0.00021323272398962389 0.024158238275165386 0 0.00024535725017955787 0.024339584632045726 0 0.00031038075086783695 0.023448742141178088 0 0.00021151234024573864 0.023548848608803696 0 0.00038130893531597876 0.023711685253920794 0 7.7695029599143212e-05 0.024999370127852093 0 5.6755312088450821e-05 0.024968903576026838 0 0.00014806782124618262 0.024927368699843244 0 5.6755312088450821e-05 0.024968903576026838 0 5.5390104874901552e-05 0.024903013887342767 0 0.00014806782124618262 0.024927368699843244 0 0.0001951994569655217 0.024541172409145801 0 0.00014806782124618262 0.024927368699843244 0 8.2295508430225029e-05 0.024765662079741995 0 0.00021232416627282031 0.02450839177505084 0 0.00024535725017955787 0.024339584632045726 0 0.0001951994569655217 0.024541172409145801 0 0.0001701483552717865 0.024030379723298013 0 0.00038130893531597876 0.023711685253920794 0 5.5390104874901552e-05 0.024903013887342767 0 0.00014806782124618262 0.024927368699843244 0 8.2295508430225029e-05 0.024765662079741995 0 5.5390104874901552e-05 0.024903013887342767 0 8.2295508430225029e-05 0.024765662079741995 0 1.5135235589342759e-05 0.024900761895592136 0 1.5135235589342759e-05 0.024900761895592136 0 2.3833016673085442e-05 0.024945337964323088 0 2.5717220790441368e-06 0.024969699205945772 0 5.5390104874901552e-05 0.024903013887342767 0 1.5135235589342759e-05 0.024900761895592136 0 2.3833016673085442e-05 0.024945337964323088 0 5.6755312088450821e-05 0.024968903576026838 0 2.3833016673085442e-05 0.024945337964323088 0 1.0221474446422666e-05 0.024986467889844963 0 3.3774805534664362e-05 0.024999063972445938 0 5.6755312088450821e-05 0.024968903576026838 0 1.0221474446422666e-05 0.024986467889844963 0 5.6755312088450821e-05 0.024968903576026838 0 5.5390104874901552e-05 0.024903013887342767 0 2.3833016673085442e-05 0.024945337964323088 0 2.3833016673085442e-05 0.024945337964323088 0 1.0221474446422666e-05 0.024986467889844963 0 2.5717220790441368e-06 0.024969699205945772 0 -8.084362574051716e-09 0.024999989665490902 0 2.5717220790441368e-06 0.024969699205945772 0 1.0527268010260891e-08 0.024999863567593841 0 1.0221474446422666e-05 0.024986467889844963 0 -8.084362574051716e-09 0.024999989665490902 0 2.5717220790441368e-06 0.024969699205945772 0 1.5135235589342759e-05 0.024900761895592136 0 2.5717220790441368e-06 0.024969699205945772 0 1.0527268010260891e-08 0.024999863567593841 0 1.5135235589342759e-05 0.024900761895592136 0 1.0527268010260891e-08 0.024999863567593841 0 5.0727617963782678e-06 0.02495087457879926 0 1.0527268010260891e-08 0.024999863567593841 0 5.0727617963782678e-06 0.02495087457879926 0 -2.2717508702531926e-09 0.025000008535629135 0 8.017567894343199e-05 0.024793510351605423 0 3.2798607086299722e-05 0.024863646335718158 0 9.1562836588401393e-05 0.024699772492693978 0 8.2295508430225029e-05 0.024765662079741995 0 6.3911592091675986e-05 0.02477854633924759 0 8.2295508430225029e-05 0.024765662079741995 0 1.5135235589342759e-05 0.024900761895592136 0 5.0727617963782678e-06 0.02495087457879926 0 5.5267091471281732e-05 0.024844651871284328 0 9.1562836588401393e-05 0.024699772492693978 0 6.6972286478684953e-05 0.024844711274274397 0 9.1562836588401393e-05 0.024699772492693978 0 6.3911592091675986e-05 0.02477854633924759 0 6.6972286478684953e-05 0.024844711274274397 0 5.3628051737837941e-05 0.024926940040641464 0 6.6972286478684953e-05 0.024844711274274397 0 1.9497742427136116e-07 0.024999751919698322 0 6.3911592091675986e-05 0.02477854633924759 0 6.6972286478684953e-05 0.024844711274274397 0 1.9497742427136116e-07 0.024999751919698322 0 3.2798607086299722e-05 0.024863646335718158 0 -7.6723448081902708e-09 0.024999924244426305 0 -0.0067281610427043469 -0.00072611501248745762 0 -0.0060046024518670754 -0.00059032676451854153 0 -0.0054622979050890693 -0.0011627517597348168 0 -0.005062755580551072 0.0046380848188945596 0 -0.0063519181263087367 -0.0016004015549973545 0 -0.0067281610427043469 -0.00072611501248745762 0 -0.006489565987122161 -0.00036989693872294989 0 -0.0060046024518670754 -0.00059032676451854153 0 -0.0072763393369673001 -0.00031895602793698591 0 -0.0065170457580242865 -0.00054950896879087032 0 -0.0070537031041670532 -0.00072575126804363586 0 -0.005062755580551072 0.0046380848188945596 0 -0.0041463366672789825 0.007341667797278904 0 -0.0010614953567868594 0.015078510905629961 0 -0.0010202053573893179 0.015057478573541666 0 -0.00089036203370247507 0.015025741940182972 0 -0.0011476745006285757 0.015657074401015911 0 -0.0011361192052092976 0.015635563893090152 0 -0.001287927591849725 0.015481702724923755 0 -0.0010614953567868594 0.015078510905629961 0 -0.0010202053573893179 0.015057478573541666 0 -0.0010234526768295232 0.015052935622083471 0 -0.005062755580551072 0.0046380848188945596 0 -0.0023217808365900484 0.010461629860613293 0 -0.0067281610427043469 -0.00072611501248745762 0 -0.006489565987122161 -0.00036989693872294989 0 -0.0069113289365722776 -0.00039651516045257078 0 -0.0023217808365900484 0.010461629860613293 0 -0.0058496180035720324 0.0043170479043393908 0 -0.0038400840933157723 0.010012846941382105 0 -0.003848118066766664 0.010025923549570296 0 -0.0039364081753608627 0.0099264502547120447 0 -0.0038400840933157723 0.010012846941382105 0 -0.0038648518339851508 0.0099651195767155119 0 -0.0038383870721971675 0.0099101584956101697 0 -0.006489565987122161 -0.00036989693872294989 0 -0.0069113289365722776 -0.00039651516045257078 0 -0.0064639867654252827 1.7661336668855842e-06 0 -0.0015689348716761472 0.013872553024619922 0 -0.0023217808365900484 0.010461629860613293 0 -0.0038400840933157723 0.010012846941382105 0 -0.0038648518339851508 0.0099651195767155119 0 -0.0039364081753608627 0.0099264502547120447 0 -0.0038648518339851508 0.0099651195767155119 0 -0.0039364081753608627 0.0099264502547120447 0 -0.0038383870721971675 0.0099101584956101697 0 -0.006489565987122161 -0.00036989693872294989 0 -0.0064639867654252827 1.7661336668855842e-06 0 -0.0059461913970126137 -7.0498757506661959e-05 0 -0.006489565987122161 -0.00036989693872294989 0 -0.0060046024518670754 -0.00059032676451854153 0 -0.0059461913970126137 -7.0498757506661959e-05 0 -0.0060046024518670754 -0.00059032676451854153 0 -0.0059461913970126137 -7.0498757506661959e-05 0 -0.0049187330502536552 -0.00017669125551270237 0 -0.0060046024518670754 -0.00059032676451854153 0 -0.0049187330502536552 -0.00017669125551270237 0 -0.0054622979050890693 -0.0011627517597348168 0 -0.0063519181263087367 -0.0016004015549973545 0 -0.0047654497782545647 -0.0010792412246407191 0 -0.0049187330502536552 -0.00017669125551270237 0 -0.004774654896768842 -0.0009572387851894058 0 -0.0054622979050890693 -0.0011627517597348168 0 -0.004774654896768842 -0.0009572387851894058 0 -0.0054622979050890693 -0.0011627517597348168 0 -0.0042839691789346651 -0.001500342505134407 0 -0.0065170457580242865 -0.00054950896879087032 0 -0.0066198129698584974 -0.00094204399587575636 0 -0.0062505926119067849 -0.001156646148021532 0 -0.0066198129698584974 -0.00094204399587575636 0 -0.0062505926119067849 -0.001156646148021532 0 -0.0066363619540600761 -0.0012859327006633173 0 -0.0062505926119067849 -0.001156646148021532 0 -0.0054712731047154911 -0.0016571526494746289 0 -0.0054049987994636882 -0.00081985416540679749 0 -0.0065170457580242865 -0.00054950896879087032 0 -0.0062505926119067849 -0.001156646148021532 0 -0.0054049987994636882 -0.00081985416540679749 0 -0.0062505926119067849 -0.001156646148021532 0 -0.0061643570253657248 -0.0015898550694489358 0 -0.0054712731047154911 -0.0016571526494746289 0 -0.0062505926119067849 -0.001156646148021532 0 -0.0061643570253657248 -0.0015898550694489358 0 -0.0066363619540600761 -0.0012859327006633173 0 -0.00076551100959580893 0.014459476547374188 0 -0.00055922174926934041 0.014610105015101469 0 -0.00090179933637642986 0.014754562818854804 0 -0.00055922174926934041 0.014610105015101469 0 -0.00089036203370247507 0.015025741940182972 0 -0.00090179933637642986 0.014754562818854804 0 -0.0065170457580242865 -0.00054950896879087032 0 -0.0066198129698584974 -0.00094204399587575636 0 -0.0070537031041670532 -0.00072575126804363586 0 -0.0066198129698584974 -0.00094204399587575636 0 -0.0066363619540600761 -0.0012859327006633173 0 -0.0070537031041670532 -0.00072575126804363586 0 -0.003528816008783743 0.0065423932333657933 0 -0.0041463366672789825 0.007341667797278904 0 -0.0010614953567868594 0.015078510905629961 0 -0.00089036203370247507 0.015025741940182972 0 -0.0011379433247150545 0.014994240812986 0 -0.00089036203370247507 0.015025741940182972 0 -0.00090179933637642986 0.014754562818854804 0 -0.0011379433247150545 0.014994240812986 0 -0.0011101112109955591 0.014687410558946965 0 -0.00090179933637642986 0.014754562818854804 0 -0.0011379433247150545 0.014994240812986 0 -0.0013605904496969035 0.014938198817615007 0 -0.0011379433247150545 0.014994240812986 0 -0.0014770617913450897 0.015206305188003625 0 -0.0013605904496969035 0.014938198817615007 0 -0.0011101112109955591 0.014687410558946965 0 -0.0011379433247150545 0.014994240812986 0 -0.0016893128293797651 0.015098359255159935 0 -0.0013605904496969035 0.014938198817615007 0 -0.0014770617913450897 0.015206305188003625 0 -0.0015526783294901765 0.015473748373017956 0 -0.0014770617913450897 0.015206305188003625 0 -0.001287927591849725 0.015481702724923755 0 -0.0016879792687500344 0.014898306610075188 0 -0.00074713436365528708 0.016112878325925065 0 -0.0010614953567868594 0.015078510905629961 0 -0.0011379433247150545 0.014994240812986 0 -0.001184450442851362 0.015138260019522199 0 -0.0011379433247150545 0.014994240812986 0 -0.0014770617913450897 0.015206305188003625 0 -0.001184450442851362 0.015138260019522199 0 -0.0016893128293797651 0.015098359255159935 0 -0.0019356206105662845 0.015440390367746864 0 -0.0017664816344628237 0.015398184189839374 0 -0.0016893128293797651 0.015098359255159935 0 -0.0014770617913450897 0.015206305188003625 0 -0.0017664816344628237 0.015398184189839374 0 -0.0015526783294901765 0.015473748373017956 0 -0.0017664816344628237 0.015398184189839374 0 -0.0017809535284329615 0.015592303142234844 0 -0.0015526783294901765 0.015473748373017956 0 -0.0014770617913450897 0.015206305188003625 0 -0.0017664816344628237 0.015398184189839374 0 -0.0019356206105662845 0.015440390367746864 0 -0.0017664816344628237 0.015398184189839374 0 -0.0018950371448594153 0.015452455429522581 0 -0.0017664816344628237 0.015398184189839374 0 -0.0018950371448594153 0.015452455429522581 0 -0.0017809535284329615 0.015592303142234844 0 -0.0019619688647612363 0.015458701873632187 0 -0.0019356206105662845 0.015440390367746864 0 -0.0018950371448594153 0.015452455429522581 0 -0.001789884159241731 0.016691528239725341 0 -0.0012567924036787498 0.017018470173358304 0 -0.0019328659090425569 0.015459391625429038 0 -0.0018950371448594153 0.015452455429522581 0 -0.0017809535284329615 0.015592303142234844 0 -0.0016165879384773809 0.018307517158876442 0 -0.0014745949768423252 0.019027084962488786 0 -0.00057328333246711445 0.018511357943322326 0 -0.0012567924036787498 0.017018470173358304 0 -6.8222643991378506e-05 0.017561892815804656 0 -0.00057328333246711445 0.018511357943322326 0 -0.00012349969035961998 0.019351976186360496 0 0.00043314331474159746 0.01869004767206538 0 -0.00057328333246711445 0.018511357943322326 0 -0.00012349969035961998 0.019351976186360496 0 -0.00094742955000981695 0.019488369662564172 0 -0.0014745949768423252 0.019027084962488786 0 -0.00057328333246711445 0.018511357943322326 0 -0.00094742955000981695 0.019488369662564172 0 -0.0014745949768423252 0.019027084962488786 0 -0.001595055376043622 0.019686002413960259 0 -0.00094742955000981695 0.019488369662564172 0 -0.0010614953567868594 0.015078510905629961 0 -0.0010234526768295232 0.015052935622083471 0 -0.001184450442851362 0.015138260019522199 0 -0.0011476745006285757 0.015657074401015911 0 -0.001287927591849725 0.015481702724923755 0 -0.0014241371448280107 0.015659146752134864 0 -0.0023217808365900484 0.010461629860613293 0 -0.00074713436365528708 0.016112878325925065 0 -0.0015526783294901765 0.015473748373017956 0 -0.0017809535284329615 0.015592303142234844 0 -0.0014241371448280107 0.015659146752134864 0 -0.0015526783294901765 0.015473748373017956 0 -0.001287927591849725 0.015481702724923755 0 -0.0014241371448280107 0.015659146752134864 0 -0.00012349969035961998 0.019351976186360496 0 0.00043314331474159746 0.01869004767206538 0 0.00083478098009742675 0.01984238594541218 0 0.0014134074148568826 0.018843038816305165 0 0.00043314331474159746 0.01869004767206538 0 0.00083478098009742675 0.01984238594541218 0 -0.0015689348716761472 0.013872553024619922 0 -0.0014351297553704728 0.014961351881927935 0 -0.0015689348716761472 0.013872553024619922 0 -6.8222643991378506e-05 0.017561892815804656 0 -0.0038400840933157723 0.010012846941382105 0 -0.0037693194772892196 0.0098888988218840488 0 -0.0038383870721971675 0.0099101584956101697 0 -0.00012349969035961998 0.019351976186360496 0 0.00083478098009742675 0.01984238594541218 0 -0.00038015594898543892 0.02022725339474063 0 -0.0014351297553704728 0.014961351881927935 0 -0.0017625992396310154 0.015350555386423881 0 0.00083478098009742675 0.01984238594541218 0 -0.00038015594898543892 0.02022725339474063 0 0.0002397935779624641 0.020876086787633624 0 -0.0037693194772892196 0.0098888988218840488 0 -0.0037993195672274861 0.0097946358718721 0 -0.0037215706514109031 0.0098476255332085334 0 -0.0037693194772892196 0.0098888988218840488 0 -0.0037993195672274861 0.0097946358718721 0 -0.0038665861862415018 0.0098159369303035086 0 -0.001595055376043622 0.019686002413960259 0 -0.00094742955000981695 0.019488369662564172 0 -0.0013266738375088977 0.020221010518914527 0 -0.00094742955000981695 0.019488369662564172 0 -0.00038015594898543892 0.02022725339474063 0 -0.0013266738375088977 0.020221010518914527 0 -0.00012349969035961998 0.019351976186360496 0 -0.00094742955000981695 0.019488369662564172 0 -0.00038015594898543892 0.02022725339474063 0 -0.00038015594898543892 0.02022725339474063 0 -0.00099054421040492991 0.020837742330816617 0 -0.00043444241528870571 0.021206173259156389 0 -0.00038015594898543892 0.02022725339474063 0 -0.00043444241528870571 0.021206173259156389 0 0.0002397935779624641 0.020876086787633624 0 -0.00038015594898543892 0.02022725339474063 0 -0.0013266738375088977 0.020221010518914527 0 -0.00099054421040492991 0.020837742330816617 0 -0.0015548762520481174 0.020822530186239082 0 -0.0013266738375088977 0.020221010518914527 0 -0.00099054421040492991 0.020837742330816617 0 -0.0017443673983708427 0.021443267111812866 0 -0.0012439753948734599 0.02122930875082369 0 -0.00086935397701323866 0.021839988218039893 0 -0.0015548762520481174 0.020822530186239082 0 -0.0012439753948734599 0.02122930875082369 0 -0.00099054421040492991 0.020837742330816617 0 -0.0012439753948734599 0.02122930875082369 0 -0.00099054421040492991 0.020837742330816617 0 -0.0008609831774439654 0.021287201708192902 0 -0.00099054421040492991 0.020837742330816617 0 -0.0008609831774439654 0.021287201708192902 0 -0.00043444241528870571 0.021206173259156389 0 -0.0012439753948734599 0.02122930875082369 0 -0.0008609831774439654 0.021287201708192902 0 -0.00086935397701323866 0.021839988218039893 0 -0.0008609831774439654 0.021287201708192902 0 -0.00043444241528870571 0.021206173259156389 0 -0.00086935397701323866 0.021839988218039893 0 -0.0018919713591759601 0.015926432630621518 0 -0.0017625992396310154 0.015350555386423881 0 -0.00043444241528870571 0.021206173259156389 0 -0.0003906317407006015 0.021979329933162033 0 0.0002397935779624641 0.020876086787633624 0 -0.00043444241528870571 0.021206173259156389 0 -0.0003906317407006015 0.021979329933162033 0 -0.00086935397701323866 0.021839988218039893 0 -0.0018919713591759601 0.015926432630621518 0 -0.0028077365172986726 0.01003068273989499 0 -0.0016759307072853687 0.010091967097718889 0 -0.0016858120726315929 0.010110552169950998 0 -0.0016744814355057226 0.010073904417830936 0 -0.001684304770825549 0.021879753675079341 0 -0.00086935397701323866 0.021839988218039893 0 -0.0012236637949737542 0.022158243200705866 0 -0.0021042419908072021 0.022192484556940444 0 -0.0012236637949737542 0.022158243200705866 0 -0.0011846532971911542 0.022161903464118008 0 -0.0012355610700134705 0.021651693793044519 0 -0.0021042419908072021 0.022192484556940444 0 -0.0011846532971911542 0.022161903464118008 0 -0.0018919713591759601 0.015926432630621518 0 -0.0010552635951914127 0.022367387249595173 0 -0.0003906317407006015 0.021979329933162033 0 -0.00086935397701323866 0.021839988218039893 0 -0.0012236637949737542 0.022158243200705866 0 -0.0012494349739647788 0.022616393639958394 0 -0.0011361366368419291 0.021679573363012145 0 -0.0037993195672274861 0.0097946358718721 0 -0.0037521418324993438 0.0097970004170729805 0 -0.0037777929359449854 0.0097436981885266043 0 -0.0037993195672274861 0.0097946358718721 0 -0.0037215706514109031 0.0098476255332085334 0 -0.0037521418324993438 0.0097970004170729805 0 -0.0037215706514109031 0.0098476255332085334 0 -0.0037521418324993438 0.0097970004170729805 0 -0.003719732849169786 0.0097875211039505344 0 -0.0036681964151764153 0.0098333561439133722 0 -0.0037215706514109031 0.0098476255332085334 0 -0.003719732849169786 0.0097875211039505344 0 -0.0016660867056873007 0.010066328333501471 0 -0.0016744814355057226 0.010073904417830936 0 -0.0016679806934510814 0.010052008953908582 0 -0.0028077365172986726 0.01003068273989499 0 -0.0027033150054490114 0.0090808827559894535 0 -0.0016744814355057226 0.010073904417830936 0 -0.0016679806934510814 0.010052008953908582 0 -0.0016669886863577509 0.010042113173508208 0 -0.0037521418324993438 0.0097970004170729805 0 -0.003719732849169786 0.0097875211039505344 0 -0.0037777929359449854 0.0097436981885266043 0 -0.0016592082726339255 0.010049123259664486 0 -0.0016660867056873007 0.010066328333501471 0 -0.0016679806934510814 0.010052008953908582 0 -0.0016592082726339255 0.010049123259664486 0 -0.0016679806934510814 0.010052008953908582 0 -0.0016618200382573734 0.010041750782404067 0 -0.0022426650288420212 0.0092072676545253383 0 -0.0027033150054490114 0.0090808827559894535 0 -0.0016592082726339255 0.010049123259664486 0 -0.0016618200382573734 0.010041750782404067 0 -0.0016572333062492672 0.010037227655228151 0 -0.0027033150054490114 0.0090808827559894535 0 -0.0036329519587280884 0.0084306084075386027 0 -0.0016618200382573734 0.010041750782404067 0 -0.0016572333062492672 0.010037227655228151 0 -0.0016571806385517051 0.010031442301185687 0 -0.0031146679358061528 0.0071872046534361186 0 -0.0032563529961367145 0.0071952590442857355 0 -0.003248745216203297 0.0071533767203580487 0 -0.0027033150054490114 0.0090808827559894535 0 -0.0024344994742905779 0.0085834568300892904 0 -0.0016572333062492672 0.010037227655228151 0 -0.0016573292679230253 0.010029045970275057 0 -0.0016571806385517051 0.010031442301185687 0 -0.0016603241499903412 0.010024404100114886 0 -0.0016573292679230253 0.010029045970275057 0 -0.0016647748973369937 0.010019373175277466 0 -0.0016607903926286892 0.010021705801193293 0 -0.0016603241499903412 0.010024404100114886 0 -0.0016647748973369937 0.010019373175277466 0 -0.0016573292679230253 0.010029045970275057 0 -0.0016647748973369937 0.010019373175277466 0 -0.0016571806385517051 0.010031442301185687 0 -0.0016642798279458155 0.010016594931434383 0 -0.0016647748973369937 0.010019373175277466 0 -0.0016736643818909261 0.010015061850327798 0 -0.0024344994742905779 0.0085834568300892904 0 -0.0023798963139334225 0.0084541836520879397 0 -0.0032563529961367145 0.0071952590442857355 0 -0.003248745216203297 0.0071533767203580487 0 -0.0033777582187371376 0.0071229562664169898 0 -0.0016647748973369937 0.010019373175277466 0 -0.0016571806385517051 0.010031442301185687 0 -0.0017696004136524347 0.009996683732542597 0 -0.0015698041441674312 0.0099633410668627624 0 -0.0023798963139334225 0.0084541836520879397 0 -0.0032563529961367145 0.0071952590442857355 0 -0.0033777582187371376 0.0071229562664169898 0 -0.0033927516996119017 0.0072045010838168192 0 -0.0038574313812967972 0.0097207195265679898 0 -0.0039310799901992989 0.0096968080459929051 0 -0.0038647182857821242 0.0097634467854356647 0 -0.0036329519587280884 0.0084306084075386027 0 -0.003740918263064638 0.0086880925588492929 0 -0.0039310799901992989 0.0096968080459929051 0 -0.0038647182857821242 0.0097634467854356647 0 -0.00390954470871154 0.0097629984810679825 0 -0.0037993195672274861 0.0097946358718721 0 -0.0038574313812967972 0.0097207195265679898 0 -0.0038647182857821242 0.0097634467854356647 0 -0.0037993195672274861 0.0097946358718721 0 -0.0037777929359449854 0.0097436981885266043 0 -0.0038574313812967972 0.0097207195265679898 0 -0.0038647182857821242 0.0097634467854356647 0 -0.0038665861862415018 0.0098159369303035086 0 -0.00390954470871154 0.0097629984810679825 0 -0.0037993195672274861 0.0097946358718721 0 -0.0038647182857821242 0.0097634467854356647 0 -0.0038665861862415018 0.0098159369303035086 0 -0.0038665861862415018 0.0098159369303035086 0 -0.00390954470871154 0.0097629984810679825 0 -0.0039258892212257167 0.0097813994408088006 0 -0.00390954470871154 0.0097629984810679825 0 -0.0039258892212257167 0.0097813994408088006 0 -0.0039629988528619379 0.0097396193869597504 0 -0.0039310799901992989 0.0096968080459929051 0 -0.00390954470871154 0.0097629984810679825 0 -0.0039629988528619379 0.0097396193869597504 0 -0.0039364081753608627 0.0099264502547120447 0 -0.0038665861862415018 0.0098159369303035086 0 -0.0040185816667912084 0.0098256153031105031 0 -0.0041790979997298567 0.010397382509400279 0 -0.0047543401302858074 0.0047360956901042498 0 -0.0064639867654252827 1.7661336668855842e-06 0 -0.0059461913970126137 -7.0498757506661959e-05 0 -0.0060191155341807996 0.00047859202172298362 0 -0.0058496180035720324 0.0043170479043393908 0 -0.0047543401302858074 0.0047360956901042498 0 -0.0039364081753608627 0.0099264502547120447 0 -0.0038665861862415018 0.0098159369303035086 0 -0.0038383870721971675 0.0099101584956101697 0 -0.0037693194772892196 0.0098888988218840488 0 -0.0038665861862415018 0.0098159369303035086 0 -0.0038383870721971675 0.0099101584956101697 0 -0.0046807058794635101 -0.00056506679762865499 0 -0.0045608349650711928 4.6724742814595107e-05 0 -0.0040909478870859266 -0.00032127232781870382 0 -0.0046807058794635101 -0.00056506679762865499 0 -0.0050926594376105826 0.0002115673179710824 0 -0.0045608349650711928 4.6724742814595107e-05 0 -0.0048438171076397082 -0.0010614446978085468 0 -0.0047543401302858074 0.0047360956901042498 0 -0.0059461913970126137 -7.0498757506661959e-05 0 -0.0049187330502536552 -0.00017669125551270237 0 -0.0060191155341807996 0.00047859202172298362 0 -0.0046807058794635101 -0.00056506679762865499 0 -0.0054347133835707367 -0.00014759539546657725 0 -0.0050926594376105826 0.0002115673179710824 0 -0.0047543401302858074 0.0047360956901042498 0 -0.004480806316518475 0.0050286203289905337 0 -0.004480806316518475 0.0050286203289905337 0 -0.0042481711224495065 0.0045856932809532772 0 -0.0045608349650711928 4.6724742814595107e-05 0 -0.0047506522964886159 0.00058460886954130032 0 -0.0041848222496839458 0.00033120042013778998 0 -0.0050926594376105826 0.0002115673179710824 0 -0.0045608349650711928 4.6724742814595107e-05 0 -0.0047506522964886159 0.00058460886954130032 0 -0.0045401854671237533 0.0004931050365287777 0 -0.004172439299018376 0.00087926368469860112 0 -0.003923156237734593 0.00059348838411847735 0 -0.0035307300436069507 0.0072182529806071429 0 -0.0034982080949200506 0.0071123287176330686 0 -0.0036185958113253806 0.0071061009366987964 0 -0.0042481711224495065 0.0045856932809532772 0 -0.0039723480515842105 9.1056477115898039e-06 0 -0.0042481711224495065 0.0045856932809532772 0 -0.0035624102830125503 0.0037672152693159541 0 -0.0033927516996119017 0.0072045010838168192 0 -0.0035307300436069507 0.0072182529806071429 0 -0.0034982080949200506 0.0071123287176330686 0 -0.003740918263064638 0.0086880925588492929 0 -0.0042481711224495065 0.0045856932809532772 0 -0.0039310799901992989 0.0096968080459929051 0 -0.0039629988528619379 0.0097396193869597504 0 -0.0040052747391949644 0.0096721805572292929 0 -0.0033777582187371376 0.0071229562664169898 0 -0.0033927516996119017 0.0072045010838168192 0 -0.0034982080949200506 0.0071123287176330686 0 -0.0016907811557809805 0.0099992530907497008 0 -0.0016736643818909261 0.010015061850327798 0 -0.0017121901163111388 0.01000263312955065 0 -0.0026707154946372831 0.0067160694517204387 0 -0.0027423354372739274 0.0066744053757733356 0 -0.0027531148548604494 0.0066573864221785338 0 -0.0023798963139334225 0.0084541836520879397 0 -0.0022342324815821054 0.008457857847321306 0 -0.0023798963139334225 0.0084541836520879397 0 -0.00321645148944831 0.0069045784275193036 0 -0.0022342324815821054 0.008457857847321306 0 -0.0021555599826515418 0.0045618400681862251 0 -0.0017366211047022684 0.009979222261071112 0 -0.0017121901163111388 0.01000263312955065 0 -0.0017582423167910467 0.0099786052784136998 0 -0.0027423354372739274 0.0066744053757733356 0 -0.0027531148548604494 0.0066573864221785338 0 -0.0028167498669681521 0.006653632034912294 0 -0.00321645148944831 0.0069045784275193036 0 -0.0035624102830125503 0.0037672152693159541 0 -0.0027531148548604494 0.0066573864221785338 0 -0.0028380534871023625 0.006621721878795111 0 -0.0028167498669681521 0.006653632034912294 0 -0.0036358623159787394 0.00096647078877347371 0 -0.0037232906316534485 0.00087792300674143821 0 -0.0033649689110683426 0.00075451681386539651 0 -0.0021555599826515418 0.0045618400681862251 0 -0.0035624102830125503 0.0037672152693159541 0 -0.0021555599826515418 0.0045618400681862251 0 -0.0021696527610710228 0.00048640703634636559 0 -0.0010666452196940804 0.00090660182845754729 0 -0.0011803162554041679 0.00083553959350542303 0 -0.0010501374892469054 0.00078272985337160777 0 -0.0036358623159787394 0.00096647078877347371 0 -0.0032079389825788599 0.00093061624462990032 0 -0.0033649689110683426 0.00075451681386539651 0 -0.003558565650514431 0.00072475758244386985 0 -0.0036331832672315367 0.00038910423563238831 0 -0.003923156237734593 0.00059348838411847735 0 -0.003558565650514431 0.00072475758244386985 0 -0.0032933542287066167 0.00038485846080225374 0 -0.0036331832672315367 0.00038910423563238831 0 -0.0035624102830125503 0.0037672152693159541 0 -0.0034526302586133117 0.000521152757374984 0 -0.004172439299018376 0.00087926368469860112 0 -0.003558565650514431 0.00072475758244386985 0 -0.003923156237734593 0.00059348838411847735 0 -0.0045401854671237533 0.0004931050365287777 0 -0.003923156237734593 0.00059348838411847735 0 -0.0039850052853499752 0.00024396585802899666 0 -0.0036331832672315367 0.00038910423563238831 0 -0.003923156237734593 0.00059348838411847735 0 -0.0039850052853499752 0.00024396585802899666 0 -0.00097044795817914013 0.00084402304729231693 0 -0.0010501374892469054 0.00078272985337160777 0 -0.00091293412004127001 0.00073044770932935324 0 -0.0021696527610710228 0.00048640703634636559 0 -0.0017281175300586146 0.00087131066662901168 0 -0.0032079389825788599 0.00093061624462990032 0 -0.0025702461282057095 0.00093887931290799833 0 -0.0029144529585662898 0.00057178326319793564 0 -0.003558565650514431 0.00072475758244386985 0 -0.0032933542287066167 0.00038485846080225374 0 -0.0029144529585662898 0.00057178326319793564 0 -0.0034526302586133117 0.000521152757374984 0 -0.0029607599653720435 0.00062630102003279607 0 -0.0032079389825788599 0.00093061624462990032 0 -0.0033649689110683426 0.00075451681386539651 0 -0.0029144529585662898 0.00057178326319793564 0 -0.0032933542287066167 0.00038485846080225374 0 -0.0029144529585662898 0.00057178326319793564 0 -0.00288342413853285 0.00013558761880717843 0 -0.0029144529585662898 0.00057178326319793564 0 -0.00288342413853285 0.00013558761880717843 0 -0.002268104906677863 0.00036344447564616025 0 -0.0025702461282057095 0.00093887931290799833 0 -0.0029144529585662898 0.00057178326319793564 0 -0.002268104906677863 0.00036344447564616025 0 -0.00288342413853285 0.00013558761880717843 0 -0.0029211886889131552 -0.00023551048670623003 0 -0.002360965926790093 -0.00026531233176908396 0 -0.00288342413853285 0.00013558761880717843 0 -0.002360965926790093 -0.00026531233176908396 0 -0.002268104906677863 0.00036344447564616025 0 -0.00288342413853285 0.00013558761880717843 0 -0.0029211886889131552 -0.00023551048670623003 0 -0.0034232778807775149 -4.8280323476056657e-06 0 -0.0029560333413868648 -0.00021097465488164224 0 -0.0035367614124290495 5.4183119871309709e-05 0 -0.0032933542287066167 0.00038485846080225374 0 -0.00288342413853285 0.00013558761880717843 0 -0.0034232778807775149 -4.8280323476056657e-06 0 -0.0029211886889131552 -0.00023551048670623003 0 -0.0036011602136149755 7.1715297571732311e-05 0 -0.0033893092772256401 -0.00073965543082747925 0 -0.0029211886889131552 -0.00023551048670623003 0 -0.0027313296773270185 -0.00067671425405800968 0 -0.0033893092772256401 -0.00073965543082747925 0 -0.0029211886889131552 -0.00023551048670623003 0 -0.0027313296773270185 -0.00067671425405800968 0 -0.002360965926790093 -0.00026531233176908396 0 -0.0027313296773270185 -0.00067671425405800968 0 -0.002260000044944064 -0.00081667465307755588 0 -0.002360965926790093 -0.00026531233176908396 0 -0.0045608349650711928 4.6724742814595107e-05 0 -0.0041848222496839458 0.00033120042013778998 0 -0.0040909478870859266 -0.00032127232781870382 0 -0.0041848222496839458 0.00033120042013778998 0 -0.0036011602136149755 7.1715297571732311e-05 0 -0.0040909478870859266 -0.00032127232781870382 0 -0.0036331832672315367 0.00038910423563238831 0 -0.0039850052853499752 0.00024396585802899666 0 -0.0034232778807775149 -4.8280323476056657e-06 0 -0.0039723480515842105 9.1056477115898039e-06 0 -0.0035367614124290495 5.4183119871309709e-05 0 -0.0032933542287066167 0.00038485846080225374 0 -0.0036331832672315367 0.00038910423563238831 0 -0.0034232778807775149 -4.8280323476056657e-06 0 -0.0036011602136149755 7.1715297571732311e-05 0 -0.0040909478870859266 -0.00032127232781870382 0 -0.0033893092772256401 -0.00073965543082747925 0 -0.0046807058794635101 -0.00056506679762865499 0 -0.0040909478870859266 -0.00032127232781870382 0 -0.0039482966134270943 -0.00094800383722473008 0 -0.0049187330502536552 -0.00017669125551270237 0 -0.004774654896768842 -0.0009572387851894058 0 -0.0039482966134270943 -0.00094800383722473008 0 -0.0048438171076397082 -0.0010614446978085468 0 -0.0040174597271966329 -0.00069631019410977524 0 -0.004774654896768842 -0.0009572387851894058 0 -0.0039482966134270943 -0.00094800383722473008 0 -0.0042839691789346651 -0.001500342505134407 0 -0.0039482966134270943 -0.00094800383722473008 0 -0.0034174514110764257 -0.0012633499857565512 0 -0.0042839691789346651 -0.001500342505134407 0 -0.0039482966134270943 -0.00094800383722473008 0 -0.0033893092772256401 -0.00073965543082747925 0 -0.0034174514110764257 -0.0012633499857565512 0 -0.0040909478870859266 -0.00032127232781870382 0 -0.0039482966134270943 -0.00094800383722473008 0 -0.0033893092772256401 -0.00073965543082747925 0 -0.0033893092772256401 -0.00073965543082747925 0 -0.002815360853783555 -0.0011382907513962921 0 -0.0034174514110764257 -0.0012633499857565512 0 -0.0027313296773270185 -0.00067671425405800968 0 -0.0033893092772256401 -0.00073965543082747925 0 -0.002815360853783555 -0.0011382907513962921 0 -0.002815360853783555 -0.0011382907513962921 0 -0.0023353591479001348 -0.0014221201298850032 0 -0.002260000044944064 -0.00081667465307755588 0 -0.0027313296773270185 -0.00067671425405800968 0 -0.002815360853783555 -0.0011382907513962921 0 -0.002260000044944064 -0.00081667465307755588 0 -0.002815360853783555 -0.0011382907513962921 0 -0.0034174514110764257 -0.0012633499857565512 0 -0.0027288578611013668 -0.0018250924037733908 0 -0.002815360853783555 -0.0011382907513962921 0 -0.0027288578611013668 -0.0018250924037733908 0 -0.0023353591479001348 -0.0014221201298850032 0 -0.0034174514110764257 -0.0012633499857565512 0 -0.0035340757774331624 -0.0017194495412366916 0 -0.0027288578611013668 -0.0018250924037733908 0 -0.0035340757774331624 -0.0017194495412366916 0 -0.0027288578611013668 -0.0018250924037733908 0 -0.0030179472865130962 -0.0024835622024210278 0 -0.0027288578611013668 -0.0018250924037733908 0 -0.0030179472865130962 -0.0024835622024210278 0 -0.0022782578687539443 -0.0023879273346890007 0 -0.0030179472865130962 -0.0024835622024210278 0 -0.0019456326721621914 -0.0030295032073284506 0 -0.0025561484441930077 -0.0031657916946904573 0 -0.0029648323874562569 -0.0025531220427401774 0 -0.0020308952439074034 -0.0030733130786793571 0 -0.0035340757774331624 -0.0017194495412366916 0 -0.0036013935372478951 -0.0023436354688439456 0 -0.0040927953687859581 -0.0022350786220422742 0 -0.0035340757774331624 -0.0017194495412366916 0 -0.0030179472865130962 -0.0024835622024210278 0 -0.0036013935372478951 -0.0023436354688439456 0 -0.0030179472865130962 -0.0024835622024210278 0 -0.0036013935372478951 -0.0023436354688439456 0 -0.0034963896891978623 -0.0029262066240814035 0 -0.0036013935372478951 -0.0023436354688439456 0 -0.0040660237267669801 -0.0028068517903672291 0 -0.0034963896891978623 -0.0029262066240814035 0 -0.0046222142476622496 -0.0023651002985510847 0 -0.0052564805043837778 -0.0024399797256094615 0 -0.0042243822944516935 -0.0029621510533568468 0 -0.0036013935372478951 -0.0023436354688439456 0 -0.0040927953687859581 -0.0022350786220422742 0 -0.0040660237267669801 -0.0028068517903672291 0 -0.0040927953687859581 -0.0022350786220422742 0 -0.0046222142476622496 -0.0023651002985510847 0 -0.0040660237267669801 -0.0028068517903672291 0 -0.0040927953687859581 -0.0022350786220422742 0 -0.0046222142476622496 -0.0023651002985510847 0 -0.0046112059420085521 -0.0017679867667242054 0 -0.0046222142476622496 -0.0023651002985510847 0 -0.0040660237267669801 -0.0028068517903672291 0 -0.0042243822944516935 -0.0029621510533568468 0 -0.0046222142476622496 -0.0023651002985510847 0 -0.0052564805043837778 -0.0024399797256094615 0 -0.0054712731047154911 -0.0016571526494746289 0 -0.0061643570253657248 -0.0015898550694489358 0 -0.0052564805043837778 -0.0024399797256094615 0 -0.0054712731047154911 -0.0016571526494746289 0 -0.0060246199163078683 -0.0017291604658918036 0 -0.005989400917759481 -0.0019033105382304423 0 -0.0046222142476622496 -0.0023651002985510847 0 -0.0054712731047154911 -0.0016571526494746289 0 -0.0046112059420085521 -0.0017679867667242054 0 -0.0054712731047154911 -0.0016571526494746289 0 -0.0054049987994636882 -0.00081985416540679749 0 -0.0046112059420085521 -0.0017679867667242054 0 -0.0035340757774331624 -0.0017194495412366916 0 -0.0040927953687859581 -0.0022350786220422742 0 -0.0046112059420085521 -0.0017679867667242054 0 -0.0035340757774331624 -0.0017194495412366916 0 -0.0054049987994636882 -0.00081985416540679749 0 -0.0046112059420085521 -0.0017679867667242054 0 -0.0034174514110764257 -0.0012633499857565512 0 -0.0035340757774331624 -0.0017194495412366916 0 -0.0042839691789346651 -0.001500342505134407 0 -0.0036385449001780645 -0.0016842293445496486 0 -0.0047654497782545647 -0.0010792412246407191 0 -0.00086369756505644464 -0.0023019759758544319 0 -0.00082691162611993102 -0.0029270696576713137 0 -0.0015263746824341082 -0.0025951236905806382 0 -0.00086369756505644464 -0.0023019759758544319 0 -0.0015263746824341082 -0.0025951236905806382 0 -0.0013706630326790774 -0.0018319895257423845 0 -0.00086369756505644464 -0.0023019759758544319 0 -0.00016259304563032549 -0.0025072771342916278 0 -0.00068287161879203512 -0.0018663589443571921 0 -0.00086369756505644464 -0.0023019759758544319 0 -0.00016259304563032549 -0.0025072771342916278 0 -0.00082691162611993102 -0.0029270696576713137 0 -0.00016259304563032549 -0.0025072771342916278 0 -0.00026239572237086507 -0.0034667147465830181 0 -0.00082691162611993102 -0.0029270696576713137 0 -0.00016259304563032549 -0.0025072771342916278 0 -0.00026239572237086507 -0.0034667147465830181 0 0.00024193275885594581 -0.0032853769616465502 0 -0.00082691162611993102 -0.0029270696576713137 0 -0.0015263746824341082 -0.0025951236905806382 0 -0.0011024351577695905 -0.0037739603379739603 0 -0.00026239572237086507 -0.0034667147465830181 0 -0.00082691162611993102 -0.0029270696576713137 0 -0.0011024351577695905 -0.0037739603379739603 0 -0.0021038375736687448 -0.0031352511416094615 0 -0.0015263746824341082 -0.0025951236905806382 0 -0.0011024351577695905 -0.0037739603379739603 0 -0.0030179472865130962 -0.0024835622024210278 0 -0.0021038375736687448 -0.0031352511416094615 0 -0.0022782578687539443 -0.0023879273346890007 0 -0.0021038375736687448 -0.0031352511416094615 0 -0.0022782578687539443 -0.0023879273346890007 0 -0.0015263746824341082 -0.0025951236905806382 0 -0.0027288578611013668 -0.0018250924037733908 0 -0.0019684483822617199 -0.0019008723876864605 0 -0.0022782578687539443 -0.0023879273346890007 0 -0.0019684483822617199 -0.0019008723876864605 0 -0.0022782578687539443 -0.0023879273346890007 0 -0.0015263746824341082 -0.0025951236905806382 0 -0.0019684483822617199 -0.0019008723876864605 0 -0.0015263746824341082 -0.0025951236905806382 0 -0.0013706630326790774 -0.0018319895257423845 0 -0.0019684483822617199 -0.0019008723876864605 0 -0.0013706630326790774 -0.0018319895257423845 0 -0.0017757673866637578 -0.0012778512037521532 0 -0.0013706630326790774 -0.0018319895257423845 0 -0.001307385304985535 -0.001389568517549975 0 -0.0017757673866637578 -0.0012778512037521532 0 -0.0027288578611013668 -0.0018250924037733908 0 -0.0019684483822617199 -0.0019008723876864605 0 -0.0023353591479001348 -0.0014221201298850032 0 -0.0019684483822617199 -0.0019008723876864605 0 -0.0023353591479001348 -0.0014221201298850032 0 -0.0017757673866637578 -0.0012778512037521532 0 -0.002260000044944064 -0.00081667465307755588 0 -0.0017757673866637578 -0.0012778512037521532 0 -0.0017063222554104377 -0.00060313143201808236 0 -0.0023353591479001348 -0.0014221201298850032 0 -0.002260000044944064 -0.00081667465307755588 0 -0.0017757673866637578 -0.0012778512037521532 0 -0.0017757673866637578 -0.0012778512037521532 0 -0.0013957209147244893 -0.0010063833420249303 0 -0.0017063222554104377 -0.00060313143201808236 0 -0.001307385304985535 -0.001389568517549975 0 -0.0017757673866637578 -0.0012778512037521532 0 -0.0013957209147244893 -0.0010063833420249303 0 -0.0013957209147244893 -0.0010063833420249303 0 -0.00091327759477229662 -0.0011126027910612728 0 -0.00096566398864959206 -0.00065917748210036901 0 -0.00091327759477229662 -0.0011126027910612728 0 -0.00044313506739930309 -0.00094340159544817055 0 -0.00096566398864959206 -0.00065917748210036901 0 -0.00091327759477229662 -0.0011126027910612728 0 -0.0009450148680541934 -0.0014963561695458703 0 -0.00054473512968255546 -0.0014067434043577758 0 -0.001307385304985535 -0.001389568517549975 0 -0.0013957209147244893 -0.0010063833420249303 0 -0.00091327759477229662 -0.0011126027910612728 0 -0.001307385304985535 -0.001389568517549975 0 -0.00091327759477229662 -0.0011126027910612728 0 -0.0009450148680541934 -0.0014963561695458703 0 -0.0013706630326790774 -0.0018319895257423845 0 -0.001307385304985535 -0.001389568517549975 0 -0.0009450148680541934 -0.0014963561695458703 0 -0.00086369756505644464 -0.0023019759758544319 0 -0.0013706630326790774 -0.0018319895257423845 0 -0.00068287161879203512 -0.0018663589443571921 0 -0.0013706630326790774 -0.0018319895257423845 0 -0.0009450148680541934 -0.0014963561695458703 0 -0.00068287161879203512 -0.0018663589443571921 0 -0.0009450148680541934 -0.0014963561695458703 0 -0.00068287161879203512 -0.0018663589443571921 0 -0.00054473512968255546 -0.0014067434043577758 0 -0.00016259304563032549 -0.0025072771342916278 0 -0.00068287161879203512 -0.0018663589443571921 0 -0.00021786527375799872 -0.0017502182759800025 0 -0.00016259304563032549 -0.0025072771342916278 0 -0.00021786527375799872 -0.0017502182759800025 0 0.00019172755377007991 -0.0018517118664421448 0 -0.00068287161879203512 -0.0018663589443571921 0 -0.00021786527375799872 -0.0017502182759800025 0 -0.00054473512968255546 -0.0014067434043577758 0 -0.00021786527375799872 -0.0017502182759800025 0 -0.00054473512968255546 -0.0014067434043577758 0 -7.4957020902863866e-05 -0.0013478985877552572 0 -0.00054473512968255546 -0.0014067434043577758 0 -0.00044313506739930309 -0.00094340159544817055 0 -7.4957020902863866e-05 -0.0013478985877552572 0 -0.00091327759477229662 -0.0011126027910612728 0 -0.00054473512968255546 -0.0014067434043577758 0 -0.00044313506739930309 -0.00094340159544817055 0 -0.00044313506739930309 -0.00094340159544817055 0 -7.4957020902863866e-05 -0.0013478985877552572 0 1.3630905628657796e-05 -0.00094202619981805891 0 -0.00044313506739930309 -0.00094340159544817055 0 -0.00022036220344623343 -0.0006238750330533363 0 1.3630905628657796e-05 -0.00094202619981805891 0 -0.00044313506739930309 -0.00094340159544817055 0 -0.00022036220344623343 -0.0006238750330533363 0 -0.00052209407147243915 -0.00053108768861096227 0 -0.00022036220344623343 -0.0006238750330533363 0 -0.00052209407147243915 -0.00053108768861096227 0 -0.00033315382297287749 -0.00026934885016441368 0 -0.00044313506739930309 -0.00094340159544817055 0 -0.00052209407147243915 -0.00053108768861096227 0 -0.00096566398864959206 -0.00065917748210036901 0 -0.00096566398864959206 -0.00065917748210036901 0 -0.00076725041789746395 -0.00022333358737156549 0 -0.00130399170992323 -0.00019675589924918137 0 -0.00052209407147243915 -0.00053108768861096227 0 -0.00096566398864959206 -0.00065917748210036901 0 -0.00076725041789746395 -0.00022333358737156549 0 -0.00076725041789746395 -0.00022333358737156549 0 -0.00130399170992323 -0.00019675589924918137 0 -0.00095319468593538692 0.00017261185146652064 0 -0.00076725041789746395 -0.00022333358737156549 0 -0.0006417873107367549 1.3673997289820232e-05 0 -0.00095319468593538692 0.00017261185146652064 0 -0.00039319268536617858 1.5364430403788755e-05 0 -0.00033315382297287749 -0.00026934885016441368 0 -0.0001675904591319055 -9.5514591725141319e-05 0 -0.0006417873107367549 1.3673997289820232e-05 0 -0.00039319268536617858 1.5364430403788755e-05 0 -0.00033315382297287749 -0.00026934885016441368 0 -0.00076725041789746395 -0.00022333358737156549 0 -0.0006417873107367549 1.3673997289820232e-05 0 -0.00033315382297287749 -0.00026934885016441368 0 -0.00052209407147243915 -0.00053108768861096227 0 -0.00076725041789746395 -0.00022333358737156549 0 -0.00033315382297287749 -0.00026934885016441368 0 -0.002260000044944064 -0.00081667465307755588 0 -0.002360965926790093 -0.00026531233176908396 0 -0.0017063222554104377 -0.00060313143201808236 0 -0.002360965926790093 -0.00026531233176908396 0 -0.0017063222554104377 -0.00060313143201808236 0 -0.0018507153281742935 -8.2152846497237806e-05 0 -0.0013957209147244893 -0.0010063833420249303 0 -0.00096566398864959206 -0.00065917748210036901 0 -0.0017063222554104377 -0.00060313143201808236 0 -0.00096566398864959206 -0.00065917748210036901 0 -0.0017063222554104377 -0.00060313143201808236 0 -0.00130399170992323 -0.00019675589924918137 0 -0.00130399170992323 -0.00019675589924918137 0 -0.0015060955217832204 0.00031296028315662774 0 -0.00095319468593538692 0.00017261185146652064 0 -0.0017063222554104377 -0.00060313143201808236 0 -0.00130399170992323 -0.00019675589924918137 0 -0.0018507153281742935 -8.2152846497237806e-05 0 -0.00130399170992323 -0.00019675589924918137 0 -0.0018507153281742935 -8.2152846497237806e-05 0 -0.0015060955217832204 0.00031296028315662774 0 -0.002360965926790093 -0.00026531233176908396 0 -0.0018507153281742935 -8.2152846497237806e-05 0 -0.002268104906677863 0.00036344447564616025 0 -0.002268104906677863 0.00036344447564616025 0 -0.0015060955217832204 0.00031296028315662774 0 -0.0017153126018625807 0.00088868645177969099 0 -0.0018507153281742935 -8.2152846497237806e-05 0 -0.002268104906677863 0.00036344447564616025 0 -0.0015060955217832204 0.00031296028315662774 0 -0.0015060955217832204 0.00031296028315662774 0 -0.0017153126018625807 0.00088868645177969099 0 -0.00074297630275790686 0.00065326298301995758 0 -0.00070610712184045882 0.00074764196634269158 0 -0.00077443089320369048 0.00069023194123669354 0 -0.00074297630275790686 0.00065326298301995758 0 -0.0012451732221839425 0.00077385458257076456 0 -0.00078480363890835617 0.00068235058945056016 0 -0.00084985874379182435 0.00082530783876088394 0 -0.00091293412004127001 0.00073044770932935324 0 -0.00077443089320369048 0.00069023194123669354 0 -0.0025702461282057095 0.00093887931290799833 0 -0.002268104906677863 0.00036344447564616025 0 -0.0017153126018625807 0.00088868645177969099 0 -0.0017281175300586146 0.00087131066662901168 0 -0.0012451732221839425 0.00077385458257076456 0 -0.00043978166065257066 0.00040471411372788326 0 -0.00058581587187189602 0.00027071269568681159 0 -0.00074297630275790686 0.00065326298301995758 0 -0.00043978166065257066 0.00040471411372788326 0 -0.00058581587187189602 0.00027071269568681159 0 -0.0002984978665896857 0.00018760801273376743 0 -0.00039319268536617858 1.5364430403788755e-05 0 -0.0002984978665896857 0.00018760801273376743 0 -0.0001675904591319055 -9.5514591725141319e-05 0 -0.00039319268536617858 1.5364430403788755e-05 0 -0.00058581587187189602 0.00027071269568681159 0 -0.0002984978665896857 0.00018760801273376743 0 -0.0006417873107367549 1.3673997289820232e-05 0 -0.00039319268536617858 1.5364430403788755e-05 0 -0.00058581587187189602 0.00027071269568681159 0 -0.0006417873107367549 1.3673997289820232e-05 0 -0.00058581587187189602 0.00027071269568681159 0 -0.00095319468593538692 0.00017261185146652064 0 -0.00058581587187189602 0.00027071269568681159 0 -0.00095319468593538692 0.00017261185146652064 0 -0.00074297630275790686 0.00065326298301995758 0 -0.0015060955217832204 0.00031296028315662774 0 -0.00095319468593538692 0.00017261185146652064 0 -0.00074297630275790686 0.00065326298301995758 0 -0.00043978166065257066 0.00040471411372788326 0 -0.00074297630275790686 0.00065326298301995758 0 -0.00043232622774793376 0.00054062875407236925 0 -0.00059369287150364913 0.00068851796050766454 0 -0.00074297630275790686 0.00065326298301995758 0 -0.00043232622774793376 0.00054062875407236925 0 -0.00028336247259874687 0.00057285045368115262 0 -0.00043232622774793376 0.00054062875407236925 0 -0.00025559982862311583 0.00036599423241507402 0 -0.00043232622774793376 0.00054062875407236925 0 -0.00025559982862311583 0.00036599423241507402 0 -0.0003269453155064404 1.0135286640394311e-05 0 -0.00028336247259874687 0.00057285045368115262 0 -0.00025559982862311583 0.00036599423241507402 0 -6.4504661872554408e-05 0.00036273442346416703 0 -0.00043978166065257066 0.00040471411372788326 0 -0.00043232622774793376 0.00054062875407236925 0 -4.261744639752283e-05 0.00030874902695503042 0 -3.0820404875300366e-05 1.4905633797910156e-05 0 -4.261744639752283e-05 0.00030874902695503042 0 0.0012297078775502361 -0.0019255806359623157 0 -0.00043978166065257066 0.00040471411372788326 0 -4.261744639752283e-05 0.00030874902695503042 0 -0.0002984978665896857 0.00018760801273376743 0 -0.00031772468737533072 0.00035085997619328471 0 -0.00035680130770411074 0.00052361374681314716 0 -0.00016315587366933317 5.1486447632947529e-05 0 -0.0003269453155064404 1.0135286640394311e-05 0 5.0879707362125104e-05 -0.00057296964190026991 0 -0.00025559982862311583 0.00036599423241507402 0 -0.00016315587366933317 5.1486447632947529e-05 0 -6.4504661872554408e-05 0.00036273442346416703 0 -0.00025559982862311583 0.00036599423241507402 0 -0.00016315587366933317 5.1486447632947529e-05 0 -0.0003269453155064404 1.0135286640394311e-05 0 -3.0820404875300366e-05 1.4905633797910156e-05 0 -4.261744639752283e-05 0.00030874902695503042 0 -0.00017390677457858927 6.1474266218727741e-05 0 -4.261744639752283e-05 0.00030874902695503042 0 -0.0002984978665896857 0.00018760801273376743 0 -0.00017390677457858927 6.1474266218727741e-05 0 -0.0002984978665896857 0.00018760801273376743 0 -0.00017390677457858927 6.1474266218727741e-05 0 -0.0001675904591319055 -9.5514591725141319e-05 0 -3.0820404875300366e-05 1.4905633797910156e-05 0 -0.00017390677457858927 6.1474266218727741e-05 0 -0.0001675904591319055 -9.5514591725141319e-05 0 0.0017233822785449402 -0.0079117125353876088 0 0.0011922663641110935 -0.0080046761438679129 0 0.0012921115726593538 -0.007301155347477317 0 0.0017233822785449402 -0.0079117125353876088 0 0.0012921115726593538 -0.007301155347477317 0 0.0018251344115343658 -0.0067676616794427073 0 -0.00016315587366933317 5.1486447632947529e-05 0 -6.4504661872554408e-05 0.00036273442346416703 0 5.0879707362125104e-05 -0.00057296964190026991 0 0.00081618676906515715 -0.003883898648926758 0 0.001000273733950749 -0.0036405435779357414 0 0.0013806244918222405 -0.0082782374635284716 0 0.0017233822785449402 -0.0079117125353876088 0 0.0011922663641110935 -0.0080046761438679129 0 0.0010864184201359246 -0.008533492287392249 0 0.0011922663641110935 -0.0080046761438679129 0 0.00059907419944447613 -0.00823430921343472 0 0.0011922663641110935 -0.0080046761438679129 0 0.00059907419944447613 -0.00823430921343472 0 0.00069213697441692951 -0.0075257956103412247 0 0.00059907419944447613 -0.00823430921343472 0 0.00069213697441692951 -0.0075257956103412247 0 -0.00019688267773854088 -0.0077871397600630327 0 0.0011922663641110935 -0.0080046761438679129 0 0.00069213697441692951 -0.0075257956103412247 0 0.0012921115726593538 -0.007301155347477317 0 0.00069213697441692951 -0.0075257956103412247 0 0.0012921115726593538 -0.007301155347477317 0 0.00084509392211005183 -0.0068805867118989514 0 0.0012921115726593538 -0.007301155347477317 0 0.0012718402229562795 -0.0066396090822096812 0 0.00084509392211005183 -0.0068805867118989514 0 0.0012718402229562795 -0.0066396090822096812 0 0.00084509392211005183 -0.0068805867118989514 0 0.00091607552812822889 -0.0063072640970402672 0 0.00084509392211005183 -0.0068805867118989514 0 0.00049884408024675729 -0.0063436087843425863 0 0.00018287653240657984 -0.0069664429759777437 0 0.00069213697441692951 -0.0075257956103412247 0 0.00084509392211005183 -0.0068805867118989514 0 0.00018287653240657984 -0.0069664429759777437 0 0.00084509392211005183 -0.0068805867118989514 0 0.00049884408024675729 -0.0063436087843425863 0 0.00091607552812822889 -0.0063072640970402672 0 0.00049884408024675729 -0.0063436087843425863 0 0.00091607552812822889 -0.0063072640970402672 0 0.00065405144412869183 -0.0059842032674681921 0 0.00091607552812822889 -0.0063072640970402672 0 0.00091540278559072122 -0.0058544617989759722 0 0.00065405144412869183 -0.0059842032674681921 0 0.00049884408024675729 -0.0063436087843425863 0 0.00037599820211970151 -0.0059702598775339235 0 0.00065405144412869183 -0.0059842032674681921 0 0.0012718402229562795 -0.0066396090822096812 0 0.00091607552812822889 -0.0063072640970402672 0 0.0013908184916016934 -0.0060559459988845299 0 0.00091607552812822889 -0.0063072640970402672 0 0.0013908184916016934 -0.0060559459988845299 0 0.00091540278559072122 -0.0058544617989759722 0 0.00020201079512871629 -0.0030780229525270331 0 0.0012297078775502361 -0.0019255806359623157 0 0.0010302896816568822 -0.0048280836873609602 0 0.0012718402229562795 -0.0066396090822096812 0 0.0013908184916016934 -0.0060559459988845299 0 0.0018251344115343658 -0.0067676616794427073 0 0.001000273733950749 -0.0036405435779357414 0 0.0010822854350370041 -0.0046547438840003671 0 0.0010102933541309915 -0.0048916792386058958 0 0.0010438267038661686 -0.0049315513046482773 0 0.0010302896816568822 -0.0048280836873609602 0 0.0013567264931303635 -0.0058987186967541004 0 0.001000273733950749 -0.0036405435779357414 0 -0.00022036220344623343 -0.0006238750330533363 0 0.00016535504702501475 -0.00049842457800412831 0 1.3630905628657796e-05 -0.00094202619981805891 0 -0.00022036220344623343 -0.0006238750330533363 0 -0.00033315382297287749 -0.00026934885016441368 0 0.00016535504702501475 -0.00049842457800412831 0 -0.00033315382297287749 -0.00026934885016441368 0 0.00016535504702501475 -0.00049842457800412831 0 -0.0001675904591319055 -9.5514591725141319e-05 0 -3.0820404875300366e-05 1.4905633797910156e-05 0 0.00016535504702501475 -0.00049842457800412831 0 -0.0001675904591319055 -9.5514591725141319e-05 0 -3.0820404875300366e-05 1.4905633797910156e-05 0 0.00020201079512871629 -0.0030780229525270331 0 0.0012297078775502361 -0.0019255806359623157 0 -0.00035680130770411074 0.00052361374681314716 0 0.001000273733950749 -0.0036405435779357414 0 -1.2479521443238154e-05 -0.00011381024557850909 0 0.00020461569197973488 -0.0017629610236799464 0 0.0012921115726593538 -0.007301155347477317 0 0.0012718402229562795 -0.0066396090822096812 0 0.0018251344115343658 -0.0067676616794427073 0 -0.0012366676984938295 -0.013427017187505635 0 -0.0014093996068661619 -0.013289043408876615 0 -0.0012415145521253478 -0.01375887949592745 0 -0.000969361933383751 -0.01347928059673831 0 -0.0011106932157860169 -0.013330083479846292 0 -0.0011377672924395067 -0.013590146431211756 0 -0.0012366676984938295 -0.013427017187505635 0 -0.0011106932157860169 -0.013330083479846292 0 -0.0011377672924395067 -0.013590146431211756 0 -0.0012366676984938295 -0.013427017187505635 0 -0.0014093996068661619 -0.013289043408876615 0 -0.0012369838673290231 -0.013156714217284251 0 -0.0014093996068661619 -0.013289043408876615 0 -0.0012369838673290231 -0.013156714217284251 0 -0.0014714963801796556 -0.012946902468924193 0 -0.00088111976997738153 -0.013108393744209594 0 -0.0012369838673290231 -0.013156714217284251 0 -0.0011106932157860169 -0.013330083479846292 0 -0.0012366676984938295 -0.013427017187505635 0 -0.0012369838673290231 -0.013156714217284251 0 -0.0011106932157860169 -0.013330083479846292 0 -0.00072531790324713828 -0.012183040881079686 0 -0.00088111976997738153 -0.013108393744209594 0 -0.0012369838673290231 -0.013156714217284251 0 -0.00072531790324713828 -0.012183040881079686 0 -0.0012369838673290231 -0.013156714217284251 0 -0.0015242240162221927 -0.012914017755529859 0 -0.00091011514408494674 -0.012849392379984387 0 -0.0013965182774325093 -0.011270918189745807 0 -0.0013965182774325093 -0.011270918189745807 0 -0.00098728043596374589 -0.0092092213312165421 0 -0.0007771439966428763 -0.01022634264477726 0 -0.0013965182774325093 -0.011270918189745807 0 -0.0019020183145785764 -0.0083884677989070656 0 -0.0015787971759777871 -0.0080130483133366587 0 -0.0010901723510804045 -0.0085839780714896223 0 -0.0010987949613845481 -0.0090675855600244135 0 -0.0019020183145785764 -0.0083884677989070656 0 -0.0010901723510804045 -0.0085839780714896223 0 -0.00098728043596374589 -0.0092092213312165421 0 -0.0014376005059869915 -0.0081179365997128359 0 -0.00013927648680840034 -0.0065375890195438126 0 -0.00014657846123797386 -0.0065353224459505071 0 4.1589061461217183e-05 -0.0063958329577183332 0 -0.0014093996068661619 -0.013289043408876615 0 -0.0016847684996154184 -0.013196659238767932 0 -0.0012415145521253478 -0.01375887949592745 0 -0.00098728043596374589 -0.0092092213312165421 0 -0.00067736343729696258 -0.010305856409436973 0 -0.00013927648680840034 -0.0065375890195438126 0 -0.00014657846123797386 -0.0065353224459505071 0 -0.00014177049243375994 -0.0065907718402512935 0 -0.0014093996068661619 -0.013289043408876615 0 -0.0014714963801796556 -0.012946902468924193 0 -0.0016847684996154184 -0.013196659238767932 0 -0.00098728043596374589 -0.0092092213312165421 0 -0.00025233194222933194 -0.0063562770180293328 0 -0.0016621237198409847 -0.0078030610530016274 0 -0.00094368409248458333 -0.007882766753281872 0 -0.00085372677363210626 -0.006955980127123655 0 -0.00094368409248458333 -0.007882766753281872 0 -0.00019688267773854088 -0.0077871397600630327 0 -0.00085372677363210626 -0.006955980127123655 0 -0.0016621237198409847 -0.0078030610530016274 0 -0.00094368409248458333 -0.007882766753281872 0 -0.0010901723510804045 -0.0085839780714896223 0 -0.00065710395614631872 -0.00891378322710293 0 -0.0010901723510804045 -0.0085839780714896223 0 -0.00062404262761326778 -0.008333335274732805 0 -0.00094368409248458333 -0.007882766753281872 0 -0.00062404262761326778 -0.008333335274732805 0 -0.00019688267773854088 -0.0077871397600630327 0 -0.00094368409248458333 -0.007882766753281872 0 -0.0010901723510804045 -0.0085839780714896223 0 -0.00062404262761326778 -0.008333335274732805 0 -0.00062404262761326778 -0.008333335274732805 0 -0.00020019867041646763 -0.0087333734585838783 0 -0.00019688267773854088 -0.0077871397600630327 0 0.00059907419944447613 -0.00823430921343472 0 -0.00020019867041646763 -0.0087333734585838783 0 -0.00019688267773854088 -0.0077871397600630327 0 -0.00065710395614631872 -0.00891378322710293 0 -0.00062404262761326778 -0.008333335274732805 0 -0.00020019867041646763 -0.0087333734585838783 0 0.00069213697441692951 -0.0075257956103412247 0 -0.00019688267773854088 -0.0077871397600630327 0 0.00018287653240657984 -0.0069664429759777437 0 -0.00019688267773854088 -0.0077871397600630327 0 0.00018287653240657984 -0.0069664429759777437 0 -0.00085372677363210626 -0.006955980127123655 0 0.00018287653240657984 -0.0069664429759777437 0 9.1454237435229012e-05 -0.0062098133701604516 0 -0.00085372677363210626 -0.006955980127123655 0 0.00049884408024675729 -0.0063436087843425863 0 0.00018287653240657984 -0.0069664429759777437 0 9.1454237435229012e-05 -0.0062098133701604516 0 0.00049884408024675729 -0.0063436087843425863 0 9.1454237435229012e-05 -0.0062098133701604516 0 0.00037599820211970151 -0.0059702598775339235 0 2.2949033073992214e-05 -0.0061987622282372737 0 -6.4093987197403425e-05 -0.0060945180723421541 0 7.7160437837139049e-05 -0.00595498299166425 0 9.1454237435229012e-05 -0.0062098133701604516 0 2.2949033073992214e-05 -0.0061987622282372737 0 7.7160437837139049e-05 -0.00595498299166425 0 9.1454237435229012e-05 -0.0062098133701604516 0 2.2949033073992214e-05 -0.0061987622282372737 0 4.1589061461217183e-05 -0.0063958329577183332 0 2.2949033073992214e-05 -0.0061987622282372737 0 4.1589061461217183e-05 -0.0063958329577183332 0 -9.5426282896723561e-05 -0.0063183453014791398 0 -4.7819244502110355e-05 -0.0063657761281126742 0 -0.00025233194222933194 -0.0063562770180293328 0 -0.00014657846123797386 -0.0065353224459505071 0 4.1589061461217183e-05 -0.0063958329577183332 0 -9.5426282896723561e-05 -0.0063183453014791398 0 -0.00014657846123797386 -0.0065353224459505071 0 -9.5426282896723561e-05 -0.0063183453014791398 0 -0.00030653207303271723 -0.0063054327657873638 0 2.2949033073992214e-05 -0.0061987622282372737 0 -9.5426282896723561e-05 -0.0063183453014791398 0 -6.4093987197403425e-05 -0.0060945180723421541 0 -9.5426282896723561e-05 -0.0063183453014791398 0 -0.00022813123165463958 -0.0062031859947932928 0 -0.00030653207303271723 -0.0063054327657873638 0 -9.5426282896723561e-05 -0.0063183453014791398 0 -6.4093987197403425e-05 -0.0060945180723421541 0 -0.00022813123165463958 -0.0062031859947932928 0 2.179291783076553e-05 -0.0058757777663599395 0 -0.00060377437029369486 -0.0071217933381131967 0 2.4611134281948695e-05 -0.0070456537714233538 0 -0.00014177049243375994 -0.0065907718402512935 0 -0.00017496314313030008 -0.0066865528016690785 0 -0.00022813123165463958 -0.0062031859947932928 0 -0.00045093363929339626 -0.0060899029384070208 0 -0.00030653207303271723 -0.0063054327657873638 0 0.0002310393774011289 -0.0070697987724133403 0 2.4611134281948695e-05 -0.0070456537714233538 0 -0.00014177049243375994 -0.0065907718402512935 0 -6.4093987197403425e-05 -0.0060945180723421541 0 -0.00022813123165463958 -0.0062031859947932928 0 -0.00045093363929339626 -0.0060899029384070208 0 -0.00060377437029369486 -0.0071217933381131967 0 -0.00025212401863514128 -0.0064667412100356623 0 -0.0010085610466569323 -0.013715460025971318 0 -0.00097343100235094558 -0.013952517685271008 0 -0.0012415145521253478 -0.01375887949592745 0 -0.00015815487062470748 -0.0065540221997274217 0 -0.00025212401863514128 -0.0064667412100356623 0 -0.00014657846123797386 -0.0065353224459505071 0 -0.00014177049243375994 -0.0065907718402512935 0 -0.00017496314313030008 -0.0066865528016690785 0 -0.0010085610466569323 -0.013715460025971318 0 -0.0012415145521253478 -0.01375887949592745 0 -0.0011377672924395067 -0.013590146431211756 0 -0.000969361933383751 -0.01347928059673831 0 -0.0010085610466569323 -0.013715460025971318 0 -0.0011377672924395067 -0.013590146431211756 0 -0.0012366676984938295 -0.013427017187505635 0 -0.0012415145521253478 -0.01375887949592745 0 -0.0011377672924395067 -0.013590146431211756 0 0.000186431225496387 -0.0079889838636550328 0 -0.00030710490207297333 -0.0052084936493211574 0 -0.00026629243450159286 -0.005688737776293664 0 -8.6867201138495433e-05 -0.0057614281416824608 0 -0.00022338227442678801 -0.0059918896288702773 0 -6.4093987197403425e-05 -0.0060945180723421541 0 -0.0002339804141502167 -0.0060335094906817568 0 -0.00010327716584170512 -0.00595729387892835 0 -0.0002339804141502167 -0.0060335094906817568 0 -0.00022338227442678801 -0.0059918896288702773 0 -0.00010327716584170512 -0.00595729387892835 0 -8.6867201138495433e-05 -0.0057614281416824608 0 -0.00022338227442678801 -0.0059918896288702773 0 -0.00010327716584170512 -0.00595729387892835 0 -0.00010327716584170512 -0.00595729387892835 0 5.6211180579384007e-05 -0.0057333866630758182 0 7.7160437837139049e-05 -0.00595498299166425 0 -6.4093987197403425e-05 -0.0060945180723421541 0 -0.00010327716584170512 -0.00595729387892835 0 7.7160437837139049e-05 -0.00595498299166425 0 -8.6867201138495433e-05 -0.0057614281416824608 0 -0.00010327716584170512 -0.00595729387892835 0 5.6211180579384007e-05 -0.0057333866630758182 0 5.6211180579384007e-05 -0.0057333866630758182 0 0.00027626863599612662 -0.0056573941106125899 0 0.00026283810658410292 -0.0055318253308209858 0 5.6211180579384007e-05 -0.0057333866630758182 0 0.00027626863599612662 -0.0056573941106125899 0 7.7160437837139049e-05 -0.00595498299166425 0 0.00027626863599612662 -0.0056573941106125899 0 7.7160437837139049e-05 -0.00595498299166425 0 0.00026615424439747432 -0.0058160474824936583 0 9.1454237435229012e-05 -0.0062098133701604516 0 0.00026615424439747432 -0.0058160474824936583 0 0.00037599820211970151 -0.0059702598775339235 0 9.1454237435229012e-05 -0.0062098133701604516 0 7.7160437837139049e-05 -0.00595498299166425 0 0.00026615424439747432 -0.0058160474824936583 0 0.00026615424439747432 -0.0058160474824936583 0 0.00042465856567493513 -0.0056057481727427565 0 0.00050649945776679798 -0.0056638258604461899 0 0.00026615424439747432 -0.0058160474824936583 0 0.00037599820211970151 -0.0059702598775339235 0 0.00050649945776679798 -0.0056638258604461899 0 0.00027626863599612662 -0.0056573941106125899 0 0.00026615424439747432 -0.0058160474824936583 0 0.00042465856567493513 -0.0056057481727427565 0 0.00027626863599612662 -0.0056573941106125899 0 0.00042465856567493513 -0.0056057481727427565 0 0.00047361545078895335 -0.0054713366852083851 0 0.00042465856567493513 -0.0056057481727427565 0 0.00047361545078895335 -0.0054713366852083851 0 0.00058445745475933092 -0.0054394381986941675 0 0.00047361545078895335 -0.0054713366852083851 0 0.00047681709266583408 -0.0054040321501521334 0 0.00026283810658410292 -0.0055318253308209858 0 0.00047361545078895335 -0.0054713366852083851 0 0.00047681709266583408 -0.0054040321501521334 0 0.00067942726815348783 -0.0053829664786916916 0 0.00047681709266583408 -0.0054040321501521334 0 0.00067942726815348783 -0.0053829664786916916 0 0.00054603496061958511 -0.0052757659483169206 0 0.00047681709266583408 -0.0054040321501521334 0 0.00031994276904107717 -0.0053683707369230451 0 0.00054603496061958511 -0.0052757659483169206 0 0.00031994276904107717 -0.0053683707369230451 0 0.00026283810658410292 -0.0055318253308209858 0 0.00011595365367923426 -0.0054598790240047252 0 0.00047681709266583408 -0.0054040321501521334 0 0.00031994276904107717 -0.0053683707369230451 0 0.00026283810658410292 -0.0055318253308209858 0 0.00027626863599612662 -0.0056573941106125899 0 0.00047361545078895335 -0.0054713366852083851 0 0.00026283810658410292 -0.0055318253308209858 0 5.6211180579384007e-05 -0.0057333866630758182 0 0.00026283810658410292 -0.0055318253308209858 0 0.00011595365367923426 -0.0054598790240047252 0 -8.6867201138495433e-05 -0.0057614281416824608 0 5.6211180579384007e-05 -0.0057333866630758182 0 0.00011595365367923426 -0.0054598790240047252 0 0.00031994276904107717 -0.0053683707369230451 0 0.00011595365367923426 -0.0054598790240047252 0 0.00016586268375733674 -0.005280821149290218 0 0.00011595365367923426 -0.0054598790240047252 0 1.5059894927039713e-05 -0.0052899326389975604 0 0.00016586268375733674 -0.005280821149290218 0 -0.00012389676780792579 -0.0055176861912621649 0 -0.0001302661623614484 -0.0053221091320396485 0 -4.995454892869011e-05 -0.0054014389111605885 0 -0.00012389676780792579 -0.0055176861912621649 0 0.00011595365367923426 -0.0054598790240047252 0 -4.995454892869011e-05 -0.0054014389111605885 0 0.00011595365367923426 -0.0054598790240047252 0 -4.995454892869011e-05 -0.0054014389111605885 0 1.5059894927039713e-05 -0.0052899326389975604 0 -0.00012389676780792579 -0.0055176861912621649 0 -0.0001127586505546044 -0.005743211415501508 0 0.00011595365367923426 -0.0054598790240047252 0 0.000186431225496387 -0.0079889838636550328 0 0.00013957438981923513 -0.0047452135352600393 0 -0.00026629243450159286 -0.005688737776293664 0 -8.6867201138495433e-05 -0.0057614281416824608 0 0.00011595365367923426 -0.0054598790240047252 0 0.00093605574505708686 -0.0051042457798486348 0 0.00075694238551416056 -0.0052477827243457929 0 0.0011305267978061883 -0.0048000625052625739 0 0.00093605574505708686 -0.0051042457798486348 0 0.0008887989946135894 -0.0049755530855322945 0 0.0011305267978061883 -0.0048000625052625739 0 0.00093605574505708686 -0.0051042457798486348 0 0.00075694238551416056 -0.0052477827243457929 0 0.00099364211610424155 -0.0050481942583686188 0 0.00093605574505708686 -0.0051042457798486348 0 0.00092594791185370224 -0.0051402316283479998 0 0.00099364211610424155 -0.0050481942583686188 0 0.00093605574505708686 -0.0051042457798486348 0 0.00092594791185370224 -0.0051402316283479998 0 0.0008887989946135894 -0.0049755530855322945 0 0.00019172755377007991 -0.0018517118664421448 0 0.00047250905858489813 -0.0013656220382196359 0 0.00076398324042607161 -0.0024784387571494984 0 0.00061375894282546207 -0.0032611120925431724 0 0.00089954791108331285 -0.003656193348375586 0 0.00019172755377007991 -0.0018517118664421448 0 0.00047250905858489813 -0.0013656220382196359 0 -7.4957020902863866e-05 -0.0013478985877552572 0 -0.00021786527375799872 -0.0017502182759800025 0 0.00019172755377007991 -0.0018517118664421448 0 -7.4957020902863866e-05 -0.0013478985877552572 0 0.00020201079512871629 -0.0030780229525270331 0 0.00075694238551416056 -0.0052477827243457929 0 0.0010302896816568822 -0.0048280836873609602 0 0.00020461569197973488 -0.0017629610236799464 0 0.00061375894282546207 -0.0032611120925431724 0 0.00016535504702501475 -0.00049842457800412831 0 0.00047250905858489813 -0.0013656220382196359 0 1.3630905628657796e-05 -0.00094202619981805891 0 0.00047250905858489813 -0.0013656220382196359 0 -7.4957020902863866e-05 -0.0013478985877552572 0 1.3630905628657796e-05 -0.00094202619981805891 0 0.00075694238551416056 -0.0052477827243457929 0 0.0010302896816568822 -0.0048280836873609602 0 0.00099364211610424155 -0.0050481942583686188 0 0.00092594791185370224 -0.0051402316283479998 0 0.00099364211610424155 -0.0050481942583686188 0 0.00095120275823158229 -0.0050967379823931101 0 0.0010102933541309915 -0.0048916792386058958 0 0.0010302896816568822 -0.0048280836873609602 0 0.00099364211610424155 -0.0050481942583686188 0 0.0010102933541309915 -0.0048916792386058958 0 0.00099364211610424155 -0.0050481942583686188 0 0.00095120275823158229 -0.0050967379823931101 0 0.0010102933541309915 -0.0048916792386058958 0 0.00089467799963476361 -0.0052118165193313576 0 0.00095120275823158229 -0.0050967379823931101 0 0.0013567264931303635 -0.0058987186967541004 0 0.00082297059948742326 -0.0051564826314426737 0 0.0010102933541309915 -0.0048916792386058958 0 0.00089467799963476361 -0.0052118165193313576 0 0.0008596310181824715 -0.0053407971800695578 0 0.0013908184916016934 -0.0060559459988845299 0 0.00091540278559072122 -0.0058544617989759722 0 0.0008596310181824715 -0.0053407971800695578 0 0.00091540278559072122 -0.0058544617989759722 0 0.00070607869837280117 -0.0056683139171228233 0 0.0008596310181824715 -0.0053407971800695578 0 0.00037599820211970151 -0.0059702598775339235 0 0.00065405144412869183 -0.0059842032674681921 0 0.00050649945776679798 -0.0056638258604461899 0 0.00091540278559072122 -0.0058544617989759722 0 0.00065405144412869183 -0.0059842032674681921 0 0.00070607869837280117 -0.0056683139171228233 0 0.00065405144412869183 -0.0059842032674681921 0 0.00070607869837280117 -0.0056683139171228233 0 0.00050649945776679798 -0.0056638258604461899 0 0.00070607869837280117 -0.0056683139171228233 0 0.00066670361974320558 -0.0054998668567489218 0 0.0008596310181824715 -0.0053407971800695578 0 0.00070607869837280117 -0.0056683139171228233 0 0.00050649945776679798 -0.0056638258604461899 0 0.00066670361974320558 -0.0054998668567489218 0 0.00042465856567493513 -0.0056057481727427565 0 0.00050649945776679798 -0.0056638258604461899 0 0.00058445745475933092 -0.0054394381986941675 0 0.00050649945776679798 -0.0056638258604461899 0 0.00066670361974320558 -0.0054998668567489218 0 0.00058445745475933092 -0.0054394381986941675 0 0.00066670361974320558 -0.0054998668567489218 0 0.0008596310181824715 -0.0053407971800695578 0 0.00076486877832552245 -0.0053649273208583367 0 0.00066670361974320558 -0.0054998668567489218 0 0.00070538125261984392 -0.005376219795250806 0 0.00076486877832552245 -0.0053649273208583367 0 0.00066670361974320558 -0.0054998668567489218 0 0.00070538125261984392 -0.005376219795250806 0 0.00058445745475933092 -0.0054394381986941675 0 0.00070538125261984392 -0.005376219795250806 0 0.00078983908200142851 -0.0052829439971651473 0 0.00067942726815348783 -0.0053829664786916916 0 0.00092594791185370224 -0.0051402316283479998 0 0.00089467799963476361 -0.0052118165193313576 0 0.00095120275823158229 -0.0050967379823931101 0 0.00092594791185370224 -0.0051402316283479998 0 0.00089467799963476361 -0.0052118165193313576 0 0.00086945843205088285 -0.0051988642389329083 0 0.00089467799963476361 -0.0052118165193313576 0 0.00086945843205088285 -0.0051988642389329083 0 0.00084994300723211858 -0.0052651518482140468 0 0.00089467799963476361 -0.0052118165193313576 0 0.00084994300723211858 -0.0052651518482140468 0 0.0008596310181824715 -0.0053407971800695578 0 0.00070538125261984392 -0.005376219795250806 0 0.00076486877832552245 -0.0053649273208583367 0 0.00078983908200142851 -0.0052829439971651473 0 0.00084994300723211858 -0.0052651518482140468 0 0.0008596310181824715 -0.0053407971800695578 0 0.00078983908200142851 -0.0052829439971651473 0 0.0008596310181824715 -0.0053407971800695578 0 0.00076486877832552245 -0.0053649273208583367 0 0.00078983908200142851 -0.0052829439971651473 0 0.00086945843205088285 -0.0051988642389329083 0 0.00084994300723211858 -0.0052651518482140468 0 0.00078983908200142851 -0.0052829439971651473 0 0.00086945843205088285 -0.0051988642389329083 0 0.00078983908200142851 -0.0052829439971651473 0 0.0008887989946135894 -0.0049755530855322945 0 0.00092594791185370224 -0.0051402316283479998 0 0.00086945843205088285 -0.0051988642389329083 0 0.0008887989946135894 -0.0049755530855322945 0 0.00077518064789768156 -0.0052711462952133581 0 0.00070138711028721516 -0.0049690595395604177 0 0.00078983908200142851 -0.0052829439971651473 0 0.0008887989946135894 -0.0049755530855322945 0 0.00066570195271180126 -0.0045189122168879641 0 0.0008887989946135894 -0.0049755530855322945 0 0.00066570195271180126 -0.0045189122168879641 0 0.0008443481536277638 -0.0044889658090820654 0 0.00070538125261984392 -0.005376219795250806 0 0.00058445745475933092 -0.0054394381986941675 0 0.00067942726815348783 -0.0053829664786916916 0 0.00047361545078895335 -0.0054713366852083851 0 0.00058445745475933092 -0.0054394381986941675 0 0.00067942726815348783 -0.0053829664786916916 0 0.00070138711028721516 -0.0049690595395604177 0 0.00083736507999817883 -0.0048373550845175377 0 0.00067942726815348783 -0.0053829664786916916 0 0.00073126226578437508 -0.005207847309692675 0 0.00054603496061958511 -0.0052757659483169206 0 0.00066570195271180126 -0.0045189122168879641 0 0.0008443481536277638 -0.0044889658090820654 0 0.00085050783892804077 -0.0043426192477895222 0 0.00066570195271180126 -0.0045189122168879641 0 0.00085050783892804077 -0.0043426192477895222 0 0.00096990443773735293 -0.0044634285187221696 0 0.0008754466017551636 -0.0040426394633996977 0 0.00089954791108331285 -0.003656193348375586 0 0.0008443481536277638 -0.0044889658090820654 0 0.00083830525247919534 -0.0040635347164648629 0 0.0011305267978061883 -0.0048000625052625739 0 0.0008443481536277638 -0.0044889658090820654 0 0.00083830525247919534 -0.0040635347164648629 0 0.00085050783892804077 -0.0043426192477895222 0 0.0008887989946135894 -0.0049755530855322945 0 0.0008443481536277638 -0.0044889658090820654 0 0.0011305267978061883 -0.0048000625052625739 0 -0.00016259304563032549 -0.0025072771342916278 0 0.00076398324042607161 -0.0024784387571494984 0 0.00024193275885594581 -0.0032853769616465502 0 -0.00016259304563032549 -0.0025072771342916278 0 0.00019172755377007991 -0.0018517118664421448 0 0.00076398324042607161 -0.0024784387571494984 0 0.00083830525247919534 -0.0040635347164648629 0 0.00076398324042607161 -0.0024784387571494984 0 0.00024193275885594581 -0.0032853769616465502 0 0.00083830525247919534 -0.0040635347164648629 0 0.00024193275885594581 -0.0032853769616465502 0 0.00020486208109835922 -0.0038185707378785303 0 -0.00026239572237086507 -0.0034667147465830181 0 0.00024193275885594581 -0.0032853769616465502 0 0.00020486208109835922 -0.0038185707378785303 0 0.00083830525247919534 -0.0040635347164648629 0 0.00020486208109835922 -0.0038185707378785303 0 8.4066408724301018e-05 -0.0043658555936812154 0 0.00083830525247919534 -0.0040635347164648629 0 0.00078208024196181212 -0.0045559095984004667 0 8.4066408724301018e-05 -0.0043658555936812154 0 0.00078208024196181212 -0.0045559095984004667 0 0.00031253549623962384 -0.0049229936551047765 0 9.531394047450281e-06 -0.0040810139177709726 0 0.00073493283360733658 -0.0045248206504298781 0 4.0803261555652518e-05 -0.004213383626597028 0 0.00083830525247919534 -0.0040635347164648629 0 0.00078208024196181212 -0.0045559095984004667 0 0.00085050783892804077 -0.0043426192477895222 0 0.00078208024196181212 -0.0045559095984004667 0 0.00085050783892804077 -0.0043426192477895222 0 0.00090704876030541014 -0.0045829932314691785 0 0.00085050783892804077 -0.0043426192477895222 0 0.00096990443773735293 -0.0044634285187221696 0 0.00090704876030541014 -0.0045829932314691785 0 0.00073126226578437508 -0.005207847309692675 0 0.00093722883359827756 -0.0048934414038414717 0 0.00068113199375382139 -0.0050826364661818793 0 0.00096990443773735293 -0.0044634285187221696 0 0.0009618934262325097 -0.0047478840010141956 0 0.00093722883359827756 -0.0048934414038414717 0 0.00083736507999817883 -0.0048373550845175377 0 0.00092067881151825447 -0.0048655643816318513 0 0.00096990443773735293 -0.0044634285187221696 0 0.0009618934262325097 -0.0047478840010141956 0 0.00090704876030541014 -0.0045829932314691785 0 0.00078208024196181212 -0.0045559095984004667 0 0.00090704876030541014 -0.0045829932314691785 0 0.00096308956941617348 -0.0048317734960884292 0 0.0009618934262325097 -0.0047478840010141956 0 0.00090704876030541014 -0.0045829932314691785 0 0.00096308956941617348 -0.0048317734960884292 0 0.00078208024196181212 -0.0045559095984004667 0 0.00096308956941617348 -0.0048317734960884292 0 0.00093200028208615554 -0.005141586934227697 0 0.00096308956941617348 -0.0048317734960884292 0 0.0010079847281391598 -0.0049939473261665446 0 0.0010058256937463014 -0.0049256934700794052 0 0.0010079847281391598 -0.0049939473261665446 0 0.00093200028208615554 -0.005141586934227697 0 0.0010774066820238919 -0.0050657844411067113 0 0.00096308956941617348 -0.0048317734960884292 0 0.0010079847281391598 -0.0049939473261665446 0 0.00093200028208615554 -0.005141586934227697 0 0.0011488249143268773 -0.0064484529663441648 0 0.0013059407784474413 -0.0074406854980667196 0 0.00093722883359827756 -0.0048934414038414717 0 0.0010058256937463014 -0.0049256934700794052 0 0.00083718607875995815 -0.0048141753972874447 0 0.0010058256937463014 -0.0049256934700794052 0 0.0010774066820238919 -0.0050657844411067113 0 0.00083718607875995815 -0.0048141753972874447 0 0.0009618934262325097 -0.0047478840010141956 0 0.00096308956941617348 -0.0048317734960884292 0 0.0010058256937463014 -0.0049256934700794052 0 0.0009618934262325097 -0.0047478840010141956 0 0.00093722883359827756 -0.0048934414038414717 0 0.0010058256937463014 -0.0049256934700794052 0 0.0010079847281391598 -0.0049939473261665446 0 0.0010058256937463014 -0.0049256934700794052 0 0.0010774066820238919 -0.0050657844411067113 0 0.001233811193397844 -0.008191416476482527 0 0.0013059407784474413 -0.0074406854980667196 0 0.001350284578431562 -0.0080965242302688707 0 0.0013168278127731494 -0.0079667761931597799 0 0.001406166991993793 -0.0083041918906280893 0 0.001350284578431562 -0.0080965242302688707 0 0.0013480186187972486 -0.0081439208431273082 0 0.0013525903915268889 -0.0082551323895663411 0 0.001350284578431562 -0.0080965242302688707 0 0.0013212674156345338 -0.0080072111981958783 0 0.0013480186187972486 -0.0081439208431273082 0 0.001350284578431562 -0.0080965242302688707 0 0.0013168278127731494 -0.0079667761931597799 0 0.0013212674156345338 -0.0080072111981958783 0 0.0013212674156345338 -0.0080072111981958783 0 0.0012435557553343859 -0.0077529218858822515 0 0.0013265637910753884 -0.0079958955054354169 0 0.0013168278127731494 -0.0079667761931597799 0 0.0013212674156345338 -0.0080072111981958783 0 0.0012435557553343859 -0.0077529218858822515 0 0.0013212674156345338 -0.0080072111981958783 0 0.0013480186187972486 -0.0081439208431273082 0 0.0013547631184841569 -0.0081371882450847546 0 0.0013212674156345338 -0.0080072111981958783 0 0.0013547631184841569 -0.0081371882450847546 0 0.0013265637910753884 -0.0079958955054354169 0 0.00093200028208615554 -0.005141586934227697 0 0.0010774066820238919 -0.0050657844411067113 0 0.00090281852704317885 -0.0056643065912337356 0 0.0011488249143268773 -0.0064484529663441648 0 0.00088573976133370059 -0.0065512259931103448 0 0.0013168278127731494 -0.0079667761931597799 0 0.0010730482691524508 -0.0073666500134443019 0 0.0012435557553343859 -0.0077529218858822515 0 0.00093200028208615554 -0.005141586934227697 0 0.00090281852704317885 -0.0056643065912337356 0 0.00047247797942263572 -0.0055421846434327822 0 0.00047247797942263572 -0.0055421846434327822 0 0.00031253549623962384 -0.0049229936551047765 0 -0.00023462495680683681 -0.0055932153122955222 0 0.00090281852704317885 -0.0056643065912337356 0 0.00047247797942263572 -0.0055421846434327822 0 0.00033454181766033754 -0.0065884122062285118 0 0.00047247797942263572 -0.0055421846434327822 0 0.00033454181766033754 -0.0065884122062285118 0 -0.00023462495680683681 -0.0055932153122955222 0 0.00078208024196181212 -0.0045559095984004667 0 0.00093200028208615554 -0.005141586934227697 0 0.00031253549623962384 -0.0049229936551047765 0 0.00093200028208615554 -0.005141586934227697 0 0.00047247797942263572 -0.0055421846434327822 0 0.00031253549623962384 -0.0049229936551047765 0 0.0015568467263349082 -0.0085856883362662607 0 0.0015355006003068162 -0.0085070423352431 0 0.0015090409070626489 -0.0085452656473520589 0 0.0015568467263349082 -0.0085856883362662607 0 0.0015048758158874831 -0.0085728075893977407 0 0.0014936086938770181 -0.0086171759891878422 0 0.0015048758158874831 -0.0085728075893977407 0 0.0014729235442402615 -0.0085836754312762914 0 0.0014936086938770181 -0.0086171759891878422 0 0.0015048758158874831 -0.0085728075893977407 0 0.0014729235442402615 -0.0085836754312762914 0 0.0014690640017057045 -0.008542529017116704 0 0.0015048758158874831 -0.0085728075893977407 0 0.0014690640017057045 -0.008542529017116704 0 0.0015090409070626489 -0.0085452656473520589 0 0.0014690640017057045 -0.008542529017116704 0 0.0015090409070626489 -0.0085452656473520589 0 0.0014681118693479216 -0.0085371416717549692 0 0.0015568467263349082 -0.0085856883362662607 0 0.0015048758158874831 -0.0085728075893977407 0 0.0015090409070626489 -0.0085452656473520589 0 0.00194735871853135 -0.010072413490510957 0 0.00073073034116304385 -0.0065419842291665866 0 -0.0001302661623614484 -0.0053221091320396485 0 1.5059894927039713e-05 -0.0052899326389975604 0 8.8514660551592591e-05 -0.0051380122819886945 0 0.0015355006003068162 -0.0085070423352431 0 0.0015090409070626489 -0.0085452656473520589 0 0.0014681118693479216 -0.0085371416717549692 0 -0.0001302661623614484 -0.0053221091320396485 0 -4.995454892869011e-05 -0.0054014389111605885 0 1.5059894927039713e-05 -0.0052899326389975604 0 1.5059894927039713e-05 -0.0052899326389975604 0 0.00010660281539050042 -0.0052291005464162434 0 8.8514660551592591e-05 -0.0051380122819886945 0 0.00010660281539050042 -0.0052291005464162434 0 0.0001846500720456058 -0.0051954557442381527 0 8.8514660551592591e-05 -0.0051380122819886945 0 0.00010660281539050042 -0.0052291005464162434 0 0.00016586268375733674 -0.005280821149290218 0 0.0001846500720456058 -0.0051954557442381527 0 1.5059894927039713e-05 -0.0052899326389975604 0 0.00010660281539050042 -0.0052291005464162434 0 0.00016586268375733674 -0.005280821149290218 0 0.00016586268375733674 -0.005280821149290218 0 0.0001846500720456058 -0.0051954557442381527 0 0.00033481257777199104 -0.0052432358789527029 0 0.0001846500720456058 -0.0051954557442381527 0 0.00028153433216699964 -0.0051304571051826479 0 8.8514660551592591e-05 -0.0051380122819886945 0 0.0001846500720456058 -0.0051954557442381527 0 0.00028153433216699964 -0.0051304571051826479 0 0.00033481257777199104 -0.0052432358789527029 0 0.00028153433216699964 -0.0051304571051826479 0 8.8514660551592591e-05 -0.0051380122819886945 0 0.00037368724044552914 -0.0049510583780621193 0 0.0014681118693479216 -0.0085371416717549692 0 0.0015051498094279701 -0.0084480960794261553 0 0.0014965980733774428 -0.0084397390598872531 0 0.0014690640017057045 -0.008542529017116704 0 0.0014681118693479216 -0.0085371416717549692 0 0.0014965980733774428 -0.0084397390598872531 0 0.0014690640017057045 -0.008542529017116704 0 0.0013471264251452735 -0.0085996352301261104 0 0.001420740917836612 -0.0086032155748239445 0 0.0014807717202758677 -0.0085122617471798546 0 0.0014111584715834312 -0.0086100741863195801 0 0.00073073034116304385 -0.0065419842291665866 0 0.00096187749510857087 -0.0066436320933461442 0 0.0014729235442402615 -0.0085836754312762914 0 0.0014690640017057045 -0.008542529017116704 0 0.001420740917836612 -0.0086032155748239445 0 0.00037368724044552914 -0.0049510583780621193 0 0.00043791257068830536 -0.0050322990272982432 0 0.00038856107581230749 -0.0050527048886711877 0 0.00050782066467388795 -0.0050062708291323723 0 0.00047113560495464261 -0.0051070223243373548 0 0.00065011344108271312 -0.0049922895884904235 0 0.00037368724044552914 -0.0049510583780621193 0 0.00050782066467388795 -0.0050062708291323723 0 0.00043791257068830536 -0.0050322990272982432 0 0.00050782066467388795 -0.0050062708291323723 0 0.00043791257068830536 -0.0050322990272982432 0 0.00047113560495464261 -0.0051070223243373548 0 0.00043791257068830536 -0.0050322990272982432 0 0.00047113560495464261 -0.0051070223243373548 0 0.00038856107581230749 -0.0050527048886711877 0 0.00028153433216699964 -0.0051304571051826479 0 0.00047113560495464261 -0.0051070223243373548 0 0.00038856107581230749 -0.0050527048886711877 0 0.00028153433216699964 -0.0051304571051826479 0 0.00037368724044552914 -0.0049510583780621193 0 0.00038856107581230749 -0.0050527048886711877 0 0.00028153433216699964 -0.0051304571051826479 0 0.00047113560495464261 -0.0051070223243373548 0 0.00033481257777199104 -0.0052432358789527029 0 0.00031994276904107717 -0.0053683707369230451 0 0.00033481257777199104 -0.0052432358789527029 0 0.00054603496061958511 -0.0052757659483169206 0 0.00047113560495464261 -0.0051070223243373548 0 0.00033481257777199104 -0.0052432358789527029 0 0.00054603496061958511 -0.0052757659483169206 0 0.00031994276904107717 -0.0053683707369230451 0 0.00016586268375733674 -0.005280821149290218 0 0.00033481257777199104 -0.0052432358789527029 0 0.00073126226578437508 -0.005207847309692675 0 0.00054603496061958511 -0.0052757659483169206 0 0.00068113199375382139 -0.0050826364661818793 0 0.00047113560495464261 -0.0051070223243373548 0 0.00054603496061958511 -0.0052757659483169206 0 0.00068113199375382139 -0.0050826364661818793 0 0.00047113560495464261 -0.0051070223243373548 0 0.00068113199375382139 -0.0050826364661818793 0 0.00065011344108271312 -0.0049922895884904235 0 0.00068113199375382139 -0.0050826364661818793 0 0.00065011344108271312 -0.0049922895884904235 0 0.00077661641087227288 -0.0049453385961784743 0 0.00093722883359827756 -0.0048934414038414717 0 0.00068113199375382139 -0.0050826364661818793 0 0.00077661641087227288 -0.0049453385961784743 0 0.00065011344108271312 -0.0049922895884904235 0 0.00077661641087227288 -0.0049453385961784743 0 0.00083718607875995815 -0.0048141753972874447 0 0.00093722883359827756 -0.0048934414038414717 0 0.00077661641087227288 -0.0049453385961784743 0 0.00083718607875995815 -0.0048141753972874447 0 0.00050782066467388795 -0.0050062708291323723 0 0.00065011344108271312 -0.0049922895884904235 0 0.00083718607875995815 -0.0048141753972874447 0 0.0013554392241837353 -0.0084358758535549253 0 0.0013441515644881876 -0.0083880580645624668 0 0.0013413365986988846 -0.0085048763202707784 0 0.0013554392241837353 -0.0084358758535549253 0 0.0013413365986988846 -0.0085048763202707784 0 0.0013445039722324063 -0.0085504147600475866 0 0.0013554392241837353 -0.0084358758535549253 0 0.0013525903915268889 -0.0082551323895663411 0 0.0013441515644881876 -0.0083880580645624668 0 0.001350284578431562 -0.0080965242302688707 0 0.0013554392241837353 -0.0084358758535549253 0 0.0013525903915268889 -0.0082551323895663411 0 0.0013525903915268889 -0.0082551323895663411 0 0.0013561837654507969 -0.008244687838839795 0 0.0013441515644881876 -0.0083880580645624668 0 0.0013480186187972486 -0.0081439208431273082 0 0.0013525903915268889 -0.0082551323895663411 0 0.0013561837654507969 -0.008244687838839795 0 0.0013480186187972486 -0.0081439208431273082 0 0.0013561837654507969 -0.008244687838839795 0 0.0013547631184841569 -0.0081371882450847546 0 0.0013561837654507969 -0.008244687838839795 0 0.0013692861528052059 -0.0082823219917591215 0 0.0013547631184841569 -0.0081371882450847546 0 0.0013591058649655118 -0.0083896493337824226 0 0.0013804144844460626 -0.0084058509210840245 0 0.0013692861528052059 -0.0082823219917591215 0 0.0013561837654507969 -0.008244687838839795 0 0.0013591058649655118 -0.0083896493337824226 0 0.0013692861528052059 -0.0082823219917591215 0 0.0013591058649655118 -0.0083896493337824226 0 0.0013441515644881876 -0.0083880580645624668 0 0.001345491334785261 -0.0085038621566561907 0 0.0013441515644881876 -0.0083880580645624668 0 0.001345491334785261 -0.0085038621566561907 0 0.0013413365986988846 -0.0085048763202707784 0 0.0013561837654507969 -0.008244687838839795 0 0.0013591058649655118 -0.0083896493337824226 0 0.0013441515644881876 -0.0083880580645624668 0 0.001345491334785261 -0.0085038621566561907 0 0.0013650704376169177 -0.0085257102511096527 0 0.0013579879419093712 -0.0086890678040163639 0 0.0013591058649655118 -0.0083896493337824226 0 0.001345491334785261 -0.0085038621566561907 0 0.0013650704376169177 -0.0085257102511096527 0 0.0013591058649655118 -0.0083896493337824226 0 0.0013650704376169177 -0.0085257102511096527 0 0.0013804144844460626 -0.0084058509210840245 0 0.0013579879419093712 -0.0086890678040163639 0 0.0013560299500008741 -0.008856060568399186 0 0.001384067593140225 -0.0085952529670771886 0 0.0013650704376169177 -0.0085257102511096527 0 0.0013579879419093712 -0.0086890678040163639 0 0.001384067593140225 -0.0085952529670771886 0 0.001345491334785261 -0.0085038621566561907 0 0.0013579879419093712 -0.0086890678040163639 0 0.0013509596273793233 -0.0086303165248817412 0 0.00096187749510857087 -0.0066436320933461442 0 0.0013059407784474413 -0.0074406854980667196 0 0.0013059407784474413 -0.0074406854980667196 0 0.0014111584715834312 -0.0086100741863195801 0 0.0015051498094279701 -0.0084480960794261553 0 0.0015989290901406129 -0.0083156412259090054 0 0.0014965980733774428 -0.0084397390598872531 0 0.00037368724044552914 -0.0049510583780621193 0 0.00050782066467388795 -0.0050062708291323723 0 0.00083718607875995815 -0.0048141753972874447 0 0.0013554392241837353 -0.0084358758535549253 0 0.0013445039722324063 -0.0085504147600475866 0 0.0013471264251452735 -0.0085996352301261104 0 0.0013509596273793233 -0.0086303165248817412 0 0.0013445039722324063 -0.0085504147600475866 0 0.0013516183058762941 -0.0085967295978082031 0 0.001345491334785261 -0.0085038621566561907 0 0.0013509596273793233 -0.0086303165248817412 0 0.0013413365986988846 -0.0085048763202707784 0 0.0013509596273793233 -0.0086303165248817412 0 0.0013413365986988846 -0.0085048763202707784 0 0.0013445039722324063 -0.0085504147600475866 0 0.0013471264251452735 -0.0085996352301261104 0 0.0013516183058762941 -0.0085967295978082031 0 0.0013820496900712326 -0.0086148367834729591 0 0.0013509596273793233 -0.0086303165248817412 0 0.0013516183058762941 -0.0085967295978082031 0 0.0013820496900712326 -0.0086148367834729591 0 0.0013445039722324063 -0.0085504147600475866 0 0.0013471264251452735 -0.0085996352301261104 0 0.0013516183058762941 -0.0085967295978082031 0 0.0013509596273793233 -0.0086303165248817412 0 0.0013820496900712326 -0.0086148367834729591 0 0.0014545427622725318 -0.0086769739683008034 0 0.0013579879419093712 -0.0086890678040163639 0 0.0013509596273793233 -0.0086303165248817412 0 0.0013437063999713701 -0.0090459596551263882 0 0.0013830937989254396 -0.0086992903285141188 0 0.0012286019432818436 -0.0087937988636559491 0 0.0013471264251452735 -0.0085996352301261104 0 0.0013820496900712326 -0.0086148367834729591 0 0.001420740917836612 -0.0086032155748239445 0 0.0013820496900712326 -0.0086148367834729591 0 0.001420740917836612 -0.0086032155748239445 0 0.0014545427622725318 -0.0086769739683008034 0 0.0013560299500008741 -0.008856060568399186 0 0.0013532334043633346 -0.0092876695855250505 0 0.0013374640888180694 -0.008997979689750954 0 0.0013579879419093712 -0.0086890678040163639 0 0.0013560299500008741 -0.008856060568399186 0 0.0013437063999713701 -0.0090459596551263882 0 0.0013560299500008741 -0.008856060568399186 0 0.0013532334043633346 -0.0092876695855250505 0 0.0013437063999713701 -0.0090459596551263882 0 0.0014172108407599301 -0.0095348986780128542 0 0.0013532334043633346 -0.0092876695855250505 0 0.0013437063999713701 -0.0090459596551263882 0 0.001398007775272928 -0.0096548477850067118 0 0.0013966091221178421 -0.0095208720633162304 0 0.0013532334043633346 -0.0092876695855250505 0 0.0014172108407599301 -0.0095348986780128542 0 0.0013966091221178421 -0.0095208720633162304 0 0.0013532334043633346 -0.0092876695855250505 0 0.0015764842322896961 -0.0087100421555712133 0 0.0015568467263349082 -0.0085856883362662607 0 0.0014936086938770181 -0.0086171759891878422 0 0.0021033760088032152 -0.010139551643839995 0 0.0012286019432818436 -0.0087937988636559491 0 0.0015764842322896961 -0.0087100421555712133 0 0.0014545427622725318 -0.0086769739683008034 0 0.0014936086938770181 -0.0086171759891878422 0 0.0014729235442402615 -0.0085836754312762914 0 0.001420740917836612 -0.0086032155748239445 0 0.0014936086938770181 -0.0086171759891878422 0 0.001420740917836612 -0.0086032155748239445 0 0.0014545427622725318 -0.0086769739683008034 0 0.0014936086938770181 -0.0086171759891878422 0 0.0015135986531084073 -0.0099047808523397562 0 0.0015957127705370901 -0.0098476303596221233 0 0.0016244024150098846 -0.0096824940060526912 0 0.001398007775272928 -0.0096548477850067118 0 0.0013532334043633346 -0.0092876695855250505 0 0.0013374640888180694 -0.008997979689750954 0 0.0014081800759293147 -0.0095551923480187029 0 0.001460680114331407 -0.0092612933031088283 0 0.001398007775272928 -0.0096548477850067118 0 0.0012376026094957841 -0.0086994784111067737 0 0.0013374640888180694 -0.008997979689750954 0 0.0012376026094957841 -0.0086994784111067737 0 0.0013374640888180694 -0.008997979689750954 0 0.001385918355772285 -0.0086183718583282137 0 0.0013560299500008741 -0.008856060568399186 0 0.001385918355772285 -0.0086183718583282137 0 0.001384067593140225 -0.0085952529670771886 0 0.0013560299500008741 -0.008856060568399186 0 0.0013374640888180694 -0.008997979689750954 0 0.001385918355772285 -0.0086183718583282137 0 0.001460680114331407 -0.0092612933031088283 0 0.0015550052639474073 -0.0090156851058945491 0 0.0012376026094957841 -0.0086994784111067737 0 0.001385918355772285 -0.0086183718583282137 0 0.0013400279707662347 -0.00831992461926097 0 0.001385918355772285 -0.0086183718583282137 0 0.0014270557401385763 -0.0083396279367627026 0 0.0013400279707662347 -0.00831992461926097 0 0.0014270557401385763 -0.0083396279367627026 0 0.0014041147751755986 -0.0084198125871230607 0 0.0014106221706197497 -0.0082746231865651089 0 0.001385918355772285 -0.0086183718583282137 0 0.0014270557401385763 -0.0083396279367627026 0 0.0014041147751755986 -0.0084198125871230607 0 0.001385918355772285 -0.0086183718583282137 0 0.001384067593140225 -0.0085952529670771886 0 0.0014041147751755986 -0.0084198125871230607 0 0.001384067593140225 -0.0085952529670771886 0 0.0014041147751755986 -0.0084198125871230607 0 0.0013804144844460626 -0.0084058509210840245 0 0.0013650704376169177 -0.0085257102511096527 0 0.001384067593140225 -0.0085952529670771886 0 0.0013804144844460626 -0.0084058509210840245 0 0.0014041147751755986 -0.0084198125871230607 0 0.0013804144844460626 -0.0084058509210840245 0 0.0013866900237187363 -0.0082476543213778602 0 0.0014041147751755986 -0.0084198125871230607 0 0.0013866900237187363 -0.0082476543213778602 0 0.0014106221706197497 -0.0082746231865651089 0 0.0013804144844460626 -0.0084058509210840245 0 0.0013692861528052059 -0.0082823219917591215 0 0.0013866900237187363 -0.0082476543213778602 0 0.0013866900237187363 -0.0082476543213778602 0 0.0013547631184841569 -0.0081371882450847546 0 0.0013568596270615797 -0.0080737927641402855 0 0.0013692861528052059 -0.0082823219917591215 0 0.0013866900237187363 -0.0082476543213778602 0 0.0013547631184841569 -0.0081371882450847546 0 0.0013866900237187363 -0.0082476543213778602 0 0.0013885086608203788 -0.0081702248961046005 0 0.0014106221706197497 -0.0082746231865651089 0 0.0013866900237187363 -0.0082476543213778602 0 0.0013885086608203788 -0.0081702248961046005 0 0.0013568596270615797 -0.0080737927641402855 0 0.0013885086608203788 -0.0081702248961046005 0 0.0014106221706197497 -0.0082746231865651089 0 0.0014122190300924747 -0.0082040935693814526 0 0.0013885086608203788 -0.0081702248961046005 0 0.0014122190300924747 -0.0082040935693814526 0 0.0013589328605235495 -0.008054763938276626 0 0.0014270557401385763 -0.0083396279367627026 0 0.0014106221706197497 -0.0082746231865651089 0 0.0014122190300924747 -0.0082040935693814526 0 0.0014270557401385763 -0.0083396279367627026 0 0.0014122190300924747 -0.0082040935693814526 0 0.0014277828824217004 -0.0082344781879801279 0 0.0014122190300924747 -0.0082040935693814526 0 0.0013589328605235495 -0.008054763938276626 0 0.0013868694461201866 -0.0081367425781346606 0 0.0014277828824217004 -0.0082344781879801279 0 0.001406065676549049 -0.0081960498256215195 0 0.0013868694461201866 -0.0081367425781346606 0 0.0014122190300924747 -0.0082040935693814526 0 0.0014277828824217004 -0.0082344781879801279 0 0.0013868694461201866 -0.0081367425781346606 0 0.0014277828824217004 -0.0082344781879801279 0 0.0014251719140279521 -0.0082272374340489167 0 0.0014130919735404219 -0.0082627119738059949 0 0.0014277828824217004 -0.0082344781879801279 0 0.0014251719140279521 -0.0082272374340489167 0 0.001406065676549049 -0.0081960498256215195 0 0.0014251719140279521 -0.0082272374340489167 0 0.001406065676549049 -0.0081960498256215195 0 0.0013987547827953746 -0.0082420920665131799 0 0.0013163098884027679 -0.0083031640038911496 0 0.0014011919890921595 -0.0082465117599051438 0 0.0012667302011629799 -0.0082333439848618021 0 0.0014674651151460444 -0.0083634215168873552 0 0.0013110916124632653 -0.0082258168190250686 0 0.0015740920276594464 -0.0075286941142373859 0 0.0012440140599928498 -0.0077022096348305525 0 0.001331141764453707 -0.0077087055681381838 0 0.0014251719140279521 -0.0082272374340489167 0 0.0014209492586447613 -0.0082206717987624873 0 0.0013987547827953746 -0.0082420920665131799 0 0.0014372335001193966 -0.0078824873752329199 0 0.0014674651151460444 -0.0083634215168873552 0 0.0014251719140279521 -0.0082272374340489167 0 0.0014140676546324157 -0.008217108586407602 0 0.0014209492586447613 -0.0082206717987624873 0 0.0019221115640494786 -0.0088686380865638965 0 0.0014674651151460444 -0.0083634215168873552 0 0.0026900322583275605 -0.0090939423124177521 0 0.0024472836753771389 -0.0091513629172485095 0 0.0026992182448900828 -0.0093524990706986208 0 0.0019221115640494786 -0.0088686380865638965 0 0.0015550052639474073 -0.0090156851058945491 0 0.0014270557401385763 -0.0083396279367627026 0 0.0014130919735404219 -0.0082627119738059949 0 0.0013400279707662347 -0.00831992461926097 0 0.0014140676546324157 -0.008217108586407602 0 0.0014130919735404219 -0.0082627119738059949 0 0.0013400279707662347 -0.00831992461926097 0 0.0014251719140279521 -0.0082272374340489167 0 0.0014140676546324157 -0.008217108586407602 0 0.0014130919735404219 -0.0082627119738059949 0 0.0014270557401385763 -0.0083396279367627026 0 0.0014277828824217004 -0.0082344781879801279 0 0.0014130919735404219 -0.0082627119738059949 0 0.0024472836753771389 -0.0091513629172485095 0 0.0026992182448900828 -0.0093524990706986208 0 0.0021391242205058376 -0.0093397470169063468 0 0.0019779226786306339 -0.009499845581088703 0 0.0018266220114029278 -0.0096808639883390821 0 0.001740398220344144 -0.0094757926539595604 0 0.0019221115640494786 -0.0088686380865638965 0 0.0020313692287237599 -0.0094735566051905307 0 0.0015322437271926414 -0.0093530899170091112 0 0.001740398220344144 -0.0094757926539595604 0 0.0016244024150098846 -0.0096824940060526912 0 0.0015020025923328686 -0.0093400886344149371 0 0.0020313692287237599 -0.0094735566051905307 0 0.0015957127705370901 -0.0098476303596221233 0 0.0018266220114029278 -0.0096808639883390821 0 0.0016244024150098846 -0.0096824940060526912 0 0.0018266220114029278 -0.0096808639883390821 0 0.001740398220344144 -0.0094757926539595604 0 0.0016244024150098846 -0.0096824940060526912 0 0.001070729051701722 -0.0077006462827911796 0 0.00051805382530889597 -0.0075559205430745886 0 0.00086456358518509542 -0.0072598445259763151 0 0.00051805382530889597 -0.0075559205430745886 0 0.00033454181766033754 -0.0065884122062285118 0 0.00086456358518509542 -0.0072598445259763151 0 0.00051805382530889597 -0.0075559205430745886 0 0.00033454181766033754 -0.0065884122062285118 0 -0.00023747613618501964 -0.0070545046199439951 0 0.00088573976133370059 -0.0065512259931103448 0 0.00031927631182388297 -0.0066477890604956184 0 0.0010730482691524508 -0.0073666500134443019 0 0.00033454181766033754 -0.0065884122062285118 0 0.00086456358518509542 -0.0072598445259763151 0 0.001070729051701722 -0.0077006462827911796 0 0.00086456358518509542 -0.0072598445259763151 0 0.0011067977581822352 -0.007527793968340313 0 0.0010730482691524508 -0.0073666500134443019 0 0.00086456358518509542 -0.0072598445259763151 0 0.0011067977581822352 -0.007527793968340313 0 0.0010730482691524508 -0.0073666500134443019 0 0.0012435557553343859 -0.0077529218858822515 0 0.0011067977581822352 -0.007527793968340313 0 0.0012435557553343859 -0.0077529218858822515 0 0.001245904685409145 -0.0078002565380845502 0 0.0013055825682738527 -0.0079256419897050876 0 0.0012435557553343859 -0.0077529218858822515 0 0.001245904685409145 -0.0078002565380845502 0 0.0011067977581822352 -0.007527793968340313 0 0.0013265637910753884 -0.0079958955054354169 0 0.0013055825682738527 -0.0079256419897050876 0 0.0013568596270615797 -0.0080737927641402855 0 0.0013547631184841569 -0.0081371882450847546 0 0.0013265637910753884 -0.0079958955054354169 0 0.0013568596270615797 -0.0080737927641402855 0 0.0012435557553343859 -0.0077529218858822515 0 0.0013265637910753884 -0.0079958955054354169 0 0.0013055825682738527 -0.0079256419897050876 0 0.001245904685409145 -0.0078002565380845502 0 0.0013055825682738527 -0.0079256419897050876 0 0.0013589328605235495 -0.008054763938276626 0 0.0013055825682738527 -0.0079256419897050876 0 0.0013568596270615797 -0.0080737927641402855 0 0.0013589328605235495 -0.008054763938276626 0 0.0013885086608203788 -0.0081702248961046005 0 0.0013568596270615797 -0.0080737927641402855 0 0.0013589328605235495 -0.008054763938276626 0 0.001245904685409145 -0.0078002565380845502 0 0.0013589328605235495 -0.008054763938276626 0 0.0012855092008598689 -0.0079448393504995551 0 0.0012855092008598689 -0.0079448393504995551 0 0.0013357644816855761 -0.0080445827675785665 0 0.0012918674857860821 -0.0080672600432707912 0 0.0013589328605235495 -0.008054763938276626 0 0.0012855092008598689 -0.0079448393504995551 0 0.0013357644816855761 -0.0080445827675785665 0 0.0013589328605235495 -0.008054763938276626 0 0.0013357644816855761 -0.0080445827675785665 0 0.0013868694461201866 -0.0081367425781346606 0 0.001070729051701722 -0.0077006462827911796 0 0.001245904685409145 -0.0078002565380845502 0 0.0012855092008598689 -0.0079448393504995551 0 0.001070729051701722 -0.0077006462827911796 0 0.0012855092008598689 -0.0079448393504995551 0 0.0011392191370097114 -0.0079912469507536759 0 0.001070729051701722 -0.0077006462827911796 0 0.001245904685409145 -0.0078002565380845502 0 0.0011067977581822352 -0.007527793968340313 0 0.0012855092008598689 -0.0079448393504995551 0 0.0011392191370097114 -0.0079912469507536759 0 0.0012918674857860821 -0.0080672600432707912 0 0.0011392191370097114 -0.0079912469507536759 0 0.0012918674857860821 -0.0080672600432707912 0 0.0012614314894271543 -0.0081325268836164814 0 0.0011392191370097114 -0.0079912469507536759 0 0.0012614314894271543 -0.0081325268836164814 0 0.0010900033119675006 -0.0081976629841897346 0 0.0011392191370097114 -0.0079912469507536759 0 0.0010900033119675006 -0.0081976629841897346 0 0.00084732043915599221 -0.0080400692865339012 0 0.0013868694461201866 -0.0081367425781346606 0 0.0012918674857860821 -0.0080672600432707912 0 0.0013467620452849239 -0.0081477967829305612 0 0.0013357644816855761 -0.0080445827675785665 0 0.0013868694461201866 -0.0081367425781346606 0 0.0012918674857860821 -0.0080672600432707912 0 0.001406065676549049 -0.0081960498256215195 0 0.0013868694461201866 -0.0081367425781346606 0 0.0013467620452849239 -0.0081477967829305612 0 0.0012918674857860821 -0.0080672600432707912 0 0.0012614314894271543 -0.0081325268836164814 0 0.0013467620452849239 -0.0081477967829305612 0 0.0012614314894271543 -0.0081325268836164814 0 0.0013467620452849239 -0.0081477967829305612 0 0.0013987547827953746 -0.0082420920665131799 0 0.001406065676549049 -0.0081960498256215195 0 0.0013467620452849239 -0.0081477967829305612 0 0.0013987547827953746 -0.0082420920665131799 0 0.0012614314894271543 -0.0081325268836164814 0 0.0013987547827953746 -0.0082420920665131799 0 0.0010900033119675006 -0.0081976629841897346 0 0.0013110916124632653 -0.0082258168190250686 0 0.0011124962558816617 -0.0082051611158907578 0 0.0012667302011629799 -0.0082333439848618021 0 0.0011877289083416756 -0.0083008113130931347 0 0.0010900033119675006 -0.0081976629841897346 0 0.0012431969384772213 -0.0083099200803934126 0 0.0013163098884027679 -0.0083031640038911496 0 0.0012667302011629799 -0.0082333439848618021 0 0.0012431969384772213 -0.0083099200803934126 0 0.0012667302011629799 -0.0082333439848618021 0 0.0011877289083416756 -0.0083008113130931347 0 0.0011877289083416756 -0.0083008113130931347 0 0.0010409356980724865 -0.0083461523164165032 0 0.0010900033119675006 -0.0081976629841897346 0 -0.00039035893237089852 -0.006682024092286752 0 -0.00040604279708554401 -0.006661329585151734 0 0.0010409356980724865 -0.0083461523164165032 0 0.0010900033119675006 -0.0081976629841897346 0 0.00084732043915599221 -0.0080400692865339012 0 0.0010409356980724865 -0.0083461523164165032 0 0.00084732043915599221 -0.0080400692865339012 0 0.00050356398305109154 -0.0082325367520591844 0 -0.0016780762812010654 -0.0050606387114190054 0 -0.0015348460247075956 -0.0049746308661309333 0 -0.0017174360309627889 -0.0049101365756659982 0 0.001070729051701722 -0.0077006462827911796 0 0.0011392191370097114 -0.0079912469507536759 0 0.00084732043915599221 -0.0080400692865339012 0 0.001070729051701722 -0.0077006462827911796 0 0.00051805382530889597 -0.0075559205430745886 0 0.00084732043915599221 -0.0080400692865339012 0 0.00051805382530889597 -0.0075559205430745886 0 0.00084732043915599221 -0.0080400692865339012 0 0.00050356398305109154 -0.0082325367520591844 0 0.00051805382530889597 -0.0075559205430745886 0 0.00050356398305109154 -0.0082325367520591844 0 -0.000366009686905483 -0.0078123693542482926 0 -0.0016780762812010654 -0.0050606387114190054 0 -0.0017174360309627889 -0.0049101365756659982 0 -0.001777442712146094 -0.0049485779723340813 0 -0.0017174360309627889 -0.0049101365756659982 0 -0.001777442712146094 -0.0049485779723340813 0 -0.0018688839296298395 -0.0048698455775114773 0 -0.0037773013947166954 -0.0037390675190313652 0 -0.0019746715481460172 -0.0058192394963595207 0 -0.0052588004542808561 -0.0031393880470031114 0 -0.0047287623198393018 -0.0030959742830653498 0 -0.0047709484616887225 -0.0038404497288492172 0 -0.0051276236780218058 -0.0025960513651843548 0 -0.0052588004542808561 -0.0031393880470031114 0 -0.0047287623198393018 -0.0030959742830653498 0 -0.0047287623198393018 -0.0030959742830653498 0 -0.0043197620456451712 -0.0034414617044204706 0 -0.0047709484616887225 -0.0038404497288492172 0 -0.0043218603015230186 -0.0029427007227559626 0 -0.0043197620456451712 -0.0034414617044204706 0 -0.0040074666604066576 -0.0032153692827927944 0 -0.0039273032660356484 -0.0028664768608275973 0 -0.0043218603015230186 -0.0029427007227559626 0 -0.0040074666604066576 -0.0032153692827927944 0 -0.0047287623198393018 -0.0030959742830653498 0 -0.0043218603015230186 -0.0029427007227559626 0 -0.0043197620456451712 -0.0034414617044204706 0 -0.0043197620456451712 -0.0034414617044204706 0 -0.0038329794544167913 -0.0036165202430531542 0 -0.0040074666604066576 -0.0032153692827927944 0 -0.0043197620456451712 -0.0034414617044204706 0 -0.0041235543855114767 -0.0038424617005796209 0 -0.0047709484616887225 -0.0038404497288492172 0 -0.0041235543855114767 -0.0038424617005796209 0 -0.0047709484616887225 -0.0038404497288492172 0 -0.0039407656916180213 -0.0043096450249810346 0 -0.00055027049174334857 -0.0074468575028496685 0 -0.0008678708932297808 -0.0070404413368169612 0 -0.001238074526995711 -0.007010786052759942 0 -0.0019746715481460172 -0.0058192394963595207 0 -0.002712994390936474 -0.0056017011741923989 0 -0.0043197620456451712 -0.0034414617044204706 0 -0.0041235543855114767 -0.0038424617005796209 0 -0.0038329794544167913 -0.0036165202430531542 0 -0.0019746715481460172 -0.0058192394963595207 0 -0.00032947029993941017 -0.007708822059329835 0 -0.00040604279708554401 -0.006661329585151734 0 -0.0019746715481460172 -0.0058192394963595207 0 -0.000366009686905483 -0.0078123693542482926 0 -0.00023747613618501964 -0.0070545046199439951 0 -0.0008678708932297808 -0.0070404413368169612 0 0.00051805382530889597 -0.0075559205430745886 0 -0.000366009686905483 -0.0078123693542482926 0 -0.00023747613618501964 -0.0070545046199439951 0 -0.0008678708932297808 -0.0070404413368169612 0 -0.0010975450826735493 -0.0066914966528426323 0 -0.001238074526995711 -0.007010786052759942 0 -0.0010975450826735493 -0.0066914966528426323 0 -0.0007746719944699891 -0.0065779613323592454 0 -0.0011637744745163377 -0.0062740280595986013 0 -0.0008678708932297808 -0.0070404413368169612 0 -0.0010975450826735493 -0.0066914966528426323 0 -0.0007746719944699891 -0.0065779613323592454 0 -0.00023747613618501964 -0.0070545046199439951 0 -0.0008678708932297808 -0.0070404413368169612 0 -0.0007746719944699891 -0.0065779613323592454 0 -0.0007746719944699891 -0.0065779613323592454 0 -0.0008500331088209138 -0.0060008307809033753 0 -0.00035350751732338652 -0.0064220090815865372 0 -0.0008500331088209138 -0.0060008307809033753 0 -0.0013916075455289118 -0.0057838200656594591 0 -0.0011637744745163377 -0.0062740280595986013 0 -0.0007746719944699891 -0.0065779613323592454 0 -0.0008500331088209138 -0.0060008307809033753 0 -0.0011637744745163377 -0.0062740280595986013 0 0.00033454181766033754 -0.0065884122062285118 0 -0.00023747613618501964 -0.0070545046199439951 0 -0.00035350751732338652 -0.0064220090815865372 0 0.00033454181766033754 -0.0065884122062285118 0 -0.00035350751732338652 -0.0064220090815865372 0 -0.00023462495680683681 -0.0055932153122955222 0 -0.0008500331088209138 -0.0060008307809033753 0 -0.00035350751732338652 -0.0064220090815865372 0 -0.00023462495680683681 -0.0055932153122955222 0 -0.00023747613618501964 -0.0070545046199439951 0 -0.0007746719944699891 -0.0065779613323592454 0 -0.00035350751732338652 -0.0064220090815865372 0 -0.0013916075455289118 -0.0057838200656594591 0 -0.0019592906052193189 -0.0061892288552609165 0 -0.0018255808740467905 -0.0055153795850586213 0 -0.0019592906052193189 -0.0061892288552609165 0 -0.0024237185231512836 -0.0052837207265768954 0 -0.0018255808740467905 -0.0055153795850586213 0 -0.0013916075455289118 -0.0057838200656594591 0 -0.0011637744745163377 -0.0062740280595986013 0 -0.0019592906052193189 -0.0061892288552609165 0 -0.002712994390936474 -0.0056017011741923989 0 -0.0024902828447009948 -0.0055061962171991047 0 -0.0039407656916180213 -0.0043096450249810346 0 -0.0031629341994359925 -0.0047836902349927771 0 -0.0034209843258232639 -0.0040887418380158328 0 -0.0010975450826735493 -0.0066914966528426323 0 -0.001238074526995711 -0.007010786052759942 0 -0.0019592906052193189 -0.0061892288552609165 0 -0.0010975450826735493 -0.0066914966528426323 0 -0.0011637744745163377 -0.0062740280595986013 0 -0.0019592906052193189 -0.0061892288552609165 0 -0.0034209843258232639 -0.0040887418380158328 0 -0.0031474297114255645 -0.0036037355396683138 0 -0.0027990557453466962 -0.0039885074046692968 0 -0.0031629341994359925 -0.0047836902349927771 0 -0.0034209843258232639 -0.0040887418380158328 0 -0.0027990557453466962 -0.0039885074046692968 0 -0.0034209843258232639 -0.0040887418380158328 0 -0.0035141695569385406 -0.0036032299566565156 0 -0.0031474297114255645 -0.0036037355396683138 0 -0.0031474297114255645 -0.0036037355396683138 0 -0.0028294274120634556 -0.0035689605795692319 0 -0.0027990557453466962 -0.0039885074046692968 0 -0.0041235543855114767 -0.0038424617005796209 0 -0.0039407656916180213 -0.0043096450249810346 0 -0.0037665930768402446 -0.0038942642563310182 0 -0.0039407656916180213 -0.0043096450249810346 0 -0.0034209843258232639 -0.0040887418380158328 0 -0.0037665930768402446 -0.0038942642563310182 0 -0.0034209843258232639 -0.0040887418380158328 0 -0.0037665930768402446 -0.0038942642563310182 0 -0.0035141695569385406 -0.0036032299566565156 0 -0.0038329794544167913 -0.0036165202430531542 0 -0.0037665930768402446 -0.0038942642563310182 0 -0.0035141695569385406 -0.0036032299566565156 0 -0.0041235543855114767 -0.0038424617005796209 0 -0.0038329794544167913 -0.0036165202430531542 0 -0.0037665930768402446 -0.0038942642563310182 0 -0.0038329794544167913 -0.0036165202430531542 0 -0.00362409657376916 -0.0032015937563096941 0 -0.0040074666604066576 -0.0032153692827927944 0 -0.0035141695569385406 -0.0036032299566565156 0 -0.00362409657376916 -0.0032015937563096941 0 -0.0033059007483725519 -0.003197157829395717 0 -0.0038329794544167913 -0.0036165202430531542 0 -0.0035141695569385406 -0.0036032299566565156 0 -0.00362409657376916 -0.0032015937563096941 0 -0.0035738368018961007 -0.0027702484989151721 0 -0.00362409657376916 -0.0032015937563096941 0 -0.0033059007483725519 -0.003197157829395717 0 -0.0039273032660356484 -0.0028664768608275973 0 -0.00362409657376916 -0.0032015937563096941 0 -0.0040074666604066576 -0.0032153692827927944 0 -0.0031474297114255645 -0.0036037355396683138 0 -0.0030143924554320379 -0.0032178730312256358 0 -0.0028294274120634556 -0.0035689605795692319 0 -0.0035141695569385406 -0.0036032299566565156 0 -0.0031474297114255645 -0.0036037355396683138 0 -0.0033059007483725519 -0.003197157829395717 0 -0.0031474297114255645 -0.0036037355396683138 0 -0.0033059007483725519 -0.003197157829395717 0 -0.0030143924554320379 -0.0032178730312256358 0 -0.0031818022055317779 -0.0028761904574823123 0 -0.0033059007483725519 -0.003197157829395717 0 -0.0030143924554320379 -0.0032178730312256358 0 -0.0030143924554320379 -0.0032178730312256358 0 -0.0027221609407031317 -0.003159760159064114 0 -0.0028294274120634556 -0.0035689605795692319 0 -0.0029119205237138389 -0.0028831007322563411 0 -0.0030143924554320379 -0.0032178730312256358 0 -0.0027221609407031317 -0.003159760159064114 0 -0.0029034138985244919 -0.0022641448123962402 0 -0.0023004214503433711 0.00048306089946829054 0 -0.0027118746130984999 -0.0025187993459702528 0 -0.0027221609407031317 -0.003159760159064114 0 -0.002310476956461326 -0.0036073764614227813 0 -0.0027221609407031317 -0.003159760159064114 0 -0.0028294274120634556 -0.0035689605795692319 0 -0.002310476956461326 -0.0036073764614227813 0 -0.00066078191096795226 0.0084079205462058489 0 -0.00063020125603517867 0.0079852004684395749 0 -0.00092241255605187973 0.0078425124873553412 0 -0.00066078191096795226 0.0084079205462058489 0 -0.00063020125603517867 0.0079852004684395749 0 -0.00033931057229656485 0.0082015235230044059 0 -0.00063020125603517867 0.0079852004684395749 0 -0.0007220904347148919 0.0076441896965941114 0 -0.00049901831432257778 0.0078546313982638897 0 -0.00063020125603517867 0.0079852004684395749 0 -0.00092241255605187973 0.0078425124873553412 0 -0.0007220904347148919 0.0076441896965941114 0 -0.00092241255605187973 0.0078425124873553412 0 -0.0007220904347148919 0.0076441896965941114 0 -0.00066102736398084927 0.0073469835005352162 0 -0.0022886269705908262 -0.0035723814522487522 0 -0.0022554040112625641 -0.0039263392652882888 0 -0.0020771887183836809 -0.0044323500302633247 0 -0.0023004214503433711 0.00048306089946829054 0 -0.0014398066667600086 0.0017023861220058956 0 -0.0023004214503433711 0.00048306089946829054 0 -0.0015332508019790759 -0.0032059466323829909 0 -0.0022554040112625641 -0.0039263392652882888 0 -0.0020771887183836809 -0.0044323500302633247 0 -0.0025050036120081495 -0.0044965421760487624 0 -0.002310476956461326 -0.0036073764614227813 0 -0.0022554040112625641 -0.0039263392652882888 0 -0.0027990557453466962 -0.0039885074046692968 0 -0.0022554040112625641 -0.0039263392652882888 0 -0.0027990557453466962 -0.0039885074046692968 0 -0.0025050036120081495 -0.0044965421760487624 0 -0.0028294274120634556 -0.0035689605795692319 0 -0.002310476956461326 -0.0036073764614227813 0 -0.0027990557453466962 -0.0039885074046692968 0 -1.9715681090209669e-05 0.0085641207791248078 0 0.00058223072675576829 0.0082153736072823683 0 5.9894609514753068e-05 0.0079754344917671704 0 -0.0006042411513636055 0.011244730768746261 0 4.5151894622406004e-05 0.0078697825167286881 0 4.5151894622406004e-05 0.0078697825167286881 0 -0.00049792948385813253 0.007872771395184287 0 -1.9715681090209669e-05 0.0085641207791248078 0 5.9894609514753068e-05 0.0079754344917671704 0 -0.00033931057229656485 0.0082015235230044059 0 5.9894609514753068e-05 0.0079754344917671704 0 -0.00033931057229656485 0.0082015235230044059 0 -0.00049901831432257778 0.0078546313982638897 0 -0.00063020125603517867 0.0079852004684395749 0 -0.00033931057229656485 0.0082015235230044059 0 -0.00049901831432257778 0.0078546313982638897 0 -0.00081336367059049459 0.0077061417389690384 0 -0.00014719113498567316 0.0072321596775673973 0 -0.00018914825392634798 0.0079107495429461255 0 -0.00049901831432257778 0.0078546313982638897 0 -0.00030299589028417502 0.007598778664925674 0 -0.0007220904347148919 0.0076441896965941114 0 -0.00066102736398084927 0.0073469835005352162 0 -0.00043084987914715316 0.0073202758252685655 0 -0.0007220904347148919 0.0076441896965941114 0 -0.00049901831432257778 0.0078546313982638897 0 -0.00030299589028417502 0.007598778664925674 0 3.2495160237648521e-05 0.0077254684534448287 0 -0.00014784741515011434 0.0077224353904251225 0 -3.0460018618153907e-05 0.0075095953717921942 0 9.3544436994055753e-05 0.0079713297780683173 0 3.2495160237648521e-05 0.0077254684534448287 0 -0.00018914825392634798 0.0079107495429461255 0 -0.00018914825392634798 0.0079107495429461255 0 -0.00030299589028417502 0.007598778664925674 0 -0.00014784741515011434 0.0077224353904251225 0 3.2495160237648521e-05 0.0077254684534448287 0 -0.00018914825392634798 0.0079107495429461255 0 -0.00014784741515011434 0.0077224353904251225 0 -0.00014719113498567316 0.0072321596775673973 0 -0.00080601383074183064 0.0094787130606617323 0 -0.00043084987914715316 0.0073202758252685655 0 -0.00027234976632493381 0.0071876306719667448 0 -0.00039242317608031584 0.0070892939148967226 0 -0.00030299589028417502 0.007598778664925674 0 -0.00014784741515011434 0.0077224353904251225 0 -3.0460018618153907e-05 0.0075095953717921942 0 -0.0014398066667600086 0.0017023861220058956 0 -0.0013072564766172245 0.0010038727409386996 0 -0.00043084987914715316 0.0073202758252685655 0 -0.00050546381388774555 0.0070734143275302487 0 -0.00039242317608031584 0.0070892939148967226 0 -0.00066102736398084927 0.0073469835005352162 0 -0.00043084987914715316 0.0073202758252685655 0 -0.00050546381388774555 0.0070734143275302487 0 -0.00050546381388774555 0.0070734143275302487 0 -0.00039242317608031584 0.0070892939148967226 0 -0.0004279741428599073 0.006896595020819859 0 -0.0022168900598232995 -0.0049870674098205529 0 -0.0023627187919998626 -0.0051468223197993681 0 -0.0024125775315878319 -0.0050593584922289398 0 -0.0022168900598232995 -0.0049870674098205529 0 -0.0025046595560257608 -0.0050243876686081428 0 -0.0024125775315878319 -0.0050593584922289398 0 -0.0013072564766172245 0.0010038727409386996 0 -0.0019141423083777146 0.00099519797087390294 0 -0.00039242317608031584 0.0070892939148967226 0 -0.00035354153833312956 0.0069998785576739723 0 -0.0004279741428599073 0.006896595020819859 0 -0.00080601383074183064 0.0094787130606617323 0 -0.00045034464631477875 0.0063080002486808626 0 -0.00027234976632493381 0.0071876306719667448 0 -0.00039242317608031584 0.0070892939148967226 0 -0.00035354153833312956 0.0069998785576739723 0 -0.00026489217677434286 0.007058880814209972 0 -0.0003296039565092585 0.0074079606267012437 0 -0.00035354153833312956 0.0069998785576739723 0 -0.0014358641994142499 0.0076242822228137826 0 -0.0019141423083777146 0.00099519797087390294 0 -0.00026489217677434286 0.007058880814209972 0 -0.00035354153833312956 0.0069998785576739723 0 -0.0004279741428599073 0.006896595020819859 0 -0.0031629341994359925 -0.0047836902349927771 0 -0.0025050036120081495 -0.0044965421760487624 0 -0.0024237185231512836 -0.0052837207265768954 0 -0.0031629341994359925 -0.0047836902349927771 0 -0.0027990557453466962 -0.0039885074046692968 0 -0.0025050036120081495 -0.0044965421760487624 0 -0.0025050036120081495 -0.0044965421760487624 0 -0.0022728787599610059 -0.0048916529202285772 0 -0.0024237185231512836 -0.0052837207265768954 0 -0.0020771887183836809 -0.0044323500302633247 0 -0.0025050036120081495 -0.0044965421760487624 0 -0.0022728787599610059 -0.0048916529202285772 0 -0.0020771887183836809 -0.0044323500302633247 0 -0.0022168900598232995 -0.0049870674098205529 0 -0.0022728787599610059 -0.0048916529202285772 0 -0.0022728787599610059 -0.0048916529202285772 0 -0.0024237185231512836 -0.0052837207265768954 0 -0.0023627187919998626 -0.0051468223197993681 0 -0.0022168900598232995 -0.0049870674098205529 0 -0.0022728787599610059 -0.0048916529202285772 0 -0.0023627187919998626 -0.0051468223197993681 0 -0.0024902828447009948 -0.0055061962171991047 0 -0.0024249531258301402 -0.0053386606695660409 0 -0.0024237185231512836 -0.0052837207265768954 0 -0.0020909949822684594 -0.0051435138251940959 0 -0.0018255808740467905 -0.0055153795850586213 0 -0.0024237185231512836 -0.0052837207265768954 0 -0.0020909949822684594 -0.0051435138251940959 0 -0.0023298370666765267 -0.005091201655830279 0 -0.0020909949822684594 -0.0051435138251940959 0 -0.0023298370666765267 -0.005091201655830279 0 -0.0022942846415433351 -0.0048560883028988108 0 -0.0024237185231512836 -0.0052837207265768954 0 -0.0023627187919998626 -0.0051468223197993681 0 -0.0023298370666765267 -0.005091201655830279 0 -0.0023627187919998626 -0.0051468223197993681 0 -0.0023298370666765267 -0.005091201655830279 0 -0.0024370992216908292 -0.0048983703407160526 0 -0.0022942846415433351 -0.0048560883028988108 0 -0.0024370992216908292 -0.0048983703407160526 0 -0.0024642352979031782 -0.0046151269799026813 0 -0.0023298370666765267 -0.005091201655830279 0 -0.0022942846415433351 -0.0048560883028988108 0 -0.0024370992216908292 -0.0048983703407160526 0 -0.0022942846415433351 -0.0048560883028988108 0 -0.0020104503310907386 -0.0047670428800002359 0 -0.0022744908764019446 -0.0045841646496334633 0 -0.0020909949822684594 -0.0051435138251940959 0 -0.0022942846415433351 -0.0048560883028988108 0 -0.0020104503310907386 -0.0047670428800002359 0 -0.0029710238657104861 -0.004595850581344563 0 -0.0026694752420458345 -0.0050241387566200947 0 -0.0026052483905248535 -0.0048484859549379217 0 -0.0034143292511786779 0.0037477304335060769 0 -0.0019141423083777146 0.00099519797087390294 0 -0.0019141423083777146 0.00099519797087390294 0 -0.003644288834564188 -0.0021891522513006684 0 -0.0023627187919998626 -0.0051468223197993681 0 -0.0024370992216908292 -0.0048983703407160526 0 -0.0024596960596763098 -0.0049891820071912146 0 -0.0025175382966411528 -0.0049992797511874479 0 -0.0024596960596763098 -0.0049891820071912146 0 -0.0026052483905248535 -0.0048484859549379217 0 -0.0026694752420458345 -0.0050241387566200947 0 -0.0025175382966411528 -0.0049992797511874479 0 -0.0026052483905248535 -0.0048484859549379217 0 -0.0025046595560257608 -0.0050243876686081428 0 -0.0025175382966411528 -0.0049992797511874479 0 -0.0024125775315878319 -0.0050593584922289398 0 -0.0025175382966411528 -0.0049992797511874479 0 -0.0024125775315878319 -0.0050593584922289398 0 -0.0024596960596763098 -0.0049891820071912146 0 -0.0023627187919998626 -0.0051468223197993681 0 -0.0024125775315878319 -0.0050593584922289398 0 -0.0024596960596763098 -0.0049891820071912146 0 -0.0024370992216908292 -0.0048983703407160526 0 -0.0024596960596763098 -0.0049891820071912146 0 -0.0026052483905248535 -0.0048484859549379217 0 -0.0024370992216908292 -0.0048983703407160526 0 -0.0026323620830379533 -0.0046382379001069221 0 -0.0024642352979031782 -0.0046151269799026813 0 -0.0024370992216908292 -0.0048983703407160526 0 -0.0026323620830379533 -0.0046382379001069221 0 -0.0026052483905248535 -0.0048484859549379217 0 -0.0029710238657104861 -0.004595850581344563 0 -0.0026323620830379533 -0.0046382379001069221 0 -0.0026052483905248535 -0.0048484859549379217 0 -0.0034143292511786779 0.0037477304335060769 0 -0.0052256883140740212 -0.00393161772574216 0 -0.0062999056509585377 -0.0013822486492610924 0 -0.0062715665843559101 -0.0012000070093652238 0 -0.0063875223158598223 -0.0013383020610398225 0 -0.0029710238657104861 -0.004595850581344563 0 -0.0026323620830379533 -0.0046382379001069221 0 -0.002764406934654079 -0.0044540958188938329 0 -0.0026323620830379533 -0.0046382379001069221 0 -0.002764406934654079 -0.0044540958188938329 0 -0.0025824546687814049 -0.0044653540119096828 0 -0.0026323620830379533 -0.0046382379001069221 0 -0.0025824546687814049 -0.0044653540119096828 0 -0.0024642352979031782 -0.0046151269799026813 0 -0.0025824546687814049 -0.0044653540119096828 0 -0.0024642352979031782 -0.0046151269799026813 0 -0.0024358744803933169 -0.0044455563440315886 0 -0.0052256883140740212 -0.00393161772574216 0 -0.0041284527724991249 -0.0025247591634608782 0 -0.005989400917759481 -0.0019033105382304423 0 -0.0041284527724991249 -0.0025247591634608782 0 -0.002764406934654079 -0.0044540958188938329 0 -0.0025824546687814049 -0.0044653540119096828 0 -0.0025866878601930937 -0.0042483890748992344 0 -0.0025824546687814049 -0.0044653540119096828 0 -0.0025866878601930937 -0.0042483890748992344 0 -0.0024358744803933169 -0.0044455563440315886 0 -0.0040660237267669801 -0.0028068517903672291 0 -0.0041870921046197988 -0.0029498750010563315 0 -0.0034963896891978623 -0.0029262066240814035 0 -0.0041691951898011111 -0.0026155450562649059 0 -0.0041284527724991249 -0.0025247591634608782 0 -0.0063727027147191884 -0.0015200464560977487 0 -0.0063875223158598223 -0.0013383020610398225 0 -0.006490113548676138 -0.0014874555534420705 0 -0.0062999056509585377 -0.0013822486492610924 0 -0.0063727027147191884 -0.0015200464560977487 0 -0.0063875223158598223 -0.0013383020610398225 0 -0.0022744908764019446 -0.0045841646496334633 0 -0.0022555808476678553 -0.0043226544590703507 0 -0.0018544542710288139 -0.0043789343735318063 0 -0.0020104503310907386 -0.0047670428800002359 0 -0.0022744908764019446 -0.0045841646496334633 0 -0.0018544542710288139 -0.0043789343735318063 0 -0.0022942846415433351 -0.0048560883028988108 0 -0.0022744908764019446 -0.0045841646496334633 0 -0.0024642352979031782 -0.0046151269799026813 0 -0.0022744908764019446 -0.0045841646496334633 0 -0.0024642352979031782 -0.0046151269799026813 0 -0.0024358744803933169 -0.0044455563440315886 0 -0.0022744908764019446 -0.0045841646496334633 0 -0.0024358744803933169 -0.0044455563440315886 0 -0.0022555808476678553 -0.0043226544590703507 0 -0.0025866878601930937 -0.0042483890748992344 0 -0.0024358744803933169 -0.0044455563440315886 0 -0.0022555808476678553 -0.0043226544590703507 0 -0.0030179472865130962 -0.0024835622024210278 0 -0.0034963896891978623 -0.0029262066240814035 0 -0.003107806242058093 -0.0033681735506069831 0 -0.0041870921046197988 -0.0029498750010563315 0 -0.0034963896891978623 -0.0029262066240814035 0 -0.003107806242058093 -0.0033681735506069831 0 -0.0041284527724991249 -0.0025247591634608782 0 -0.0024902821998058406 -0.0039717203126874148 0 -0.0024902821998058406 -0.0039717203126874148 0 -0.0020370924217521444 -0.0040571614616781767 0 -0.0025561484441930077 -0.0031657916946904573 0 -0.003107806242058093 -0.0033681735506069831 0 -0.0021627484362515405 -0.0037704295652822846 0 -0.0030179472865130962 -0.0024835622024210278 0 -0.0025561484441930077 -0.0031657916946904573 0 -0.003107806242058093 -0.0033681735506069831 0 -0.0019456326721621914 -0.0030295032073284506 0 -0.0025561484441930077 -0.0031657916946904573 0 -0.0021627484362515405 -0.0037704295652822846 0 -0.0019456326721621914 -0.0030295032073284506 0 -0.0021627484362515405 -0.0037704295652822846 0 -0.0015781366469046247 -0.0036314658103664362 0 -0.0020104503310907386 -0.0047670428800002359 0 -0.0018544542710288139 -0.0043789343735318063 0 -0.0016623884393310929 -0.0047029319044474167 0 -0.0020370924217521444 -0.0040571614616781767 0 -0.0012142958560569547 -0.0043126311140351944 0 -0.0021627484362515405 -0.0037704295652822846 0 -0.0012653285555506073 -0.004164497490519877 0 -0.0015781366469046247 -0.0036314658103664362 0 -0.0018544542710288139 -0.0043789343735318063 0 -0.0016623884393310929 -0.0047029319044474167 0 -0.0012377344635201583 -0.0044323344999628554 0 -0.0020308952439074034 -0.0030733130786793571 0 -0.0010177494204054046 -0.0036677565683535559 0 -0.0012653285555506073 -0.004164497490519877 0 -0.0015781366469046247 -0.0036314658103664362 0 -0.00095140771398317156 -0.0035617932412443792 0 -0.0019456326721621914 -0.0030295032073284506 0 -0.0015781366469046247 -0.0036314658103664362 0 -0.00095140771398317156 -0.0035617932412443792 0 -0.00026239572237086507 -0.0034667147465830181 0 -0.0011024351577695905 -0.0037739603379739603 0 8.4066408724301018e-05 -0.0043658555936812154 0 -0.0010177494204054046 -0.0036677565683535559 0 4.0803261555652518e-05 -0.004213383626597028 0 -0.00026239572237086507 -0.0034667147465830181 0 0.00020486208109835922 -0.0038185707378785303 0 8.4066408724301018e-05 -0.0043658555936812154 0 -0.00095140771398317156 -0.0035617932412443792 0 9.531394047450281e-06 -0.0040810139177709726 0 -0.0004116786348316926 -0.0045670613314229939 0 0.00031253549623962384 -0.0049229936551047765 0 9.531394047450281e-06 -0.0040810139177709726 0 -0.0004116786348316926 -0.0045670613314229939 0 -0.0012653285555506073 -0.004164497490519877 0 -0.00095140771398317156 -0.0035617932412443792 0 -0.0004116786348316926 -0.0045670613314229939 0 -0.0012142958560569547 -0.0043126311140351944 0 -0.00046199064609790658 -0.0045435887248420539 0 -0.0012377344635201583 -0.0044323344999628554 0 -0.0004116786348316926 -0.0045670613314229939 0 -0.00095993296724995042 -0.0048808978779939444 0 -0.00095993296724995042 -0.0048808978779939444 0 -0.00079030737028379112 -0.005352337450654155 0 -0.0013675759534223675 -0.0051475082440516073 0 -0.0004116786348316926 -0.0045670613314229939 0 -0.00095993296724995042 -0.0048808978779939444 0 -0.00079030737028379112 -0.005352337450654155 0 0.00031253549623962384 -0.0049229936551047765 0 -0.0004116786348316926 -0.0045670613314229939 0 -0.00023462495680683681 -0.0055932153122955222 0 -0.0004116786348316926 -0.0045670613314229939 0 -0.00023462495680683681 -0.0055932153122955222 0 -0.00079030737028379112 -0.005352337450654155 0 -0.0011124140733327586 -0.0055892350204990353 0 -0.00079030737028379112 -0.005352337450654155 0 -0.0013675759534223675 -0.0051475082440516073 0 -0.0008500331088209138 -0.0060008307809033753 0 -0.00023462495680683681 -0.0055932153122955222 0 -0.00079030737028379112 -0.005352337450654155 0 -0.0008500331088209138 -0.0060008307809033753 0 -0.0011124140733327586 -0.0055892350204990353 0 -0.00079030737028379112 -0.005352337450654155 0 -0.0008500331088209138 -0.0060008307809033753 0 -0.0013916075455289118 -0.0057838200656594591 0 -0.0011124140733327586 -0.0055892350204990353 0 -0.0013916075455289118 -0.0057838200656594591 0 -0.0011124140733327586 -0.0055892350204990353 0 -0.0013675759534223675 -0.0051475082440516073 0 -0.0013916075455289118 -0.0057838200656594591 0 -0.0018255808740467905 -0.0055153795850586213 0 -0.0013675759534223675 -0.0051475082440516073 0 -0.0018255808740467905 -0.0055153795850586213 0 -0.0018014471964708325 -0.0050209399668158048 0 -0.0013675759534223675 -0.0051475082440516073 0 -0.0020909949822684594 -0.0051435138251940959 0 -0.0018255808740467905 -0.0055153795850586213 0 -0.0018014471964708325 -0.0050209399668158048 0 -0.0020909949822684594 -0.0051435138251940959 0 -0.0020104503310907386 -0.0047670428800002359 0 -0.0018014471964708325 -0.0050209399668158048 0 -0.0020104503310907386 -0.0047670428800002359 0 -0.0016623884393310929 -0.0047029319044474167 0 -0.0018014471964708325 -0.0050209399668158048 0 -0.0016623884393310929 -0.0047029319044474167 0 -0.0012377344635201583 -0.0044323344999628554 0 -0.0013675759534223675 -0.0051475082440516073 0 -0.0016623884393310929 -0.0047029319044474167 0 -0.0018014471964708325 -0.0050209399668158048 0 -0.0013675759534223675 -0.0051475082440516073 0 -0.0012377344635201583 -0.0044323344999628554 0 -0.00095993296724995042 -0.0048808978779939444 0 -0.0013675759534223675 -0.0051475082440516073 0 
</DataArray>
</PointData>
<CellData Scalars="region_id,cross_section_updated," Vectors="" Tensors="stress,">
<DataArray type="Float64" Name="region_id" format="ascii">
5 5 6 5 5 5 5 5 5 5 5 5 6 5 5 5 5 5 6 5 5 5 5 5 5 5 5 5 5 5 5 5 6 5 5 5 5 6 5 5 5 6 5 5 5 5 5 5 5 5 5 5 5 5 5 5 5 5 5 5 5 5 5 5 5 5 6 5 5 5 5 5 6 5 5 5 6 6 5 5 5 5 5 5 5 5 5 5 5 5 6 5 5 6 5 5 5 5 5 5 5 5 5 5 5 5 5 5 5 5 5 5 5 6 5 5 6 5 5 5 5 5 5 5 5 5 5 6 5 5 5 5 5 6 5 5 5 5 6 5 6 5 5 5 5 6 5 5 5 5 5 5 5 5 5 5 5 5 5 5 6 5 5 5 5 6 5 5 5 5 5 5 5 5 6 5 5 5 5 5 5 5 5 6 6 5 5 5 5 5 6 6 5 5 5 5 5 5 5 5 6 5 5 6 5 6 5 6 5 5 5 5 5 5 5 6 5 5 5 5 5 5 5 5 5 5 5 6 5 5 5 5 6 6 5 5 5 5 6 5 5 5 6 5 5 5 5 5 5 5 5 5 6 5 5 5 5 5 5 5 5 5 5 5 5 5 5 5 5 5 5 5 5 5 5 5 5 5 6 5 5 5 5 5 5 5 5 5 5 5 5 5 5 5 5 5 5 5 5 5 5 5 5 5 6 5 5 5 5 5 5 6 5 5 5 5 5 5 5 6 6 5 5 5 5 5 5 5 5 5 6 5 5 5 5 6 5 5 5 5 6 5 5 5 5 5 5 5 5 6 5 5 5 5 6 5 5 5 5 5 5 5 5 5 5 6 5 6 5 5 5 5 5 5 5 5 5 5 6 5 6 5 5 5 5 5 5 5 5 5 5 5 6 5 5 5 5 5 5 5 5 6 5 5 5 5 6 5 5 5 5 5 5 5 5 6 5 5 5 5 5 5 5 5 5 5 5 5 5 5 5 5 5 5 5 5 5 6 5 5 5 5 5 5 5 5 5 6 5 5 5 5 5 5 5 5 5 5 5 5 5 5 5 5 5 5 5 5 5 5 5 5 5 5 5 5 5 5 5 5 6 5 5 5 5 5 5 5 5 5 5 5 5 5 5 5 6 5 6 5 5 5 5 6 5 5 5 5 5 6 5 5 5 5 5 5 5 5 5 5 5 5 6 5 5 5 5 5 5 5 5 5 5 5 5 5 5 5 5 5 5 5 5 5 5 5 5 5 5 5 5 5 5 5 5 5 5 5 5 5 5 5 5 5 6 5 5 6 5 5 5 5 5 5 6 5 5 5 5 5 5 6 5 5 5 5 5 5 5 5 5 5 6 5 5 5 5 5 5 5 5 5 5 5 5 5 6 5 5 5 5 5 6 5 5 5 5 5 5 5 5 5 6 6 5 5 5 5 5 6 5 5 5 5 5 5 5 5 5 5 5 5 5 5 5 5 5 5 5 5 5 5 5 5 5 5 5 5 5 5 5 5 5 5 5 5 5 6 5 6 5 5 5 5 5 5 5 5 5 5 5 5 5 5 5 5 5 5 5 6 5 5 6 5 5 5 5 5 5 6 5 6 5 5 5 6 5 5 6 6 5 6 5 5 5 5 5 5 6 5 5 5 5 5 6 6 6 5 5 5 5 6 5 5 5 5 5 5 6 5 5 5 5 5 5 6 5 6 6 5 5 6 5 6 5 5 5 5 5 5 5 5 5 5 5 5 5 5 5 5 5 6 5 5 5 6 5 5 5 5 5 6 5 5 5 5 5 5 6 5 5 5 6 5 5 5 5 5 5 5 5 5 5 5 5 5 5 5 5 6 5 5 6 5 5 5 5 5 5 5 5 6 5 5 5 5 5 5 5 5 5 5 5 5 5 5 5 5 5 6 5 5 5 5 5 5 6 5 5 5 6 5 6 5 6 5 6 5 5 6 5 5 5 5 5 5 5 5 5 5 5 5 6 5 5 5 5 5 5 5 5 5 5 5 5 5 5 5 5 5 5 5 5 5 5 5 5 5 5 5 5 5 5 5 5 5 6 5 5 5 5 5 6 6 5 6 5 5 5 5 5 5 5 6 5 5 5 5 5 5 5 5 5 5 5 6 5 6 5 5 6 5 5 5 6 5 5 5 6 5 5 5 6 6 5 5 5 5 5 5 5 5 5 5 5 5 5 5 5 5 5 5 5 5 5 5 5 5 5 5 5 5 5 5 5 5 5 5 5 5 5 5 5 5 5 5 5 5 5 5 5 5 5 5 5 5 5 5 5 5 5 5 5 5 5 5 5 5 5 5 5 5 5 5 5 5 5 5 5 5 5 5 5 5 5 5 5 5 5 5 5 5 5 5 5 5 5 5 5 5 5 5 5 5 5 5 5 5 5 5 5 5 5 5 5 5 5 5 5 5 5 5 5 5 5 5 5 5 5 5 5 5 5 5 5 5 5 5 5 5 5 5 5 5 5 5 5 5 5 5 5 6 6 5 5 5 5 5 5 5 5 5 5 5 5 5 5 5 5 5 5 5 5 5 5 5 5 5 5 5 5 5 5 5 5 5 5 5 5 5 5 5 5 5 5 6 5 5 6 5 5 5 5 5 5 5 5 5 5 5 6 5 5 6 5 5 6 5 5 5 5 5 5 5 5 5 5 5 5 5 5 5 6 5 5 5 5 5 6 6 5 5 5 5 5 5 5 5 5 5 5 5 5 5 5 5 5 5 5 6 5 6 5 5 6 5 6 5 5 5 6 5 5 5 5 5 5 6 5 5 5 5 6 5 5 5 5 5 5 5 5 5 5 6 5 5 5 5 5 5 5 5 5 5 5 5 5 6 5 5 5 5 6 6 5 5 5 6 5 6 5 5 6 5 5 5 5 6 6 5 5 5 5 5 6 5 5 5 5 5 5 5 5 5 5 6 5 5 5 5 5 5 5 5 5 5 5 5 5 5 5 5 6 5 6 5 6 5 5 6 6 5 5 5 5 5 5 5 6 5 6 5 5 5 5 5 5 5 5 5 5 5 5 5 5 5 5 5 5 5 5 5 5 5 5 5 5 5 5 5 5 6 5 5 5 5 5 5 5 5 5 5 5 5 5 5 6 5 5 5 5 5 5 5 5 5 5 5 6 5 5 5 5 5 5 5 5 5 5 5 5 5 5 5 6 5 5 5 5 5 5 5 5 5 6 5 6 5 5 5 5 6 5 5 6 5 5 5 5 5 5 5 6 6 5 5 5 5 5 5 5 5 6 5 5 6 5 5 5 5 5 5 5 5 5 5 6 5 5 6 5 5 6 5 5 5 6 6 5 5 5 5 5 5 5 5 5 5 5 6 5 5 5 5 5 5 5 5 5 5 5 5 5 5 5 5 5 5 5 5 5 5 5 5 5 6 5 5 5 5 5 5 5 5 6 5 5 5 5 5 6 5 5 5 5 5 5 6 5 5 5 5 5 5 5 5 5 5 5 5 5 5 5 5 5 5 5 5 5 5 5 5 5 5 6 5 5 5 5 5 6 5 5 5 5 5 5 5 5 5 5 5 5 5 5 5 5 5 5 5 5 5 5 5 5 6 5 5 6 5 5 5 6 5 6 5 5 5 6 5 6 5 5 5 5 5 6 6 5 5 5 5 5 6 6 6 5 6 5 5 5 5 5 5 5 5 5 5 5 5 5 5 5 5 5 6 5 6 5 5 5 5 6 6 6 5 5 5 5 5 5 5 5 5 5 5 5 5 5 5 5 5 5 5 6 5 5 5 5 5 6 5 5 5 5 6 5 5 5 5 5 5 5 5 5 5 5 5 5 5 5 5 5 5 5 6 5 6 5 5 5 5 5 5 5 5 6 6 5 5 5 6 5 5 5 5 5 5 5 5 5 6 5 5 5 5 5 5 5 5 5 5 5 5 5 5 5 5 5 6 5 5 5 5 5 6 5 5 6 5 5 5 5 5 5 5 5 5 5 5 5 5 5 5 6 5 5 6 5 5 5 6 5 5 5 5 6 5 5 5 5 5 5 6 5 5 6 5 5 5 5 5 5 5 5 5 5 5 5 5 5 5 5 5 5 5 5 5 5 5 5 5 5 6 5 5 6 5 5 5 5 5 5 5 5 5 5 5 5 5 5 5 5 5 5 5 5 5 5 5 5 5 5 5 5 5 6 5 5 5 5 5 5 5 6 5 5 5 5 5 5 5 6 5 5 5 5 5 5 5 5 5 5 5 5 5 5 5 5 5 5 5 5 5 5 5 5 5 5 5 5 5 5 5 5 5 6 5 5 5 5 6 5 5 6 6 5 5 5 5 5 5 6 5 5 5 5 5 5 5 5 5 5 5 5 5 5 5 5 5 5 5 5 5 5 5 5 5 6 5 5 5 5 5 5 5 5 5 5 5 5 5 5 5 5 5 5 5 5 5 5 5 5 5 5 5 5 5 5 5 5 5 5 5 5 5 5 5 5 5 5 5 5 5 5 5 5 5 5 5 5 5 5 5 5 5 5 5 5 5 5 5 5 5 5 5 5 5 5 5 5 5 5 5 5 5 5 5 5 5 5 5 5 5 5 5 5 5 5 5 5 5 5 6 5 5 5 5 5 5 5 5 5 5 5 6 5 5 6 5 5 6 5 5 5 5 5 5 5 5 5 5 6 5 5 5 5 5 6 5 5 6 5 5 5 5 5 5 6 5 5 5 5 5 5 5 6 5 5 5 5 6 6 5 5 5 6 5 5 5 5 5 5 5 6 5 6 5 6 5 6 5 6 5 5 6 5 6 5 5 5 5 5 6 5 5 5 5 5 5 5 5 5 5 5 6 5 5 5 5 5 6 5 5 5 6 5 5 5 5 5 5 6 5 5 5 5 6 5 5 6 5 5 5 5 5 5 5 5 5 5 5 5 5 5 5 5 5 5 5 5 5 5 5 5 6 5 5 5 5 5 5 5 5 6 5 5 5 5 5 5 5 5 5 5 5 5 5 5 6 5 5 5 5 5 6 5 6 5 6 5 5 5 5 5 5 5 5 5 5 5 5 5 5 5 6 5 5 5 5 5 5 5 5 5 6 5 5 6 5 5 5 5 5 5 5 5 5 5 6 5 5 6 6 5 5 5 6 5 5 5 5 5 6 5 5 5 5 5 5 5 6 5 5 6 5 5 5 5 5 5 5 5 5 5 5 5 5 5 5 5 6 5 5 5 5 5 5 5 5 5 5 6 5 5 5 5 5 5 5 5 6 5 5 5 5 5 5 5 5 5 5 5 5 5 5 5 6 5 5 5 5 5 5 5 5 6 5 6 6 5 5 5 5 5 5 5 5 5 5 5 5 5 5 5 5 5 6 5 6 5 6 5 5 5 6 6 5 5 5 5 5 5 5 5 6 5 5 5 5 5 5 6 5 5 5 5 5 5 5 5 5 5 5 5 5 5 5 5 5 5 5 5 5 5 5 5 5 6 5 5 5 5 5 6 5 5 5 5 6 5 6 5 5 6 5 6 5 5 6 5 5 6 5 5 6 5 6 5 6 5 6 5 5 5 5 5 5 5 6 5 5 5 5 5 5 5 5 5 6 5 5 5 5 5 5 5 5 5 5 5 5 5 5 5 5 5 5 6 5 5 5 5 5 6 5 5 5 5 5 5 5 5 5 6 5 5 5 5 5 5 5 6 5 5 5 5 5 5 5 5 5 5 5 5 5 5 5 5 5 5 5 6 6 5 5 5 5 5 6 5 6 5 5 6 5 5 5 5 6 5 5 5 6 5 5 5 5 6 5 5 5 5 5 6 5 5 5 6 5 6 5 6 5 5 5 6 5 5 5 5 6 5 5 6 5 5 5 6 5 5 5 5 5 5 5 5 5 5 5 5 6 5 5 5 5 5 5 5 5 5 6 5 5 5 5 5 5 5 5 5 5 5 5 5 5 5 5 5 5 5 5 5 5 5 5 5 5 5 5 5 5 5 5 5 5 5 5 5 5 5 5 5 5 5 5 5 5 5 5 6 5 5 5 5 5 5 5 5 5 5 5 5 5 5 5 5 5 5 6 5 6 5 5 5 5 5 5 5 5 5 5 5 5 5 5 5 5 5 5 5 5 5 5 5 5 5 6 5 6 5 5 5 5 6 5 6 5 6 5 5 5 5 5 6 6 5 5 6 6 5 5 5 5 5 5 5 6 5 5 5 5 5 5 5 6 5 5 5 5 5 5 6 6 5 5 5 5 6 6 5 5 5 5 5 5 5 5 5 5 5 5 5 5 5 5 5 5 5 5 5 5 5 5 5 5 5 5 6 5 5 6 5 5 5 5 5 5 5 5 5 5 5 5 5 5 5 5 5 5 6 5 6 5 5 5 5 5 5 5 5 5 5 5 5 5 5 5 6 5 5 6 5 5 5 5 5 5 5 5 5 5 5 6 5 5 5 5 5 5 5 5 6 5 5 5 5 5 5 5 5 5 5 5 5 5 5 5 5 5 5 5 5 5 5 5 6 5 5 5 5 5 5 5 5 6 5 6 5 5 6 5 6 5 6 5 6 5 5 6 5 5 5 5 5 5 5 5 5 5 6 5 5 5 5 5 5 5 5 5 5 5 5 5 5 5 5 5 5 5 6 6 5 5 6 5 5 5 5 5 5 5 5 5 5 5 5 5 5 5 5 5 5 5 5 5 5 5 5 5 5 5 5 5 5 5 5 5 5 5 5 5 5 5 5 6 5 5 5 5 5 5 5 5 6 5 5 6 5 5 5 6 5 5 5 6 5 6 5 6 6 5 5 5 5 5 6 5 5 5 5 5 5 6 5 5 5 5 5 5 5 6 6 5 5 5 5 5 5 5 5 6 5 5 5 5 6 5 5 5 5 5 5 6 5 5 5 5 5 5 5 5 6 5 5 5 6 5 5 5 5 5 5 5 5 5 6 5 5 5 5 5 5 5 6 5 5 5 5 5 5 6 5 5 5 5 5 5 5 5 5 6 5 5 5 5 6 6 5 5 5 5 5 5 5 5 5 5 5 5 5 5 5 5 5 6 5 5 5 5 5 5 5 5 5 5 5 5 5 5 5 5 5 5 5 5 5 6 5 5 5 5 6 5 5 5 6 5 5 5 5 5 5 5 5 5 5 5 5 5 5 5 5 5 6 5 5 5 5 5 6 5 6 5 5 5 5 6 5 5 5 5 5 5 5 5 5 6 5 5 5 5 5 5 5 5 5 5 5 5 5 5 5 5 5 5 5 5 5 5 5 5 5 5 5 5 5 5 5 5 5 5 5 5 5 5 5 5 5 5 5 5 5 5 5 5 5 5 5 5 5 5 5 5 5 5 5 5 5 5 6 5 5 5 5 5 6 5 6 5 5 5 5 5 5 5 5 5 5 5 5 5 5 5 5 5 5 5 5 5 5 6 5 5 5 5 5 6 5 5 5 5 5 5 5 6 5 5 5 5 5 5 6 6 5 5 5 5 5 5 5 5 5 5 5 5 5 6 5 5 5 5 5 5 5 5 5 5 5 5 6 5 5 5 5 5 6 5 5 5 5 5 5 5 5 5 5 5 5 5 5 5 5 5 5 5 6 5 5 5 5 5 5 5 5 5 5 6 5 5 5 5 5 6 5 5 5 6 5 5 5 5 5 6 5 5 5 5 5 5 5 5 5 5 5 5 6 5 5 5 5 6 5 5 5 5 6 5 5 6 5 5 6 5 5 5 5 5 6 5 5 5 6 5 5 5 6 5 5 5 5 5 5 5 5 5 5 6 5 5 5 5 5 5 5 5 6 5 5 5 5 6 5 5 6 6 5 5 5 5 5 5 5 5 6 5 5 6 5 5 6 5 5 5 6 5 5 5 5 5 5 5 5 6 5 5 5 5 5 6 5 5 6 5 5 5 5 5 6 5 5 5 6 5 5 5 5 6 5 5 5 6 5 6 5 5 5 6 5 5 5 5 5 5 5 5 5 5 5 5 5 5 5 5 5 5 5 5 5 5 5 5 5 5 5 5 5 5 5 5 5 5 5 5 5 5 5 5 5 5 5 5 6 6 6 6 5 5 5 5 5 6 5 5 5 5 5 5 5 5 5 5 6 5 5 5 6 6 5 5 6 5 5 5 5 5 5 5 5 6 5 5 6 6 5 5 6 6 5 5 5 5 5 5 5 5 5 6 5 5 5 5 5 5 6 5 5 5 5 5 5 5 5 5 5 5 5 5 5 5 5 5 5 5 5 5 5 5 5 5 6 5 5 5 5 5 6 6 5 6 5 5 5 6 5 5 5 6 5 5 5 6 5 5 5 6 5 5 5 6 5 6 5 5 5 5 5 5 5 5 5 5 5 5 5 5 5 5 6 5 5 5 5 5 5 5 5 5 5 5 6 5 5 6 6 5 5 5 5 5 5 5 5 6 5 5 5 5 5 5 5 5 6 5 6 5 5 5 5 5 5 5 5 5 5 6 5 5 5 6 5 5 5 6 5 5 5 5 5 6 5 6 5 5 5 5 5 5 5 5 5 5 5 5 5 5 5 5 5 5 5 5 5 5 6 5 5 5 5 5 5 5 5 5 5 5 5 5 5 5 5 5 6 6 5 6 5 5 5 5 5 5 5 6 5 5 5 5 6 5 5 5 5 5 5 5 5 5 5 5 5 5 5 5 5 5 5 5 6 5 5 6 5 5 5 5 5 5 5 5 6 5 5 5 6 5 5 5 5 5 5 5 5 5 5 5 5 6 5 5 5 5 5 5 5 5 5 5 5 5 5 5 5 5 5 5 5 5 5 5 5 5 5 5 5 5 5 5 5 6 5 5 5 6 5 5 5 6 5 5 5 6 5 5 6 5 5 5 5 5 5 5 5 5 5 5 5 5 5 5 5 5 5 5 6 5 5 5 6 5 5 5 5 5 5 5 5 5 5 6 5 5 6 5 5 5 5 5 6 5 6 5 5 5 6 5 5 5 5 5 5 5 5 5 5 5 5 5 5 6 6 5 5 5 5 5 5 5 5 5 5 5 5 5 5 5 5 5 5 5 5 5 6 6 5 5 5 5 5 5 5 5 5 5 5 5 6 5 5 5 5 5 5 5 5 5 5 6 5 5 6 5 5 5 5 5 5 6 5 5 6 5 5 5 5 5 6 5 5 5 5 5 5 5 5 6 5 6 5 5 5 5 6 5 5 5 5 5 5 5 5 5 5 6 5 5 5 5 5 5 5 5 5 5 5 6 5 6 5 6 5 5 5 5 5 5 6 5 5 5 5 5 5 5 5 6 6 5 5 5 5 5 5 5 5 5 6 5 5 5 5 5 6 6 6 5 5 5 5 6 5 5 5 5 6 5 5 5 5 5 5 6 5 5 5 5 5 5 6 5 5 5 5 6 5 5 6 6 5 5 5 5 5 5 5 5 5 6 5 5 6 5 5 5 5 5 5 5 5 5 5 5 5 5 5 5 5 5 5 5 5 5 5 5 5 5 5 6 5 5 5 6 5 5 5 5 5 5 6 5 5 5 5 5 5 5 5 5 5 6 5 5 6 5 5 5 5 5 5 5 5 5 5 5 5 5 5 6 5 5 5 5 5 5 5 5 5 5 5 5 5 5 5 5 5 5 5 5 5 5 5 5 5 5 5 5 5 6 5 5 5 5 5 5 5 5 5 5 5 5 5 5 5 5 5 5 5 5 5 5 5 5 5 5 5 5 5 5 5 5 5 5 5 5 5 5 5 5 5 5 5 5 5 5 5 5 5 5 5 5 5 5 5 5 5 5 5 5 5 5 5 5 5 5 5 5 5 5 5 5 5 5 5 5 5 5 5 5 5 5 5 5 5 5 5 5 5 5 5 5 6 5 5 5 5 5 6 5 5 5 5 5 5 5 5 5 5 5 6 5 5 5 5 6 5 6 6 5 6 5 5 5 5 5 5 5 5 6 5 5 5 5 5 5 5 5 5 5 5 5 5 5 5 5 5 5 5 5 5 5 5 5 5 5 5 5 5 5 5 5 5 5 5 6 6 5 5 6 5 5 6 5 5 6 5 5 5 5 6 5 6 5 5 5 6 5 6 5 6 6 6 5 5 6 6 5 5 5 5 5 5 5 6 5 5 5 5 5 5 6 5 5 6 5 6 5 5 5 5 5 6 5 5 6 5 5 5 5 5 5 5 5 5 5 5 5 5 5 5 5 5 5 5 6 5 5 6 6 5 6 5 6 5 5 5 6 6 5 5 5 5 6 5 5 5 5 5 5 5 5 5 5 5 5 5 5 5 6 5 5 5 6 5 5 5 5 6 5 5 6 5 5 5 5 5 5 5 5 5 6 5 5 5 5 5 5 5 5 5 5 5 5 5 5 5 5 5 5 5 5 5 5 5 5 6 5 5 5 5 5 5 5 5 5 5 5 5 6 5 5 5 5 6 5 5 6 5 5 5 5 5 5 6 5 5 5 5 5 5 6 6 6 5 5 5 6 5 5 5 5 5 5 5 5 5 5 5 5 5 6 5 5 5 5 5 5 5 5 6 5 5 6 5 6 5 5 5 5 5 6 6 5 5 5 5 5 5 5 5 5 6 6 5 5 5 5 5 5 5 6 5 5 5 5 5 5 5 5 5 5 5 5 5 5 5 5 5 5 5 5 5 5 5 5 6 5 5 5 5 5 5 5 5 5 5 5 5 5 5 5 5 5 5 5 5 5 5 5 5 5 5 5 5 5 5 6 5 6 5 5 5 6 5 5 5 5 6 5 5 5 6 5 5 5 5 5 5 5 6 6 5 5 6 5 5 5 5 5 5 5 5 5 5 5 5 5 5 5 6 6 5 5 5 5 5 6 5 5 5 5 5 6 5 5 5 6 5 5 5 5 5 5 5 5 5 5 5 5 5 5 5 5 5 5 5 5 5 5 5 5 6 5 5 6 5 5 6 5 5 5 5 5 5 5 5 5 5 5 5 5 5 5 5 5 5 5 5 5 5 5 5 5 6 5 5 5 6 5 5 5 5 5 5 5 5 5 5 5 5 5 5 5 5 5 5 5 5 5 5 5 5 5 5 5 5 5 5 5 5 5 5 5 5 5 5 5 5 5 5 5 5 5 5 5 5 6 5 5 5 5 5 5 5 5 5 5 5 5 6 5 5 5 5 5 5 5 5 6 5 6 5 5 5 5 5 5 5 5 5 5 5 5 5 5 5 6 5 5 5 5 5 5 5 5 6 6 5 5 6 5 5 5 5 6 5 6 5 5 5 5 5 6 6 5 5 5 5 5 5 5 5 5 5 5 5 5 5 5 5 5 5 5 5 5 5 5 5 6 5 5 5 5 6 5 6 5 5 5 5 5 5 5 5 5 5 5 5 5 5 5 5 5 5 5 5 6 5 5 6 5 5 5 5 5 5 5 5 5 5 5 5 5 5 5 5 6 5 5 5 5 5 5 6 6 5 5 5 5 5 5 5 5 5 5 5 5 5 5 5 5 5 5 5 5 5 5 5 5 5 5 6 5 5 5 5 5 5 5 5 5 5 5 5 5 5 5 5 5 5 6 5 5 5 5 5 5 5 5 6 5 6 5 5 5 5 5 5 5 5 5 5 5 6 5 5 5 5 5 5 5 5 5 5 5 5 5 5 6 5 5 5 5 6 5 5 5 5 6 5 6 6 5 5 5 5 6 5 5 5 5 5 5 5 6 5 5 6 6 5 5 5 5 5 5 5 5 6 5 5 5 5 5 5 5 5 5 5 5 5 5 5 5 5 5 5 6 5 5 5 6 5 5 5 5 6 5 5 5 5 5 5 5 5 5 5 5 5 5 5 6 5 5 5 5 5 5 5 5 5 5 5 5 6 5 5 5 5 5 6 5 5 5 5 5 5 5 6 5 5 5 5 5 5 5 6 5 5 6 5 6 5 5 5 6 5 5 5 5 5 5 5 5 5 5 5 5 5 5 6 5 5 5 5 5 5 5 5 5 5 6 5 5 5 6 5 5 6 5 5 5 6 5 6 5 5 5 5 5 5 5 6 5 5 5 5 5 5 6 5 5 5 5 5 5 5 5 5 5 5 5 6 5 5 5 5 5 5 5 5 6 5 5 5 5 5 5 5 5 5 6 5 5 5 5 5 5 5 6 5 5 5 5 5 5 5 5 5 5 5 5 5 6 5 5 5 6 5 6 6 5 5 5 5 5 5 6 5 5 5 5 5 5 5 5 5 5 5 5 5 5 5 6 5 5 5 5 5 5 6 5 5 5 5 5 5 5 5 5 5 5 5 5 5 6 5 6 5 5 5 5 6 5 5 5 5 5 5 6 5 5 5 5 5 5 6 5 5 5 5 5 5 5 5 5 5 5 5 5 5 5 5 5 5 5 5 5 5 5 5 5 5 5 5 5 5 5 5 5 5 5 5 5 5 5 5 5 5 5 5 5 5 5 5 5 6 5 5 5 5 6 5 6 5 5 5 5 5 5 5 5 5 5 5 5 5 5 5 5 5 5 5 6 5 6 5 5 5 5 6 5 6 6 5 5 5 5 6 6 6 5 5 6 6 5 5 5 5 5 5 5 5 5 5 5 5 5 5 5 5 5 6 5 5 5 5 6 5 5 5 6 5 5 5 5 5 5 5 5 6 5 5 5 5 5 5 5 5 5 5 5 5 5 6 5 6 5 5 5 5 5 5 5 5 5 5 5 6 5 5 5 5 5 5 5 5 6 5 6 6 5 6 5 5 6 5 5 5 5 5 5 5 5 5 5 5 5 5 5 5 5 5 5 5 6 5 5 6 5 5 5 5 5 5 5 6 5 5 6 5 5 5 5 5 6 5 5 6 5 5 6 6 5 5 5 5 5 5 5 6 5 5 5 5 5 6 5 6 5 5 5 5 6 5 6 5 5 5 5 5 5 5 5 5 5 5 5 5 5 5 5 5 5 6 5 5 6 5 6 5 5 5 5 5 5 5 5 5 5 5 5 5 5 5 5 5 5 5 6 5 5 5 5 5 5 5 5 5 5 5 5 5 5 5 5 5 5 5 6 5 5 5 5 6 5 5 6 5 5 5 5 5 6 5 5 5 5 5 5 5 5 5 5 5 5 6 5 5 5 5 5 5 5 6 5 5 5 5 5 5 5 5 5 5 5 6 5 5 6 5 6 5 5 5 5 6 5 5 5 5 6 5 6 5 5 5 6 5 5 5 5 6 5 5 5 5 5 5 5 5 5 5 5 5 5 5 5 6 6 5 5 5 5 6 5 6 5 5 5 5 6 5 5 5 5 5 6 5 5 6 5 5 5 6 5 5 6 5 5 6 5 5 5 5 5 5 5 5 5 5 5 5 5 5 6 5 5 5 5 6 5 5 5 5 5 6 5 5 5 5 5 5 5 5 5 5 5 5 5 5 5 5 5 5 5 5 5 5 5 5 5 5 5 5 5 5 5 5 5 6 5 5 5 5 5 5 6 5 5 5 5 5 5 6 5 5 5 6 5 5 5 5 5 6 5 5 6 5 5 5 6 5 5 5 5 5 5 5 5 5 5 5 5 5 5 5 5 5 5 5 5 5 5 5 5 5 5 5 5 5 5 5 5 5 5 5 5 5 6 5 5 5 6 5 5 5 5 5 5 5 5 5 6 5 5 6 5 5 5 5 5 5 5 5 5 5 5 6 5 5 5 6 5 5 5 5 5 5 5 5 5 6 5 5 5 5 6 5 5 5 5 5 5 5 5 5 6 5 5 5 5 6 5 5 5 5 5 5 5 5 5 5 5 5 5 5 5 5 5 6 6 5 5 5 5 6 5 5 5 5 6 5 6 5 5 5 5 5 5 5 5 5 6 5 5 6 5 5 5 5 5 5 5 5 5 5 5 6 5 5 5 5 5 5 5 5 5 5 5 5 5 5 5 6 5 5 5 5 5 5 5 5 6 5 5 5 5 5 6 5 5 5 5 5 5 6 5 5 5 5 5 5 5 5 5 5 5 5 5 5 5 5 5 5 5 5 5 5 5 5 5 5 5 5 5 5 5 5 5 5 5 5 5 5 5 5 5 5 5 5 5 5 5 5 5 5 5 5 5 5 5 5 6 5 5 5 5 5 5 5 5 5 5 5 5 5 5 5 6 5 5 5 5 5 5 5 5 5 5 5 6 5 5 6 5 5 5 5 5 5 5 5 6 5 5 5 5 5 5 5 5 6 6 5 5 5 5 5 6 5 5 5 5 5 5 5 5 5 6 5 5 5 5 5 5 5 5 5 5 5 5 5 5 5 5 5 5 5 5 5 5 5 5 5 5 5 5 5 5 5 5 6 5 5 6 5 5 5 5 5 5 5 5 5 6 5 5 5 5 5 5 5 5 5 5 5 5 5 5 5 5 5 5 5 5 5 5 5 5 5 5 5 5 5 5 5 6 5 5 5 5 5 6 5 5 5 5 5 5 6 5 5 5 5 6 6 5 5 5 5 5 6 5 5 5 5 5 5 5 5 5 5 5 5 6 5 5 5 5 5 5 5 5 5 5 5 5 5 5 5 5 5 5 5 5 5 5 5 5 5 5 5 5 5 5 5 5 5 5 5 5 5 5 5 5 5 5 5 5 5 5 5 5 6 5 5 5 5 5 5 5 5 5 5 5 5 5 5 5 5 5 5 5 5 5 5 5 5 5 6 5 5 5 5 5 5 5 5 5 5 5 5 6 5 5 5 5 5 5 5 5 5 5 5 5 5 5 5 5 5 5 5 5 6 5 5 5 5 6 5 5 5 6 6 5 5 5 5 6 5 5 5 5 5 5 5 6 5 5 5 5 5 6 5 5 5 6 5 5 5 5 6 5 5 5 5 5 5 5 5 5 5 5 5 5 6 5 5 5 5 5 6 5 6 5 5 6 5 5 5 6 6 5 5 5 5 5 5 6 6 5 6 5 5 5 5 5 5 5 5 5 5 5 5 5 5 5 5 5 5 5 5 5 5 5 5 5 5 5 5 5 6 5 5 5 5 5 5 5 5 5 5 5 5 5 5 5 5 5 5 5 5 5 5 5 5 5 5 5 5 5 5 5 5 5 6 5 5 5 5 5 5 5 6 5 5 5 5 5 5 5 5 5 5 5 5 5 6 5 5 5 5 5 5 5 5 6 5 6 5 6 5 5 5 5 5 5 5 5 5 5 5 5 6 5 5 5 5 5 5 6 5 5 5 5 5 5 5 5 5 5 5 5 5 5 5 5 5 5 5 5 5 5 5 5 5 5 5 5 5 5 5 5 5 6 5 5 5 5 5 5 5 5 5 5 6 5 5 5 5 6 5 5 5 5 5 5 5 5 5 5 5 5 5 5 5 6 5 5 5 5 5 6 5 5 5 5 6 5 5 5 6 5 5 6 5 5 6 5 5 5 5 5 6 5 5 5 5 5 6 5 5 6 5 5 5 5 6 5 5 5 6 5 5 5 5 5 5 5 5 5 5 5 5 5 5 5 5 5 5 5 5 5 5 5 5 5 6 5 5 5 5 5 6 5 6 5 5 5 5 6 5 6 5 5 6 5 5 5 5 5 5 5 6 5 5 5 5 5 5 5 5 5 5 5 5 5 5 5 5 5 5 5 6 6 5 5 5 5 5 5 5 5 6 5 6 5 5 5 5 5 6 5 5 5 5 5 5 5 5 5 5 5 5 5 5 5 5 5 5 5 5 5 5 5 5 5 5 5 5 6 5 5 6 5 5 5 6 5 5 6 5 6 6 5 5 5 5 5 5 5 5 6 5 6 5 6 5 5 5 5 5 5 5 5 5 5 5 6 5 5 5 5 5 5 6 5 5 5 5 5 6 6 5 5 5 5 5 6 5 5 5 6 5 6 5 6 5 5 5 5 6 5 5 6 5 5 6 5 6 5 5 5 5 5 5 5 5 5 5 5 5 5 6 5 5 5 5 6 5 5 5 5 5 5 5 5 5 5 5 6 5 5 6 5 5 5 6 5 6 6 5 5 5 5 5 5 5 6 5 5 5 5 5 5 5 5 5 5 6 5 5 6 5 5 5 5 5 5 5 5 5 5 5 5 5 6 5 6 5 5 5 5 5 5 5 5 5 5 5 5 6 5 5 5 5 5 5 5 5 5 5 5 6 5 5 5 6 5 5 5 5 5 5 5 5 5 5 6 5 6 5 5 6 5 5 5 6 5 5 6 5 5 5 6 5 5 6 5 5 5 5 6 6 5 5 5 6 5 5 5 6 5 5 5 5 5 5 5 5 5 6 5 5 5 5 5 5 5 5 5 5 6 6 5 5 5 5 5 5 5 6 6 5 5 5 6 5 6 5 5 5 5 5 5 5 5 5 5 5 5 5 5 5 5 5 5 5 5 5 5 5 5 5 5 5 5 5 5 5 5 5 5 5 5 5 6 5 5 5 5 5 5 5 6 5 6 5 5 6 5 5 6 6 5 5 5 6 5 6 5 5 5 6 6 5 6 6 5 6 5 5 6 6 5 6 5 5 5 5 5 5 5 5 5 5 5 5 5 5 5 5 6 5 5 5 5 6 6 6 5 5 5 6 6 5 5 5 5 5 5 6 5 6 6 5 5 5 6 5 5 5 6 5 5 5 5 6 5 6 5 5 6 5 5 5 5 5 5 5 5 5 5 5 5 5 5 5 5 5 5 5 5 5 5 5 5 5 5 5 5 5 5 5 5 5 5 5 5 6 5 5 5 5 5 5 5 5 5 5 5 5 5 5 5 5 5 5 5 5 5 5 5 5 5 5 5 5 5 5 5 5 5 5 5 5 5 5 5 5 5 5 5 5 5 5 5 5 5 5 5 5 5 5 5 5 5 5 5 5 5 5 5 6 5 5 5 6 6 5 5 5 5 5 5 5 5 5 5 5 5 5 5 5 6 5 5 5 6 5 6 6 5 5 5 5 5 5 5 5 5 5 6 5 5 6 6 5 6 5 6 5 5 5 5 5 5 5 5 5 5 5 5 5 5 5 5 5 6 6 6 5 5 5 5 5 6 5 5 5 5 5 5 5 5 5 5 5 5 5 5 5 5 5 5 5 5 5 5 5 5 5 5 5 5 5 6 5 5 5 5 5 5 6 5 5 5 5 5 5 5 5 5 6 6 5 5 5 5 5 5 5 6 6 5 5 5 6 5 5 5 5 6 5 6 6 6 5 5 5 5 6 5 5 5 5 6 5 5 5 5 6 5 5 5 5 5 6 6 5 5 5 5 5 5 6 5 5 6 5 5 5 5 5 6 5 5 5 5 5 5 5 6 5 5 5 5 5 5 5 6 5 5 5 5 5 5 5 5 5 5 5 5 5 5 5 5 5 5 5 5 5 5 5 5 5 5 6 5 5 5 5 5 5 5 5 5 5 5 5 5 5 5 5 5 6 5 5 6 5 6 5 5 6 5 5 5 5 6 6 5 5 5 5 5 5 5 5 5 5 6 5 5 5 5 5 5 5 5 5 5 5 5 5 5 5 5 5 5 5 5 5 5 5 5 5 5 5 5 5 5 5 5 5 5 5 5 5 5 5 5 5 5 5 5 5 5 5 6 5 5 5 5 5 5 5 5 5 6 5 5 5 6 6 6 5 5 5 5 6 5 5 6 6 5 5 6 6 5 5 5 5 5 5 5 5 5 5 5 5 6 5 5 5 5 6 5 5 5 5 5 5 5 5 5 5 6 5 5 5 5 5 5 5 5 5 5 5 5 5 5 5 6 5 6 6 5 5 5 6 5 5 5 5 5 5 5 5 5 5 5 5 5 5 5 5 5 5 5 5 5 5 5 5 5 5 5 5 5 5 5 5 5 6 5 5 5 5 5 5 5 5 5 5 6 5 5 5 5 5 6 5 5 5 5 5 5 5 5 5 5 6 5 5 5 6 5 5 5 5 5 5 5 5 5 5 5 5 5 5 5 5 5 5 5 5 5 5 5 5 6 5 6 5 5 5 5 5 5 6 5 5 5 5 5 5 5 6 5 5 5 5 5 6 5 5 5 5 5 6 5 6 5 5 5 5 5 5 6 5 5 5 5 5 6 5 5 5 5 5 5 5 5 5 5 5 5 5 5 5 5 6 5 5 5 5 5 5 5 6 5 6 6 6 5 6 5 5 5 5 5 5 5 5 5 5 6 5 5 5 5 5 5 5 5 5 5 5 5 5 6 5 5 5 5 5 6 5 5 5 5 5 6 5 5 5 5 5 6 5 5 6 5 6 6 5 5 6 5 5 5 6 6 5 5 6 5 5 5 5 6 5 5 5 5 5 6 5 5 5 5 5 5 5 5 6 6 5 5 5 6 5 5 6 5 5 6 5 5 5 5 6 5 5 5 6 5 6 5 5 6 6 5 6 6 5 5 5 5 6 6 6 5 5 5 5 5 5 5 5 5 5 5 5 6 5 5 5 5 5 5 5 5 6 6 6 5 5 5 6 6 6 5 5 5 5 5 5 5 5 5 5 5 5 5 6 5 5 5 6 5 5 5 6 5 5 5 5 6 5 5 5 6 5 5 5 6 5 5 5 5 5 5 5 5 5 5 5 5 5 5 5 5 5 5 5 5 5 5 5 5 5 5 5 5 6 5 6 5 5 5 5 5 5 5 5 5 5 5 5 5 5 5 5 5 5 5 5 6 6 5 5 5 5 5 5 6 5 5 5 5 5 5 6 5 5 5 5 5 5 5 5 5 5 6 5 5 5 5 6 5 6 5 5 6 5 5 6 5 6 5 5 5 6 5 6 5 5 6 5 6 5 6 5 6 5 5 6 5 5 5 6 5 5 5 5 5 5 5 5 5 5 5 6 6 6 6 5 5 5 6 5 5 6 5 5 5 6 6 5 5 5 5 5 5 5 6 5 5 5 5 5 5 6 6 5 5 5 5 5 6 6 6 5 5 5 5 5 5 5 5 5 6 5 5 5 5 5 5 5 5 5 5 6 5 5 5 5 5 5 5 5 5 5 5 5 5 5 5 5 5 6 5 5 5 5 5 5 6 5 5 5 5 5 6 5 5 5 5 5 5 5 5 5 5 5 5 5 5 5 5 5 5 5 5 5 5 5 5 5 5 5 5 5 5 5 5 5 5 5 5 5 5 5 5 5 5 6 5 5 5 5 5 5 5 5 5 5 5 5 5 5 5 5 6 5 5 5 5 5 5 5 5 5 5 5 5 5 5 5 5 5 6 5 6 5 5 5 5 5 5 5 5 5 5 5 5 5 5 5 5 5 5 5 5 5 5 5 5 5 6 5 5 5 5 6 5 5 5 5 5 5 5 5 5 5 5 5 5 6 5 5 5 5 5 5 5 5 5 5 5 5 5 5 5 5 5 5 5 5 5 5 5 5 5 5 5 5 5 5 5 5 5 5 5 6 5 5 5 5 5 5 5 5 5 6 5 5 5 6 5 5 5 5 5 5 5 5 5 5 5 5 5 5 5 5 5 5 5 5 5 5 5 5 5 5 5 5 5 6 5 5 5 5 6 5 5 5 6 5 5 5 5 5 5 5 5 5 5 5 5 5 6 5 5 5 5 5 5 5 5 5 5 5 5 5 5 5 5 5 5 6 5 5 5 5 5 5 5 6 5 5 6 5 5 5 5 5 5 5 5 6 5 5 6 5 5 5 5 5 6 5 5 6 5 6 5 5 5 5 5 5 5 5 5 5 6 6 6 6 5 5 6 5 5 5 5 5 5 6 5 5 5 5 5 5 5 5 5 5 5 5 5 6 5 5 6 5 5 5 6 5 5 5 5 5 5 5 5 5 5 5 5 5 5 5 5 5 6 5 5 6 5 5 5 5 5 5 5 5 5 6 5 5 5 6 5 5 5 5 6 5 5 5 5 5 5 6 6 5 5 5 5 5 5 5 5 6 5 5 6 5 5 5 5 6 5 5 5 5 5 5 5 6 5 5 5 6 5 5 5 5 5 5 5 5 5 5 5 5 5 5 5 5 5 5 5 5 5 5 5 5 6 5 5 5 6 5 5 5 6 5 6 5 6 5 5 5 5 6 5 6 6 5 6 5 5 5 5 5 5 6 5 5 6 6 5 5 6 5 5 6 5 5 6 5 5 5 5 5 6 5 5 5 5 6 5 5 6 6 5 5 5 6 5 5 5 5 5 6 5 6 5 5 5 5 6 5 5 5 5 5 5 5 5 5 5 5 5 5 5 5 5 5 5 5 5 5 5 5 5 5 5 5 5 5 6 5 5 5 6 5 5 5 5 5 5 5 5 5 5 6 5 5 5 5 5 5 5 5 5 5 5 6 5 5 5 5 5 6 5 5 5 6 5 5 5 5 6 6 5 5 5 5 5 5 5 6 5 5 5 5 5 5 5 5 5 6 5 5 5 5 5 5 5 5 5 5 5 6 5 5 5 5 5 5 5 5 5 5 5 5 5 5 5 5 5 5 5 5 5 6 5 5 5 5 5 5 5 5 5 5 5 5 5 5 5 5 5 5 5 5 5 5 5 5 5 5 5 5 5 5 5 5 5 5 5 5 6 5 5 5 5 5 5 5 5 5 5 5 6 5 5 5 6 6 5 5 5 5 6 5 6 5 5 6 6 5 5 5 6 5 5 5 5 5 6 5 5 5 6 5 5 5 5 5 5 5 5 5 5 5 5 6 5 5 5 5 5 5 5 5 6 6 5 5 5 5 5 5 5 5 5 6 5 5 5 6 6 5 5 5 5 5 6 5 6 6 5 6 5 5 5 6 6 5 5 6 5 5 6 6 5 5 5 6 5 6 5 5 6 5 5 5 5 5 5 5 6 5 5 5 5 5 5 5 5 5 6 5 5 6 5 6 5 5 6 5 5 6 6 5 5 5 5 5 5 5 5 5 5 5 5 6 6 5 5 5 5 5 5 5 6 5 5 5 5 5 5 5 6 6 5 5 5 5 5 5 5 5 5 5 5 5 6 6 5 5 5 6 5 5 5 6 5 5 5 5 5 6 5 5 5 5 5 5 5 5 5 5 5 5 5 5 5 5 5 5 5 5 5 5 6 5 5 5 5 6 5 5 5 5 5 5 5 5 5 5 5 5 5 5 6 5 5 5 5 5 5 6 5 6 5 5 6 5 5 5 6 5 6 5 5 5 6 5 5 5 5 5 5 6 5 5 5 5 5 5 5 5 5 5 5 5 6 5 5 5 5 5 5 5 6 5 5 5 5 5 5 5 5 5 6 5 5 6 5 5 5 5 5 5 6 5 5 5 5 6 6 5 5 6 5 5 5 5 5 5 5 5 5 5 5 5 5 5 5 5 6 5 5 6 5 5 5 5 6 5 6 5 5 5 5 5 6 5 5 5 5 6 5 6 5 5 6 5 5 5 5 5 6 5 5 6 5 5 6 5 5 5 5 5 5 5 5 5 6 5 6 5 5 5 5 6 5 5 6 6 5 5 5 5 6 6 5 6 5 5 5 5 6 6 6 5 5 6 5 5 6 6 5 5 5 5 6 5 5 5 5 6 5 5 6 5 5 5 5 5 5 5 6 5 5 5 5 5 5 5 5 6 5 5 5 5 6 5 5 5 5 5 5 5 5 5 5 5 5 5 5 6 5 5 5 5 5 5 5 5 5 5 5 6 5 5 5 5 5 6 5 5 5 5 5 5 5 5 5 5 5 5 5 5 5 5 5 5 5 5 5 5 5 5 5 5 5 5 5 5 5 5 5 5 5 5 5 5 5 5 5 5 5 5 5 5 5 5 5 5 5 5 5 5 5 5 5 5 5 5 5 5 6 5 5 6 5 5 5 5 5 5 5 5 5 5 5 5 5 5 5 5 6 5 5 5 5 5 5 5 5 5 5 6 5 5 5 5 5 5 5 5 5 5 5 5 5 5 5 5 5 5 6 5 6 5 5 5 5 5 6 6 5 5 5 5 5 5 5 5 5 5 6 6 6 5 5 6 5 5 6 5 5 6 5 5 5 5 5 5 5 5 5 5 5 5 5 5 5 5 5 5 6 5 5 5 5 5 6 5 5 5 5 6 5 6 5 5 5 5 6 5 5 5 5 5 5 5 5 5 5 5 5 5 5 5 5 5 5 5 5 5 5 5 5 5 5 5 5 5 5 5 5 6 5 5 5 5 5 5 5 6 5 5 5 6 5 5 5 5 5 5 5 6 5 5 5 5 5 5 5 5 5 5 5 5 5 5 5 5 5 5 5 5 5 5 5 5 6 5 5 5 5 6 5 5 5 6 5 5 5 5 5 5 5 5 5 5 5 6 5 5 5 5 5 6 5 5 5 5 5 5 5 6 5 5 5 5 5 6 5 5 5 5 5 5 5 5 5 6 5 5 5 5 5 5 5 5 5 5 5 5 5 5 6 5 5 5 5 5 5 5 5 5 5 5 5 5 5 6 6 5 5 5 5 5 5 5 5 5 5 5 5 5 5 5 5 5 5 5 5 5 5 5 5 5 5 5 5 5 5 5 5 5 5 5 5 5 5 5 6 6 5 5 5 5 5 5 5 5 5 5 5 6 5 5 5 5 5 5 5 5 5 6 5 5 5 5 5 6 5 5 5 5 6 5 5 5 5 5 5 5 5 5 5 5 5 5 5 5 5 5 5 5 5 5 5 5 5 5 6 5 5 6 5 6 5 6 5 5 5 5 5 5 6 5 6 5 5 5 5 5 6 5 5 5 5 5 5 5 5 5 5 5 5 5 5 5 5 5 5 5 5 5 5 5 5 5 5 5 5 5 5 6 5 5 5 5 6 5 5 5 5 5 5 5 5 5 6 5 5 5 5 5 5 5 5 5 5 6 5 6 6 5 5 5 5 5 5 5 5 5 5 5 5 5 5 5 5 6 5 5 5 5 5 5 5 5 5 5 5 5 5 5 5 5 5 5 5 5 5 5 5 6 5 5 5 5 5 5 5 5 6 6 5 5 5 5 5 6 6 5 5 5 6 5 5 5 5 5 5 5 6 5 5 6 5 5 5 5 5 6 5 6 5 5 6 5 5 5 5 5 5 5 5 6 5 5 5 5 5 5 5 5 5 5 6 6 5 5 5 5 5 5 5 5 5 5 6 5 5 5 5 5 6 6 5 5 5 6 5 5 5 5 5 5 5 5 5 5 6 6 5 5 5 5 5 6 5 5 6 5 5 5 6 5 5 5 5 6 5 5 5 5 5 5 5 5 5 5 5 5 5 5 5 5 5 5 
</DataArray>
<DataArray type="Float64" Name="stress" NumberOfComponents="9" format="ascii">
165.90599655184306 527.90718554778141 0 527.90718554778141 -2490.5851739079339 0 0 0 0 -0.47769953158695544 141.39350893029768 0 141.39350893029768 -695.64181316662871 0 0 0 0 0.097327537759101065 -0.53546232897611645 0 -0.53546232897611645 -11.012781711722056 0 0 0 0 752.23672495053086 -176.66537849929955 0 -176.66537849929955 -2450.4145554032484 0 0 0 0 -262.66597670653493 710.78056593466317 0 710.78056593466317 -1149.6438211728382 0 0 0 0 -342.04600389855682 -44.762791862085578 0 -44.762791862085578 256.4481091831185 0 0 0 0 186.166694076624 -498.81675549484498 0 -498.81675549484498 -57.656299476497225 0 0 0 0 -315.80843002117859 -56.423660133998055 0 -56.423660133998055 434.72520561716374 0 0 0 0 320.30397812863561 4.3053755688442834 0 4.3053755688442834 -122.34341231963481 0 0 0 0 237.00813637489168 -116.43866266914119 0 -116.43866266914119 10.747548904306313 0 0 0 0 764.57136336080509 -82.008783508985289 0 -82.008783508985289 -635.21516612860432 0 0 0 0 360.97559386616177 334.35822987063148 0 334.35822987063148 -483.74257939399104 0 0 0 0 1.2572511766624896 -0.39796477527031016 0 -0.39796477527031016 -20.240585109990434 0 0 0 0 -83.494136240978293 274.3395500975239 0 274.3395500975239 -110.82622023791555 0 0 0 0 -272.80733630552953 460.30660858433475 0 460.30660858433475 -1158.1000376200682 0 0 0 0 -152.62387078857444 631.13719219841732 0 631.13719219841732 -1057.3651010934773 0 0 0 0 -338.10300234665522 712.54898757166484 0 712.54898757166484 -751.59970149953006 0 0 0 0 -410.45377221258394 609.38276572673931 0 609.38276572673931 -886.39874439778941 0 0 0 0 0.10288784932996714 0.26870484309821308 0 0.26870484309821308 -5.2874061972894424 0 0 0 0 -549.38442944472445 -443.86744121740776 0 -443.86744121740776 -427.09517472553853 0 0 0 0 175.77832227566836 -62.934220664228633 0 -62.934220664228633 -1201.1196794135176 0 0 0 0 165.07931091388431 405.65720788519684 0 405.65720788519684 -1124.9563348985903 0 0 0 0 -162.05585526982782 346.5751390984733 0 346.5751390984733 -1079.9771075704884 0 0 0 0 172.74172013018512 124.52164773621189 0 124.52164773621189 -1452.7474018041412 0 0 0 0 -141.77594278183267 252.72414787048911 0 252.72414787048911 -957.32277082772634 0 0 0 0 -178.14478532087099 321.47554078915709 0 321.47554078915709 -1080.6901685396442 0 0 0 0 -25.403439623816254 233.16463710562311 0 233.16463710562311 -1083.96810042375 0 0 0 0 -121.31487009540268 233.27055118306089 0 233.27055118306089 -1080.3035033466003 0 0 0 0 -103.5886242855546 252.98511950934335 0 252.98511950934335 -1088.8049764959251 0 0 0 0 268.11888754772605 607.41384504252892 0 607.41384504252892 -868.38318428819184 0 0 0 0 -101.80700417622288 321.81074548320248 0 321.81074548320248 -314.4972093977849 0 0 0 0 -334.22471129591486 -1895.8054808249872 0 -1895.8054808249872 -747.06608077397686 0 0 0 0 1.2163417344357375 -1.7645961490536735 0 -1.7645961490536735 -6.761564019251125 0 0 0 0 583.46104671150204 -729.59417078320257 0 -729.59417078320257 -2495.2627130267865 0 0 0 0 -466.13282659741117 -839.35048497130629 0 -839.35048497130629 -563.67906832671724 0 0 0 0 146.90396590195604 -1484.6579499211439 0 -1484.6579499211439 -1654.2127793010586 0 0 0 0 -166.92872037726556 -1145.6087929359637 0 -1145.6087929359637 -521.47484372006875 0 0 0 0 -0.66959497389160205 -2.1791914461003472 0 -2.1791914461003472 -2.8793819847541329 0 0 0 0 340.78646853186672 316.27223367360421 0 316.27223367360421 -798.70306905551115 0 0 0 0 -518.30477770957953 361.00817523428123 0 361.00817523428123 -780.54070585445515 0 0 0 0 277.1587346823008 712.93754258092758 0 712.93754258092758 -2499.9511723493706 0 0 0 0 -0.67901633839537956 -1.7249700066570313 0 -1.7249700066570313 -5.1518014040522502 0 0 0 0 -450.2295345751869 380.56269561436056 0 380.56269561436056 -946.46762221147219 0 0 0 0 -590.97957873049029 522.9367173429564 0 522.9367173429564 -1029.1179342622418 0 0 0 0 -629.16504135046296 260.20162543388869 0 260.20162543388869 -976.0066354098235 0 0 0 0 -259.61789244863292 206.467469194773 0 206.467469194773 -1224.4207073255238 0 0 0 0 -253.2241945634762 414.83253040387171 0 414.83253040387171 -919.60746660848963 0 0 0 0 -310.38147218600113 1277.0853192309951 0 1277.0853192309951 -2494.5061912135566 0 0 0 0 -1150.2969323411639 1214.4189045556705 0 1214.4189045556705 -375.91616155346128 0 0 0 0 -367.36387651161129 935.37006671205745 0 935.37006671205745 -1199.0073106472992 0 0 0 0 -402.89109237373668 625.37304882448007 0 625.37304882448007 -2496.4277254525418 0 0 0 0 -331.50367065380448 890.07273211682332 0 890.07273211682332 -1241.6744178813933 0 0 0 0 -446.3311262994248 444.71368480566798 0 444.71368480566798 -637.03490493656136 0 0 0 0 -217.97838040254311 535.02367378449708 0 535.02367378449708 -869.6617766425552 0 0 0 0 392.12580582188514 133.07394706846389 0 133.07394706846389 -791.14198790245428 0 0 0 0 -901.69392952558655 1301.5777409895582 0 1301.5777409895582 -1084.5312416764864 0 0 0 0 -212.86182610023479 516.83211848661813 0 516.83211848661813 -939.41618688011658 0 0 0 0 -150.15059198608583 120.30027278249145 0 120.30027278249145 369.39272786592483 0 0 0 0 -151.51843068637947 -245.82208283919681 0 -245.82208283919681 -1885.153760439367 0 0 0 0 -34.150633485206299 -49.891954216625891 0 -49.891954216625891 223.74402360696695 0 0 0 0 1302.3491792766686 -49.459253285487648 0 -49.459253285487648 -973.22041416175853 0 0 0 0 187.74567191251299 -491.98697478151371 0 -491.98697478151371 173.70038492041931 0 0 0 0 -501.23524678467726 129.31223915184455 0 129.31223915184455 -1495.0472208599967 0 0 0 0 -229.57172105115933 483.0952546833214 0 483.0952546833214 -1172.8531114300995 0 0 0 0 -1376.0305953035024 470.13513174038962 0 470.13513174038962 -941.6461191331764 0 0 0 0 -548.79390415545481 960.49341465418183 0 960.49341465418183 -1265.7585570898209 0 0 0 0 -2.3860924324980846 -3.7931814108864899 0 -3.7931814108864899 -17.214203262647175 0 0 0 0 -1543.9931180843846 -262.33166129533492 0 -262.33166129533492 102.09199776338937 0 0 0 0 -438.94226709103111 537.84320662083337 0 537.84320662083337 -458.52814257516002 0 0 0 0 42.802900466656126 196.52426115563867 0 196.52426115563867 -441.3612945552959 0 0 0 0 -407.0635714732789 -255.26193955633062 0 -255.26193955633062 184.47503481133754 0 0 0 0 -157.15656669013424 -343.50910709977325 0 -343.50910709977325 -26.907397531587776 0 0 0 0 -2.9704625348242959 -11.861416718424826 0 -11.861416718424826 -50.714596714267969 0 0 0 0 128.15915710976992 260.86776584713152 0 260.86776584713152 -392.91846885236737 0 0 0 0 1172.5291761068816 -213.05805577190768 0 -213.05805577190768 -15.223744618226192 0 0 0 0 129.80789784784065 164.9935598526572 0 164.9935598526572 -93.229990766360061 0 0 0 0 4.3455358073564616 -0.80560127199629505 0 -0.80560127199629505 -17.146035360995484 0 0 0 0 5.6469810215476564 -15.093371759164356 0 -15.093371759164356 -7.8185785786530744 0 0 0 0 1052.0243602247795 -611.88089315830439 0 -611.88089315830439 -451.05243577657893 0 0 0 0 403.36618753115016 -617.74193036522047 0 -617.74193036522047 87.783907850714968 0 0 0 0 -383.25573133474131 -349.55177261565404 0 -349.55177261565404 219.46028857877536 0 0 0 0 -380.04642115249681 10.461956995219225 0 10.461956995219225 -128.43707386218739 0 0 0 0 169.71188326919105 -269.66278499674809 0 -269.66278499674809 64.509858369110589 0 0 0 0 -154.94640720159586 -329.46173101709155 0 -329.46173101709155 61.950842852238566 0 0 0 0 106.17315108765752 -74.486273453578178 0 -74.486273453578178 -106.0549618066907 0 0 0 0 554.51798033221462 -186.65320049129423 0 -186.65320049129423 -78.901334717433201 0 0 0 0 116.74485971259173 -55.361661646134962 0 -55.361661646134962 -72.296670433323015 0 0 0 0 -69.162136904318686 -196.39633848608719 0 -196.39633848608719 199.1822220777085 0 0 0 0 -99.807551302682896 -204.72171949232143 0 -204.72171949232143 203.79851035600586 0 0 0 0 -69.511227537782815 -214.5804922594034 0 -214.5804922594034 -870.76414904685225 0 0 0 0 -11.182420710136128 -2.8226402760843996 0 -2.8226402760843996 0.83566748254449408 0 0 0 0 -10.034438171053807 -48.140296443412808 0 -48.140296443412808 -522.42534337274265 0 0 0 0 -41.536767514853977 49.700970639881234 0 49.700970639881234 -199.1786463751705 0 0 0 0 -2.2707938231300941 -17.077736892425211 0 -17.077736892425211 -80.097803057877002 0 0 0 0 416.03637565292473 -101.15286271240075 0 -101.15286271240075 -231.1662234326941 0 0 0 0 12.306026236726666 27.227602835595462 0 27.227602835595462 -20.332377129845554 0 0 0 0 -84.552459697700669 -164.84686433493789 0 -164.84686433493789 202.14335651122383 0 0 0 0 -35.835701135300951 -163.55759957289774 0 -163.55759957289774 194.36430186576035 0 0 0 0 640.40770356067515 -893.82402243231263 0 -893.82402243231263 -676.53771385565778 0 0 0 0 -512.80213811895919 -442.83645407587028 0 -442.83645407587028 -313.18539731519559 0 0 0 0 -231.52809627780061 331.22776847479327 0 331.22776847479327 436.853885697441 0 0 0 0 95.430366068277181 0.41634494635945885 0 0.41634494635945885 -56.693637660777313 0 0 0 0 85.531901692924293 -173.44007632026478 0 -173.44007632026478 2.0945524921298784 0 0 0 0 0.66568982651639608 484.49737000048589 0 484.49737000048589 -1315.4351772832306 0 0 0 0 84.347149647782402 -55.743379023784655 0 -55.743379023784655 -308.83593232276326 0 0 0 0 -50.169824229124288 -115.96765720501571 0 -115.96765720501571 -143.87656527072249 0 0 0 0 -103.34499132572034 136.76818420721975 0 136.76818420721975 -285.70953011833808 0 0 0 0 62.585166836011197 100.27414537786535 0 100.27414537786535 -483.0512249849271 0 0 0 0 -132.31140729313071 313.70407974745103 0 313.70407974745103 -753.22039908151419 0 0 0 0 20.561677089078941 -78.166935658646253 0 -78.166935658646253 -545.07764532489819 0 0 0 0 -88.39424217925415 -19.285603796335636 0 -19.285603796335636 -277.35586421561311 0 0 0 0 9.6257605256477383 -177.01420647528721 0 -177.01420647528721 -485.02293384883887 0 0 0 0 -257.76208411817112 198.33356249851204 0 198.33356249851204 -684.95658394426573 0 0 0 0 -0.029346707874866318 0.26420624075846888 0 0.26420624075846888 -1.6164005627143467 0 0 0 0 -307.98843771056522 112.76567349768447 0 112.76567349768447 -759.99052502849372 0 0 0 0 -101.42466169474369 93.001483433132307 0 93.001483433132307 -1331.6651139353926 0 0 0 0 0.33332971573572789 1.2926189994520954 0 1.2926189994520954 -9.6445315464857515 0 0 0 0 -103.88304179695373 823.447740079293 0 823.447740079293 -1459.9107823473532 0 0 0 0 -678.62992005577416 1111.9401386478021 0 1111.9401386478021 -685.94950001253892 0 0 0 0 -274.61988541346409 787.16532275240752 0 787.16532275240752 -790.51737993943607 0 0 0 0 -108.29374226220992 707.38374525035033 0 707.38374525035033 -752.41941272843542 0 0 0 0 -216.61107397707639 348.28134385903104 0 348.28134385903104 -392.07608302908193 0 0 0 0 -29.485341337352629 172.61919229915475 0 172.61919229915475 -645.72535611075728 0 0 0 0 -103.07929856438446 537.29494607829838 0 537.29494607829838 -936.55720611196011 0 0 0 0 -77.448329996157554 0.48442017238266999 0 0.48442017238266999 89.298631090385243 0 0 0 0 3.3963557069648687 -17.683352627408567 0 -17.683352627408567 53.99005624086567 0 0 0 0 -1.3213322526266893 -13.669257679257498 0 -13.669257679257498 -9.291826424348983 0 0 0 0 -5.5925398486120379 -3.5686616023679711 0 -3.5686616023679711 3.4397602816742534 0 0 0 0 -123.74338887373051 -7.4147327695827698 0 -7.4147327695827698 15.933642006373702 0 0 0 0 -37.049455219930678 24.528178657161334 0 24.528178657161334 -25.530669927433337 0 0 0 0 -30.827148489759566 -24.443205859424779 0 -24.443205859424779 34.304277509640087 0 0 0 0 -66.510395472610981 2.0374651049205568 0 2.0374651049205568 26.645833894555835 0 0 0 0 57.367706963614182 -31.318222591249651 0 -31.318222591249651 -0.60491710624046391 0 0 0 0 -1.8541160524788998 -0.84262151535187968 0 -0.84262151535187968 -0.6422143552750299 0 0 0 0 -4.3422574790074577 62.377854731605112 0 62.377854731605112 29.517025955661666 0 0 0 0 23.23675497845219 -3.0404066839882944 0 -3.0404066839882944 38.046325451883604 0 0 0 0 -24.274842662702639 -137.56796597653283 0 -137.56796597653283 15.495289969992882 0 0 0 0 84.49786317527014 -76.74205938835803 0 -76.74205938835803 -91.149760423220869 0 0 0 0 -11.45262447116861 -23.858935403295121 0 -23.858935403295121 -13.432934856010004 0 0 0 0 25.384266633579614 2.853425268911451 0 2.853425268911451 -26.59584260477277 0 0 0 0 -5.0454815440577798 7.0880150465388922 0 7.0880150465388922 -11.401138328050848 0 0 0 0 116.43608699447748 35.156651959029659 0 35.156651959029659 -26.399637179601996 0 0 0 0 164.46767201070224 -41.872400558720983 0 -41.872400558720983 -83.381715050365528 0 0 0 0 -165.05472987788946 163.84355158591279 0 163.84355158591279 -145.26757521506806 0 0 0 0 157.69418802875612 -181.48770387546301 0 -181.48770387546301 -2491.6963311121399 0 0 0 0 -2.5778809066157011 3.5013890560323091 0 3.5013890560323091 -5.5431105775671625 0 0 0 0 -244.16445117102211 407.43061300910995 0 407.43061300910995 11.304426715218142 0 0 0 0 30.981286972112798 -170.84479026476038 0 -170.84479026476038 -174.27787726955285 0 0 0 0 -227.56421642891203 52.371673843554163 0 52.371673843554163 -159.02979046937253 0 0 0 0 -333.4432012786088 108.81797099847063 0 108.81797099847063 -273.92604027091875 0 0 0 0 -169.33637760811445 -136.47036209120415 0 -136.47036209120415 -533.2400444145751 0 0 0 0 363.04266773044833 125.63086047472825 0 125.63086047472825 -2494.8774987762008 0 0 0 0 -240.60997446704934 691.0684003288236 0 691.0684003288236 -1122.2632769359625 0 0 0 0 -17.213833039058155 -349.0789797833495 0 -349.0789797833495 -1165.8728084422182 0 0 0 0 5.0554577903277362 -209.96016588317798 0 -209.96016588317798 -1253.4552780822269 0 0 0 0 -65.895126615717672 -198.56510081240049 0 -198.56510081240049 -127.90943876380334 0 0 0 0 168.16027333672662 -67.222694523003156 0 -67.222694523003156 -343.43701647753915 0 0 0 0 -102.53567374830692 -7.3871725382959994 0 -7.3871725382959994 -222.52230323911863 0 0 0 0 -123.58043365147314 191.93917468408904 0 191.93917468408904 51.542333606019383 0 0 0 0 47.901323858339921 195.52159624066599 0 195.52159624066599 -18.316917406620632 0 0 0 0 -9.2625678635153719 18.283635556557385 0 18.283635556557385 -53.047487131434423 0 0 0 0 66.501601275546136 5.7168436023166578 0 5.7168436023166578 31.082082245715355 0 0 0 0 -139.80526178234783 -146.10331627653795 0 -146.10331627653795 -63.636569367861739 0 0 0 0 -183.98539051963047 98.645025900681503 0 98.645025900681503 8.3039613201763132 0 0 0 0 -136.35457454341039 -87.226880524416629 0 -87.226880524416629 178.04890827247436 0 0 0 0 -12.816569014410746 -23.277032451326619 0 -23.277032451326619 -13.386830995222315 0 0 0 0 -51.495265164152443 -79.293328928433766 0 -79.293328928433766 106.43390993598223 0 0 0 0 -19.67770693141847 -89.692520072625484 0 -89.692520072625484 76.859154078898428 0 0 0 0 -103.83992238493829 -41.672499196756689 0 -41.672499196756689 81.988159213367908 0 0 0 0 -88.433016967266667 -97.532224479415163 0 -97.532224479415163 85.049304206833767 0 0 0 0 -41.307695553222402 -56.188718284985953 0 -56.188718284985953 63.022892850713106 0 0 0 0 12.731334922496899 -60.600898853364924 0 -60.600898853364924 94.715162849854096 0 0 0 0 50.325951270149744 -106.27085413192253 0 -106.27085413192253 94.351480906659503 0 0 0 0 63.84340218681227 -10.386059712072893 0 -10.386059712072893 133.25476448124391 0 0 0 0 12.024346691718314 -17.120085835562122 0 -17.120085835562122 -23.487934972016959 0 0 0 0 -53.18149098907088 -77.588007239493891 0 -77.588007239493891 185.36616219099233 0 0 0 0 7.1217325434645318 -178.39904960049898 0 -178.39904960049898 161.00534771888852 0 0 0 0 106.73245557446626 -148.48469014602233 0 -148.48469014602233 45.024472314398736 0 0 0 0 13.997089677270196 -149.70324065104796 0 -149.70324065104796 46.180768516765966 0 0 0 0 -0.42823425961091743 -141.65710966297047 0 -141.65710966297047 42.008057714177994 0 0 0 0 -7.1369483452208442 -72.7459373393649 0 -72.7459373393649 12.568232226767577 0 0 0 0 -46.059392837327323 -58.952934738234035 0 -58.952934738234035 106.88965003976773 0 0 0 0 111.78802101836482 -70.621171467642853 0 -70.621171467642853 -86.722548491990892 0 0 0 0 -12.389134703025931 -20.015980652550397 0 -20.015980652550397 -37.910976769397706 0 0 0 0 8.9438883476517059 -47.957446545793324 0 -47.957446545793324 -25.251599990203388 0 0 0 0 40.751518448565548 -95.479877224133816 0 -95.479877224133816 -37.390466838362045 0 0 0 0 2.8990813550308303 17.416679296584334 0 17.416679296584334 -118.567354812345 0 0 0 0 26.655365359942152 3.0642300357358181 0 3.0642300357358181 -201.3479919252095 0 0 0 0 28.832774016187614 -124.40358635284065 0 -124.40358635284065 -9.6089660487195943 0 0 0 0 11.166700817941091 -12.040025817281276 0 -12.040025817281276 -119.48442588963371 0 0 0 0 9.8839450664572936 -52.284777066178435 0 -52.284777066178435 -24.261533324955661 0 0 0 0 7.2797916542180339 -51.212887399611866 0 -51.212887399611866 -23.271284182714894 0 0 0 0 49.216740377824408 -54.466734095170978 0 -54.466734095170978 -150.28424576573889 0 0 0 0 18.849468035833524 -55.976064571317693 0 -55.976064571317693 -138.7198466235568 0 0 0 0 73.080917733954266 -14.680558021485922 0 -14.680558021485922 -150.43974356952822 0 0 0 0 60.33283845796177 -39.248737504509336 0 -39.248737504509336 -132.1341020796026 0 0 0 0 32.005652445054238 14.673896991709626 0 14.673896991709626 -32.814241248910548 0 0 0 0 58.828028028206973 10.537713767356763 0 10.537713767356763 -120.27519697822208 0 0 0 0 190.64187012711585 24.715833780662251 0 24.715833780662251 -113.03293287004635 0 0 0 0 106.1796479514469 98.543373734046327 0 98.543373734046327 -56.529789663254633 0 0 0 0 -9.4835333384249871 19.960954729994675 0 19.960954729994675 -38.893068013117244 0 0 0 0 -49.564665828492849 -580.85607595093529 0 -580.85607595093529 -2427.6537408174518 0 0 0 0 43.5022877588234 -52.424813116378573 0 -52.424813116378573 61.554851449902344 0 0 0 0 -1.2626295334876056 -1.2685891656202415 0 -1.2685891656202415 -7.0710428604923763 0 0 0 0 -187.6607193209563 -755.30144404535531 0 -755.30144404535531 -2500.2547983417048 0 0 0 0 -13.321900001899683 11.148112615401431 0 11.148112615401431 -9.9003527995374654 0 0 0 0 -63.956479696788747 339.89866428907771 0 339.89866428907771 -2304.0224408612339 0 0 0 0 -8.8078827236273849 -0.80785882822284805 0 -0.80785882822284805 0.59727399824006966 0 0 0 0 98.02128658667101 64.595820647999517 0 64.595820647999517 -117.29601066320174 0 0 0 0 100.75887023115638 25.82839959591729 0 25.82839959591729 -92.47988569473091 0 0 0 0 40.198195834105462 -324.93653531710152 0 -324.93653531710152 -2497.0544118816547 0 0 0 0 194.59022458569171 47.418858438723873 0 47.418858438723873 -169.4819819588447 0 0 0 0 134.70268514228064 224.88885818912968 0 224.88885818912968 127.44344680468203 0 0 0 0 -512.79926180144025 334.01284577948536 0 334.01284577948536 839.53422058647993 0 0 0 0 39.854221190551222 -323.48779563812423 0 -323.48779563812423 -2501.0216827913105 0 0 0 0 -5.4900807550203652 3.4072036215057864 0 3.4072036215057864 -2.0738530335924601 0 0 0 0 142.51215384012448 -65.219880634827859 0 -65.219880634827859 -432.2581667478189 0 0 0 0 -6.4419419755149647 261.06781453069561 0 261.06781453069561 -656.3464705946426 0 0 0 0 -103.59031577820201 188.98666696946384 0 188.98666696946384 -235.54893434597034 0 0 0 0 90.093639135625381 -206.88029064379225 0 -206.88029064379225 -314.3894214730899 0 0 0 0 84.053905374227043 -101.97280406521168 0 -101.97280406521168 -284.46415131433605 0 0 0 0 72.909191716481473 -126.92659256911429 0 -126.92659256911429 -240.4741302692164 0 0 0 0 144.51654261960243 -11.54169471242858 0 -11.54169471242858 -222.10706364916405 0 0 0 0 85.033893165940981 -79.049100384800113 0 -79.049100384800113 -141.24552137730643 0 0 0 0 14.843040501563792 -69.357915765249345 0 -69.357915765249345 -142.57200584038947 0 0 0 0 15.579087399292803 -82.514768772365642 0 -82.514768772365642 -40.31277796116774 0 0 0 0 62.231180485226105 -174.27265250847631 0 -174.27265250847631 -97.124956383653625 0 0 0 0 4.2400920380652254 -52.133317787906122 0 -52.133317787906122 -27.988352620877343 0 0 0 0 1.9448518225424323 -95.175734537655444 0 -95.175734537655444 -16.528272342155105 0 0 0 0 2.7228791154814189 -0.44402912537407246 0 -0.44402912537407246 -134.63604369496534 0 0 0 0 -2.4442312503421135 -7.3082844640530311 0 -7.3082844640530311 -135.13211756238888 0 0 0 0 6.5247169614090126 -6.7099334385834482 0 -6.7099334385834482 -137.95429961139234 0 0 0 0 9.343004381118833 0.98392339434107612 0 0.98392339434107612 -14.161019472661415 0 0 0 0 14.249789526256478 5.4880132530982451 0 5.4880132530982451 -71.745947800971095 0 0 0 0 74.848442886888051 -93.679269692413982 0 -93.679269692413982 -35.232698231186077 0 0 0 0 9.5506276018121525 0.64081589329180133 0 0.64081589329180133 -137.42906141761341 0 0 0 0 276.26586965567571 -33.506511235005746 0 -33.506511235005746 -45.700364472799265 0 0 0 0 -92.532676629767593 -66.472565391453827 0 -66.472565391453827 -107.61907060334488 0 0 0 0 -27.537737092781128 -9.9576172842191113 0 -9.9576172842191113 -14.426360534069936 0 0 0 0 -65.997040687385379 -115.15121182756775 0 -115.15121182756775 -443.0781194582014 0 0 0 0 -64.108320879598068 -1.7141177803787286 0 -1.7141177803787286 -218.2713384826111 0 0 0 0 -5.0334731988955923 -11.715465818436314 0 -11.715465818436314 -218.21201844894313 0 0 0 0 -8.0487700200542687 11.984477565699137 0 11.984477565699137 -31.033023232577449 0 0 0 0 246.92290503895279 -143.67527660855012 0 -143.67527660855012 -258.77898751808698 0 0 0 0 191.46215095886527 -136.1441163674881 0 -136.1441163674881 -21.043100214475999 0 0 0 0 114.52727422894304 208.59203504623656 0 208.59203504623656 -253.19404402189866 0 0 0 0 205.00901675108389 -190.09723479760214 0 -190.09723479760214 -455.60778967591796 0 0 0 0 -37.678843846608061 -144.63304444344612 0 -144.63304444344612 -34.700805732121808 0 0 0 0 -64.9840411551736 -206.8859343891545 0 -206.8859343891545 146.58783568731815 0 0 0 0 223.1087457096877 -173.04720238869004 0 -173.04720238869004 -101.68104404830956 0 0 0 0 183.07673078618552 -413.82028537521819 0 -413.82028537521819 268.44918197984953 0 0 0 0 48.058955369454907 35.840816009669652 0 35.840816009669652 -333.74684569168312 0 0 0 0 2.6677098176635479 -0.30379867216304035 0 -0.30379867216304035 0.39050399640886013 0 0 0 0 1.5833216596640796 -0.50735910237017379 0 -0.50735910237017379 -183.05762951086945 0 0 0 0 -4.8637426248797055 -23.93094419917179 0 -23.93094419917179 -157.97349209555796 0 0 0 0 9.34907808076332 -11.269125938591969 0 -11.269125938591969 -154.8411999293603 0 0 0 0 92.190401533457589 -115.95865784832495 0 -115.95865784832495 -82.309093056572237 0 0 0 0 49.64039410553687 -173.57929537113887 0 -173.57929537113887 -95.397288676384051 0 0 0 0 35.847934851317405 -133.56043258612044 0 -133.56043258612044 -63.000294027660857 0 0 0 0 203.99749229389681 -281.71573253100541 0 -281.71573253100541 -34.651860733240028 0 0 0 0 162.35542744496433 -105.11416344056124 0 -105.11416344056124 -222.62292676016659 0 0 0 0 -34.809152768500098 -192.92991453171271 0 -192.92991453171271 58.977510865122895 0 0 0 0 31.373284339335441 -194.38731004928559 0 -194.38731004928559 23.889550942461938 0 0 0 0 44.081986344010147 -182.10856838611653 0 -182.10856838611653 -21.882558169934782 0 0 0 0 13.626408444473782 -133.91737762073899 0 -133.91737762073899 -14.031829442756134 0 0 0 0 14.955600142691765 -176.88222677668819 0 -176.88222677668819 12.383258935522463 0 0 0 0 44.921442164115433 -101.79268066849181 0 -101.79268066849181 44.268134903002647 0 0 0 0 -87.076902551629246 -105.37516809205408 0 -105.37516809205408 51.176338959907298 0 0 0 0 -0.75437969794802484 -129.61983639420214 0 -129.61983639420214 42.371693083910941 0 0 0 0 -138.95702982889634 -24.026378221584309 0 -24.026378221584309 46.957211862820259 0 0 0 0 -120.7457670593958 -53.975898910364776 0 -53.975898910364776 72.010624082922732 0 0 0 0 -80.524313845268807 -12.478758675413701 0 -12.478758675413701 25.321545999511727 0 0 0 0 -162.66217775107907 9.438638476509368 0 9.438638476509368 27.475022904692196 0 0 0 0 -131.63173421696865 -26.054207462868362 0 -26.054207462868362 16.058054101114976 0 0 0 0 -79.889313425427645 -106.80425903289142 0 -106.80425903289142 16.457841237803223 0 0 0 0 -321.12054349437494 60.537805435782502 0 60.537805435782502 12.568446421512022 0 0 0 0 -298.28018319063631 -65.146921557254245 0 -65.146921557254245 51.240492743585492 0 0 0 0 -265.48328374907396 146.79158279072726 0 146.79158279072726 -61.124327441575588 0 0 0 0 -0.21782079061369863 0.27723378593995918 0 0.27723378593995918 0.66592443045870198 0 0 0 0 -95.358660511645667 -112.70884880964513 0 -112.70884880964513 15.614172241106644 0 0 0 0 -145.7028044671697 -153.97174490086218 0 -153.97174490086218 21.973352007178619 0 0 0 0 -309.86151416861139 -164.91610967034831 0 -164.91610967034831 21.754526741756081 0 0 0 0 -40.131015415288175 -215.73683388725476 0 -215.73683388725476 -493.30130138036475 0 0 0 0 119.48958621174074 125.1909707351515 0 125.1909707351515 -1095.5923577847789 0 0 0 0 -164.17139784330811 20.116552824592873 0 20.116552824592873 -426.37245514666211 0 0 0 0 -128.50151846793779 -206.33172713012755 0 -206.33172713012755 -1447.4201805111647 0 0 0 0 -632.93492485352954 -90.845766062586335 0 -90.845766062586335 -558.7632442142567 0 0 0 0 -177.680800270791 -123.61027802698209 0 -123.61027802698209 -565.64269422846337 0 0 0 0 -400.48984888803534 -6.4673061727153254 0 -6.4673061727153254 -52.717400941566666 0 0 0 0 -149.09241727672543 -131.47978245572813 0 -131.47978245572813 -720.27475089296058 0 0 0 0 -410.27442006994534 -254.71413711145942 0 -254.71413711145942 -712.22145833095215 0 0 0 0 -82.455152134882155 88.682804025360383 0 88.682804025360383 -1495.8152210168191 0 0 0 0 7.7464101202822349 -249.98253540144651 0 -249.98253540144651 -1074.9648004203118 0 0 0 0 -433.83893454139888 -499.9243358636013 0 -499.9243358636013 -758.6856258118969 0 0 0 0 -3.2329400189037187 -422.21202829682807 0 -422.21202829682807 -1717.0940245132806 0 0 0 0 -322.70869341279695 45.750116496302326 0 45.750116496302326 -999.83816948640742 0 0 0 0 -255.10760873042818 -281.78919015161227 0 -281.78919015161227 -662.15968854352104 0 0 0 0 -130.88297412542124 178.57673724894994 0 178.57673724894994 -423.37058703320508 0 0 0 0 -99.1426952553104 267.3591965033911 0 267.3591965033911 153.9850385930913 0 0 0 0 -145.05952017772279 -91.176348557160964 0 -91.176348557160964 81.075542146503722 0 0 0 0 386.8965981285146 -22.92873242755195 0 -22.92873242755195 -402.34402463301376 0 0 0 0 -231.03955790584223 150.92338701918652 0 150.92338701918652 -284.21158589870902 0 0 0 0 191.07434603371621 230.05542281535963 0 230.05542281535963 96.53684504299963 0 0 0 0 -32.508021827430639 67.481100920209428 0 67.481100920209428 213.81076132752423 0 0 0 0 1.3502233862784694 10.431735247087822 0 10.431735247087822 -52.43626596592074 0 0 0 0 -114.20888129585273 -182.62915025228358 0 -182.62915025228358 48.327163872381789 0 0 0 0 -295.91579169718852 -4.609500916880279 0 -4.609500916880279 202.53184016089654 0 0 0 0 -23.658077616060837 -83.91784255573657 0 -83.91784255573657 98.161895015695336 0 0 0 0 -31.139212498709185 -83.523507232130214 0 -83.523507232130214 262.85474818052899 0 0 0 0 16.447787043265635 59.235423579746566 0 59.235423579746566 166.67010084859794 0 0 0 0 92.120006234359607 51.085449041682296 0 51.085449041682296 -96.235854314581957 0 0 0 0 0.9504567546305438 0.60469651920831424 0 0.60469651920831424 -0.2865617912037095 0 0 0 0 9.927083706974372 45.05114254981163 0 45.05114254981163 -67.81543549100752 0 0 0 0 -78.903031168462803 46.588823996378778 0 46.588823996378778 -5.3255422588335932 0 0 0 0 51.612572345241915 -21.417897166822513 0 -21.417897166822513 -28.166896992617694 0 0 0 0 123.4747376816922 44.635184643222601 0 44.635184643222601 -101.30944551060384 0 0 0 0 -108.48433646223566 50.773760830003084 0 50.773760830003084 -61.323807727647363 0 0 0 0 -83.694599839444891 11.763584540593001 0 11.763584540593001 -0.86551345304906135 0 0 0 0 -111.27210818536605 14.759177484473184 0 14.759177484473184 30.833935121110699 0 0 0 0 1.9099596821288873 -1.9061637476180344 0 -1.9061637476180344 -16.233535858926473 0 0 0 0 1.3209360840315636 0.16456335989720827 0 0.16456335989720827 -11.191054026253207 0 0 0 0 -17.91539064849303 8.7667479977071707 0 8.7667479977071707 -41.024136284082488 0 0 0 0 -1.7457637332240665 -6.890549027151792 0 -6.890549027151792 -10.227408696926432 0 0 0 0 -4.4036862273283077 -0.9906740276110213 0 -0.9906740276110213 -34.020112243641051 0 0 0 0 -101.64997077372459 -326.73295225992661 0 -326.73295225992661 -546.33167023227725 0 0 0 0 88.045084339344612 -141.31904821219177 0 -141.31904821219177 -796.40903469349178 0 0 0 0 148.29895791620402 -306.08477417473205 0 -306.08477417473205 -938.71485904444125 0 0 0 0 191.14495589228136 -234.56738398967173 0 -234.56738398967173 -786.94834305823133 0 0 0 0 -26.231778730905262 -84.883415881155997 0 -84.883415881155997 -858.11054357906323 0 0 0 0 29.965978975116514 -342.30011639909571 0 -342.30011639909571 -401.27919992917668 0 0 0 0 -0.11908777506099533 1.7671024728148055 0 1.7671024728148055 -5.4405201669861754 0 0 0 0 -1.5404159670733861 95.934531240622164 0 95.934531240622164 168.96652416139841 0 0 0 0 -127.29148000433293 -301.02741416204071 0 -301.02741416204071 752.74260624912131 0 0 0 0 122.88901929047597 -42.991119970418367 0 -42.991119970418367 -159.08054823702241 0 0 0 0 -11.505679378424702 55.803454890360626 0 55.803454890360626 -4.8419409414636903 0 0 0 0 2.2410075077744551 -2.897587607323203 0 -2.897587607323203 0.39357787144631473 0 0 0 0 48.47126042396593 -154.07649006966767 0 -154.07649006966767 74.183546961594402 0 0 0 0 222.30633092408743 -389.13576089249 0 -389.13576089249 479.48001134662627 0 0 0 0 51.696611612526794 -120.19242145769385 0 -120.19242145769385 261.81169563746516 0 0 0 0 973.56503187944327 584.87714861808854 0 584.87714861808854 -844.71551688937325 0 0 0 0 4.2716625311851724 -1.4926842912284428 0 -1.4926842912284428 -7.9796071856239195 0 0 0 0 -1092.6216360093895 -1551.7489752905713 0 -1551.7489752905713 -1240.1359609778665 0 0 0 0 -776.16705074945014 -464.98675516678759 0 -464.98675516678759 -563.15345392709423 0 0 0 0 438.34470844424231 -256.44588218505305 0 -256.44588218505305 132.03328649464311 0 0 0 0 -113.44301746586098 346.86686747254498 0 346.86686747254498 -1263.8970576811989 0 0 0 0 254.93588911453662 -135.16186100683262 0 -135.16186100683262 -1465.5906141301421 0 0 0 0 898.64169337891508 -332.56078412127681 0 -332.56078412127681 -1533.4008380107407 0 0 0 0 540.95157291382338 -368.9499094365874 0 -368.9499094365874 127.78971041290788 0 0 0 0 405.61276672985434 -753.58980318725298 0 -753.58980318725298 719.22041760274442 0 0 0 0 -0.8587128322981421 -2.9797157579036053 0 -2.9797157579036053 -4.0515930215593698 0 0 0 0 376.97979602192754 -296.73239226973965 0 -296.73239226973965 582.40106613103671 0 0 0 0 -331.81900432436214 198.34051935966818 0 198.34051935966818 -97.923644532267645 0 0 0 0 758.96761582623458 -642.4363096037705 0 -642.4363096037705 571.78529128704395 0 0 0 0 54.58592382538427 -564.56369527823563 0 -564.56369527823563 -411.3333879666352 0 0 0 0 -1.1378846099439226 -3.8273894704220126 0 -3.8273894704220126 -7.2810839859790235 0 0 0 0 -26.17885010945065 -297.58707193615191 0 -297.58707193615191 -1269.7300239925225 0 0 0 0 -141.82664211126419 453.7508549642148 0 453.7508549642148 -733.68570553386235 0 0 0 0 -112.03097171404988 694.71713188264766 0 694.71713188264766 -1638.0373423145029 0 0 0 0 77.882139268273022 304.43926170963096 0 304.43926170963096 -263.59295713876054 0 0 0 0 -105.30329842646279 362.89003463905829 0 362.89003463905829 -226.36662607658036 0 0 0 0 212.32383826596379 95.583033444336252 0 95.583033444336252 -230.24919105970912 0 0 0 0 -224.95347350434349 102.52164168530726 0 102.52164168530726 -156.91923788996792 0 0 0 0 -21.802353235640567 4.7518709573614615 0 4.7518709573614615 -275.85433845763328 0 0 0 0 508.83006050007225 -635.19779906137774 0 -635.19779906137774 770.01238754820588 0 0 0 0 330.97427268854517 -547.78947940504077 0 -547.78947940504077 688.15446210689697 0 0 0 0 2.2287550246097787 -1.06869101414879 0 -1.06869101414879 -0.069304753955126586 0 0 0 0 470.56035227062603 -805.24394696431409 0 -805.24394696431409 687.95961043027637 0 0 0 0 -0.018205641626288127 -8.3433837290472219 0 -8.3433837290472219 -13.146164127051605 0 0 0 0 -112.369417623564 -61.847622200541082 0 -61.847622200541082 -814.54287089689024 0 0 0 0 529.19120791286957 -486.26901968198877 0 -486.26901968198877 -807.32036646065535 0 0 0 0 81.362825426032487 264.94795427391182 0 264.94795427391182 -65.559323009118089 0 0 0 0 278.55954432340513 387.26372774044285 0 387.26372774044285 -835.50801538371729 0 0 0 0 454.60079761407678 29.277166403284355 0 29.277166403284355 -119.38735754487425 0 0 0 0 503.43787188705801 -318.60911994636598 0 -318.60911994636598 25.117461743066087 0 0 0 0 200.39518208579375 -32.045881603506132 0 -32.045881603506132 -53.09025905245835 0 0 0 0 488.6258533389755 -95.984090988398748 0 -95.984090988398748 -476.09160287236955 0 0 0 0 19.160017248865188 86.972742900601588 0 86.972742900601588 -150.40108079627316 0 0 0 0 -61.72371490675323 -114.32462277433478 0 -114.32462277433478 -52.272086660006607 0 0 0 0 -1.5834890490658604 -2.5850774294025598 0 -2.5850774294025598 -1.8209996918426725 0 0 0 0 -59.795311451029647 264.29099205650709 0 264.29099205650709 -334.14979656689684 0 0 0 0 -1.4367120287389668 -12.332478242816048 0 -12.332478242816048 -25.01796712690097 0 0 0 0 -69.984239871492719 -76.987819591548032 0 -76.987819591548032 -146.14063623255061 0 0 0 0 -66.949435365365389 -118.94033863157529 0 -118.94033863157529 -51.389830756725132 0 0 0 0 -49.902645198355913 -102.65688985988527 0 -102.65688985988527 -120.96708008102723 0 0 0 0 -17.190927680374443 261.04159459882067 0 261.04159459882067 -407.16601566648751 0 0 0 0 -21.237042829294296 254.39759132137988 0 254.39759132137988 -414.35196882707532 0 0 0 0 -64.693254215437662 341.37956917165388 0 341.37956917165388 -528.07246509249671 0 0 0 0 -179.10182896013885 312.65127953919 0 312.65127953919 -281.76753600963275 0 0 0 0 -62.736524749355596 260.96903631216219 0 260.96903631216219 -315.1519570958335 0 0 0 0 -150.99984705373072 230.21765931919435 0 230.21765931919435 -111.78929126374715 0 0 0 0 -78.659739598650049 -68.289616267044039 0 -68.289616267044039 -10.232141193864663 0 0 0 0 -48.795783417903294 -94.855510498902731 0 -94.855510498902731 -217.22996950399101 0 0 0 0 -5.9339956244991185 -10.097470374108639 0 -10.097470374108639 -12.681232406755115 0 0 0 0 -337.17258828609374 31.958816555430531 0 31.958816555430531 -258.78155983828765 0 0 0 0 39.983177870863074 7.7777499914373038 0 7.7777499914373038 -405.27659770878381 0 0 0 0 24.750780118754619 -488.13958641552199 0 -488.13958641552199 233.04676684870356 0 0 0 0 31.802308505247311 161.16430555959232 0 161.16430555959232 -368.3021567818505 0 0 0 0 399.28169674609137 53.11670158169909 0 53.11670158169909 -137.33995676253107 0 0 0 0 -136.95871231484614 36.619821644226249 0 36.619821644226249 -78.370926223578863 0 0 0 0 92.311034876393478 -47.95404547563885 0 -47.95404547563885 -332.10834037864697 0 0 0 0 -541.68017449185254 -146.93666989093617 0 -146.93666989093617 442.96886859342339 0 0 0 0 0.25556986117167391 -11.82452728402421 0 -11.82452728402421 -19.495088056578503 0 0 0 0 40.322101871121959 111.53845764565631 0 111.53845764565631 -263.55609613330307 0 0 0 0 18.105366881285136 140.16127156689618 0 140.16127156689618 -227.05426184955286 0 0 0 0 35.049262280375387 99.931622298998263 0 99.931622298998263 -274.587469118429 0 0 0 0 -10.843555369028763 100.25253187766066 0 100.25253187766066 -70.644109617171125 0 0 0 0 -4.0775216634703924 -10.221156967798571 0 -10.221156967798571 -14.87220413642325 0 0 0 0 286.41754460891116 -170.1639378087275 0 -170.1639378087275 -678.99757470229088 0 0 0 0 73.789918138678786 -101.41981082261645 0 -101.41981082261645 -105.1246144208053 0 0 0 0 347.90347692621998 -119.36624195219702 0 -119.36624195219702 -1093.8177931066093 0 0 0 0 175.3031684177331 222.12460639260098 0 222.12460639260098 -570.93461347767334 0 0 0 0 219.84770999715877 375.90505129779012 0 375.90505129779012 -875.81708668147621 0 0 0 0 201.54724062695357 305.19539437096455 0 305.19539437096455 -1004.4115047077576 0 0 0 0 218.9706764720699 414.55030420307958 0 414.55030420307958 60.473240121308663 0 0 0 0 -138.75181202792749 -541.54215107896744 0 -541.54215107896744 -1272.9871069430301 0 0 0 0 -1.7837017038506486 5.2282495554072419 0 5.2282495554072419 -11.311620849867467 0 0 0 0 85.99825239382676 271.92986192670287 0 271.92986192670287 -1381.8805952659386 0 0 0 0 -627.77942296186836 194.58828227357662 0 194.58828227357662 243.29503333101457 0 0 0 0 -535.87035898707609 539.37225671985107 0 539.37225671985107 -279.70479367439111 0 0 0 0 30.65910833051953 132.79058370587518 0 132.79058370587518 -473.80305978795514 0 0 0 0 97.658848585302394 209.00241864548479 0 209.00241864548479 -683.69089982475271 0 0 0 0 115.51220072337992 -13.01857579173884 0 -13.01857579173884 -972.79860354190896 0 0 0 0 -121.08870729571566 -306.53989885417991 0 -306.53989885417991 -657.85141238663346 0 0 0 0 -106.6188877346176 -187.06156462727085 0 -187.06156462727085 -354.12132862521321 0 0 0 0 -46.952402713955507 -83.729555089814312 0 -83.729555089814312 -465.17541751785029 0 0 0 0 -17.53090214701615 -24.090391732959688 0 -24.090391732959688 -688.98749764687091 0 0 0 0 41.395792717912627 40.009632845914894 0 40.009632845914894 -607.59923937747226 0 0 0 0 120.83677248067079 60.366326559833396 0 60.366326559833396 -637.55061858879344 0 0 0 0 -148.72906820993137 -192.11805681102578 0 -192.11805681102578 30.753549966408173 0 0 0 0 2.6253444430249147 -60.407694210491172 0 -60.407694210491172 -422.57462920504054 0 0 0 0 31.810026370580999 122.31720825787488 0 122.31720825787488 -428.46620332942985 0 0 0 0 47.517202853861818 56.721096944282181 0 56.721096944282181 -487.11404657773528 0 0 0 0 101.42192799481927 193.18849961774686 0 193.18849961774686 -309.57861465523456 0 0 0 0 140.24067176251856 72.628085504169576 0 72.628085504169576 -498.7262105930331 0 0 0 0 -42.28895495913298 12.727756540552946 0 12.727756540552946 367.91258105274028 0 0 0 0 -2.2211798378298226 -74.081594772575045 0 -74.081594772575045 -84.219959494788782 0 0 0 0 -31.221267536159075 -22.169444714418205 0 -22.169444714418205 16.356244561524363 0 0 0 0 -2.9955031179808858 -3.8153985899345813 0 -3.8153985899345813 -4.829542138127394 0 0 0 0 -37.788293149110359 -254.04062992804757 0 -254.04062992804757 180.60734315624904 0 0 0 0 -27.704644938194178 433.66674722043899 0 433.66674722043899 -730.58291374590772 0 0 0 0 -60.159819879230781 -249.28364786542443 0 -249.28364786542443 277.32095834145912 0 0 0 0 -133.43660041266799 424.43310232613658 0 424.43310232613658 -485.02004292348283 0 0 0 0 4.7353698491469913 231.92390241596877 0 231.92390241596877 -462.20078420730715 0 0 0 0 16.734686954550853 267.40983802522533 0 267.40983802522533 -580.6806803016807 0 0 0 0 -24.735220981276029 294.49804612256776 0 294.49804612256776 -427.93355680684908 0 0 0 0 180.86822703408598 107.23481317842379 0 107.23481317842379 -250.07369074979215 0 0 0 0 -19.758947119502409 -104.99244537382037 0 -104.99244537382037 27.583713417887338 0 0 0 0 -3.3314210875080166 8.0233842974687448 0 8.0233842974687448 -18.175204720223959 0 0 0 0 -41.56892838497788 -113.71684940982232 0 -113.71684940982232 65.879036985174025 0 0 0 0 68.421246175582382 55.212844935191242 0 55.212844935191242 -22.046834966065944 0 0 0 0 32.365593504358912 43.443060997982684 0 43.443060997982684 6.3933881297562039 0 0 0 0 39.751411565888702 7.9744931680434092 0 7.9744931680434092 -16.886670520310872 0 0 0 0 -460.63957104185056 -567.4751185699206 0 -567.4751185699206 -192.85031096286548 0 0 0 0 188.59975461634281 39.440297615037252 0 39.440297615037252 -958.11710553982994 0 0 0 0 94.193603567329774 177.54089203783951 0 177.54089203783951 -967.72755816680001 0 0 0 0 79.750723788602045 -291.5366225598118 0 -291.5366225598118 -923.13207412857628 0 0 0 0 -138.1770498877795 -195.97840094307321 0 -195.97840094307321 -412.66617487422809 0 0 0 0 -83.165538073702919 -15.549975573012489 0 -15.549975573012489 -439.28757337747084 0 0 0 0 -22.014301765795608 162.65266050052014 0 162.65266050052014 -263.3645796898345 0 0 0 0 -7.7731335607604706 212.37839866529976 0 212.37839866529976 -429.68258159048833 0 0 0 0 -11.919660238620054 154.42721649585292 0 154.42721649585292 -535.91809196243412 0 0 0 0 -76.707431729540986 -41.877445112317218 0 -41.877445112317218 -332.11873110845045 0 0 0 0 -83.957590549340239 -24.01265084320039 0 -24.01265084320039 -313.08135248390317 0 0 0 0 -137.48775703240301 -177.13094602308865 0 -177.13094602308865 -42.001161239226349 0 0 0 0 -80.980467686991688 -56.481027889851248 0 -56.481027889851248 -97.77428713151312 0 0 0 0 -44.079449403008766 80.12479076742602 0 80.12479076742602 -308.59469521073333 0 0 0 0 -120.30037974408788 -31.609746581783838 0 -31.609746581783838 5.6046954215271398 0 0 0 0 -101.474345483256 -61.049804718175437 0 -61.049804718175437 -27.161758456088137 0 0 0 0 -117.76513105308186 -27.44383136362012 0 -27.44383136362012 107.25236007018248 0 0 0 0 -77.831984965028823 89.230483156701666 0 89.230483156701666 -40.058020715776365 0 0 0 0 -73.60159362531158 -182.91138487291391 0 -182.91138487291391 79.977302418381441 0 0 0 0 -60.017453897527503 -142.62013624468455 0 -142.62013624468455 -20.085936712333933 0 0 0 0 -138.11351339569774 -95.573613279906567 0 -95.573613279906567 41.769549699594791 0 0 0 0 -178.9736105176853 -167.56815769011155 0 -167.56815769011155 89.150274424671807 0 0 0 0 -267.05687999403472 58.779127978043107 0 58.779127978043107 313.45184913726825 0 0 0 0 -360.27344928818002 -116.1716811093429 0 -116.1716811093429 332.55560901149875 0 0 0 0 -359.87029444219934 -295.71181789161346 0 -295.71181789161346 24.758183716359781 0 0 0 0 -108.95785012344186 -44.970422798447544 0 -44.970422798447544 94.034227800861117 0 0 0 0 60.482789474357332 -20.681424400514516 0 -20.681424400514516 19.933576053430443 0 0 0 0 -20.980213801858554 113.53823285331237 0 113.53823285331237 174.7808077177142 0 0 0 0 -6.0165378627577013 12.005249943177994 0 12.005249943177994 -21.532524354771198 0 0 0 0 -32.960113796045789 -2.3674788424796134 0 -2.3674788424796134 40.225460219204251 0 0 0 0 22.30177897995145 -72.955560495545797 0 -72.955560495545797 129.85389299374947 0 0 0 0 25.94249822128404 20.915415629297058 0 20.915415629297058 -26.786370016976434 0 0 0 0 54.692680687295251 37.926002392818191 0 37.926002392818191 -26.476578170419089 0 0 0 0 52.720403497572761 15.993687959484305 0 15.993687959484305 -28.564568635280011 0 0 0 0 21.884351089210213 15.265747047142213 0 15.265747047142213 -18.076550862373551 0 0 0 0 22.02169423992018 3.6012887974065961 0 3.6012887974065961 -38.805282874129261 0 0 0 0 37.920074695104631 25.305539088389196 0 25.305539088389196 -30.03145936083456 0 0 0 0 21.155185192315002 9.3694948476877471 0 9.3694948476877471 -49.438015852938406 0 0 0 0 24.592675007546859 25.998975805036025 0 25.998975805036025 -10.228414504050306 0 0 0 0 21.474864899646491 8.9895713035175504 0 8.9895713035175504 -60.532299985788995 0 0 0 0 13.739900981688834 -10.296247584205958 0 -10.296247584205958 -61.996002342159045 0 0 0 0 1.901019930165603 3.9135982610932842 0 3.9135982610932842 -78.551646503645316 0 0 0 0 15.461590150362099 -4.2510274996529915 0 -4.2510274996529915 -73.977669448595407 0 0 0 0 -0.66806228602035844 -2.8378769065711822 0 -2.8378769065711822 -72.714394482743955 0 0 0 0 1.7720024389179725 0.56199286294580331 0 0.56199286294580331 -41.821632211850698 0 0 0 0 10.772075459519669 14.679426703295576 0 14.679426703295576 -57.685147284493723 0 0 0 0 -5.1002451827047572 7.8004111492325592 0 7.8004111492325592 -27.847021578310702 0 0 0 0 25.201162227521309 11.200269901462889 0 11.200269901462889 -57.201467564205814 0 0 0 0 -5.962227949754606 -20.690863392830579 0 -20.690863392830579 -39.42323587629653 0 0 0 0 18.596352292440315 -0.034436895559338154 0 -0.034436895559338154 -37.064342192501499 0 0 0 0 1.500388822572404 19.958799849582647 0 19.958799849582647 -33.782972418906866 0 0 0 0 -1.6634400783921226 0.76410450218546755 0 0.76410450218546755 -42.018212501816066 0 0 0 0 93.371044651334159 7.5736499977538188 0 7.5736499977538188 -71.591351210357971 0 0 0 0 70.077147556459749 -19.421179337123249 0 -19.421179337123249 -64.673175915741012 0 0 0 0 133.73650190552371 -4.2955274287778593 0 -4.2955274287778593 -76.214982953002618 0 0 0 0 6.7681558523053127 -3.9395248845412425 0 -3.9395248845412425 -22.126011664993712 0 0 0 0 83.29727447600726 53.265967405643096 0 53.265967405643096 -55.19591348742324 0 0 0 0 2.0066818026553523 -0.38120222810727711 0 -0.38120222810727711 -34.094851303284088 0 0 0 0 -4.922646601766246 -20.752275846996781 0 -20.752275846996781 -50.052566288717344 0 0 0 0 102.60107738283568 87.856080305602518 0 87.856080305602518 -18.17393376302789 0 0 0 0 356.41321751431315 3.3891717095757485 0 3.3891717095757485 -104.65501746183327 0 0 0 0 181.8979151475196 -24.991103295800713 0 -24.991103295800713 -83.772939015223528 0 0 0 0 140.41493973750221 0.32504249015983078 0 0.32504249015983078 -91.738584980894302 0 0 0 0 132.17058087353234 -12.661199828751705 0 -12.661199828751705 -75.109717260158504 0 0 0 0 132.52159547856058 -10.302954418969421 0 -10.302954418969421 -61.912231183945551 0 0 0 0 148.39522934435263 -13.543149984066986 0 -13.543149984066986 -69.336247447339701 0 0 0 0 137.78554402301017 -5.5167555066525438 0 -5.5167555066525438 -54.449889580384479 0 0 0 0 88.015795572387105 -29.191805346130423 0 -29.191805346130423 -44.314986368590326 0 0 0 0 139.46950079990745 -16.706794238019256 0 -16.706794238019256 -65.087236260762438 0 0 0 0 95.300236819552083 -8.87241024226023 0 -8.87241024226023 -60.775572872149496 0 0 0 0 0.50305224480714861 -6.0844914815527069 0 -6.0844914815527069 -38.884547440511184 0 0 0 0 13.270393265580879 -27.280225179187255 0 -27.280225179187255 -18.045116816923837 0 0 0 0 95.276937994923173 -9.756178049450682 0 -9.756178049450682 -71.25466045878602 0 0 0 0 144.03094182659697 -206.99428224195435 0 -206.99428224195435 32.93397218825703 0 0 0 0 71.173380607401668 1.852056681902468 0 1.852056681902468 -54.201515032498719 0 0 0 0 149.77112193354242 -49.7827596447205 0 -49.7827596447205 -28.444164068314421 0 0 0 0 88.530288259207737 -52.831567882545642 0 -52.831567882545642 -28.508664180997584 0 0 0 0 -113.71766546811887 -166.24640687986539 0 -166.24640687986539 232.11480775190284 0 0 0 0 -53.527165790315848 226.84711829556909 0 226.84711829556909 -128.76296038780129 0 0 0 0 -64.83089134020338 155.8167247237725 0 155.8167247237725 104.70509014072013 0 0 0 0 -138.5248301009633 3.3460411112901056 0 3.3460411112901056 294.90871383072226 0 0 0 0 -121.0328106562265 124.53273457853356 0 124.53273457853356 86.838230099529028 0 0 0 0 -74.743921864732329 80.650867734097119 0 80.650867734097119 -16.44932562840404 0 0 0 0 -107.81043593640607 -44.815849940649059 0 -44.815849940649059 129.87115626008017 0 0 0 0 -106.34144080239912 76.098207020542759 0 76.098207020542759 246.43806527226116 0 0 0 0 -23.221914938360896 204.25755822261272 0 204.25755822261272 -207.55493118736194 0 0 0 0 -69.208519363895903 218.90980515672709 0 218.90980515672709 -188.29203330472228 0 0 0 0 167.85384598616884 -13.10794242827842 0 -13.10794242827842 -36.001901411691506 0 0 0 0 193.7414939856526 -6.505498102031197 0 -6.505498102031197 -61.694314593805757 0 0 0 0 143.99118543753684 -23.091208025841297 0 -23.091208025841297 -35.690882949624211 0 0 0 0 146.24018594287281 -23.553296136717108 0 -23.553296136717108 -49.59474785592829 0 0 0 0 179.29958001010891 32.799717838259312 0 32.799717838259312 -55.762549173587104 0 0 0 0 205.84523885208182 184.09073783096392 0 184.09073783096392 -177.79962723633707 0 0 0 0 312.76261367451161 33.850540372053729 0 33.850540372053729 -69.10447032479351 0 0 0 0 165.83171500046592 49.254088492403753 0 49.254088492403753 37.168210220674155 0 0 0 0 123.05935856369865 129.98964963015351 0 129.98964963015351 74.674412191110605 0 0 0 0 140.86836901732295 57.561020151882985 0 57.561020151882985 40.43108647400004 0 0 0 0 131.01629727473392 11.276531423045526 0 11.276531423045526 -2.9203157585197914 0 0 0 0 140.93819424023818 26.019859883170874 0 26.019859883170874 -45.2733644434702 0 0 0 0 151.22559419051868 -0.53307554787534173 0 -0.53307554787534173 -15.456053386820713 0 0 0 0 99.482896604204143 -39.099649601628698 0 -39.099649601628698 -37.814563609397737 0 0 0 0 166.83602701307655 -65.552875383868013 0 -65.552875383868013 -35.715119710432191 0 0 0 0 61.434849290427337 -76.707100846344474 0 -76.707100846344474 -32.689601569412844 0 0 0 0 233.03469526495473 -178.95422602212238 0 -178.95422602212238 -3.3578817241323122 0 0 0 0 10.898992423853088 -10.828399066646853 0 -10.828399066646853 -2.3171859904541634 0 0 0 0 84.443536906957206 -41.868076956598998 0 -41.868076956598998 -30.115323911446467 0 0 0 0 115.4070157820554 11.90043028836908 0 11.90043028836908 2.6258749548906053 0 0 0 0 6.6139345020478686 82.506983719377786 0 82.506983719377786 36.885875257081352 0 0 0 0 110.33991834719518 57.466991033825252 0 57.466991033825252 -148.70559405888707 0 0 0 0 234.18048703630325 -43.482951825410055 0 -43.482951825410055 -416.45019993601454 0 0 0 0 220.24066390792541 120.27297172334875 0 120.27297172334875 3.2442364191683737 0 0 0 0 310.17511647265678 451.52868513010617 0 451.52868513010617 -4.5882287806962267 0 0 0 0 -2.4315607069069283 6.0265120593919193 0 6.0265120593919193 -10.46911218952016 0 0 0 0 -75.332848620966161 29.966372586746729 0 29.966372586746729 64.810069313602071 0 0 0 0 89.648533911438676 94.428626160983185 0 94.428626160983185 69.449238590292225 0 0 0 0 -1.4280168069840231 5.2305443317197842 0 5.2305443317197842 -11.178905746967729 0 0 0 0 240.38378880880919 131.88746869346141 0 131.88746869346141 43.104677827599517 0 0 0 0 359.81356582496232 244.41464913896289 0 244.41464913896289 -65.732379668530484 0 0 0 0 189.97573200561783 -167.70485471091797 0 -167.70485471091797 -412.82409202166673 0 0 0 0 63.762021741378959 -120.0273502434643 0 -120.0273502434643 -231.37639887924888 0 0 0 0 76.747995122901614 -90.734929861362616 0 -90.734929861362616 -256.55573833821836 0 0 0 0 63.041483102496784 57.125378670683858 0 57.125378670683858 -209.24670062468431 0 0 0 0 2.4033367949361009 3.8022193299183868 0 3.8022193299183868 -19.389213832266506 0 0 0 0 10.860005741940824 11.689400811454107 0 11.689400811454107 -159.55149668835475 0 0 0 0 0.0027917731844447138 -31.456871560316358 0 -31.456871560316358 -158.82228682555069 0 0 0 0 8.1846188039885774 -10.282424294571683 0 -10.282424294571683 -192.2575247352579 0 0 0 0 15.694057204110326 -33.28562420804883 0 -33.28562420804883 -286.15983524649346 0 0 0 0 -56.16672329143708 -132.9581798511158 0 -132.9581798511158 -258.99859093763371 0 0 0 0 21.106683277908473 66.070599412258161 0 66.070599412258161 -54.051438233707813 0 0 0 0 -0.21872606638470854 0.42645973871161402 0 0.42645973871161402 -1.2234416114861517 0 0 0 0 -45.976602984994152 -79.440940174557909 0 -79.440940174557909 -99.036991794790083 0 0 0 0 0.052513263983295491 -37.509236528985639 0 -37.509236528985639 -229.09645803106832 0 0 0 0 -0.10027495371690613 -8.5881709953514758 0 -8.5881709953514758 -65.448608659673482 0 0 0 0 -198.38586366606444 -28.319117774219194 0 -28.319117774219194 -22.010732685528637 0 0 0 0 -87.088711627885516 -161.57144904884444 0 -161.57144904884444 -167.11217966150434 0 0 0 0 -0.6257008732375624 -52.459787333275017 0 -52.459787333275017 -182.12304795710952 0 0 0 0 28.409014757875354 -170.1332757999553 0 -170.1332757999553 -129.16348203744565 0 0 0 0 -12.067231405433859 -103.87976580605027 0 -103.87976580605027 -123.89145191395073 0 0 0 0 62.533020174988906 -100.51183258342644 0 -100.51183258342644 -181.48589833771257 0 0 0 0 1086.569096213093 217.0457874558706 0 217.0457874558706 -447.09307603429625 0 0 0 0 -1.9452011808689296 -17.038769234671932 0 -17.038769234671932 -95.781628092574948 0 0 0 0 254.80778028810539 -213.46856719270727 0 -213.46856719270727 -168.95898290674086 0 0 0 0 142.19101187202875 -105.33918042431469 0 -105.33918042431469 -233.49803014176723 0 0 0 0 378.71943562902334 -188.77005450166689 0 -188.77005450166689 -384.79225193395177 0 0 0 0 -208.83492953333007 58.474797930794011 0 58.474797930794011 -60.968184220455441 0 0 0 0 -192.09436547717542 99.256664905449725 0 99.256664905449725 -176.75750311455704 0 0 0 0 68.114489705659253 -89.267750997583789 0 -89.267750997583789 -233.02251165645043 0 0 0 0 -27.919088828218264 -82.839214181982243 0 -82.839214181982243 -471.85949457767492 0 0 0 0 -11.035343179888969 -107.67193198608038 0 -107.67193198608038 -519.77662661485374 0 0 0 0 -150.05485551598395 -195.979016211626 0 -195.979016211626 -475.46406776929143 0 0 0 0 -133.13997615002972 -193.46099219405733 0 -193.46099219405733 -544.0346203544741 0 0 0 0 -159.04677719674055 -169.71090913520311 0 -169.71090913520311 -547.60570426742561 0 0 0 0 -285.56293026989852 -127.42519063771579 0 -127.42519063771579 -501.87318103879079 0 0 0 0 302.35052526033246 -408.1924271372045 0 -408.1924271372045 -1055.049473108862 0 0 0 0 2.565119453980607 0.41662940601221976 0 0.41662940601221976 1.8370120901277716 0 0 0 0 110.29914186421433 -355.79356898264268 0 -355.79356898264268 185.22481742307718 0 0 0 0 -39.75062270820581 399.04140752314925 0 399.04140752314925 -947.50856289298463 0 0 0 0 -341.99736906672115 230.40768977313201 0 230.40768977313201 -394.03965986642515 0 0 0 0 22.148723103571797 114.51353804770315 0 114.51353804770315 -860.93565489641333 0 0 0 0 -85.91738494737956 -105.63244967564606 0 -105.63244967564606 -356.46978290044353 0 0 0 0 -1.25749576340543 2.6192959615862179 0 2.6192959615862179 -7.0108652797517124 0 0 0 0 -145.09270352738804 -270.88089746582409 0 -270.88089746582409 -542.05138915818679 0 0 0 0 -235.75145825403251 105.89864073463104 0 105.89864073463104 -21.117312259724713 0 0 0 0 -167.37343735841193 285.83273440240282 0 285.83273440240282 -165.1534505719319 0 0 0 0 51.864448363480278 145.78238172610145 0 145.78238172610145 -86.346602570607502 0 0 0 0 46.699079186346609 103.45268003659248 0 103.45268003659248 -131.64861710881814 0 0 0 0 -77.888779887673536 117.25286489637801 0 117.25286489637801 -66.224870534544607 0 0 0 0 -20.812360632106902 0.66452202546861372 0 0.66452202546861372 30.057846235005854 0 0 0 0 67.325853900303116 33.287911384654308 0 33.287911384654308 -35.756752855653758 0 0 0 0 312.50488329038694 234.34439586129611 0 234.34439586129611 -612.45837639559613 0 0 0 0 -0.63049275670499894 -15.71267425651326 0 -15.71267425651326 -97.533836214159408 0 0 0 0 11.258657379952512 4.8877390369073126 0 4.8877390369073126 -24.065493939054818 0 0 0 0 133.92873589035707 -30.86125102619917 0 -30.86125102619917 -107.65310552494338 0 0 0 0 154.34570008556511 81.390146151832596 0 81.390146151832596 -201.09496852015945 0 0 0 0 64.170594723948398 68.975700854109164 0 68.975700854109164 -104.26908237076714 0 0 0 0 38.225392137527706 -3.0381464831407357 0 -3.0381464831407357 -114.15017618525235 0 0 0 0 -6.4682476264054571 13.806302278231215 0 13.806302278231215 -96.10604102974321 0 0 0 0 1.2731388251090197 -10.273210287225526 0 -10.273210287225526 -99.340421044983486 0 0 0 0 -2.2282045859617483 0.31743413221192895 0 0.31743413221192895 -102.89247785456246 0 0 0 0 3.5265499671770613 28.066988829609272 0 28.066988829609272 -60.856974515358161 0 0 0 0 -10.274193249241307 -5.5960211088276992 0 -5.5960211088276992 -68.524736620056501 0 0 0 0 -15.270647985676987 -10.372278109335639 0 -10.372278109335639 -95.061231049607159 0 0 0 0 -37.805819143948497 6.3514513316858938 0 6.3514513316858938 -83.160785491556453 0 0 0 0 9.0006792379310809 37.630126824974468 0 37.630126824974468 -41.791504183478537 0 0 0 0 19.610041286388423 17.560870524750499 0 17.560870524750499 -14.406019998743432 0 0 0 0 -0.97069098561223655 51.725395919922448 0 51.725395919922448 -14.292661991359637 0 0 0 0 -1.4151882165392635 57.985748040166072 0 57.985748040166072 -95.306463711251126 0 0 0 0 2.2700899662700067 18.135102508609634 0 18.135102508609634 -53.489336245562299 0 0 0 0 0.054441617397060327 10.481989715339296 0 10.481989715339296 -79.892223797178303 0 0 0 0 -0.052679792251183244 -7.384086055411899 0 -7.384086055411899 -59.053437459868292 0 0 0 0 3.5949740794112586 10.955388818867505 0 10.955388818867505 -32.105042786191916 0 0 0 0 23.49763381616458 15.174080857468653 0 15.174080857468653 -48.176178278015868 0 0 0 0 8.1349184404425614 -3.8362746904203959 0 -3.8362746904203959 -42.5972335015922 0 0 0 0 9.9773853342862822 -0.37026802866057551 0 -0.37026802866057551 -67.307324340668856 0 0 0 0 -0.91229062937600247 -5.727594061219861 0 -5.727594061219861 -62.622429322487733 0 0 0 0 -4.6694058922321346 -0.29973915033042431 0 -0.29973915033042431 -69.919261707414989 0 0 0 0 -2.4296720639837304 -13.772314789134725 0 -13.772314789134725 -77.777823665666801 0 0 0 0 -8.1520996919052777 -12.032565743535088 0 -12.032565743535088 -77.40762370221637 0 0 0 0 -2.626256033791833 -16.524384228374402 0 -16.524384228374402 -84.637043091715896 0 0 0 0 -0.5538016050686565 -10.337333241910528 0 -10.337333241910528 -84.761665653248201 0 0 0 0 2.9405393747410926 -16.818013424875971 0 -16.818013424875971 -76.181875533729908 0 0 0 0 8.9088934725336912 -1.8352515797196247 0 -1.8352515797196247 -72.530960687439801 0 0 0 0 -29.680182772788385 -15.620691184802126 0 -15.620691184802126 -83.983006054091675 0 0 0 0 -11.167423650964565 -1.4751463570364649 0 -1.4751463570364649 -82.534278348794032 0 0 0 0 -16.018735054898571 -14.813509825973597 0 -14.813509825973597 -78.135732643020674 0 0 0 0 -8.2352018809269794 -14.979390639709891 0 -14.979390639709891 -85.425544044934213 0 0 0 0 -14.421812136424251 -14.04231769987382 0 -14.04231769987382 -82.444179660866212 0 0 0 0 -20.662220803649916 -12.86067222141719 0 -12.86067222141719 -88.083014348822871 0 0 0 0 -21.021053326880292 -14.80295223540088 0 -14.80295223540088 -82.031997832520574 0 0 0 0 -15.437592746560654 -16.430707777446514 0 -16.430707777446514 -86.642121264114394 0 0 0 0 -19.651338469732764 -8.6244786199695227 0 -8.6244786199695227 -86.421394201475778 0 0 0 0 25.400096998161317 -30.957204612350324 0 -30.957204612350324 -78.512235121177582 0 0 0 0 48.988010040747668 -17.318510840268573 0 -17.318510840268573 -83.822121123688703 0 0 0 0 13.53887784144657 -30.665069701630273 0 -30.665069701630273 -76.203880951565225 0 0 0 0 -41.240599562420243 -3.9356462493524305 0 -3.9356462493524305 -84.207429902730837 0 0 0 0 -0.41887591478534525 -9.2222334748841011 0 -9.2222334748841011 -90.974032713357389 0 0 0 0 78.664775184576115 -36.06178129863838 0 -36.06178129863838 -92.867625534352555 0 0 0 0 -0.4187319234511947 -9.0551971666822837 0 -9.0551971666822837 -95.604972510675623 0 0 0 0 102.3571755421312 -32.160929821960053 0 -32.160929821960053 -114.74017355138494 0 0 0 0 51.815992898416198 -20.945982578501571 0 -20.945982578501571 -78.321124151989352 0 0 0 0 49.222668820405303 -30.593886163434036 0 -30.593886163434036 -106.73713971444522 0 0 0 0 32.052915090357033 -17.953726183462095 0 -17.953726183462095 -96.071009153034538 0 0 0 0 49.771394239787071 -48.807906204652681 0 -48.807906204652681 -115.91140140380958 0 0 0 0 -1.301728783856575 -7.9417861380170507 0 -7.9417861380170507 -122.04161896015648 0 0 0 0 19.272282298664464 -41.120018216872268 0 -41.120018216872268 -137.8573901238924 0 0 0 0 -0.029980506138235781 -32.377054652970401 0 -32.377054652970401 -94.083745343265036 0 0 0 0 13.182718753945942 -24.42926833970705 0 -24.42926833970705 -89.768795460346155 0 0 0 0 9.0000524176895382 -41.786317076108389 0 -41.786317076108389 -98.479465858505137 0 0 0 0 0.064401137998557012 -25.951415124196501 0 -25.951415124196501 -84.006288634562225 0 0 0 0 22.879656800722184 -42.494339349010261 0 -42.494339349010261 -102.69572061192957 0 0 0 0 -4.6539318887313001 -44.801420058647636 0 -44.801420058647636 -87.027934870224271 0 0 0 0 20.132384749355175 -24.126753065442244 0 -24.126753065442244 -80.605310604703845 0 0 0 0 7.7882835541620477 -43.005040281919719 0 -43.005040281919719 -108.1797181214788 0 0 0 0 -4.7922572315372207 -70.726257326205086 0 -70.726257326205086 -128.86039220745442 0 0 0 0 -14.0552626400072 -27.404825202982465 0 -27.404825202982465 -117.62873090854555 0 0 0 0 -26.216245946531856 -60.273440278520866 0 -60.273440278520866 -115.86972032117046 0 0 0 0 3.6015140071021725 -63.427243244385863 0 -63.427243244385863 -125.42319549634703 0 0 0 0 1.3487089024053966 -0.20955100228815127 0 -0.20955100228815127 2.6332565287201675 0 0 0 0 -0.25234985815300204 55.160505475621903 0 55.160505475621903 -304.26567599701229 0 0 0 0 -19.246282863179317 -18.009666435456893 0 -18.009666435456893 -77.276120927781449 0 0 0 0 0.27173559899374999 -6.9317606680000203 0 -6.9317606680000203 -87.081553648807585 0 0 0 0 -30.631954305910767 -12.733290893338562 0 -12.733290893338562 -70.803755099103 0 0 0 0 65.733205677762925 -20.096625691614463 0 -20.096625691614463 -90.672319974946731 0 0 0 0 10.086161129641603 -26.116250333804601 0 -26.116250333804601 -63.622182238686946 0 0 0 0 19.170662449469571 -54.983123672423972 0 -54.983123672423972 -121.67482867066428 0 0 0 0 13.937319430571861 -40.71121243925154 0 -40.71121243925154 -111.36109078150184 0 0 0 0 8.8479827843889325 -17.632263604134096 0 -17.632263604134096 -100.665672242445 0 0 0 0 -2.8539274738675338 -14.507116065380206 0 -14.507116065380206 -79.155613613822453 0 0 0 0 -35.840490170017347 -10.982349842306576 0 -10.982349842306576 -71.178081406289493 0 0 0 0 -7.1083329096925265 -24.856235786336839 0 -24.856235786336839 -46.029232688286754 0 0 0 0 -6.0494925329530815 -20.79874414367805 0 -20.79874414367805 -180.16347261571627 0 0 0 0 -8.8965095202729572 -43.379694604744145 0 -43.379694604744145 -183.15288358851285 0 0 0 0 -89.150377516472872 32.858932154587819 0 32.858932154587819 35.316523659988889 0 0 0 0 -6.9038893163350323 -4.9468238052740503 0 -4.9468238052740503 -35.246789934553703 0 0 0 0 11.19223287723571 -43.71044312142476 0 -43.71044312142476 -190.64318453778105 0 0 0 0 23.310509755799352 -50.026020463712484 0 -50.026020463712484 -153.50031614933687 0 0 0 0 2.8566400950531028 -7.5363860416414497 0 -7.5363860416414497 -31.485704611177937 0 0 0 0 -8.7089600448594702 -25.135794626309277 0 -25.135794626309277 -45.941345517001864 0 0 0 0 -0.77814347263802119 -18.350318580669409 0 -18.350318580669409 -67.715321525247418 0 0 0 0 -6.4523200112941606 -21.494640721681286 0 -21.494640721681286 -73.71207834756278 0 0 0 0 -10.466342451187529 -8.890866253308559 0 -8.890866253308559 -73.793389644459239 0 0 0 0 2.3164172005185719 -52.786186653745972 0 -52.786186653745972 -119.02381304671871 0 0 0 0 -15.966583952937071 -34.248175802216792 0 -34.248175802216792 -131.12338675878709 0 0 0 0 -0.0048987282385253702 9.3205096825513465 0 9.3205096825513465 1.5762802196113626 0 0 0 0 -104.54482876870915 -112.38693093607253 0 -112.38693093607253 -198.96277470877249 0 0 0 0 100.69462952085925 -403.87966123961087 0 -403.87966123961087 -81.496129717241274 0 0 0 0 -0.7570173947651635 0.37579396505171303 0 0.37579396505171303 -0.90047208117681521 0 0 0 0 -19.898386108187651 -11.533760068996344 0 -11.533760068996344 -133.40369935629133 0 0 0 0 -40.20605160769469 -22.879639109058189 0 -22.879639109058189 -78.962682468627463 0 0 0 0 -15.703990784140274 -47.254857500098296 0 -47.254857500098296 -113.04583826737144 0 0 0 0 47.576314588209783 45.199563896912878 0 45.199563896912878 -17.678257225874404 0 0 0 0 -4.3407600000891762 -6.131423864964745 0 -6.131423864964745 -76.619703515425499 0 0 0 0 3.5457807360929028 12.15578478453326 0 12.15578478453326 -51.323891412181695 0 0 0 0 3.910642877788991 -1.8739833083210016 0 -1.8739833083210016 -9.3224881610885291 0 0 0 0 -9.7633022212330616 -25.128507821136239 0 -25.128507821136239 -28.399420193150377 0 0 0 0 -8.5877648322812092 -3.617263289699622 0 -3.617263289699622 -77.918084652963444 0 0 0 0 -31.441882095354231 -61.920024674880551 0 -61.920024674880551 -56.802981586508395 0 0 0 0 19.12452553570624 21.670342640754825 0 21.670342640754825 -15.74294532386557 0 0 0 0 29.599062037503884 8.5871517524210503 0 8.5871517524210503 -34.139986484311521 0 0 0 0 -1.581766158698704 -5.2695403744782396 0 -5.2695403744782396 -11.195961760441577 0 0 0 0 17.974859377664803 18.66676181432922 0 18.66676181432922 -15.490625574384467 0 0 0 0 0.1064246719245541 36.40608296224309 0 36.40608296224309 -21.72657789682853 0 0 0 0 16.284868962435098 23.090065155276534 0 23.090065155276534 -61.249926823373244 0 0 0 0 59.703022319336981 81.960328871895399 0 81.960328871895399 -68.97753511609335 0 0 0 0 6.8802458381227893 31.933877576706436 0 31.933877576706436 -22.807951731447247 0 0 0 0 30.827034350395849 56.516240688146354 0 56.516240688146354 -21.467301766824676 0 0 0 0 3.1138038719103784 -1.4595640603292637 0 -1.4595640603292637 -83.706411499217069 0 0 0 0 19.586647893443569 -6.0970214253957238 0 -6.0970214253957238 -128.7043565756212 0 0 0 0 16.172076881152179 5.4356917328514101 0 5.4356917328514101 -61.612719044711412 0 0 0 0 -6.2511378459191178 -11.392695390388326 0 -11.392695390388326 -72.50019684623112 0 0 0 0 -45.264001944681013 32.728234095774724 0 32.728234095774724 -159.16975824897236 0 0 0 0 -49.747030585742323 5.9434025138853031 0 5.9434025138853031 -63.478106116339404 0 0 0 0 -103.21630541584273 -10.885818243048561 0 -10.885818243048561 -106.25605111416371 0 0 0 0 4.5915644251474408 6.2762413760520914 0 6.2762413760520914 -57.940575817632322 0 0 0 0 26.649534763915298 177.25696281611727 0 177.25696281611727 -111.58485876288614 0 0 0 0 4.1214413835934902 13.826933351948927 0 13.826933351948927 -14.594725476074132 0 0 0 0 10.924315279945496 21.764770216339826 0 21.764770216339826 -115.00583909753303 0 0 0 0 -83.354189782994581 81.902344491049007 0 81.902344491049007 -242.65144354700533 0 0 0 0 -108.62801138998861 11.792344538947418 0 11.792344538947418 -168.93824102047074 0 0 0 0 12.30185928403619 27.127872904637769 0 27.127872904637769 -111.54147912478028 0 0 0 0 97.826655176264467 242.17853437759732 0 242.17853437759732 -444.5596114251166 0 0 0 0 -1.0667837789163612 -3.3601171369571503 0 -3.3601171369571503 -2.8415609231840619 0 0 0 0 5.3796480502071518 26.427848905346764 0 26.427848905346764 -85.663711318360583 0 0 0 0 -239.29061277007784 395.37743682498785 0 395.37743682498785 -634.43762731249444 0 0 0 0 -10.977413619924818 47.941646520090217 0 47.941646520090217 -885.78699283192691 0 0 0 0 148.21731599235829 -292.50097097235266 0 -292.50097097235266 -257.0990928890642 0 0 0 0 -199.94722273529169 -211.17028778766689 0 -211.17028778766689 -255.40031944998145 0 0 0 0 -0.3400569358956837 47.662427149403811 0 47.662427149403811 -80.686548422858323 0 0 0 0 -40.206406806874185 -66.61617640991517 0 -66.61617640991517 -270.59630738364649 0 0 0 0 186.27333553088954 63.626065076459781 0 63.626065076459781 -84.415429476854115 0 0 0 0 -41.220432739874724 152.76232238997181 0 152.76232238997181 -35.467905171484745 0 0 0 0 -11.230017904019405 22.059577731339232 0 22.059577731339232 -126.70368064731883 0 0 0 0 3.994536655177626 24.104970914680052 0 24.104970914680052 -165.34063209933993 0 0 0 0 24.01797142976875 1.6149368367514398 0 1.6149368367514398 -188.4895659473259 0 0 0 0 11.877863451765961 32.462178846597453 0 32.462178846597453 -212.67225137862624 0 0 0 0 14.041760689592593 21.119094058001792 0 21.119094058001792 -164.66095323125046 0 0 0 0 -28.686596058142186 17.189528125785728 0 17.189528125785728 -178.54540997368895 0 0 0 0 -94.431513413921039 -11.044593764296224 0 -11.044593764296224 -177.28484683911938 0 0 0 0 -81.231933035508519 51.265332928132921 0 51.265332928132921 -193.07768753770506 0 0 0 0 -1.2044507618071165 0.12425397259203663 0 0.12425397259203663 -0.18210143329936912 0 0 0 0 -60.825739701143902 -5.5762043470676872 0 -5.5762043470676872 -164.23428122083351 0 0 0 0 15.467885293489417 43.397046718560887 0 43.397046718560887 -173.98196067070376 0 0 0 0 -50.336350681649265 40.379181816193068 0 40.379181816193068 -116.94040057580787 0 0 0 0 -2.8135467527092253 -0.12659168356302786 0 -0.12659168356302786 -0.21150597544992422 0 0 0 0 -91.702259978360416 106.63053351428744 0 106.63053351428744 -177.39889194701391 0 0 0 0 -33.092066360283752 54.103636695606838 0 54.103636695606838 -137.25636029024099 0 0 0 0 -24.612374033203196 15.212403041819925 0 15.212403041819925 -187.99664366079293 0 0 0 0 -28.52215933399475 61.395518732039818 0 61.395518732039818 -187.08125521232796 0 0 0 0 -42.993285866136375 91.008655827074108 0 91.008655827074108 -216.65268942907278 0 0 0 0 -3.1522074212599449 -0.26277240378162503 0 -0.26277240378162503 -0.23650803909314178 0 0 0 0 -9.0811892174301647 11.019057490160776 0 11.019057490160776 -122.26647260899426 0 0 0 0 -11.616077411278184 25.107396930363393 0 25.107396930363393 -137.5625632766496 0 0 0 0 -39.488679196503199 -30.644981664574516 0 -30.644981664574516 -235.6842421588226 0 0 0 0 22.848071603957806 50.982342801268715 0 50.982342801268715 -293.4823400080495 0 0 0 0 28.920945777318366 28.532833283718901 0 28.532833283718901 -220.23922391071392 0 0 0 0 -59.749189884017369 -17.777521432183448 0 -17.777521432183448 -105.20281082758447 0 0 0 0 -0.94137432595902482 0.69584791510312982 0 0.69584791510312982 -0.77273680806558076 0 0 0 0 -81.090273716337379 84.119771128905995 0 84.119771128905995 -195.77092575438655 0 0 0 0 -3.3093775818901321 54.092272151086433 0 54.092272151086433 -210.58648481236742 0 0 0 0 -2.2047917184099788 3.6068952418099798 0 3.6068952418099798 -127.53194247512874 0 0 0 0 -3.3621111984674119 1.5411895619980811 0 1.5411895619980811 0.9665948171942631 0 0 0 0 -17.682595920570748 -21.808292393416195 0 -21.808292393416195 -208.48655896259879 0 0 0 0 -29.12869904064155 15.097424538940686 0 15.097424538940686 -139.95989085776091 0 0 0 0 -20.964579656223577 -40.437914369773353 0 -40.437914369773353 -138.74877401791912 0 0 0 0 -7.061884317703516 5.4644238441651396 0 5.4644238441651396 -184.19729017105419 0 0 0 0 -3.8846032956107592 0.81727678839524742 0 0.81727678839524742 -366.0564081753364 0 0 0 0 -0.76436485309477575 -12.387034923835017 0 -12.387034923835017 -123.03883348563613 0 0 0 0 -7.8491572919340342 -27.905301255732411 0 -27.905301255732411 -113.2245564909681 0 0 0 0 -0.025009597267853678 -13.82097938228253 0 -13.82097938228253 -104.06566726891469 0 0 0 0 -5.9000122023862787 -24.856330136288307 0 -24.856330136288307 -84.177337682849611 0 0 0 0 0.56495992075906543 -33.104491494168542 0 -33.104491494168542 -134.73654048822209 0 0 0 0 6.7905390003861612 -22.255321677654138 0 -22.255321677654138 -158.66031701739848 0 0 0 0 -7.1480868335947889 -9.8336427843241836 0 -9.8336427843241836 -118.68789900882621 0 0 0 0 -19.418229515805251 -8.6175629833214771 0 -8.6175629833214771 -68.070421344913484 0 0 0 0 4.9293932525451964 8.1006077358761104 0 8.1006077358761104 -133.37955600920122 0 0 0 0 -32.918487575669133 -32.166008509746462 0 -32.166008509746462 -129.33924187935827 0 0 0 0 32.488809233752932 -70.038861779157742 0 -70.038861779157742 -186.19752229526785 0 0 0 0 -0.087602091935011117 -0.91866321800611672 0 -0.91866321800611672 -9.1264814575140534 0 0 0 0 -20.785528163170056 1.7196089152130298 0 1.7196089152130298 -78.528949971943803 0 0 0 0 -14.108204049372034 -36.705428011875483 0 -36.705428011875483 -64.226053482146199 0 0 0 0 -5.6617266138455093 -28.092814789584494 0 -28.092814789584494 -17.627042569843312 0 0 0 0 -29.026503809768201 -0.15180266890820349 0 -0.15180266890820349 -77.391240220444161 0 0 0 0 -36.04792449011984 -5.0592819834710099 0 -5.0592819834710099 -74.525902636197316 0 0 0 0 -14.914571720836648 -2.4200507988862228 0 -2.4200507988862228 -78.307804452910204 0 0 0 0 -15.053226673625431 -4.0032521370449103 0 -4.0032521370449103 -89.292328559873567 0 0 0 0 -7.7156054491479154 -16.160623875402962 0 -16.160623875402962 -92.916390785903786 0 0 0 0 -18.07260164601098 -22.416713183690263 0 -22.416713183690263 -48.477402975400764 0 0 0 0 2.0265743671652672 5.8610054224409396 0 5.8610054224409396 -84.234890779065609 0 0 0 0 -10.58861258730667 -17.391843157391122 0 -17.391843157391122 -96.597736599273048 0 0 0 0 -2.7976222853522383 1.0158531525319461 0 1.0158531525319461 7.9988697711187342 0 0 0 0 6.0978689007131379 -9.6689716135242634 0 -9.6689716135242634 -121.67029067216208 0 0 0 0 5.1857659104807681 -33.469122261019947 0 -33.469122261019947 -90.310658373287879 0 0 0 0 9.507926595580102 -24.168317760468199 0 -24.168317760468199 -98.878996565079433 0 0 0 0 -11.515994139497252 -15.272705184259394 0 -15.272705184259394 -88.57952663017204 0 0 0 0 -11.367336562047967 -13.770077389090147 0 -13.770077389090147 -87.453743425568973 0 0 0 0 -8.8837696858092841 -15.010157073153096 0 -15.010157073153096 -86.86408963764552 0 0 0 0 -12.109313363194815 -16.499013300068327 0 -16.499013300068327 -83.802834271718893 0 0 0 0 -15.81681795462373 -14.474016064050375 0 -14.474016064050375 -84.638578850237536 0 0 0 0 -11.367539495766323 -13.780308681198221 0 -13.780308681198221 -86.203119589874404 0 0 0 0 -7.9437897644729674 -12.59718939299637 0 -12.59718939299637 -88.199003329267725 0 0 0 0 -11.33176541358398 -8.1226904211944202 0 -8.1226904211944202 -86.840482653598883 0 0 0 0 -23.381838710140983 -7.2257994111787411 0 -7.2257994111787411 -81.035382419198868 0 0 0 0 -17.484596169918404 -9.5419433936804126 0 -9.5419433936804126 -82.366686439039768 0 0 0 0 -16.058090515275723 -12.468042851030987 0 -12.468042851030987 -81.798831153340871 0 0 0 0 -23.320666018436896 -7.923177229007706 0 -7.923177229007706 -74.24128062003274 0 0 0 0 -12.000893191798241 -16.391197250395635 0 -16.391197250395635 -42.867890166184225 0 0 0 0 -2.5071190490630215 4.8483420293250674 0 4.8483420293250674 -126.3144173702658 0 0 0 0 -2.9753321646947981 -27.472817805474918 0 -27.472817805474918 -18.268639364034374 0 0 0 0 -16.146647834182659 -42.677091216408371 0 -42.677091216408371 -88.251017693861286 0 0 0 0 -7.7650199803508713 -12.587375739283743 0 -12.587375739283743 -91.615197778948641 0 0 0 0 -3.7675235253964274 -14.921799319599813 0 -14.921799319599813 -90.251991488403291 0 0 0 0 -4.8976080090587857 -13.856531316288965 0 -13.856531316288965 -86.100697579793632 0 0 0 0 -9.0917841791033425 -14.544381592831996 0 -14.544381592831996 -85.060906859973329 0 0 0 0 4.1549435740889749 -7.3502941414662928 0 -7.3502941414662928 -103.26076646567526 0 0 0 0 1.1985785642744542 -26.988593868635157 0 -26.988593868635157 -11.496115731529557 0 0 0 0 1.0459141996125254 -16.561103742707928 0 -16.561103742707928 -85.349548553695058 0 0 0 0 28.111364203037283 -14.521489555841981 0 -14.521489555841981 -148.21993656806444 0 0 0 0 14.442996122457885 8.184475424617176 0 8.184475424617176 -114.0252747630293 0 0 0 0 -0.72562654522951364 -5.6622507281527756 0 -5.6622507281527756 1.0055818756488151 0 0 0 0 13.656191201647744 3.4663743488454202 0 3.4663743488454202 -97.260967012640322 0 0 0 0 5.3016624569303907 -23.794734454881457 0 -23.794734454881457 -17.026907598451935 0 0 0 0 -31.000595117597186 -52.589075285066428 0 -52.589075285066428 -27.706148955343451 0 0 0 0 -0.0048467461086438846 1.3605921225202948 0 1.3605921225202948 -26.95287424415433 0 0 0 0 435.06482012919651 -51.61952034685055 0 -51.61952034685055 -41.868121642664846 0 0 0 0 -1.2025487415030707 5.5868592989825387 0 5.5868592989825387 -16.550065541086497 0 0 0 0 -12.99705282161176 -8.7670924058875244 0 -8.7670924058875244 2.319950434140992 0 0 0 0 350.07441721726991 -146.88024795250749 0 -146.88024795250749 71.859600816576858 0 0 0 0 2.3994492660156084 0.59520637689700351 0 0.59520637689700351 -6.6432927749404271 0 0 0 0 331.12318015962137 -197.69164724440998 0 -197.69164724440998 -63.593554250277521 0 0 0 0 428.90394862928133 -80.349729155370369 0 -80.349729155370369 -157.29769483698328 0 0 0 0 36.482893582418001 -99.544436297259381 0 -99.544436297259381 173.30871079983626 0 0 0 0 5.1793427650108015 -8.1974875230639555 0 -8.1974875230639555 -58.383735008057556 0 0 0 0 -8.4262124754172874 6.9545746879739454 0 6.9545746879739454 -53.65663755962305 0 0 0 0 -51.390803773616426 -9.8873159344329906 0 -9.8873159344329906 -19.099387841037242 0 0 0 0 -49.427513834562887 -74.890959498399752 0 -74.890959498399752 -122.05584695025027 0 0 0 0 -123.38560179977958 -155.50189149513972 0 -155.50189149513972 -154.17949837000197 0 0 0 0 27.333839858169995 -77.480860420801037 0 -77.480860420801037 -464.45459990436939 0 0 0 0 28.412075976680967 -61.707831266158564 0 -61.707831266158564 -236.42649270893889 0 0 0 0 -144.35193027640787 -239.15035625935752 0 -239.15035625935752 -477.6471108452206 0 0 0 0 113.44013167858066 610.25336293540022 0 610.25336293540022 -377.59362401842372 0 0 0 0 -1.2121011392060801 2.9511435153349659 0 2.9511435153349659 -6.4316666122768282 0 0 0 0 -32.670538809534264 648.65381310054363 0 648.65381310054363 -77.052358787956109 0 0 0 0 52.781639862770135 680.72183491590386 0 680.72183491590386 -873.66486892523972 0 0 0 0 -244.25242842830494 305.79230583629032 0 305.79230583629032 -385.61147670899663 0 0 0 0 9.1351772812313357 56.250438151444541 0 56.250438151444541 -766.8397862883885 0 0 0 0 25.117411349359827 23.659339999665463 0 23.659339999665463 -309.86902635541628 0 0 0 0 8.9598627376444711 53.618545634602924 0 53.618545634602924 -352.97415489432024 0 0 0 0 53.739141668133016 22.719946843759317 0 22.719946843759317 -331.85669090812735 0 0 0 0 53.586190954863014 22.179433847781183 0 22.179433847781183 -229.60081721931783 0 0 0 0 44.48289868545271 36.281823466455535 0 36.281823466455535 -247.07610651450705 0 0 0 0 21.357036490873725 2.3434802968913573 0 2.3434802968913573 -141.39374469511222 0 0 0 0 27.485193675572646 13.397453277971636 0 13.397453277971636 -232.40549169312726 0 0 0 0 7.0348402131230614 -37.177554813766619 0 -37.177554813766619 -140.64808599576645 0 0 0 0 8.1422647706172029 -49.3867593687919 0 -49.3867593687919 -220.77387785872997 0 0 0 0 54.938219146032679 264.46512786111998 0 264.46512786111998 -292.50072429757347 0 0 0 0 146.80271955234539 274.57442568082791 0 274.57442568082791 -593.80091000558605 0 0 0 0 -73.805851289826251 399.76995281081963 0 399.76995281081963 -432.29220002596958 0 0 0 0 -37.345006291875507 170.84587116893272 0 170.84587116893272 -165.49543826687432 0 0 0 0 143.36565062988916 175.8175040883591 0 175.8175040883591 -370.66089997345989 0 0 0 0 77.079556265742212 244.03879751680324 0 244.03879751680324 -396.64627808318346 0 0 0 0 8.9871132691519051 387.4107522393324 0 387.4107522393324 -600.19669518498267 0 0 0 0 -340.24242835146833 250.04227812502722 0 250.04227812502722 -227.60294049781078 0 0 0 0 -117.23670997528461 78.596554181023748 0 78.596554181023748 -5.6975985085391585 0 0 0 0 8.9023268675377949 116.25269944265619 0 116.25269944265619 -203.25566340631485 0 0 0 0 103.88331241063315 45.059664154163329 0 45.059664154163329 112.4829292095701 0 0 0 0 55.192564387898074 -66.784069511179041 0 -66.784069511179041 -141.23663553470396 0 0 0 0 72.894061875102807 114.59163529574039 0 114.59163529574039 -454.62953903656307 0 0 0 0 -146.68638898889253 25.458401890303321 0 25.458401890303321 -582.23123945774569 0 0 0 0 -187.86317460387727 121.16376130937715 0 121.16376130937715 -36.279122572957931 0 0 0 0 -250.43781912232771 512.64488871381764 0 512.64488871381764 -794.65887773143186 0 0 0 0 -41.160608223339295 366.30078612100442 0 366.30078612100442 -870.59329093626002 0 0 0 0 -81.341256323985363 364.55666604939688 0 364.55666604939688 -248.40976890836828 0 0 0 0 -32.545813637549372 682.6161931978304 0 682.6161931978304 392.75402193069385 0 0 0 0 53.828012234245762 484.22993953368859 0 484.22993953368859 -1101.6000635519667 0 0 0 0 -0.39624644702042566 1.0221935538724694 0 1.0221935538724694 -2.598751828621193 0 0 0 0 -312.44014028758102 370.1039006985884 0 370.1039006985884 -853.79703509817227 0 0 0 0 282.75186004366788 -75.572682319829255 0 -75.572682319829255 -179.31593900659573 0 0 0 0 -323.26667038121059 126.16529135944438 0 126.16529135944438 48.199549278215272 0 0 0 0 23.063240124366075 -14.309873646002416 0 -14.309873646002416 -38.065628282805847 0 0 0 0 -10.417020269751902 -3.9777810430505269 0 -3.9777810430505269 11.754363378815469 0 0 0 0 1.2050865478160722 1.3036879702952655 0 1.3036879702952655 -13.478290288588582 0 0 0 0 0.45555914326540936 1.6145302900177612 0 1.6145302900177612 -2.7546520508257792 0 0 0 0 85.509804470545532 -161.84745322483468 0 -161.84745322483468 -565.68593392805963 0 0 0 0 0.43896641016509541 1.4221108608936119 0 1.4221108608936119 -3.9616534530523353 0 0 0 0 -487.63467094463067 474.81184200907956 0 474.81184200907956 -761.71553847376708 0 0 0 0 79.314196205916232 31.738424579305502 0 31.738424579305502 -316.9314001346695 0 0 0 0 13.003775716118071 100.9904100220283 0 100.9904100220283 -134.21452963169213 0 0 0 0 3.8549883654645782 -19.503968002078182 0 -19.503968002078182 -67.683456629536522 0 0 0 0 -49.0063911517409 43.866503777047456 0 43.866503777047456 -7.7066252077493118 0 0 0 0 -74.705660309192808 -23.916932249561796 0 -23.916932249561796 -117.09852660225624 0 0 0 0 -63.262469575649902 183.165419369765 0 183.165419369765 71.674944647362281 0 0 0 0 -2.4764307683867059 1.4425282360007614 0 1.4425282360007614 0.11089373627063903 0 0 0 0 -116.66673380432826 122.0501262348389 0 122.0501262348389 -54.700377186356491 0 0 0 0 -67.393055507122426 144.78241467699445 0 144.78241467699445 -207.9329285271815 0 0 0 0 -148.16739276034059 155.08645037540555 0 155.08645037540555 -86.076998941844067 0 0 0 0 -32.123582638259222 75.764200739488842 0 75.764200739488842 -89.334531819986296 0 0 0 0 -44.826371745713004 66.63507203196059 0 66.63507203196059 -74.973605861637225 0 0 0 0 -112.7861034128 125.18646511004044 0 125.18646511004044 -82.619130178596379 0 0 0 0 -72.781623995154405 23.66988359750394 0 23.66988359750394 -10.720212341395381 0 0 0 0 -85.784113219145638 93.887054434448146 0 93.887054434448146 -54.596170671591608 0 0 0 0 1.9737064772111808 20.29146823863266 0 20.29146823863266 -56.372509637720214 0 0 0 0 -30.219167202061271 27.667565800174998 0 27.667565800174998 -1.459322618535225 0 0 0 0 -17.330283627492463 34.683738185115544 0 34.683738185115544 -64.027778387539001 0 0 0 0 0.6270286004918546 -0.26196091368412588 0 -0.26196091368412588 -13.589636858446283 0 0 0 0 233.99169130364169 -150.3674112499375 0 -150.3674112499375 -80.50767323373293 0 0 0 0 0.21348634789297449 -0.32870640490430159 0 -0.32870640490430159 -10.238032745657819 0 0 0 0 125.7228342108458 -68.935126693420443 0 -68.935126693420443 -21.689598698638292 0 0 0 0 -112.21278565769387 90.291420729741276 0 90.291420729741276 -75.654455566305842 0 0 0 0 -0.12825130549805319 -0.13426351228088684 0 -0.13426351228088684 -3.9371516262345807 0 0 0 0 -117.66826249510268 72.423023898858446 0 72.423023898858446 -99.692722413519732 0 0 0 0 -88.406740842252475 81.498051171856787 0 81.498051171856787 -84.963691695345915 0 0 0 0 -124.42674637709797 135.37753214994109 0 135.37753214994109 -116.16709614468709 0 0 0 0 0.20978025512543574 0.23365100414254414 0 0.23365100414254414 -0.43053307374002259 0 0 0 0 -47.624024219392595 81.821349460598867 0 81.821349460598867 -155.67291610072789 0 0 0 0 -45.402288797642768 68.279124089975539 0 68.279124089975539 -92.250098336295196 0 0 0 0 -23.792798409915576 44.716698242291386 0 44.716698242291386 -82.118592587932653 0 0 0 0 0.12908571423308679 0.23494701651626571 0 0.23494701651626571 -0.085129623606960081 0 0 0 0 -41.142995208581851 31.797839484557699 0 31.797839484557699 -102.58252659739992 0 0 0 0 8.8998681126245174 24.926453026182571 0 24.926453026182571 -250.1595428045548 0 0 0 0 18.548107803775565 62.103189922314414 0 62.103189922314414 -165.02554710242111 0 0 0 0 -2.6178696214221198 -0.02579342854780009 0 -0.02579342854780009 -0.18856738872887036 0 0 0 0 -1.1144463477467088 0.08985077334685343 0 0.08985077334685343 -0.11889186407456265 0 0 0 0 37.642888770541049 85.137583964859004 0 85.137583964859004 -303.36081140906867 0 0 0 0 -161.65385580810107 93.514522968762321 0 93.514522968762321 -2.0303363852544862 0 0 0 0 -140.49398286302153 41.959711156093363 0 41.959711156093363 48.29614839698479 0 0 0 0 -40.789819867690312 44.309547229394411 0 44.309547229394411 -57.190230856453127 0 0 0 0 -67.156504690940892 102.53233092365736 0 102.53233092365736 -163.1885214613967 0 0 0 0 -66.9827019978311 -25.863548489789537 0 -25.863548489789537 -68.682448603383818 0 0 0 0 -8.2409388322216728 -195.29454263712796 0 -195.29454263712796 -187.34544120436294 0 0 0 0 -71.222033092280981 -13.84610597198116 0 -13.84610597198116 28.522767275035221 0 0 0 0 -29.856511020979269 -33.435846776623293 0 -33.435846776623293 -185.10283382630223 0 0 0 0 -69.9314487681673 -49.500698589874048 0 -49.500698589874048 -115.65660666446638 0 0 0 0 -25.796458761821214 -11.235776261227329 0 -11.235776261227329 -125.31457559657429 0 0 0 0 -7.003416604310587 17.069006360939056 0 17.069006360939056 -120.55798293011685 0 0 0 0 -22.997298127590284 -16.465281267351202 0 -16.465281267351202 -154.81029842232965 0 0 0 0 7.5453027606363321 -6.0431798581357725 0 -6.0431798581357725 -184.91957287384503 0 0 0 0 12.500554602102966 -9.1512491199096075 0 -9.1512491199096075 -223.08817552026449 0 0 0 0 13.028777888313584 -5.2486168919670035 0 -5.2486168919670035 -194.27835535753184 0 0 0 0 -12.485524495791651 20.052021817591594 0 20.052021817591594 -192.90263837852217 0 0 0 0 -11.492622350354395 21.712058705506934 0 21.712058705506934 -226.46006977181969 0 0 0 0 -19.490252971688278 24.244651442864779 0 24.244651442864779 -223.0495596554465 0 0 0 0 -3.4344922815016616 -17.799978423274297 0 -17.799978423274297 -196.00250056941877 0 0 0 0 -3.862313200996482 -24.258009452966689 0 -24.258009452966689 -262.16954324061226 0 0 0 0 -34.963001102009002 -32.662086648359036 0 -32.662086648359036 -185.04474656579032 0 0 0 0 41.330920261713345 -66.603654305471537 0 -66.603654305471537 -430.01803682380705 0 0 0 0 -283.76256334710342 94.927250403350627 0 94.927250403350627 -232.69411937237601 0 0 0 0 -107.93552879377194 132.18821501104685 0 132.18821501104685 -373.87668044012389 0 0 0 0 -15.010991251338965 47.784933546938191 0 47.784933546938191 -297.35615666941885 0 0 0 0 -119.7923152537187 92.664807586996176 0 92.664807586996176 -224.20876754117126 0 0 0 0 -49.40703002218379 52.756055863774236 0 52.756055863774236 -201.59077334693393 0 0 0 0 -154.68778399680559 56.414280816585233 0 56.414280816585233 -185.49536650015216 0 0 0 0 -128.11136677982472 41.721108713292324 0 41.721108713292324 -216.06233744342535 0 0 0 0 -107.87292482849625 35.252431495362544 0 35.252431495362544 -149.28126755238554 0 0 0 0 -85.356441613347215 27.310949509002967 0 27.310949509002967 -174.00087384982908 0 0 0 0 -104.6122817919163 62.278727730576975 0 62.278727730576975 -171.55730029923143 0 0 0 0 -56.692302387307791 45.620574268505152 0 45.620574268505152 -167.2191006922676 0 0 0 0 -69.463661368970861 69.120117511654826 0 69.120117511654826 -180.24422748041252 0 0 0 0 -36.809998322341926 16.685438907390562 0 16.685438907390562 -231.80005927244929 0 0 0 0 -17.661309317360519 61.020666989687015 0 61.020666989687015 -132.32611855795403 0 0 0 0 -11.107776075919787 13.139580936804578 0 13.139580936804578 -171.00068183591065 0 0 0 0 -15.078413371903821 32.114123147006921 0 32.114123147006921 -210.3368563928525 0 0 0 0 -44.807550651869292 64.910311433573952 0 64.910311433573952 -214.71757248778158 0 0 0 0 -29.429891655179745 38.164161264299764 0 38.164161264299764 -171.49153035277686 0 0 0 0 -20.100132854034655 6.8975478110896802 0 6.8975478110896802 -200.98194856924965 0 0 0 0 -3.920484084974305 21.813311338595668 0 21.813311338595668 -187.60238613251977 0 0 0 0 -11.125288084179374 42.871435177389685 0 42.871435177389685 -146.1325893578105 0 0 0 0 -14.632563109516241 60.6608279095135 0 60.6608279095135 -212.72097363818466 0 0 0 0 -53.116312718169866 70.969290928569535 0 70.969290928569535 -154.83340303893897 0 0 0 0 -37.559355831584526 24.928979998316208 0 24.928979998316208 -218.78099484316044 0 0 0 0 -34.298149440439374 -21.343785869834392 0 -21.343785869834392 -224.07876779448179 0 0 0 0 -132.81204533273922 6.665437132191073 0 6.665437132191073 -236.03689349437263 0 0 0 0 -68.501731989459131 -31.479505545619759 0 -31.479505545619759 -308.35461677865896 0 0 0 0 -181.11263872798827 124.43974585174328 0 124.43974585174328 -137.0179764782788 0 0 0 0 -72.858840768557911 151.74602987600701 0 151.74602987600701 -324.6917770480577 0 0 0 0 -263.01273004476639 281.38027864319974 0 281.38027864319974 -435.77656339868554 0 0 0 0 -223.81355478726755 -105.90715819965953 0 -105.90715819965953 -374.32142513781764 0 0 0 0 -179.70082295402972 -28.437458118294671 0 -28.437458118294671 -179.84904017495865 0 0 0 0 -100.55466379889185 -26.248621928647481 0 -26.248621928647481 -245.49056568897504 0 0 0 0 -118.60677118446802 -9.012615353522051 0 -9.012615353522051 -144.49997889638507 0 0 0 0 -92.740971138598638 12.251362532198982 0 12.251362532198982 -127.19607352321327 0 0 0 0 -107.89752116748787 8.1620094504651206 0 8.1620094504651206 -161.21541877689742 0 0 0 0 -74.403227447282916 -7.91303083251114 0 -7.91303083251114 -155.93077175243889 0 0 0 0 -101.01125706672337 -29.928461108876945 0 -29.928461108876945 -139.26744213607708 0 0 0 0 -115.23926811702114 -39.57002508590358 0 -39.57002508590358 -179.72442255621718 0 0 0 0 -92.439594158458021 0.010030134752014419 0 0.010030134752014419 -197.18009380799413 0 0 0 0 -82.794453417499085 -31.018404695665595 0 -31.018404695665595 -189.35501241698512 0 0 0 0 -42.400878180651489 -14.66896800772156 0 -14.66896800772156 -182.87727356204414 0 0 0 0 -77.600556305999646 -36.930068951111593 0 -36.930068951111593 -157.47661135615635 0 0 0 0 -47.37048031842005 -27.621483495990105 0 -27.621483495990105 -130.19230544314632 0 0 0 0 -41.182581537826991 -17.628608023343986 0 -17.628608023343986 -147.29196984381269 0 0 0 0 -14.722894614753471 -24.323554067624571 0 -24.323554067624571 -135.21384803393448 0 0 0 0 -14.970378531184906 -19.265419166600623 0 -19.265419166600623 -163.26305387704633 0 0 0 0 -36.200685692803518 -31.019630291891644 0 -31.019630291891644 -169.66632493068391 0 0 0 0 -20.929722183866488 2.4125291840682621 0 2.4125291840682621 -184.29396220494527 0 0 0 0 -8.7583751894726447 -9.2774121950060362 0 -9.2774121950060362 -182.29497635467624 0 0 0 0 -28.957744011201612 -37.674305331891446 0 -37.674305331891446 -76.959319311574291 0 0 0 0 -12.738318675259279 -35.819552378946355 0 -35.819552378946355 -105.73473017055221 0 0 0 0 -19.302678439095871 -24.33738391778752 0 -24.33738391778752 -92.466993193196686 0 0 0 0 -28.946628487486123 -35.782927724960246 0 -35.782927724960246 -131.72087856592043 0 0 0 0 -21.000997130530266 -24.980476285712029 0 -24.980476285712029 -117.77687766822783 0 0 0 0 -21.453206374782496 -29.276715659523688 0 -29.276715659523688 -103.44366114812146 0 0 0 0 -33.771363273644965 -36.216201542782073 0 -36.216201542782073 -102.21321975436513 0 0 0 0 -52.161502566810213 -30.20272724550523 0 -30.20272724550523 -106.26570343505955 0 0 0 0 -46.0895291212953 -18.73952295140225 0 -18.73952295140225 -118.01033585115511 0 0 0 0 -28.966365715196844 -24.359399311269954 0 -24.359399311269954 -84.509140422938799 0 0 0 0 -45.912246336702083 -33.569036084201798 0 -33.569036084201798 -89.508463780086458 0 0 0 0 -33.721891150909073 -22.667361541328631 0 -22.667361541328631 -104.14743553719745 0 0 0 0 -46.479305612429016 -26.376407820978784 0 -26.376407820978784 -84.554877275371837 0 0 0 0 -64.277706633041817 -15.640420909421664 0 -15.640420909421664 -88.862513015898003 0 0 0 0 -57.817512900008296 -8.2260553386840911 0 -8.2260553386840911 -81.391794920349639 0 0 0 0 -58.711936466916995 -7.1711793434542415 0 -7.1711793434542415 -101.59681675597676 0 0 0 0 -66.69314956668677 -27.889587270718039 0 -27.889587270718039 -97.803312030402594 0 0 0 0 -43.069375361469383 -17.499921937906947 0 -17.499921937906947 -93.300456184522773 0 0 0 0 -76.682377768556762 -35.335276670830353 0 -35.335276670830353 -126.83580701061874 0 0 0 0 -66.190066309348595 -7.9096673735330114 0 -7.9096673735330114 -125.39150634610996 0 0 0 0 -81.136668049116452 -22.073143808021996 0 -22.073143808021996 -111.42983237551744 0 0 0 0 -81.238952613140711 7.6401916667558112 0 7.6401916667558112 -101.5662638037611 0 0 0 0 -86.287646674108146 -4.565336917359673 0 -4.565336917359673 -119.63336154447461 0 0 0 0 -64.152235013754762 -0.33528518674938823 0 -0.33528518674938823 -100.48011171918915 0 0 0 0 -63.852877459663404 5.0263548268725344 0 5.0263548268725344 -90.319751521150465 0 0 0 0 -71.218892419272379 2.6422268010428525 0 2.6422268010428525 -80.175757569297275 0 0 0 0 -49.341205182567137 2.1160822130477754 0 2.1160822130477754 -80.229302506762906 0 0 0 0 -54.940714408553276 -10.601328493869005 0 -10.601328493869005 -70.781458771569305 0 0 0 0 -51.279302389219993 3.6584722476436582 0 3.6584722476436582 -75.694818488926103 0 0 0 0 -38.905139737992613 -6.8941128394835687 0 -6.8941128394835687 -71.067801220735419 0 0 0 0 -37.36158810788038 0.27442030012753094 0 0.27442030012753094 -70.498415022160771 0 0 0 0 -54.753416740839384 1.5119923608945101 0 1.5119923608945101 -69.739428995679191 0 0 0 0 -45.232863907549472 3.1422749281045981 0 3.1422749281045981 -67.723430526450102 0 0 0 0 -26.362394776024303 -0.80157800767301524 0 -0.80157800767301524 -68.415774107263132 0 0 0 0 -35.291102594042059 -6.4988225545057503 0 -6.4988225545057503 -64.271970621775836 0 0 0 0 -14.615423887862562 -8.9633988788264105 0 -8.9633988788264105 -64.244983949706921 0 0 0 0 -22.445018308887029 -7.5674660373269944 0 -7.5674660373269944 -62.125616608886048 0 0 0 0 -31.62085646599644 -13.598187675816007 0 -13.598187675816007 -59.0720769615873 0 0 0 0 -40.944310446437157 -25.889247699393309 0 -25.889247699393309 -48.235953817646077 0 0 0 0 -24.745252561478992 -29.725469601813529 0 -29.725469601813529 -69.233260185064864 0 0 0 0 -36.783347072863762 -14.01216932778334 0 -14.01216932778334 -53.32549497083528 0 0 0 0 -35.46429045970217 -7.8372284317956655 0 -7.8372284317956655 -63.885537913087319 0 0 0 0 -46.028726989862662 -7.2648030643267703 0 -7.2648030643267703 -62.007416643551551 0 0 0 0 -11.408790290585785 -10.069791945552424 0 -10.069791945552424 -43.706172878351936 0 0 0 0 -30.48011530412532 -12.291880076005327 0 -12.291880076005327 -64.477167859833571 0 0 0 0 -40.434846781509805 -11.918898389583774 0 -11.918898389583774 -53.08484874862188 0 0 0 0 -43.015040391404909 -29.909556027065264 0 -29.909556027065264 -37.977168317453561 0 0 0 0 -35.435402844615965 -15.793743642992922 0 -15.793743642992922 -54.354247980932996 0 0 0 0 -29.842875262638699 -6.4483028034774179 0 -6.4483028034774179 -39.521497009423911 0 0 0 0 -24.94169940482152 -22.081977857305901 0 -22.081977857305901 -54.287956504551403 0 0 0 0 -35.428155430816332 -17.470683079409355 0 -17.470683079409355 -54.759357691160858 0 0 0 0 -43.04496169420122 -21.476304549719316 0 -21.476304549719316 -66.66397570137633 0 0 0 0 -27.886906035256288 -18.945146160900549 0 -18.945146160900549 -66.944467304892896 0 0 0 0 -43.431192636473497 -14.662993593516148 0 -14.662993593516148 -64.190672782824549 0 0 0 0 -43.670288563479517 -15.066198481636093 0 -15.066198481636093 -79.441848541529907 0 0 0 0 -40.25151033149632 -10.907345715138945 0 -10.907345715138945 -74.949357539888297 0 0 0 0 -34.664715828510452 -20.568041934791836 0 -20.568041934791836 -81.752269581142173 0 0 0 0 -39.609428064251915 -29.93621067444019 0 -29.93621067444019 -69.969491710980947 0 0 0 0 -26.244990136838169 -29.613214199129288 0 -29.613214199129288 -60.446043840878701 0 0 0 0 -21.636569447513466 -28.657085736613226 0 -28.657085736613226 -70.294425017043977 0 0 0 0 -19.665266717781378 -23.444157780031674 0 -23.444157780031674 -54.726948701969377 0 0 0 0 -13.589292831994499 -32.173668549959984 0 -32.173668549959984 -46.815295620439429 0 0 0 0 -13.194861544217929 -27.479025294718667 0 -27.479025294718667 -47.812457745545544 0 0 0 0 -31.678261531905946 -30.782011303638228 0 -30.782011303638228 -59.018045447453915 0 0 0 0 -20.642141302578239 -35.991693792242813 0 -35.991693792242813 -55.52908205971471 0 0 0 0 -14.458332591350882 -36.186395767681461 0 -36.186395767681461 -55.791617720209615 0 0 0 0 -15.301437408314996 -35.319709148407128 0 -35.319709148407128 -56.559095704360516 0 0 0 0 -18.094580120392777 -30.933658902841444 0 -30.933658902841444 -72.894745050238271 0 0 0 0 -22.293783106612864 -39.874048253614092 0 -39.874048253614092 -59.264098509382166 0 0 0 0 -23.472897025516431 30.179996190876409 0 30.179996190876409 -40.551239566259028 0 0 0 0 -29.911321531347312 13.026474030745703 0 13.026474030745703 -86.154992382667842 0 0 0 0 -23.29051269055708 49.890847576170927 0 49.890847576170927 -75.96194926251701 0 0 0 0 17.635692739497244 57.890999624127289 0 57.890999624127289 -74.686905751001177 0 0 0 0 44.279653755759227 22.837140366483254 0 22.837140366483254 -102.63706044110586 0 0 0 0 6.1987362346728476 17.660054299525903 0 17.660054299525903 -18.959992595576836 0 0 0 0 -2.8555673345055776 -2.6626833260563352 0 -2.6626833260563352 1.7914534766812835 0 0 0 0 -170.44647438120319 225.27269293194149 0 225.27269293194149 -170.42536548204953 0 0 0 0 84.996675525822411 -41.584590500316153 0 -41.584590500316153 -135.03323239519887 0 0 0 0 -25.214559200459917 67.378523131690599 0 67.378523131690599 -202.93588396681298 0 0 0 0 -45.102278364213589 26.38712221206697 0 26.38712221206697 -141.01138605462256 0 0 0 0 -46.394788501776929 41.181745898589725 0 41.181745898589725 -134.28685492488694 0 0 0 0 -70.17523776755479 33.587238510734096 0 33.587238510734096 -109.88990981122333 0 0 0 0 -36.092716779289731 28.782113152799866 0 28.782113152799866 -125.12524619263422 0 0 0 0 -87.790714754824876 14.748138401064352 0 14.748138401064352 -130.22881784929632 0 0 0 0 -93.709646423096274 33.656399368674101 0 33.656399368674101 -122.10385116451653 0 0 0 0 -66.235718417809039 21.791835239124339 0 21.791835239124339 -117.22375962060687 0 0 0 0 -84.790377350968811 17.157107115101098 0 17.157107115101098 -97.91197086577813 0 0 0 0 -86.100768549824352 24.87919328503267 0 24.87919328503267 -111.38857409747288 0 0 0 0 -82.383688916591382 8.7509801964115468 0 8.7509801964115468 -87.500153411318024 0 0 0 0 -62.494215479175182 20.469276172079844 0 20.469276172079844 -97.437002376429518 0 0 0 0 -58.480523223171986 14.821612040886976 0 14.821612040886976 -90.902578461747908 0 0 0 0 -68.375919964414607 15.21773035105798 0 15.21773035105798 -80.595285808012704 0 0 0 0 -54.091900179555523 10.454912645356671 0 10.454912645356671 -87.402500130910994 0 0 0 0 -51.886526762877111 16.059628357354086 0 16.059628357354086 -96.854562528507813 0 0 0 0 -63.079618476361247 31.991057200339128 0 31.991057200339128 -81.588567359047374 0 0 0 0 -42.209216331561493 27.940304726620525 0 27.940304726620525 -83.594287491236173 0 0 0 0 -43.635361058704575 30.478078857708169 0 30.478078857708169 -81.081188455005758 0 0 0 0 -52.380150642172339 29.270763005857589 0 29.270763005857589 -80.326201162435609 0 0 0 0 -37.023587282229528 23.551170931910747 0 23.551170931910747 -78.539260186451429 0 0 0 0 -41.336889349539206 33.111310141400281 0 33.111310141400281 -80.150608667216147 0 0 0 0 -49.306121051099581 16.312554804531828 0 16.312554804531828 -80.552661224959593 0 0 0 0 -64.666236574560571 9.1201923201369937 0 9.1201923201369937 -75.262101938285923 0 0 0 0 -48.295396527613775 14.412305945923436 0 14.412305945923436 -78.003004815123859 0 0 0 0 -41.745223827370864 8.1522793675430876 0 8.1522793675430876 -75.293333070563676 0 0 0 0 -53.372390325226661 13.736089485089906 0 13.736089485089906 -74.065810050604341 0 0 0 0 -37.167414402003487 10.692839315488527 0 10.692839315488527 -73.759901726067255 0 0 0 0 -42.240753494148521 12.324485327695584 0 12.324485327695584 -71.326385181077057 0 0 0 0 -41.636167844694938 22.079771668084845 0 22.079771668084845 -78.860545450188511 0 0 0 0 -35.920847334341488 14.74488650639978 0 14.74488650639978 -77.251364403869957 0 0 0 0 -29.821457142692452 8.4255185837610043 0 8.4255185837610043 -73.744603192038994 0 0 0 0 -35.11256098242302 3.6959670321302838 0 3.6959670321302838 -64.820772576451418 0 0 0 0 -19.803727928900116 4.3423937676125206 0 4.3423937676125206 -65.555600809526368 0 0 0 0 -21.128607461264437 30.319772339782503 0 30.319772339782503 -84.810445311220974 0 0 0 0 -34.582096059522428 20.893305107581 0 20.893305107581 -91.415204273354902 0 0 0 0 -33.584059324226473 16.776692062860093 0 16.776692062860093 -75.486725304661377 0 0 0 0 -21.105144967923479 14.454195968864951 0 14.454195968864951 -89.0329339667569 0 0 0 0 -12.420313240902942 28.103887155597477 0 28.103887155597477 -95.987906073436534 0 0 0 0 -18.687719762070856 27.167350705489753 0 27.167350705489753 -95.131356525085721 0 0 0 0 -2.1067906407372448 32.606737088088096 0 32.606737088088096 -96.988942082116523 0 0 0 0 -0.46669144151019282 35.654388627404842 0 35.654388627404842 -93.67898159260676 0 0 0 0 -11.049718324173682 32.197577435425046 0 32.197577435425046 -92.060750360207749 0 0 0 0 -0.25898358993557657 24.53918394121574 0 24.53918394121574 -91.163312941096024 0 0 0 0 -3.7329171596175001 21.016983526420518 0 21.016983526420518 -99.532683836504475 0 0 0 0 -126.37318744777303 250.91321483208594 0 250.91321483208594 122.2608129313594 0 0 0 0 325.14804533786446 74.409676909006521 0 74.409676909006521 -348.12704486825896 0 0 0 0 -170.82011510436678 -228.00866150595539 0 -228.00866150595539 -563.12636318086879 0 0 0 0 -221.86149922497134 231.56196883882512 0 231.56196883882512 -537.59609970246674 0 0 0 0 -29.692675237699632 -18.166687823749271 0 -18.166687823749271 28.276492408738704 0 0 0 0 -291.6779208077329 -106.06346776093415 0 -106.06346776093415 -117.58616396403886 0 0 0 0 -297.20216532553809 78.458280292761629 0 78.458280292761629 -1.2688580588437617 0 0 0 0 -209.06184855295865 -11.100799967974524 0 -11.100799967974524 -111.62613993692503 0 0 0 0 -207.11240999582591 86.825442100791406 0 86.825442100791406 -15.430533249340442 0 0 0 0 -124.20539982695684 25.678158756105404 0 25.678158756105404 -161.87905230336037 0 0 0 0 2.0346607362883953 5.3661206694858805 0 5.3661206694858805 -35.737524135564968 0 0 0 0 -79.306333668114121 35.972347002016249 0 35.972347002016249 -96.906604942858394 0 0 0 0 56.737543271393633 152.16885840063696 0 152.16885840063696 -73.218243194172828 0 0 0 0 9.4153264078528718 25.632260766799071 0 25.632260766799071 -109.52099330396686 0 0 0 0 -153.21234996192334 -14.96189415747358 0 -14.96189415747358 -106.9707435401906 0 0 0 0 -161.99138746468464 -35.901475725149794 0 -35.901475725149794 -148.38632845233951 0 0 0 0 11.183043610354229 26.813594607298128 0 26.813594607298128 -110.10843684550593 0 0 0 0 -245.44776210720534 -125.41241998295664 0 -125.41241998295664 -103.63415520420131 0 0 0 0 -79.256019101878792 97.329096984472926 0 97.329096984472926 -22.599419917114574 0 0 0 0 97.453098167533426 -5.1973433503862907 0 -5.1973433503862907 -159.84071325041805 0 0 0 0 -145.67281938665406 -29.936118866931793 0 -29.936118866931793 19.870259286271903 0 0 0 0 -140.23129146044812 -71.583627071770024 0 -71.583627071770024 -140.93876447073126 0 0 0 0 -195.40531807037101 -19.893544147504144 0 -19.893544147504144 1.6925539459552965 0 0 0 0 -131.01313040619249 17.130065755627584 0 17.130065755627584 4.0480990662654222 0 0 0 0 4.3515540332148817 -10.844710531484452 0 -10.844710531484452 -51.640828392017283 0 0 0 0 -122.18048768949149 41.995573327358215 0 41.995573327358215 44.478163426392712 0 0 0 0 9.9042199711207672 -54.19434150138477 0 -54.19434150138477 0.66657932456291746 0 0 0 0 -182.06909965443441 35.453579233377241 0 35.453579233377241 -37.148817258925192 0 0 0 0 -133.68043674384478 -2.2848213969700737 0 -2.2848213969700737 -48.166079668582825 0 0 0 0 -113.05038131703355 64.707602655151277 0 64.707602655151277 -143.0616191922818 0 0 0 0 -125.42275803299765 29.626427602663171 0 29.626427602663171 -156.07060141903276 0 0 0 0 -68.061377540546033 141.49631435773335 0 141.49631435773335 -111.4356911297873 0 0 0 0 -0.26163332429189889 0.34693174597316556 0 0.34693174597316556 0.17203725024660343 0 0 0 0 -83.297732986843798 -51.595549456216759 0 -51.595549456216759 -27.809862053269171 0 0 0 0 -40.017881004799051 -1.1821942463793675 0 -1.1821942463793675 -6.5539463008317398 0 0 0 0 -22.395056128085344 7.6334305977143231 0 7.6334305977143231 41.68830856167915 0 0 0 0 91.977166631564614 -36.593103291383159 0 -36.593103291383159 -39.515515625316766 0 0 0 0 4.790518720722833 30.559300172099938 0 30.559300172099938 7.1025349941628519 0 0 0 0 0.07898911069374652 1.414389012227204 0 1.414389012227204 -0.92735337349364499 0 0 0 0 0.38945658492561397 1.0666409196847031 0 1.0666409196847031 -16.328709794190132 0 0 0 0 40.931234779515535 23.443824798923742 0 23.443824798923742 7.7227052012849526 0 0 0 0 43.042038604210347 -76.099912150675664 0 -76.099912150675664 15.017370024139382 0 0 0 0 -4.4207464414464539 -25.484746799513232 0 -25.484746799513232 -7.3987258864144678 0 0 0 0 49.665643170348176 -14.976918956475856 0 -14.976918956475856 -21.021393067159806 0 0 0 0 3.3228887463436969 -3.1932239022071371 0 -3.1932239022071371 -35.860627704169019 0 0 0 0 -0.034796709615945498 13.389953712969145 0 13.389953712969145 0.71442538303381298 0 0 0 0 -5.8347403295609226 24.931708290379902 0 24.931708290379902 23.426386994433415 0 0 0 0 54.386830566229037 28.576024024572689 0 28.576024024572689 -3.4203354762285016 0 0 0 0 39.319542228645332 -0.22629938176396536 0 -0.22629938176396536 -8.5163842689798912 0 0 0 0 67.520775380893255 1.9598285450083495 0 1.9598285450083495 -13.584603348601377 0 0 0 0 15.638530906240721 23.300660341315961 0 23.300660341315961 0.53607478551566601 0 0 0 0 9.3655878949184554 11.800492445894633 0 11.800492445894633 -4.7262711828443571 0 0 0 0 0.018876985679491167 7.9901723170514742 0 7.9901723170514742 -5.9207129555579741 0 0 0 0 20.685387041416419 -0.22116025184448063 0 -0.22116025184448063 -16.657590852199064 0 0 0 0 20.879574026192415 2.8038711169294857 0 2.8038711169294857 -28.534688615851337 0 0 0 0 20.96763363604548 -4.5446020780000254 0 -4.5446020780000254 -24.035699492553249 0 0 0 0 27.081938096390985 -9.6327460870306822 0 -9.6327460870306822 -12.02902976322639 0 0 0 0 19.244006960819686 -5.510287859438904 0 -5.510287859438904 -11.47287496910576 0 0 0 0 80.8894323500691 32.299317681585308 0 32.299317681585308 -36.399054820656602 0 0 0 0 0.638364491001158 -1.5511527366244593 0 -1.5511527366244593 -0.79623878433238815 0 0 0 0 3.0255046183072132 -5.9693319424145557 0 -5.9693319424145557 19.16143391233345 0 0 0 0 0.90522710509505522 -0.86777074719832115 0 -0.86777074719832115 -16.335622340735597 0 0 0 0 9.7272940848623595 -19.441475330524554 0 -19.441475330524554 -33.338210069399793 0 0 0 0 16.568217752228527 14.321742006446584 0 14.321742006446584 -15.112052880584088 0 0 0 0 0.57273788245870072 -1.822946720742415 0 -1.822946720742415 -0.54789167526050164 0 0 0 0 12.42845532910702 13.217225127515121 0 13.217225127515121 -12.319052039645612 0 0 0 0 -0.31281580839044143 2.1537644004918306 0 2.1537644004918306 -12.40775274189707 0 0 0 0 13.096194667921836 -4.7307671014605148 0 -4.7307671014605148 -13.343414106086129 0 0 0 0 60.844639837343493 -48.738837907927518 0 -48.738837907927518 -32.199006751725392 0 0 0 0 0.80789711992738944 11.078459918415319 0 11.078459918415319 8.3436206204569316 0 0 0 0 -0.62017407321751516 -0.72759185186924213 0 -0.72759185186924213 -3.3026119437935222 0 0 0 0 -47.006632810413009 10.114522056701389 0 10.114522056701389 10.62450931136118 0 0 0 0 23.277430960871229 -12.172223512017808 0 -12.172223512017808 -146.26723410016712 0 0 0 0 -121.53265215020497 -206.19419378580642 0 -206.19419378580642 -255.67395583374309 0 0 0 0 8.4582372139808513 -17.780444443897068 0 -17.780444443897068 -239.36844789966563 0 0 0 0 0.076993173778074048 -18.508057424121944 0 -18.508057424121944 -0.45953174924943596 0 0 0 0 19.82634744934429 0.45666749067095225 0 0.45666749067095225 -9.7167850079204072 0 0 0 0 -0.37813167751136484 2.7241303635915557 0 2.7241303635915557 -10.094750855597653 0 0 0 0 68.009913641082207 4.9849608593904122 0 4.9849608593904122 -12.840224394498364 0 0 0 0 44.08811897247346 -26.311176586666988 0 -26.311176586666988 -5.2491460051969625 0 0 0 0 -0.24926012527518149 -41.449206258552294 0 -41.449206258552294 -9.1593022637207469 0 0 0 0 -131.97913443793797 -164.78825164251066 0 -164.78825164251066 -856.4616901447007 0 0 0 0 0.038211684110838751 0.79891112961892219 0 0.79891112961892219 -4.9402824016517002 0 0 0 0 0.40611015822017316 -83.359438779061747 0 -83.359438779061747 -814.14402817229711 0 0 0 0 61.780725837998993 239.70960458334775 0 239.70960458334775 -357.19823380446178 0 0 0 0 -80.761104745610396 -150.57394963226398 0 -150.57394963226398 -309.16791960797855 0 0 0 0 -69.048573559065517 -189.94191602187493 0 -189.94191602187493 -275.30408042945783 0 0 0 0 -245.69326619227047 -334.77769469767736 0 -334.77769469767736 -282.6442550271895 0 0 0 0 -92.98132878226744 -84.52272616733535 0 -84.52272616733535 -74.587239427099121 0 0 0 0 39.977575755029989 -187.87564044623286 0 -187.87564044623286 -722.50819645661977 0 0 0 0 55.90753363262354 -85.064599684737459 0 -85.064599684737459 -278.68908348999685 0 0 0 0 -52.269174279546291 -75.147116716228084 0 -75.147116716228084 -245.07564249052666 0 0 0 0 -215.62701374844278 -94.576435190036136 0 -94.576435190036136 -225.78576316800536 0 0 0 0 12.832580770952266 26.053972759041109 0 26.053972759041109 -113.1418411356388 0 0 0 0 19.543421188226148 -11.006698037473143 0 -11.006698037473143 -223.48329553467556 0 0 0 0 24.592868441136488 4.3424252084569162 0 4.3424252084569162 -208.35917903532709 0 0 0 0 -5.8501055804185853 41.062802108031974 0 41.062802108031974 -244.5447245934447 0 0 0 0 10.278200015764696 5.0578679106420168 0 5.0578679106420168 -157.90238428535304 0 0 0 0 24.350967845919968 6.0557644665841508 0 6.0557644665841508 -200.96265983210833 0 0 0 0 12.38073579863817 -13.347078391671857 0 -13.347078391671857 -195.77191695552756 0 0 0 0 45.949457897346292 -17.715471689731203 0 -17.715471689731203 -196.68817000031413 0 0 0 0 44.335160737817205 9.2352833937093237 0 9.2352833937093237 -201.05205592988858 0 0 0 0 33.520072037711429 33.873898954089555 0 33.873898954089555 -97.708591739032272 0 0 0 0 89.95410690664994 30.080769654538017 0 30.080769654538017 -165.28531339980145 0 0 0 0 40.169961728563067 -3.5705848214147409 0 -3.5705848214147409 -178.98513934372386 0 0 0 0 162.7502908475733 112.25775707836056 0 112.25775707836056 -133.71791790381394 0 0 0 0 -206.67719250182628 -36.781605420557753 0 -36.781605420557753 -145.24220421582868 0 0 0 0 -0.67851557033702636 -0.97559060684135801 0 -0.97559060684135801 -0.92019009237552041 0 0 0 0 -16.625764188603199 54.109414428832679 0 54.109414428832679 8.8757822170446161 0 0 0 0 -177.8558807822069 -167.66765107637912 0 -167.66765107637912 -82.810853500521262 0 0 0 0 -160.75664035028407 -134.72120336177977 0 -134.72120336177977 -296.19481003380497 0 0 0 0 -184.45451536588348 -189.42286135429822 0 -189.42286135429822 -197.21045346802566 0 0 0 0 12.208321500091518 26.148217966195872 0 26.148217966195872 -111.94751268918066 0 0 0 0 8.7138436510939759 -10.788502690609651 0 -10.788502690609651 -49.915373524955086 0 0 0 0 14.685253314108678 -25.545642486320958 0 -25.545642486320958 -49.603830135827593 0 0 0 0 30.735965606872014 -8.2281526103215583 0 -8.2281526103215583 -82.74113245981016 0 0 0 0 -13.563920974286702 -28.010413415317089 0 -28.010413415317089 -67.693302560957818 0 0 0 0 17.472924097421398 -5.8270125389880505 0 -5.8270125389880505 -9.3364634425845132 0 0 0 0 11.885932920870403 -24.971218149035849 0 -24.971218149035849 -48.976918782055691 0 0 0 0 2.3240020150661791 -1.0258434485395753 0 -1.0258434485395753 -14.156321040208075 0 0 0 0 4.6672188414577249 -12.261719074185748 0 -12.261719074185748 -60.734636736519406 0 0 0 0 -22.418123975962772 -51.452131895317507 0 -51.452131895317507 77.92727212157115 0 0 0 0 1.2149790922710233 3.3169258470267735 0 3.3169258470267735 -0.44704801594740218 0 0 0 0 14.185464707874416 -17.629613497678292 0 -17.629613497678292 -25.647921273954125 0 0 0 0 0.89166945625038352 -9.3499989299843946 0 -9.3499989299843946 -46.073540765091821 0 0 0 0 -2.9494870528851607 -90.503940962962588 0 -90.503940962962588 28.8425609380065 0 0 0 0 -69.634501618716058 9.7936367915317533 0 9.7936367915317533 -61.487623525099934 0 0 0 0 7.4671738947814585 0.90521502989380664 0 0.90521502989380664 -45.353554601926568 0 0 0 0 1.8363931134442866 10.911451549005603 0 10.911451549005603 -38.500587140424351 0 0 0 0 43.901106834624443 -86.392461934088715 0 -86.392461934088715 -103.01532688999578 0 0 0 0 17.44959203956023 -109.73169248949489 0 -109.73169248949489 -14.833790870721714 0 0 0 0 21.146537153596455 -32.866637401963089 0 -32.866637401963089 -144.63544157962315 0 0 0 0 -5.3178338246416388 15.661989754426031 0 15.661989754426031 -147.49602885940658 0 0 0 0 -150.00448767827766 76.58982270589695 0 76.58982270589695 -180.76850040926365 0 0 0 0 -0.13139543998934089 -27.479036587283428 0 -27.479036587283428 -40.373734173058246 0 0 0 0 -12.781996518697269 -14.028236972688319 0 -14.028236972688319 -138.33248051739793 0 0 0 0 -21.085588201927749 4.3855613778578117 0 4.3855613778578117 -101.77519388694782 0 0 0 0 25.466252922647072 -32.50762663700516 0 -32.50762663700516 -109.53808200877393 0 0 0 0 -0.90121413888300594 -1.9315002812072635 0 -1.9315002812072635 -126.96756461889163 0 0 0 0 7.4740423900893802 -29.996149923917983 0 -29.996149923917983 -56.142572044436747 0 0 0 0 -16.893489825170946 3.295614604237926 0 3.295614604237926 -100.43092851856636 0 0 0 0 5.0789465426701099 -12.35444252358684 0 -12.35444252358684 -106.81644071165647 0 0 0 0 0.60974717818817226 -17.055657151606283 0 -17.055657151606283 -102.6124858110561 0 0 0 0 -16.435480203866064 3.25711145880814 0 3.25711145880814 -102.49598606715153 0 0 0 0 -56.95367793530022 38.298827876522409 0 38.298827876522409 -119.07741746924512 0 0 0 0 0.74240709840492336 -21.968497318737214 0 -21.968497318737214 -74.114454307111856 0 0 0 0 22.994921753304993 -46.117773990634305 0 -46.117773990634305 -100.06163047715017 0 0 0 0 -73.623556633623593 37.637266814774193 0 37.637266814774193 -99.561540153219539 0 0 0 0 19.450519648461295 -28.927934138331693 0 -28.927934138331693 -66.48196804591862 0 0 0 0 13.166917542846932 -24.423450198375576 0 -24.423450198375576 -62.257986526559762 0 0 0 0 14.359689451216127 -48.621624937564775 0 -48.621624937564775 -35.277824493134176 0 0 0 0 24.126685928312781 -36.362698662165712 0 -36.362698662165712 -82.031705349370895 0 0 0 0 -0.045864136390946442 -17.79413768678296 0 -17.79413768678296 -74.477485691488255 0 0 0 0 10.831186834182517 -8.6704753120484384 0 -8.6704753120484384 -101.31318745455428 0 0 0 0 18.95999449731778 -3.6317791068295264 0 -3.6317791068295264 -76.964873908795198 0 0 0 0 20.899946828091515 7.654372367727774 0 7.654372367727774 -73.416869416433201 0 0 0 0 9.3029693199673602 -8.1011155208543641 0 -8.1011155208543641 -94.561123955667426 0 0 0 0 -14.328820257922416 5.5712858849456097 0 5.5712858849456097 -77.967149037031049 0 0 0 0 29.705241267073689 -0.56195617505818518 0 -0.56195617505818518 -42.535515370816938 0 0 0 0 -77.585341473644803 7.3431598561364808 0 7.3431598561364808 -92.359972515401751 0 0 0 0 -14.452285980737543 5.1632533104457252 0 5.1632533104457252 -92.77635347784053 0 0 0 0 -22.135710512488913 -11.693418366849073 0 -11.693418366849073 -108.1941169500351 0 0 0 0 -3.7474169353261013 -11.516136416186445 0 -11.516136416186445 -50.366719241952893 0 0 0 0 7.7045635040949492 -10.658429752540997 0 -10.658429752540997 -43.541821511238595 0 0 0 0 1.3325219226266487 8.9505360395985996 0 8.9505360395985996 -46.049548591888275 0 0 0 0 -14.94255607202922 11.307261899633886 0 11.307261899633886 -98.819473916618335 0 0 0 0 -1.297767178762915 -14.931949390718968 0 -14.931949390718968 -38.572466500295334 0 0 0 0 -10.104582811149157 -0.067126692415513389 0 -0.067126692415513389 -61.82126868986802 0 0 0 0 -0.38033500236679174 22.156027315415258 0 22.156027315415258 -80.720268218401543 0 0 0 0 4.7044472664825401 1.2899766807691684 0 1.2899766807691684 -33.137580268582781 0 0 0 0 -1.3022618776917461 -8.1126451005251798 0 -8.1126451005251798 -51.604520928353303 0 0 0 0 -1.7346803566183553 -4.3002156928696422 0 -4.3002156928696422 -52.265782580313953 0 0 0 0 -16.51494269675095 13.90946961314512 0 13.90946961314512 -83.98950750493259 0 0 0 0 -19.864347386683221 -22.923142661631573 0 -22.923142661631573 -18.841048307862366 0 0 0 0 -282.90489191428242 -92.71232777689147 0 -92.71232777689147 -27.572111062223485 0 0 0 0 -8.2967834593009684 5.4090188355585269 0 5.4090188355585269 -241.69724560852046 0 0 0 0 -36.259962229149096 -23.620541376437359 0 -23.620541376437359 -59.634546030552883 0 0 0 0 -40.134324476211987 -21.517947830208868 0 -21.517947830208868 -33.223343340367137 0 0 0 0 5.1067770265265295 -5.6448506803099789 0 -5.6448506803099789 -18.201179131103302 0 0 0 0 38.823586868250459 5.9158859515246149 0 5.9158859515246149 -87.195450007344334 0 0 0 0 6.35066140543237 -8.3239507734395701 0 -8.3239507734395701 -58.133961852969691 0 0 0 0 13.453288205352692 -22.141995375179249 0 -22.141995375179249 -91.266676194798492 0 0 0 0 -36.8247581922069 -69.228339372868504 0 -69.228339372868504 -61.510127046451998 0 0 0 0 -137.98434461321449 -111.27327942066404 0 -111.27327942066404 -87.534329441396039 0 0 0 0 -42.593616664230012 -58.698669340446941 0 -58.698669340446941 -76.696788371024013 0 0 0 0 -103.7501928153506 -120.18655148291145 0 -120.18655148291145 -97.974254803382792 0 0 0 0 -179.58008513505683 -201.56691071489695 0 -201.56691071489695 -160.87212494610139 0 0 0 0 -118.09051429987449 -148.55096548491565 0 -148.55096548491565 -131.15330021691625 0 0 0 0 -80.964814489010678 -165.04351323644732 0 -165.04351323644732 -140.44660722624394 0 0 0 0 -100.0891182351786 -166.88855736599737 0 -166.88855736599737 -127.81601430552837 0 0 0 0 -81.309213018042698 -173.57139874283854 0 -173.57139874283854 -138.56826664825348 0 0 0 0 -69.802285553621914 -180.24106356594712 0 -180.24106356594712 -134.72305452953515 0 0 0 0 -69.627743826942606 -183.88320243549788 0 -183.88320243549788 -111.75636684783967 0 0 0 0 -50.901702709182246 -173.40316089598855 0 -173.40316089598855 -134.537524911937 0 0 0 0 -68.570892071415983 -174.51631927242124 0 -174.51631927242124 -104.41665875593753 0 0 0 0 -73.507502543994178 -187.06255334357047 0 -187.06255334357047 -139.78784812658705 0 0 0 0 -91.858824086646564 -186.82712931667265 0 -186.82712931667265 -175.71985387565292 0 0 0 0 -58.211109363468267 -171.05345877208265 0 -171.05345877208265 -168.61371363377839 0 0 0 0 -53.429470658712432 -126.38286106949295 0 -126.38286106949295 -144.97948661959163 0 0 0 0 -77.706671460313373 -155.37834204194587 0 -155.37834204194587 -122.18125365796004 0 0 0 0 -58.370569049810911 -168.18045050323781 0 -168.18045050323781 -138.35195089223089 0 0 0 0 388.26852200807855 342.71782319312479 0 342.71782319312479 90.535712987344596 0 0 0 0 360.0273210743876 -10.368594501607731 0 -10.368594501607731 -104.12307559000328 0 0 0 0 -101.39698799602957 -93.881139030891063 0 -93.881139030891063 -98.430834052489445 0 0 0 0 -16.239580807957282 -108.69330326491763 0 -108.69330326491763 -104.08278246867849 0 0 0 0 -210.02154374858787 -114.4612190391199 0 -114.4612190391199 -101.82838496313889 0 0 0 0 -47.073738606718052 -167.2752824574236 0 -167.2752824574236 -131.95804647578552 0 0 0 0 -87.05853013685828 -147.69957005864489 0 -147.69957005864489 -141.50720344640285 0 0 0 0 -203.21732938768969 -206.5154398343202 0 -206.5154398343202 -191.26373789779973 0 0 0 0 -126.74097795938155 -175.23580477416181 0 -175.23580477416181 -156.82520846126135 0 0 0 0 -105.43094750613432 -157.21766073620802 0 -157.21766073620802 -174.23198356692592 0 0 0 0 1.560364525346146 2.8669481725599475 0 2.8669481725599475 -17.925123014879802 0 0 0 0 -259.52579024390138 -183.79165033210029 0 -183.79165033210029 -133.88542156167387 0 0 0 0 461.34135641334433 308.700271075817 0 308.700271075817 12.536534446146106 0 0 0 0 -217.2960557769884 -164.69203764976555 0 -164.69203764976555 -168.54179246228523 0 0 0 0 -440.52281605950793 -252.378797428486 0 -252.378797428486 -202.96574180832613 0 0 0 0 -151.39906162010016 -247.20239805145138 0 -247.20239805145138 -429.19568466109922 0 0 0 0 -161.19737570035113 -202.65806856142808 0 -202.65806856142808 -270.74886649339169 0 0 0 0 -72.381393654661224 -177.23959624728377 0 -177.23959624728377 -281.76809132446579 0 0 0 0 10.882516965481798 -129.49819150386065 0 -129.49819150386065 -410.44121165900287 0 0 0 0 16.33740100254532 -31.398683437813304 0 -31.398683437813304 -238.7631657661841 0 0 0 0 -136.05759613754401 -189.80847934577105 0 -189.80847934577105 -400.40158514725044 0 0 0 0 -261.48431554002275 -161.12086985087808 0 -161.12086985087808 -371.87801665835104 0 0 0 0 -47.195387034916166 -108.78430192877568 0 -108.78430192877568 -124.51789402747818 0 0 0 0 -78.014555641868128 -166.89566735544349 0 -166.89566735544349 -230.0394097151293 0 0 0 0 -29.1478556868542 -128.74644975065712 0 -128.74644975065712 -206.57736741548706 0 0 0 0 7.2215229243154297 -2.1191757309884096 0 -2.1191757309884096 1.5587879449307742 0 0 0 0 -22.303583332132348 -55.316653824831519 0 -55.316653824831519 -136.7611261550046 0 0 0 0 25.78289069127004 -41.306375851982011 0 -41.306375851982011 -171.18682297725172 0 0 0 0 25.683669470103297 33.2800297637894 0 33.2800297637894 -200.20295268674818 0 0 0 0 18.652162114434347 -118.91835207700819 0 -118.91835207700819 -131.13853340993228 0 0 0 0 -84.123449343171842 -48.311803787586541 0 -48.311803787586541 103.76546529468487 0 0 0 0 42.232774013375149 -106.63989157038122 0 -106.63989157038122 -521.32786101212696 0 0 0 0 -19.045330976490277 -99.561201189571875 0 -99.561201189571875 -197.32259361030447 0 0 0 0 -433.03541686184798 -416.89263613257754 0 -416.89263613257754 -604.74743174501054 0 0 0 0 87.098216468265605 -150.10933433102218 0 -150.10933433102218 -731.82262926133262 0 0 0 0 99.386678304101338 80.959410784198553 0 80.959410784198553 -318.55296318884939 0 0 0 0 -91.28175937283072 -110.88514552776178 0 -110.88514552776178 -219.12837156846808 0 0 0 0 1.3502170888505702 -0.7450594693692878 0 -0.7450594693692878 -0.25795129569987019 0 0 0 0 -208.54547490818413 12.244191894322284 0 12.244191894322284 213.22304664767216 0 0 0 0 -194.65500414544977 -98.26958305287917 0 -98.26958305287917 26.636956501482928 0 0 0 0 34.088588441934235 90.550896049502626 0 90.550896049502626 -15.30960440518902 0 0 0 0 110.95998326026211 -92.171714342655832 0 -92.171714342655832 -203.56327238348604 0 0 0 0 -0.55149051753801359 -182.20932421663747 0 -182.20932421663747 -456.55878567044783 0 0 0 0 -66.108418946795837 -87.590595445883082 0 -87.590595445883082 -219.02163535428917 0 0 0 0 -138.58051342333056 -129.20609889777188 0 -129.20609889777188 -160.73446978296852 0 0 0 0 -228.0834134543968 -30.183428332531548 0 -30.183428332531548 1.498262553672248 0 0 0 0 -265.02369263374953 -314.96240254498844 0 -314.96240254498844 -460.50552036182125 0 0 0 0 -6.1548362513003134 -225.61631057457697 0 -225.61631057457697 -729.22757669479688 0 0 0 0 -4.8522697899347804 -183.89460073036389 0 -183.89460073036389 -478.61833911190115 0 0 0 0 19.495089142051711 -170.03409319014827 0 -170.03409319014827 -471.04798140833009 0 0 0 0 -29.759703022113172 100.60030274987002 0 100.60030274987002 -287.97211148517454 0 0 0 0 -27.772527749793426 -218.88560891469751 0 -218.88560891469751 -408.54640257494611 0 0 0 0 -25.68525651343657 58.203446882043863 0 58.203446882043863 -653.93889217059723 0 0 0 0 -4.9007599219737834 -1.4283084142282618 0 -1.4283084142282618 -7.501617140742411 0 0 0 0 -74.509218407467529 -151.31437868665671 0 -151.31437868665671 -589.94008610276069 0 0 0 0 -39.994301126964729 -211.84300903578333 0 -211.84300903578333 -483.8242816010461 0 0 0 0 -35.811561844954895 -276.95695058691854 0 -276.95695058691854 -598.07954245342603 0 0 0 0 34.227462252749376 -190.03936574115596 0 -190.03936574115596 -544.40997416681057 0 0 0 0 -48.663443689793894 -260.45792354659352 0 -260.45792354659352 -486.64638478878624 0 0 0 0 130.65778446549439 212.51007204037887 0 212.51007204037887 184.57192565662262 0 0 0 0 92.36236698576613 -5.4990238097307156 0 -5.4990238097307156 29.269264726333859 0 0 0 0 177.32047886764462 203.83504757751871 0 203.83504757751871 209.8957381322798 0 0 0 0 176.99360555282584 211.5567260750322 0 211.5567260750322 30.141786957421573 0 0 0 0 -4.3560272084833542 8.9318975987926379 0 8.9318975987926379 -11.214050581663003 0 0 0 0 344.53969815074538 344.14945993872652 0 344.14945993872652 -165.62929948746387 0 0 0 0 -1.0085812340423361 1.799253852436653 0 1.799253852436653 -2.744912867426109 0 0 0 0 354.18796798979338 408.67639463339401 0 408.67639463339401 241.22146063518699 0 0 0 0 315.15730415557823 162.30286902450462 0 162.30286902450462 275.25121496174143 0 0 0 0 -61.877812083012941 7.5733580822688964 0 7.5733580822688964 -120.21173618177636 0 0 0 0 458.91180118714647 225.00158002660794 0 225.00158002660794 195.94776903867023 0 0 0 0 -1.610679108981504 5.2581487009610299 0 5.2581487009610299 -8.3518218319057382 0 0 0 0 432.11569672564701 662.28650650651309 0 662.28650650651309 437.11135589019977 0 0 0 0 -161.5223361524304 -177.07476938955006 0 -177.07476938955006 -20.926358104868996 0 0 0 0 -1.7696645757218417 2.1600317906515016 0 2.1600317906515016 -3.8037159926947197 0 0 0 0 239.56644056478467 254.76611845666775 0 254.76611845666775 242.16730542965161 0 0 0 0 236.97838001759874 363.93219137151391 0 363.93219137151391 119.86662615976093 0 0 0 0 287.77904966057804 246.42968814999767 0 246.42968814999767 242.25149682196928 0 0 0 0 13.429049140955499 -689.06241803618286 0 -689.06241803618286 -1692.9458920128527 0 0 0 0 93.595374824576311 82.923497720265004 0 82.923497720265004 29.341368339471956 0 0 0 0 -163.93886728888174 -522.99251164772431 0 -522.99251164772431 -1677.7474042956019 0 0 0 0 -428.61260341786692 -494.93474203402002 0 -494.93474203402002 -1670.177843152851 0 0 0 0 -0.88778797337094506 -3.0984066419067062 0 -3.0984066419067062 -6.3501901631966007 0 0 0 0 0.025398811765018792 -2.2214647164327967 0 -2.2214647164327967 -1.0164529858005267 0 0 0 0 338.44704537966982 -87.944870930768957 0 -87.944870930768957 -1289.7123101411853 0 0 0 0 319.8837151405769 257.6382843042702 0 257.6382843042702 -679.53265300328349 0 0 0 0 453.27914004489139 -197.90833532569377 0 -197.90833532569377 164.36442437787809 0 0 0 0 538.16031752338472 199.33512780609999 0 199.33512780609999 -538.72829411521525 0 0 0 0 283.52457483598141 -397.02434925519083 0 -397.02434925519083 -1000.0680846480536 0 0 0 0 88.739414591993409 -272.84062381346303 0 -272.84062381346303 -1078.3101241854679 0 0 0 0 -417.333147659014 -284.34092271311647 0 -284.34092271311647 -999.84703122336941 0 0 0 0 -947.79108869909146 -769.92402279619091 0 -769.92402279619091 -1273.3398430915258 0 0 0 0 6.3378305169911604 -2.7294828865131961 0 -2.7294828865131961 -40.957309899725473 0 0 0 0 216.46799799142445 -592.61411500073154 0 -592.61411500073154 -1064.2680326547081 0 0 0 0 8.0581827148383809 -13.923490815202058 0 -13.923490815202058 -68.973702489085554 0 0 0 0 -0.008406514037854862 -12.293188372718511 0 -12.293188372718511 6.6098890107455333 0 0 0 0 61.381911805587904 -11.269852400068885 0 -11.269852400068885 -95.936793543762178 0 0 0 0 32.193411340701743 -48.832560183192982 0 -48.832560183192982 -6.3018488521656764 0 0 0 0 -45.234735742276371 107.03272254012904 0 107.03272254012904 -192.80608492790361 0 0 0 0 -36.596209550152139 68.206296616465977 0 68.206296616465977 -208.59867009258051 0 0 0 0 -3.9371308527474866 68.237879952311687 0 68.237879952311687 -213.26630203746117 0 0 0 0 -17.408676088228276 94.646668613535212 0 94.646668613535212 -208.27474656224058 0 0 0 0 -20.224469687102783 93.206732071281067 0 93.206732071281067 -208.63603193568179 0 0 0 0 -27.313824992987918 90.691261600528833 0 90.691261600528833 -202.70475524774656 0 0 0 0 419.30486592874058 -232.17010045194183 0 -232.17010045194183 -789.34640794125153 0 0 0 0 20.610989278440456 -30.290459979190928 0 -30.290459979190928 -149.82880223771463 0 0 0 0 12.857603836319246 -16.432081237364471 0 -16.432081237364471 -10.042843791328586 0 0 0 0 -917.64290021146098 -291.06894348755304 0 -291.06894348755304 -126.51320311463496 0 0 0 0 20.877820794752552 153.85729930181697 0 153.85729930181697 -415.3574930591858 0 0 0 0 1.7190737707569577 32.634742573568957 0 32.634742573568957 -98.723669095699861 0 0 0 0 -210.26655285730158 80.808613728702767 0 80.808613728702767 -391.68559461261611 0 0 0 0 1963.4580621414134 -424.74823199422099 0 -424.74823199422099 -308.06661381071171 0 0 0 0 -0.21046177148857936 12.707558496920955 0 12.707558496920955 0.19829504110911955 0 0 0 0 371.94980183695702 740.55141141127388 0 740.55141141127388 15.486076538392808 0 0 0 0 47.570096043657259 113.07403742707851 0 113.07403742707851 -161.57727940714062 0 0 0 0 761.77780003430985 162.27611711931513 0 162.27611711931513 -703.05853038558416 0 0 0 0 5.2532389779567819 -4.0871324064362753 0 -4.0871324064362753 -26.098770590363415 0 0 0 0 -0.36614088321544153 13.372130051802808 0 13.372130051802808 -94.725477659527854 0 0 0 0 13.749172725265336 93.908224089680203 0 93.908224089680203 -208.74455569068868 0 0 0 0 14.31384096374677 71.60947548254353 0 71.60947548254353 -212.75185590989167 0 0 0 0 -23.673361769427629 101.56116062290675 0 101.56116062290675 -154.31238843950814 0 0 0 0 -45.033927560376696 105.55375631861114 0 105.55375631861114 -16.980283611449067 0 0 0 0 -51.895104716264996 86.932525456475219 0 86.932525456475219 -60.250252120593359 0 0 0 0 -4.0235418602417212 107.48188211986076 0 107.48188211986076 -152.58473694042107 0 0 0 0 4.9261622546464992 134.90556838911357 0 134.90556838911357 -69.812141456104655 0 0 0 0 152.3879684504027 -80.804307059949679 0 -80.804307059949679 -147.30540294259481 0 0 0 0 338.0891906003194 -57.920964801641276 0 -57.920964801641276 -261.02567942091628 0 0 0 0 300.07620387374436 70.109230725782965 0 70.109230725782965 -240.73399168065657 0 0 0 0 182.71933264394738 46.773398159362841 0 46.773398159362841 -192.59942601039984 0 0 0 0 0.50275075499656152 8.4943094315549441 0 8.4943094315549441 -87.991918437883442 0 0 0 0 145.18116273350665 -24.057225545401934 0 -24.057225545401934 -95.979424136305511 0 0 0 0 4.1405804151530674 91.065528309108117 0 91.065528309108117 -178.76898040656783 0 0 0 0 -222.94632789434127 125.27308458852235 0 125.27308458852235 -85.472425827424104 0 0 0 0 4.0905467493330434 89.708387343160098 0 89.708387343160098 -199.64246334941026 0 0 0 0 -51.996605038092255 89.414539920057905 0 89.414539920057905 -120.85503009073318 0 0 0 0 -104.00171286292107 101.93030752113157 0 101.93030752113157 -80.891559494370767 0 0 0 0 -101.78339808311671 31.653866582184946 0 31.653866582184946 -85.489997719049825 0 0 0 0 -138.42933596009243 64.115184064952246 0 64.115184064952246 -99.53185670164001 0 0 0 0 -138.09403579058153 39.64140720547482 0 39.64140720547482 -68.896831411143467 0 0 0 0 -335.68703621016812 108.1340655893863 0 108.1340655893863 -92.538348671097765 0 0 0 0 -6.2580118606219912 23.348374468994393 0 23.348374468994393 -122.10010093021245 0 0 0 0 1.3925275669212169 3.9884471351388129 0 3.9884471351388129 -127.03597619205493 0 0 0 0 -100.38569260071995 31.865175862979186 0 31.865175862979186 -106.98356734787876 0 0 0 0 -36.733958524776426 -5.2814854593466407 0 -5.2814854593466407 -115.78677070421065 0 0 0 0 -16.565659692826557 15.291516327117279 0 15.291516327117279 -119.20236696188738 0 0 0 0 13.002279674510419 -0.20029436465506478 0 -0.20029436465506478 -99.869340011094891 0 0 0 0 -24.655955903398194 -5.1100145778325441 0 -5.1100145778325441 -90.906901781455417 0 0 0 0 -9.9001091108139008 -38.312134173524555 0 -38.312134173524555 -51.483089656788252 0 0 0 0 -16.679080000116073 -17.226933594101126 0 -17.226933594101126 -69.01227637631564 0 0 0 0 -1.9905425292199652 -43.991954396671417 0 -43.991954396671417 -89.898081057661784 0 0 0 0 10.044002523284121 -16.248300575854046 0 -16.248300575854046 -150.69983635161452 0 0 0 0 -6.1380666921703551 -43.183358408395065 0 -43.183358408395065 -33.402888348435226 0 0 0 0 -60.488189544633769 123.06721512409285 0 123.06721512409285 -204.35338884336988 0 0 0 0 12.030913974263967 -3.7218302958867753 0 -3.7218302958867753 -11.274062411077466 0 0 0 0 -34.847120233205942 115.30208277373907 0 115.30208277373907 -221.59222492110462 0 0 0 0 0.20905362914662273 1.2830398938040586 0 1.2830398938040586 -2.8027765507570459 0 0 0 0 -27.141276824264196 86.282741535747959 0 86.282741535747959 -218.95367211011126 0 0 0 0 -101.64128405795736 59.286959559209436 0 59.286959559209436 -131.20811143283731 0 0 0 0 -74.009926714476592 65.088564397673963 0 65.088564397673963 -149.59187660316707 0 0 0 0 -102.79441519356988 57.854503276766536 0 57.854503276766536 -99.742448213539319 0 0 0 0 -5.0444167352616205 -39.207691685171085 0 -39.207691685171085 -75.36701430445828 0 0 0 0 -18.997015550362789 -37.223803503689396 0 -37.223803503689396 -59.556737909333606 0 0 0 0 -8.085950464126654 -38.230917041499197 0 -38.230917041499197 -61.807974577925052 0 0 0 0 -9.0915146719788709 -40.812381858803064 0 -40.812381858803064 -42.650374098906468 0 0 0 0 2.2652904370574971 -28.504117887648505 0 -28.504117887648505 -64.697795416711941 0 0 0 0 -14.561091012159523 -42.103033952314036 0 -42.103033952314036 -52.63738203124376 0 0 0 0 -0.86562891732683056 -52.539035118368702 0 -52.539035118368702 -48.713939874060998 0 0 0 0 0.36637864184558566 -42.728914283168706 0 -42.728914283168706 -59.947632568095287 0 0 0 0 27.260167621867822 -49.864379089773138 0 -49.864379089773138 -62.467223513860517 0 0 0 0 0.74407520366730751 -28.295692459520069 0 -28.295692459520069 -55.381197074397278 0 0 0 0 6.2041938782438661 -27.028723377331868 0 -27.028723377331868 -66.634361488944052 0 0 0 0 -2.9542671950168824 -8.356663754344595 0 -8.356663754344595 -91.393663354214027 0 0 0 0 -21.90071245095578 2.9823039268985667 0 2.9823039268985667 -96.253417025271119 0 0 0 0 -13.552507430789774 9.8715583130905316 0 9.8715583130905316 -101.21543049678849 0 0 0 0 -0.73509677230609327 -4.0404353508905757 0 -4.0404353508905757 -87.452492349366821 0 0 0 0 -1.8724989940403702 4.1273087282113465 0 4.1273087282113465 -104.23008528794423 0 0 0 0 21.743972219586624 -33.810945967281214 0 -33.810945967281214 -90.377784213286759 0 0 0 0 6.990834442208552 -25.495941269426307 0 -25.495941269426307 -64.842620450392261 0 0 0 0 17.010385470669007 -51.386403964603232 0 -51.386403964603232 -66.153084558573937 0 0 0 0 25.428668675572681 -15.863860809906328 0 -15.863860809906328 -108.28173982493172 0 0 0 0 13.522704083711233 -10.205045833788972 0 -10.205045833788972 -87.745947573013837 0 0 0 0 1.1837043347604776 -32.787285478541889 0 -32.787285478541889 -58.270568687741616 0 0 0 0 13.252453424151099 -26.270617436590328 0 -26.270617436590328 -105.26856561198656 0 0 0 0 13.463591674655618 -23.141155507219082 0 -23.141155507219082 -121.43140403266443 0 0 0 0 -1.6425748622268657 -25.090637231984147 0 -25.090637231984147 -101.95639034561464 0 0 0 0 -3.2533456189985372 -31.614425229472545 0 -31.614425229472545 -127.92435359448882 0 0 0 0 -8.2174972343800619 -24.554703844170945 0 -24.554703844170945 -78.939662150569347 0 0 0 0 5.7154051905372398 -32.195279222138197 0 -32.195279222138197 -101.206574588173 0 0 0 0 8.301152093609744 -7.8635679779272323 0 -7.8635679779272323 -129.86033477551973 0 0 0 0 8.1088361841830192 -11.680854069845736 0 -11.680854069845736 -164.22258128713293 0 0 0 0 -5.5405813348779702 0.5158195584990608 0 0.5158195584990608 -153.24742950266227 0 0 0 0 0.6149526082444936 -17.414418520449544 0 -17.414418520449544 -133.28692728684655 0 0 0 0 0.51972416175218683 -22.763087415027087 0 -22.763087415027087 -120.22543725205469 0 0 0 0 17.920466519273759 -16.686129568573961 0 -16.686129568573961 -137.06584604859381 0 0 0 0 12.7030131887268 -16.823142322140484 0 -16.823142322140484 -117.83422789083852 0 0 0 0 54.880175050753678 1.451393707015086 0 1.451393707015086 -133.17861073720633 0 0 0 0 18.92491779543343 -9.4040380173453286 0 -9.4040380173453286 -111.7805387131375 0 0 0 0 25.950811307031017 -6.7381209542018041 0 -6.7381209542018041 -133.65726130468829 0 0 0 0 25.812810441628244 -8.9434990528061462 0 -8.9434990528061462 -148.31382184482936 0 0 0 0 11.174482097583223 -22.422110397577853 0 -22.422110397577853 -97.85049238785723 0 0 0 0 22.374096979174283 -27.19476362369096 0 -27.19476362369096 -134.83646318485353 0 0 0 0 35.926452165792398 -8.0240666282170423 0 -8.0240666282170423 -140.05076424943036 0 0 0 0 65.511949312211982 -35.727936486240651 0 -35.727936486240651 -133.16566042415434 0 0 0 0 -57.226951634119359 -53.746748206742268 0 -53.746748206742268 -50.158811093679105 0 0 0 0 0.51845514588241315 -0.75449855761847573 0 -0.75449855761847573 1.59258494534763 0 0 0 0 11.647284294923338 -30.034045625527142 0 -30.034045625527142 -115.35820160261756 0 0 0 0 -9.9865392166375386 21.932726108450879 0 21.932726108450879 -96.756308392583378 0 0 0 0 29.605806051154559 8.674753129875171 0 8.674753129875171 -194.87446739028019 0 0 0 0 0.49083866755290728 -17.141505822923136 0 -17.141505822923136 -45.706083319200843 0 0 0 0 55.165609139858134 75.780817615665001 0 75.780817615665001 -179.96011998657195 0 0 0 0 -0.17170478165753877 -0.57735567043331315 0 -0.57735567043331315 -0.52306140302824389 0 0 0 0 6.1581885419072933 13.683416135900188 0 13.683416135900188 -79.737621885185945 0 0 0 0 19.81889400293494 1.3935655780987872 0 1.3935655780987872 -100.82588011152984 0 0 0 0 12.741193966003266 11.169011604346451 0 11.169011604346451 -109.36120716384539 0 0 0 0 7.1150877528734782 16.457938511670363 0 16.457938511670363 -110.39992296848868 0 0 0 0 15.558561044288581 12.475805011581542 0 12.475805011581542 -108.83102493994375 0 0 0 0 16.418495921966155 15.978998260518892 0 15.978998260518892 -121.64005932759756 0 0 0 0 10.963305655888689 23.333303185663681 0 23.333303185663681 -112.88948018767405 0 0 0 0 12.618094918992028 26.894301238186017 0 26.894301238186017 -119.24090923026961 0 0 0 0 18.215125444192381 10.398598661637152 0 10.398598661637152 -112.26273228341597 0 0 0 0 19.189612001676323 12.867186657701041 0 12.867186657701041 -129.51199225489108 0 0 0 0 17.463226482605023 8.5811288473564673 0 8.5811288473564673 -114.60675526475825 0 0 0 0 17.398006583514871 17.561154979561252 0 17.561154979561252 -140.19035951312071 0 0 0 0 23.432040207433602 -1.911873205590382 0 -1.911873205590382 -129.17788367312824 0 0 0 0 17.41724892588627 9.0041998066735687 0 9.0041998066735687 -145.76769781231633 0 0 0 0 16.465669315777632 18.032593678721241 0 18.032593678721241 -136.65312301127415 0 0 0 0 13.690629834098218 31.345023012927413 0 31.345023012927413 -143.4204973699525 0 0 0 0 14.051450064100209 28.578276221189299 0 28.578276221189299 -123.08204879724872 0 0 0 0 10.508399221112086 24.930334424781904 0 24.930334424781904 -172.68364631447184 0 0 0 0 -1.4173544690254403 13.626317866178397 0 13.626317866178397 -162.22769424585567 0 0 0 0 11.187336602657524 28.291223718564652 0 28.291223718564652 -156.04861182202148 0 0 0 0 12.497963602487289 4.4770236263011611 0 4.4770236263011611 -149.09386380461365 0 0 0 0 10.619010595228247 11.840860169329972 0 11.840860169329972 -172.05790687574699 0 0 0 0 17.753472713210613 -7.9119126674904692 0 -7.9119126674904692 -85.818239334749023 0 0 0 0 16.502915322460012 11.87743619052344 0 11.87743619052344 -99.27760018803383 0 0 0 0 8.739601557139915 -10.14727398492305 0 -10.14727398492305 -10.915613245099335 0 0 0 0 -7.0642776890454115 10.56599870840455 0 10.56599870840455 -83.173909849419942 0 0 0 0 34.935296476486656 3.4627199632723205 0 3.4627199632723205 -78.492055915496167 0 0 0 0 5.2513878728678307 -8.6355090724872294 0 -8.6355090724872294 -13.106878438453251 0 0 0 0 -0.92995743737810699 -66.65395303340847 0 -66.65395303340847 -103.29913004385492 0 0 0 0 20.433500279841724 -22.246209360360353 0 -22.246209360360353 -29.192866317818698 0 0 0 0 11.82767834878905 -13.263921200479217 0 -13.263921200479217 -20.753080361088422 0 0 0 0 6.106695994725543 -12.685499257815071 0 -12.685499257815071 -45.010344136103193 0 0 0 0 -13.998432576275945 -5.1711137689057978 0 -5.1711137689057978 -48.204006425393345 0 0 0 0 10.346782788748415 -21.207111433799795 0 -21.207111433799795 -46.519233224025939 0 0 0 0 19.77695840147237 -25.812134296536215 0 -25.812134296536215 -28.523904132112875 0 0 0 0 36.311427620956238 -7.7716818669014174 0 -7.7716818669014174 -73.139964614356359 0 0 0 0 63.683948267449523 8.0071399388793907 0 8.0071399388793907 -65.899673668256582 0 0 0 0 -1.2375220324987055 -4.1823546783883154 0 -4.1823546783883154 -33.584327915338584 0 0 0 0 13.626661242106366 -4.1796444979358967 0 -4.1796444979358967 -50.869975959997191 0 0 0 0 0.85882635335687318 -0.15568970627724532 0 -0.15568970627724532 -4.5621832329524921 0 0 0 0 -9.6123098463634165 -4.111102179577415 0 -4.111102179577415 -49.910512448126156 0 0 0 0 12.964131537039066 16.057229191374518 0 16.057229191374518 -19.648958866082467 0 0 0 0 -9.4874627350689025 -2.5312028986863879 0 -2.5312028986863879 -35.038206340012948 0 0 0 0 17.148321046077626 -35.206942287286211 0 -35.206942287286211 -70.282600087775037 0 0 0 0 -5.7074165711826481 -14.241735932575693 0 -14.241735932575693 -40.041893682246155 0 0 0 0 1.3514184789733754 1.5245213663583002 0 1.5245213663583002 -16.363882033870183 0 0 0 0 9.7640964635535727 -24.735629765090035 0 -24.735629765090035 -61.109704924233242 0 0 0 0 12.31357504085986 -12.414112496218877 0 -12.414112496218877 -124.99075515513323 0 0 0 0 10.471393678321874 -51.876318908554595 0 -51.876318908554595 -59.08506430147861 0 0 0 0 3.0623131515912974 11.215470223316515 0 11.215470223316515 -101.40627249956378 0 0 0 0 2.6631395380863978 20.368944785972417 0 20.368944785972417 -114.09172166619828 0 0 0 0 -25.02874706617672 -16.943705317866261 0 -16.943705317866261 -76.59141389119759 0 0 0 0 -1.2967210802539704 -1.1734707918202645 0 -1.1734707918202645 -0.38471331740755943 0 0 0 0 5.2730439705079606 -6.1610273647353573 0 -6.1610273647353573 -21.575831047832253 0 0 0 0 10.552587081941413 -19.109221478202148 0 -19.109221478202148 -40.54397164783893 0 0 0 0 6.0517661862530758 -4.583633844366318 0 -4.583633844366318 -66.709376411450648 0 0 0 0 -3.1247989564023015 -0.19206238337005033 0 -0.19206238337005033 -8.3543537022761853 0 0 0 0 -7.5064162084554482 20.52825039810341 0 20.52825039810341 -115.11849446165797 0 0 0 0 4.7138379536427237 8.4063696255761897 0 8.4063696255761897 -97.654340849006985 0 0 0 0 7.0591292587009775 14.540253173281599 0 14.540253173281599 -99.856102216479485 0 0 0 0 -3.7737780261832086 11.070229452880994 0 11.070229452880994 -100.06339755266526 0 0 0 0 2.9977700970102887 12.584215131839301 0 12.584215131839301 -106.90168744422408 0 0 0 0 12.779305613451207 6.8851767932458472 0 6.8851767932458472 -106.4463849918684 0 0 0 0 6.4220268825929452 9.2483392107023974 0 9.2483392107023974 -105.991081624863 0 0 0 0 3.9800343076694844 5.4178919129408314 0 5.4178919129408314 -108.46653818164032 0 0 0 0 5.9954480249798507 11.368361292839836 0 11.368361292839836 -104.35529138343009 0 0 0 0 -10.762269383371859 -4.8445273687702866 0 -4.8445273687702866 -98.332933723908354 0 0 0 0 -0.39855619039690282 1.9440534972936803 0 1.9440534972936803 -120.25159642400831 0 0 0 0 -0.70653746943571605 6.294133949038951 0 6.294133949038951 -100.76405441194947 0 0 0 0 -4.6679149763276655 5.0696422972032451 0 5.0696422972032451 -101.04345002318405 0 0 0 0 -9.1202782217942513 9.1015949877546518 0 9.1015949877546518 -93.508883564663847 0 0 0 0 -14.339537635041779 -19.826063509197411 0 -19.826063509197411 -129.36870943398026 0 0 0 0 -0.40407657346440828 19.119258556398563 0 19.119258556398563 -132.54627181780961 0 0 0 0 -15.666405599351492 49.454102298059297 0 49.454102298059297 -191.40403943300043 0 0 0 0 -3.5516902325082462 -3.5719445625195299 0 -3.5719445625195299 9.1492967920944324 0 0 0 0 -32.875711003764536 -26.991070019154904 0 -26.991070019154904 -55.415575759032436 0 0 0 0 8.6180075886356633 -24.509661025229441 0 -24.509661025229441 -30.285254474192516 0 0 0 0 2.2212093617235951 -37.812900846642151 0 -37.812900846642151 -114.24021051231739 0 0 0 0 24.809702253042815 -17.502945307346636 0 -17.502945307346636 -101.15096053257002 0 0 0 0 29.704506720708196 17.293141934824234 0 17.293141934824234 -105.11885645471557 0 0 0 0 -10.107663668086388 28.34292431303038 0 28.34292431303038 -103.71620805754355 0 0 0 0 0.60120097202993428 15.667939230664011 0 15.667939230664011 -73.162183737939046 0 0 0 0 -3.0166056949915259 14.249210147782655 0 14.249210147782655 -56.173263667328897 0 0 0 0 -14.686307934535318 16.57470545311936 0 16.57470545311936 -25.821668161669539 0 0 0 0 -10.019167365495832 0.2671536454120087 0 0.2671536454120087 -83.860394894927595 0 0 0 0 -3.3323254651163552 18.559939131812826 0 18.559939131812826 -67.057128191594529 0 0 0 0 20.784995846404854 31.587045467022108 0 31.587045467022108 -70.36447828556993 0 0 0 0 -10.682685231201503 21.31707643023401 0 21.31707643023401 -54.092458449632431 0 0 0 0 -9.8205808658235583 -6.6157657472886058 0 -6.6157657472886058 -72.790041818636382 0 0 0 0 -4.2910278003237181 10.594984034525623 0 10.594984034525623 -87.024560345349528 0 0 0 0 -9.4580385273311549 7.5375589219020185 0 7.5375589219020185 -84.364310503522574 0 0 0 0 -2.1315637961843095 24.647720409444446 0 24.647720409444446 -93.258826310222503 0 0 0 0 -1.0213741592110637 9.9162895777153608 0 9.9162895777153608 -95.617021199035662 0 0 0 0 -10.265846211185362 16.914066229216587 0 16.914066229216587 -91.952640042665735 0 0 0 0 -4.8961036011733086 23.738231686646031 0 23.738231686646031 -80.349816313195333 0 0 0 0 -9.9722270344373101 12.949687561736027 0 12.949687561736027 -75.776689772636018 0 0 0 0 -29.837681296792653 24.176197465330915 0 24.176197465330915 -75.248143108932709 0 0 0 0 -31.09220914444586 43.717845779308846 0 43.717845779308846 -83.42412147070354 0 0 0 0 -2.999630898813848 21.663227742466916 0 21.663227742466916 -87.094543761431851 0 0 0 0 -11.757094347331304 29.104515170357445 0 29.104515170357445 -87.257276872031071 0 0 0 0 -11.704305589836622 32.311792036882252 0 32.311792036882252 -107.02512477662822 0 0 0 0 -7.9966782789742865 13.400025103141161 0 13.400025103141161 -107.73542066055791 0 0 0 0 4.8454873288947056 -0.95492385038232896 0 -0.95492385038232896 -23.118610150730547 0 0 0 0 -0.84140852431168867 -0.17124280992739926 0 -0.17124280992739926 -0.089298038724224149 0 0 0 0 64.810892517652064 23.841637991519747 0 23.841637991519747 -173.87486692231323 0 0 0 0 -1.9664633614365812 42.325299877184079 0 42.325299877184079 -174.19593579110369 0 0 0 0 -38.399063392358585 28.801335477812245 0 28.801335477812245 -8.4281780496348802 0 0 0 0 -90.840691934304573 38.53067463944808 0 38.53067463944808 -65.584184479285796 0 0 0 0 4.0416468323974186 57.625226329839734 0 57.625226329839734 -110.04278365889729 0 0 0 0 -6.5784918715454204 22.92575507018736 0 22.92575507018736 -72.762741058028752 0 0 0 0 -104.35220731238041 -42.934784827698877 0 -42.934784827698877 -143.99136201887995 0 0 0 0 -102.19489351849438 9.9813417738773751 0 9.9813417738773751 -98.413178085910886 0 0 0 0 -68.040819740768484 17.468744385965266 0 17.468744385965266 -53.000119745673182 0 0 0 0 -41.470389171807938 -18.694737950584567 0 -18.694737950584567 -93.038544754252825 0 0 0 0 7.3671996083109406 -0.30514470476069278 0 -0.30514470476069278 -25.889842720639535 0 0 0 0 58.579647046567516 46.996392898889098 0 46.996392898889098 -105.03023221816693 0 0 0 0 23.417444515169336 52.552163804233714 0 52.552163804233714 -50.977071339373651 0 0 0 0 -25.012919215123929 45.55778863937212 0 45.55778863937212 -63.931577526898764 0 0 0 0 -0.75262067845415004 45.70513895606382 0 45.70513895606382 -149.53204384838318 0 0 0 0 -1.0217657485710561 45.042664031972663 0 45.042664031972663 -121.03477129202292 0 0 0 0 3.0266872147512913 35.114426464369899 0 35.114426464369899 -108.77241447609777 0 0 0 0 -5.3885211160759354 47.554481491613842 0 47.554481491613842 -104.65210556529109 0 0 0 0 -2.9869004366337322 35.342939689762716 0 35.342939689762716 -76.988532141756878 0 0 0 0 -2.5821128326124381 32.317128848166249 0 32.317128848166249 -81.515294159504265 0 0 0 0 -0.079339781203088933 37.52627478928116 0 37.52627478928116 -96.737299489332145 0 0 0 0 3.6527580318846731 38.522911048259402 0 38.522911048259402 -110.99909942972954 0 0 0 0 3.9289305370757575 31.206108842021422 0 31.206108842021422 -100.85896477511051 0 0 0 0 3.9060337883490774 31.058125021482283 0 31.058125021482283 -95.461982719942171 0 0 0 0 1.4737634778221036 24.746301542552828 0 24.746301542552828 -105.76112902069326 0 0 0 0 9.791208751092654 21.534294014123589 0 21.534294014123589 -104.92793955804882 0 0 0 0 -2.682597079907282 28.9705755656978 0 28.9705755656978 -90.064089172947206 0 0 0 0 -2.4962519674108989 27.908793778593463 0 27.908793778593463 -93.553537917547146 0 0 0 0 -8.0644369501605979 13.326632404184465 0 13.326632404184465 -94.236161311378964 0 0 0 0 -4.1691569773233823 19.107519466801023 0 19.107519466801023 -85.793832116367412 0 0 0 0 -2.4373626656068552 0.12126807040232279 0 0.12126807040232279 -0.1308328392490159 0 0 0 0 -1.4251236728168806 -8.6241174342358136 0 -8.6241174342358136 -11.700413289517201 0 0 0 0 -3.8764187521075648 0.52961970790649104 0 0.52961970790649104 0.28268012351086114 0 0 0 0 -13.987851736411812 16.407893152581892 0 16.407893152581892 -30.153990646154853 0 0 0 0 0.8914834603788222 8.1006170507698698 0 8.1006170507698698 -63.03719561851176 0 0 0 0 -0.0020661040716731804 27.429697603991372 0 27.429697603991372 -83.811808996590116 0 0 0 0 -9.2161730758208193 12.474392774233024 0 12.474392774233024 -42.216567388924886 0 0 0 0 -9.8431740155119769 34.684216544599622 0 34.684216544599622 -76.978763985558544 0 0 0 0 -3.9867311425139178 20.049593868514421 0 20.049593868514421 -54.26216107464279 0 0 0 0 -8.1036496482238363 22.979811742719903 0 22.979811742719903 -51.225353512405491 0 0 0 0 -119.23022005912026 214.69837343429026 0 214.69837343429026 -184.58025302653368 0 0 0 0 -0.31854553744751612 0.79559454055489098 0 0.79559454055489098 0.21178524208544047 0 0 0 0 -1.7309148187344174 0.21084031217917953 0 0.21084031217917953 0.21511265084854525 0 0 0 0 -130.25831033212535 -2.3833445900527295 0 -2.3833445900527295 0.99587691083547725 0 0 0 0 -19.390631861264865 25.839295865197073 0 25.839295865197073 -39.78917286273645 0 0 0 0 -257.9069011755596 26.623305084462118 0 26.623305084462118 296.11384004976753 0 0 0 0 -1.6830017412448317 0.62381726070644561 0 0.62381726070644561 -0.039317243208761177 0 0 0 0 44.189931012373563 36.825839745089525 0 36.825839745089525 -102.99653662151104 0 0 0 0 -91.457189963442374 199.25692787753235 0 199.25692787753235 -236.53150438419834 0 0 0 0 -87.120671927025796 217.053869248517 0 217.053869248517 -276.15157369960798 0 0 0 0 -115.71771322483755 232.22158242043042 0 232.22158242043042 -227.42884159105597 0 0 0 0 -139.62641828260186 -52.902257650599154 0 -52.902257650599154 -3.6253402916881896 0 0 0 0 -229.0440123598537 78.764617150104641 0 78.764617150104641 -34.225428514531814 0 0 0 0 -64.159597651665536 107.10908075083171 0 107.10908075083171 -128.18829133160398 0 0 0 0 -7.2472475035613115 -35.503561180136558 0 -35.503561180136558 -57.452316850063653 0 0 0 0 -18.492175167580172 3.4626209804100654 0 3.4626209804100654 1.7633923432799747 0 0 0 0 -0.0040779521150184905 0.87879330363534791 0 0.87879330363534791 -0.14500070338531401 0 0 0 0 4.0495973481692999 -10.645068267767783 0 -10.645068267767783 -27.71068251907036 0 0 0 0 -5.2265537381833838 -16.50628465353293 0 -16.50628465353293 -22.89875053618016 0 0 0 0 -46.867710091490153 87.978714944491912 0 87.978714944491912 -46.588769712730937 0 0 0 0 28.928859432358422 -32.445020738072344 0 -32.445020738072344 -84.386640413085843 0 0 0 0 -158.46472277828684 15.950367012897914 0 15.950367012897914 36.493187551903247 0 0 0 0 -215.56512653731806 185.18284147630766 0 185.18284147630766 -264.99356640294172 0 0 0 0 -103.12695382625407 25.928063442408529 0 25.928063442408529 -69.997430702127076 0 0 0 0 -143.63336247542725 -21.585193715473906 0 -21.585193715473906 -65.122364174567338 0 0 0 0 -229.5279902181403 71.226424570508243 0 71.226424570508243 -29.610301421009353 0 0 0 0 -237.08622345665754 -6.1098296536783891 0 -6.1098296536783891 -255.76688440904218 0 0 0 0 -369.65585351082245 190.83579186471889 0 190.83579186471889 -110.1892260796194 0 0 0 0 -181.6895646848252 -147.88550743702399 0 -147.88550743702399 -147.23708147183447 0 0 0 0 -89.729422370872499 -145.58691125366977 0 -145.58691125366977 -243.25559011857376 0 0 0 0 -163.45621796932554 -20.272105809006121 0 -20.272105809006121 -148.18984199658917 0 0 0 0 -69.011181142781936 -70.200662188206024 0 -70.200662188206024 -318.61838156266776 0 0 0 0 -82.409522842259918 -88.937266013175531 0 -88.937266013175531 -142.69489728056669 0 0 0 0 -39.471807876371258 -43.890866209455226 0 -43.890866209455226 -171.08481053040759 0 0 0 0 -3.3673621393236148 16.917355212690211 0 16.917355212690211 -60.555226627033676 0 0 0 0 46.968540212010339 33.591337049650974 0 33.591337049650974 -24.532331318781871 0 0 0 0 -0.68856039500542465 -5.0070538778709306 0 -5.0070538778709306 -25.331333200225345 0 0 0 0 4.5741946624282832 -7.9363487361174521 0 -7.9363487361174521 -25.18594130062047 0 0 0 0 25.050024811767798 -4.7649573638045695 0 -4.7649573638045695 -58.235754806333716 0 0 0 0 -241.25274392988467 -212.34119388192767 0 -212.34119388192767 -193.67566633137722 0 0 0 0 -1.7077764052235969 11.341261382833784 0 11.341261382833784 -45.41588119597597 0 0 0 0 94.458729665709143 25.464130374890374 0 25.464130374890374 -65.108659661432284 0 0 0 0 182.24084278201008 59.782078723630548 0 59.782078723630548 -87.858114342003319 0 0 0 0 -0.72954780922089046 6.1564717447360273 0 6.1564717447360273 -28.959341281193673 0 0 0 0 -343.61373374863388 -216.78677340836566 0 -216.78677340836566 -210.03290790863775 0 0 0 0 -182.54935559193586 -201.49859516854031 0 -201.49859516854031 -220.85084145849214 0 0 0 0 -87.415511372190849 -198.16410842925234 0 -198.16410842925234 -180.92526983049902 0 0 0 0 -88.22369851472854 -186.72600648793923 0 -186.72600648793923 -231.26118769820562 0 0 0 0 -122.01740625925197 -250.91315786581526 0 -250.91315786581526 -229.66242232613232 0 0 0 0 -184.87417893551174 -212.71099298752404 0 -212.71099298752404 -234.67082968713839 0 0 0 0 -93.360200751571028 -185.57705358751582 0 -185.57705358751582 -226.76527979768071 0 0 0 0 -95.533958986362762 -199.99845042223183 0 -199.99845042223183 -321.81750262983951 0 0 0 0 -148.96915996718189 -189.28479199493586 0 -189.28479199493586 -128.45254943504005 0 0 0 0 -121.51507987002469 -252.18326317389892 0 -252.18326317389892 -247.48497753378433 0 0 0 0 -36.738080416538992 -81.548513358029595 0 -81.548513358029595 -124.74485932772222 0 0 0 0 -96.96294085374474 -115.02052613428577 0 -115.02052613428577 -97.340678932188894 0 0 0 0 -96.07903416808017 -198.32546617149819 0 -198.32546617149819 -190.60737151529611 0 0 0 0 -112.93382095910447 -197.96761932213042 0 -197.96761932213042 -181.29361614992013 0 0 0 0 -45.409178347593866 -143.29166586042629 0 -143.29166586042629 -166.15402329387143 0 0 0 0 17.7278257120653 7.7096971177490641 0 7.7096971177490641 -25.86167509467364 0 0 0 0 17.451377270508146 -21.8059635270439 0 -21.8059635270439 -52.8232110098063 0 0 0 0 1.5729407894441465 -38.261134656839431 0 -38.261134656839431 -65.356853902595276 0 0 0 0 22.751096173344983 -1.4201593995003137 0 -1.4201593995003137 -33.549062048849102 0 0 0 0 -183.84752006968893 -23.36057627562559 0 -23.36057627562559 -73.101435129305628 0 0 0 0 -188.46836074404496 -267.45342295836053 0 -267.45342295836053 -265.38567556525959 0 0 0 0 15.846255027518964 -36.636724599194963 0 -36.636724599194963 -58.436811968201368 0 0 0 0 13.849358309170618 -33.698416199331476 0 -33.698416199331476 -61.110311232430213 0 0 0 0 30.878239763892452 -2.1032193943747188 0 -2.1032193943747188 -153.85309322396643 0 0 0 0 45.863755478581609 26.830684049533374 0 26.830684049533374 -150.77726883548166 0 0 0 0 -5.1435614252469577 32.631322219247522 0 32.631322219247522 -106.32838810870362 0 0 0 0 -11.896073327924569 -38.255202101888017 0 -38.255202101888017 -289.58345128373412 0 0 0 0 10.509724447834271 35.866048297118404 0 35.866048297118404 -79.440989373037297 0 0 0 0 -76.549382385914214 -155.78835369212743 0 -155.78835369212743 -338.22768848022952 0 0 0 0 -41.375421629556513 -130.3247239699208 0 -130.3247239699208 -375.17271191719374 0 0 0 0 -51.566376853621477 -166.10679371612832 0 -166.10679371612832 -339.54617788764517 0 0 0 0 -13.67128956837405 -162.15151130965978 0 -162.15151130965978 -337.59330646420608 0 0 0 0 -60.296520131582156 -204.17018460755071 0 -204.17018460755071 -358.09462511983111 0 0 0 0 -13.015468352216288 62.591562479616186 0 62.591562479616186 -102.29684565620641 0 0 0 0 9.350335805275769 23.168303477515732 0 23.168303477515732 -72.785840711727531 0 0 0 0 -38.42929231180824 -148.72869551575513 0 -148.72869551575513 -350.48396087504989 0 0 0 0 -91.683315730910579 -119.469705286166 0 -119.469705286166 -535.70969460441302 0 0 0 0 0.78939352720062494 1.3155586444110394 0 1.3155586444110394 -18.995649037423966 0 0 0 0 -22.267918953321441 -109.46216713940612 0 -109.46216713940612 -602.62956241183247 0 0 0 0 -105.06429474086553 -120.15655228109017 0 -120.15655228109017 -232.08071626120136 0 0 0 0 -272.0383379648033 -234.11574788633516 0 -234.11574788633516 -304.21221206016889 0 0 0 0 -155.28244507069778 -85.799899500149962 0 -85.799899500149962 -204.39309013696584 0 0 0 0 -310.47675580162149 -5.4838591324728441 0 -5.4838591324728441 -242.49895144323682 0 0 0 0 -166.36806967193615 -29.428660387238324 0 -29.428660387238324 -144.57079134790865 0 0 0 0 -203.1414295301322 -103.51384327604922 0 -103.51384327604922 -129.62723814296805 0 0 0 0 -120.5722863520889 -89.489835272605376 0 -89.489835272605376 -128.69123048510392 0 0 0 0 -114.37124977334554 -56.019958628542412 0 -56.019958628542412 -130.97343098267356 0 0 0 0 -29.754711844456779 -24.770266068145183 0 -24.770266068145183 -103.83776789908617 0 0 0 0 -137.45224642190942 -40.012541159427428 0 -40.012541159427428 -94.071486409825866 0 0 0 0 -75.530562994253614 -86.818707877709187 0 -86.818707877709187 -110.28402035948943 0 0 0 0 -151.13076160486344 -92.812696066913873 0 -92.812696066913873 -74.058897638567601 0 0 0 0 -111.87884748805845 -71.867273525426299 0 -71.867273525426299 -72.545480410781749 0 0 0 0 -121.57910907559108 -85.498468710019097 0 -85.498468710019097 -91.328991541826781 0 0 0 0 -127.3392605284198 -75.216275345130271 0 -75.216275345130271 -88.99465545566909 0 0 0 0 -71.491839668238754 -88.77141038268519 0 -88.77141038268519 -99.187341238573481 0 0 0 0 -50.478879131144822 -77.699044444044148 0 -77.699044444044148 -177.51335471083007 0 0 0 0 -115.73201389198084 -101.77193783959348 0 -101.77193783959348 -102.95236552739607 0 0 0 0 -109.28286450410633 -123.98971019001226 0 -123.98971019001226 -205.01103637525102 0 0 0 0 29.022282331636234 -112.05891330307122 0 -112.05891330307122 -238.99212833288448 0 0 0 0 -49.390359156529485 -139.12625082663635 0 -139.12625082663635 -242.27837677574735 0 0 0 0 91.482530578388833 -134.05095453052627 0 -134.05095453052627 -183.38393929494714 0 0 0 0 -17.361042310813446 -185.00090716399177 0 -185.00090716399177 -205.64669741187845 0 0 0 0 -54.470079541011728 -97.508257594028919 0 -97.508257594028919 -132.64745066666865 0 0 0 0 -189.2956148770736 -154.20567834161557 0 -154.20567834161557 -501.16117246092472 0 0 0 0 -17.773328444791751 -40.795424484692838 0 -40.795424484692838 -84.49603267668148 0 0 0 0 -311.66820138794174 64.357902355746774 0 64.357902355746774 -269.02882387170393 0 0 0 0 -51.668961619777292 -147.0208537831727 0 -147.0208537831727 -232.02792490046659 0 0 0 0 -21.960083359448646 -41.746643334829599 0 -41.746643334829599 -79.326337102886399 0 0 0 0 -260.90189794843536 31.236147618339601 0 31.236147618339601 -190.35380707788863 0 0 0 0 -260.32568115526863 39.037119919824363 0 39.037119919824363 -190.8433299476892 0 0 0 0 -273.58428675100186 65.117412563980906 0 65.117412563980906 -270.55217151671241 0 0 0 0 -285.98862269690835 -12.948236975269538 0 -12.948236975269538 -109.24097747843189 0 0 0 0 -254.98452465119408 37.413615902121819 0 37.413615902121819 -181.69669701475505 0 0 0 0 -302.89986633965054 23.261792773755587 0 23.261792773755587 -118.68102708943479 0 0 0 0 47.042169748026936 -116.74010509424261 0 -116.74010509424261 -80.618321359692345 0 0 0 0 -246.1420357977895 56.974312173584622 0 56.974312173584622 -203.17026660568081 0 0 0 0 -253.01904244455363 29.431918604852399 0 29.431918604852399 -153.04245280924079 0 0 0 0 -249.65004655432858 28.829877918513375 0 28.829877918513375 -189.84836717851431 0 0 0 0 -249.42113199753911 41.147827020763884 0 41.147827020763884 -192.58770854929753 0 0 0 0 -225.45886475577572 23.503391096310224 0 23.503391096310224 -182.83633629876567 0 0 0 0 -223.25805018480014 36.154773161733829 0 36.154773161733829 -188.51108915204532 0 0 0 0 -205.04177060852089 14.522510922790389 0 14.522510922790389 -181.37261731748004 0 0 0 0 -230.27420466868534 5.2294033174439392 0 5.2294033174439392 -141.59314817209088 0 0 0 0 -234.25262488683438 -2.5104881590013974 0 -2.5104881590013974 -120.28595747642976 0 0 0 0 -212.47175469756257 -9.3294080059713451 0 -9.3294080059713451 -132.766101994981 0 0 0 0 -235.96679068978483 -17.900640059153375 0 -17.900640059153375 -98.67599063153466 0 0 0 0 -260.89851027922487 5.3374484208761714 0 5.3374484208761714 -116.6752969041554 0 0 0 0 -227.0050079418379 2.8934227465360891 0 2.8934227465360891 -146.51820431361557 0 0 0 0 -252.03891966920219 -16.681313079385291 0 -16.681313079385291 -106.0945349772519 0 0 0 0 -277.93269219010108 -15.149937229798525 0 -15.149937229798525 -80.437010987741814 0 0 0 0 -50.711149955057408 -63.284737973004212 0 -63.284737973004212 -103.38872812529007 0 0 0 0 15.04667989112022 -120.98267730348857 0 -120.98267730348857 -62.850771968778645 0 0 0 0 14.241786228152705 -127.33854142310247 0 -127.33854142310247 -88.686422928404681 0 0 0 0 13.212263659610471 -74.361841015683694 0 -74.361841015683694 -129.37025736192982 0 0 0 0 -7.8124764369949844 -106.73245396440529 0 -106.73245396440529 -61.950773261622089 0 0 0 0 33.627060261363113 -173.54961844111926 0 -173.54961844111926 -67.707427197961806 0 0 0 0 82.937437898683129 -132.08487344018795 0 -132.08487344018795 -86.008170110651918 0 0 0 0 -18.956471518691639 -15.205418787907401 0 -15.205418787907401 20.603653472926659 0 0 0 0 168.32813876365253 -191.24638880715156 0 -191.24638880715156 -91.116110567742453 0 0 0 0 -193.19632896185431 40.241380568215391 0 40.241380568215391 -224.95413245775853 0 0 0 0 37.57235866823612 -117.68029462988125 0 -117.68029462988125 -69.435287479927297 0 0 0 0 23.330552281251585 -130.23629895206614 0 -130.23629895206614 -67.040722403740801 0 0 0 0 104.95116909060744 -100.05643053876793 0 -100.05643053876793 -83.184262572591251 0 0 0 0 77.25040859933506 -112.13865112840904 0 -112.13865112840904 -68.878263712647822 0 0 0 0 -173.59473549112772 -19.957831002488092 0 -19.957831002488092 -133.34960099915043 0 0 0 0 -20.537878896462349 -41.625798603906532 0 -41.625798603906532 -78.208438586097202 0 0 0 0 -170.86047623558534 -3.3837846420901769 0 -3.3837846420901769 -168.25942340772599 0 0 0 0 -180.88386545199683 17.50829188372154 0 17.50829188372154 -200.90498246737116 0 0 0 0 -197.09339768956124 -0.17689404892007587 0 -0.17689404892007587 -155.08209908503341 0 0 0 0 -191.82521090593582 -15.996066183677613 0 -15.996066183677613 -128.4153837038757 0 0 0 0 -207.91224207168489 4.5543956732581137 0 4.5543956732581137 -153.88345942124761 0 0 0 0 96.502874894377783 -164.549858614529 0 -164.549858614529 -110.95924771831464 0 0 0 0 103.90326929837011 -102.0812583919449 0 -102.0812583919449 -139.70202594098845 0 0 0 0 -16.884257143166661 -31.94576982870284 0 -31.94576982870284 -84.45650387355407 0 0 0 0 -81.606472720554848 -85.739152963039942 0 -85.739152963039942 -157.26654151293769 0 0 0 0 -188.58839481320683 -9.4611617408118036 0 -9.4611617408118036 -114.01632453103957 0 0 0 0 -185.27017947045169 -18.154090453936078 0 -18.154090453936078 -113.1966728966072 0 0 0 0 -208.22986115787353 -8.1381217715170351 0 -8.1381217715170351 -117.54182208254497 0 0 0 0 -185.6988032796271 -41.943450021037279 0 -41.943450021037279 -100.82761802188179 0 0 0 0 -186.74077188720366 -52.105199729961896 0 -52.105199729961896 -122.03943918389268 0 0 0 0 -102.60428704593505 -15.785395933809923 0 -15.785395933809923 -122.17289277093369 0 0 0 0 -226.32519435117956 -68.436824251508369 0 -68.436824251508369 -53.089314770433703 0 0 0 0 -238.72819220596102 -44.791182209468388 0 -44.791182209468388 -69.643778619858494 0 0 0 0 -255.39827304936989 -47.109619919930992 0 -47.109619919930992 -60.024994331179187 0 0 0 0 -253.78760556567522 -30.184605558210023 0 -30.184605558210023 -75.287429964671901 0 0 0 0 -229.16772007025429 -42.582977514117374 0 -42.582977514117374 -78.092358229587262 0 0 0 0 -208.54984332083313 -31.749181344112003 0 -31.749181344112003 -91.576879356478457 0 0 0 0 -231.65349268482169 -19.858059314065031 0 -19.858059314065031 -99.995687157075736 0 0 0 0 -208.27208172895496 -20.71643183273666 0 -20.71643183273666 -107.92241617989202 0 0 0 0 -232.39724865988319 -18.956502753935638 0 -18.956502753935638 -98.407710928207962 0 0 0 0 -220.48177717428007 -34.547525162455713 0 -34.547525162455713 -92.143057328124996 0 0 0 0 -224.1501554206593 -46.104348908496831 0 -46.104348908496831 -76.380054448891315 0 0 0 0 -218.49854128320112 -54.193637795098766 0 -54.193637795098766 -89.47507734582905 0 0 0 0 -209.36777129730035 -68.178002341388492 0 -68.178002341388492 -70.211091110529196 0 0 0 0 -240.39098011095757 -51.051062017661025 0 -51.051062017661025 -68.003464896130026 0 0 0 0 -216.25987528060841 -78.352196755540717 0 -78.352196755540717 -58.293071323016193 0 0 0 0 -187.36781901743007 -82.535164735271792 0 -82.535164735271792 -106.31366632523714 0 0 0 0 -183.70777166056178 -71.835863481843262 0 -71.835863481843262 -123.5867589883419 0 0 0 0 -212.38192484256797 -60.853204036036004 0 -60.853204036036004 -113.66349752093083 0 0 0 0 -214.31466009600263 -52.988972129074682 0 -52.988972129074682 -90.854901264239743 0 0 0 0 -225.75070696009698 -49.933438140265935 0 -49.933438140265935 -120.13666506403933 0 0 0 0 -204.09359330951429 -36.933086224114959 0 -36.933086224114959 -166.20808237173333 0 0 0 0 -114.75698705177274 -147.64193327736029 0 -147.64193327736029 -142.40299591673829 0 0 0 0 -143.26996357365351 -101.6344342716111 0 -101.6344342716111 -161.76861900372023 0 0 0 0 -129.19038207438825 -106.84970070352756 0 -106.84970070352756 -252.53115822724794 0 0 0 0 -159.8696364543448 -101.74749410126969 0 -101.74749410126969 -152.10408767995978 0 0 0 0 -17.779504279152661 -45.325632767982825 0 -45.325632767982825 -199.41008914789563 0 0 0 0 -4.4935088700424348 -10.002743013997165 0 -10.002743013997165 -30.53177020175211 0 0 0 0 11.667318314712247 -45.522313663128443 0 -45.522313663128443 -244.27123349077078 0 0 0 0 -134.31471256904706 -101.94449871003144 0 -101.94449871003144 -152.40940440339909 0 0 0 0 -117.25352131048021 -65.127655552210854 0 -65.127655552210854 -132.16768840867735 0 0 0 0 -204.75374737543461 -86.972874192830204 0 -86.972874192830204 -137.34640312881129 0 0 0 0 0.69007615371908493 -8.1263853267651012 0 -8.1263853267651012 -62.696042337281916 0 0 0 0 -18.757311998391742 -14.042407659198943 0 -14.042407659198943 -110.39104071282964 0 0 0 0 -26.640223121309191 0.44920878787388574 0 0.44920878787388574 -56.256549094303864 0 0 0 0 -16.058068396150162 12.041043488460119 0 12.041043488460119 -29.822246664875237 0 0 0 0 -9.0998541429784563 -12.248432962156592 0 -12.248432962156592 -4.5668040544725095 0 0 0 0 -91.989475289375605 -178.78343592115866 0 -178.78343592115866 -83.062545562929131 0 0 0 0 -37.502129120730388 -16.996179862168276 0 -16.996179862168276 -81.052147473629759 0 0 0 0 -97.462059539784605 -101.9955630808746 0 -101.9955630808746 -120.23699547180922 0 0 0 0 -24.33573381261067 -0.38839743250139236 0 -0.38839743250139236 -163.09889809190804 0 0 0 0 425.83712444380512 -174.94786671943984 0 -174.94786671943984 -108.86466220263537 0 0 0 0 427.95172101289427 -15.359873313191201 0 -15.359873313191201 -77.809139967066585 0 0 0 0 0.14473925564740719 -6.3695414849917764 0 -6.3695414849917764 -32.885094538546213 0 0 0 0 351.03205954444456 7.1772797975718277 0 7.1772797975718277 39.763842525961081 0 0 0 0 377.51560823743785 85.948416048697254 0 85.948416048697254 68.818926519335946 0 0 0 0 377.51560823742147 85.948416048631771 0 85.948416048631771 68.818926519306842 0 0 0 0 377.51560823744512 85.948416048719082 0 85.948416048719082 68.818926519270462 0 0 0 0 39.973925660689019 -7.6539518065146694 0 -7.6539518065146694 154.81216548237717 0 0 0 0 76.193568511283956 -73.926897074872613 0 -73.926897074872613 27.654914726444986 0 0 0 0 17.339175099561544 -121.11400040532317 0 -121.11400040532317 25.413292089200695 0 0 0 0 174.88360917045975 -57.267781131753509 0 -57.267781131753509 12.767535662671435 0 0 0 0 91.866786377278913 52.046473865862936 0 52.046473865862936 102.27356257307838 0 0 0 0 270.38942255237271 19.684691771119105 0 19.684691771119105 -23.424920517201826 0 0 0 0 268.41746160560632 -99.958600210134705 0 -99.958600210134705 -45.890242332374328 0 0 0 0 266.48540616076434 39.872605384975031 0 39.872605384975031 -62.249910495484073 0 0 0 0 335.88588024895625 16.460100501062698 0 16.460100501062698 -68.923077030223794 0 0 0 0 244.52291052584496 19.671254025510279 0 19.671254025510279 -17.842876559552678 0 0 0 0 341.56207516038421 -12.508434178052994 0 -12.508434178052994 -1.0210724139906233 0 0 0 0 370.94834433294363 60.02211124029418 0 60.02211124029418 -29.064083035354997 0 0 0 0 429.61843863646754 101.37149008088454 0 101.37149008088454 -55.596438122986001 0 0 0 0 327.7295514166949 52.825284639900019 0 52.825284639900019 -21.69212379961391 0 0 0 0 267.90493681689895 5.4881735046692484 0 5.4881735046692484 -80.903516435137135 0 0 0 0 333.48078863552735 38.406527418001133 0 38.406527418001133 -73.164870542837889 0 0 0 0 311.7096806827094 60.772680728587147 0 60.772680728587147 -60.710648956242949 0 0 0 0 473.59379753498433 78.072702510307863 0 78.072702510307863 -115.48466170158645 0 0 0 0 340.86522729890703 44.27835360703466 0 44.27835360703466 -91.56216708640568 0 0 0 0 -26.819384910363624 -119.26664695192449 0 -119.26664695192449 -56.457646168521023 0 0 0 0 455.25238261505638 125.55246878931212 0 125.55246878931212 -73.547792262776056 0 0 0 0 1.8138168677247712 4.8980042472231453 0 4.8980042472231453 -26.427351298392395 0 0 0 0 -20.002911396004492 -107.85288818628032 0 -107.85288818628032 -102.44736616760201 0 0 0 0 399.07583142075055 122.81448068478494 0 122.81448068478494 10.065179958153749 0 0 0 0 13.768119030661182 -113.83263802264264 0 -113.83263802264264 -36.911800053945626 0 0 0 0 -18.44650754381837 -85.550861308081949 0 -85.550861308081949 70.963951714744326 0 0 0 0 21.215592607864892 -139.84985514939035 0 -139.84985514939035 -0.058824259864195483 0 0 0 0 -7.7262560201843371 -150.49635917600608 0 -150.49635917600608 -51.99290031271812 0 0 0 0 -53.691497837916131 -110.65504685546148 0 -110.65504685546148 -85.80215045780642 0 0 0 0 -34.488858856177103 -159.90154454556978 0 -159.90154454556978 -102.61708816210012 0 0 0 0 -22.391649776671784 -175.06248414030779 0 -175.06248414030779 -86.06683731378871 0 0 0 0 -54.689828817107355 -188.4586378584263 0 -188.4586378584263 -84.359517923032399 0 0 0 0 -56.210411791304068 -177.96335198784072 0 -177.96335198784072 -114.54403957306931 0 0 0 0 -84.689973418338013 -173.99526185173818 0 -173.99526185173818 -82.21551010227995 0 0 0 0 -58.811067687960531 -164.25900017183449 0 -164.25900017183449 -74.79006339507032 0 0 0 0 -61.911203922554023 -183.28604345691656 0 -183.28604345691656 -79.532674581816536 0 0 0 0 -97.483635307607983 -157.88219771470176 0 -157.88219771470176 -53.416419782213779 0 0 0 0 -64.685934244103919 -178.13146172968663 0 -178.13146172968663 -43.918550875678193 0 0 0 0 -56.614265863983746 -151.21497379397624 0 -151.21497379397624 -30.25220618718231 0 0 0 0 -3.3510708693750075 -166.23675150798408 0 -166.23675150798408 -33.072782571631251 0 0 0 0 -25.704337266550283 -147.28671694287186 0 -147.28671694287186 -48.536115168681135 0 0 0 0 -33.216177649100246 -184.54919778052863 0 -184.54919778052863 -58.769823134833132 0 0 0 0 -98.880229843643974 -161.72808673314648 0 -161.72808673314648 -125.95176916361379 0 0 0 0 -134.3741604745901 -134.91998695006623 0 -134.91998695006623 -100.63212019875937 0 0 0 0 -99.916910349169484 -167.81396290185876 0 -167.81396290185876 -103.42922491178615 0 0 0 0 -84.419036397425998 -174.40422777069216 0 -174.40422777069216 -102.45956409758946 0 0 0 0 -121.9825888854175 -150.00220913341764 0 -150.00220913341764 -74.121446645021933 0 0 0 0 -98.379549444536678 -163.42512298856673 0 -163.42512298856673 -67.908813599555288 0 0 0 0 -121.44671036974256 -140.65361860161238 0 -140.65361860161238 -99.084767200663919 0 0 0 0 -150.05633986324392 -132.69440010989638 0 -132.69440010989638 -66.551495946921932 0 0 0 0 -173.47777485019469 -101.01961817328993 0 -101.01961817328993 -82.218626994671467 0 0 0 0 -164.05055082339186 -103.7001248995166 0 -103.7001248995166 -108.18571785726817 0 0 0 0 -129.87563237153427 -130.9157452014806 0 -130.9157452014806 -104.64079563700943 0 0 0 0 -218.66473753884929 -71.534675727736612 0 -71.534675727736612 -62.257751499219012 0 0 0 0 -189.43977422569697 -85.871676734161156 0 -85.871676734161156 -83.480004613148139 0 0 0 0 -163.98152339650005 -114.54200491078518 0 -114.54200491078518 -72.750031744402804 0 0 0 0 -184.07638334299577 -113.48408998899595 0 -113.48408998899595 -47.504674456315115 0 0 0 0 -213.5995378636544 -97.14360123766528 0 -97.14360123766528 -37.902399276703363 0 0 0 0 -189.04772992432845 -101.03372540039709 0 -101.03372540039709 -56.881914417710504 0 0 0 0 -167.79090479497427 -118.03467669221573 0 -118.03467669221573 -48.464568514900748 0 0 0 0 -181.90340541724527 -121.50045418595255 0 -121.50045418595255 -31.857103798291064 0 0 0 0 -144.02163955991819 -140.25908158833408 0 -140.25908158833408 -46.420648318598978 0 0 0 0 -123.79893828056629 -138.22537018376897 0 -138.22537018376897 -46.768124166876078 0 0 0 0 -143.14274026506519 -138.17833869350579 0 -138.17833869350579 -41.653804225570639 0 0 0 0 -152.07263549817435 -144.42963446260546 0 -144.42963446260546 -20.885524288212764 0 0 0 0 -160.4858171602209 -115.8337701889759 0 -115.8337701889759 -30.344405273548546 0 0 0 0 -144.89982109960829 -147.22457319911155 0 -147.22457319911155 -5.4592979760200251 0 0 0 0 -181.41968414165694 -139.14641842438868 0 -139.14641842438868 -20.140095065835339 0 0 0 0 -209.84435445494637 -90.321057195229514 0 -90.321057195229514 -44.912092888072948 0 0 0 0 -217.21673648271099 -96.223341366930981 0 -96.223341366930981 -19.104518112584628 0 0 0 0 -203.31712841920489 -99.948709711694391 0 -99.948709711694391 -34.944518581318334 0 0 0 0 -178.10975648658587 -128.82987994155701 0 -128.82987994155701 -24.813852966573904 0 0 0 0 -200.34577197418639 -98.061954349104781 0 -98.061954349104781 -43.005133450467838 0 0 0 0 -240.43695656229283 -79.719809314236045 0 -79.719809314236045 -32.17518582152843 0 0 0 0 -228.90242701346324 -72.672738848719746 0 -72.672738848719746 -48.665493929505828 0 0 0 0 -32.666301857419967 -135.57625778148213 0 -135.57625778148213 4.9150385470929905 0 0 0 0 58.842290029078868 -151.45108729790809 0 -151.45108729790809 -14.11642632359144 0 0 0 0 58.181869105149417 -94.835518721112749 0 -94.835518721112749 7.2426161533876439 0 0 0 0 25.973021090261682 -114.15694553060894 0 -114.15694553060894 -4.7284174390370026 0 0 0 0 -7.1423798201226418 -173.38924197162123 0 -173.38924197162123 -24.671800510099274 0 0 0 0 -89.458709055543295 -144.21047141775489 0 -144.21047141775489 -27.325225434640743 0 0 0 0 -111.63801432761466 -162.33924516821207 0 -162.33924516821207 -18.718710218148772 0 0 0 0 -102.94621006351008 -134.30048452108167 0 -134.30048452108167 -29.385445463438373 0 0 0 0 -43.985591254376232 -168.05833542649634 0 -168.05833542649634 -26.942376330218394 0 0 0 0 -97.978326088098356 -154.84353704079786 0 -154.84353704079786 6.5931881387223257 0 0 0 0 -102.23815993517292 -156.85803237469918 0 -156.85803237469918 1.4525017871274031 0 0 0 0 -20.640206541619591 -140.03889737977443 0 -140.03889737977443 -21.707019559435139 0 0 0 0 -133.99515990669352 -110.11539953797183 0 -110.11539953797183 -23.239602765595919 0 0 0 0 95.788421408691647 -164.63158156563441 0 -164.63158156563441 -23.948391955926127 0 0 0 0 -15.013569910445767 -117.16651525764973 0 -117.16651525764973 14.724616418840014 0 0 0 0 26.007863808486491 -182.82739419860445 0 -182.82739419860445 -44.913160974403581 0 0 0 0 111.5303479491613 -102.61282328487141 0 -102.61282328487141 -33.974407008413436 0 0 0 0 -131.24773030507822 -110.08953046745592 0 -110.08953046745592 -3.5070854150799278 0 0 0 0 -119.54215835315063 -90.543753434514656 0 -90.543753434514656 -103.33053029829898 0 0 0 0 -133.05731269608896 -128.94466855124847 0 -128.94466855124847 -1.527754776952861 0 0 0 0 -295.57284561630331 -3.461057984350191 0 -3.461057984350191 -86.761208834330318 0 0 0 0 -268.07533405252434 -44.774502792533895 0 -44.774502792533895 -52.825186927008872 0 0 0 0 -259.55031298914128 -45.801912625502155 0 -45.801912625502155 -64.06538090518734 0 0 0 0 -247.90627312896595 -87.964847847177225 0 -87.964847847177225 -29.569107692121179 0 0 0 0 -259.00147701090282 -44.927919937614206 0 -44.927919937614206 -50.778887240268887 0 0 0 0 -254.45233422740148 -133.31129667097412 0 -133.31129667097412 -24.581544489861699 0 0 0 0 -129.8049194100563 -114.88810330847809 0 -114.88810330847809 -43.249252163659548 0 0 0 0 -321.39631788058341 1.4705089245435374 0 1.4705089245435374 -151.85845711900765 0 0 0 0 -332.66501786453153 -153.24319393711744 0 -153.24319393711744 -100.39588671684032 0 0 0 0 -293.90433472410405 21.477977744390955 0 21.477977744390955 -143.5197437130264 0 0 0 0 -361.8430147138688 -24.451072458869021 0 -24.451072458869021 -61.14877168291423 0 0 0 0 -271.31330504235302 -60.770379768222483 0 -60.770379768222483 -70.700555346171313 0 0 0 0 -310.20750847970885 -25.978489307231939 0 -25.978489307231939 -215.82860970339243 0 0 0 0 -405.94567833293513 17.709544105160603 0 17.709544105160603 -140.18964759892515 0 0 0 0 -389.92238973027042 -214.1288911728534 0 -214.1288911728534 -383.23339771862811 0 0 0 0 -596.51547534698693 115.05697573005455 0 115.05697573005455 -240.30743120640363 0 0 0 0 -326.40212455023538 142.61301222742986 0 142.61301222742986 -670.27276087464998 0 0 0 0 -108.96650107313212 -110.04465565798728 0 -110.04465565798728 -96.924039296412957 0 0 0 0 118.51096057633731 -95.332101403077104 0 -95.332101403077104 -158.24440328096171 0 0 0 0 -123.05518440144442 -16.228206037754717 0 -16.228206037754717 -252.28914415679355 0 0 0 0 97.339829074120644 93.160411177952483 0 93.160411177952483 -280.10837557449486 0 0 0 0 0.36924410694492638 -5.1855966194262511 0 -5.1855966194262511 -33.743878502336941 0 0 0 0 521.09961342069096 -86.085958790037694 0 -86.085958790037694 -165.57904004414559 0 0 0 0 126.89786549917642 -47.977182424313469 0 -47.977182424313469 94.798756631767901 0 0 0 0 222.27568759536973 -258.93546284340391 0 -258.93546284340391 19.214807504748023 0 0 0 0 312.61019448675779 6.0030772286736465 0 6.0030772286736465 -73.184368124464527 0 0 0 0 370.85373540854607 42.08136292155541 0 42.08136292155541 -97.188526506739436 0 0 0 0 451.51655195917658 40.74761616937576 0 40.74761616937576 -154.06651072730892 0 0 0 0 551.02249407950217 -132.29833777431304 0 -132.29833777431304 -38.245026130357473 0 0 0 0 -1.6808875298320345 118.87912916580353 0 118.87912916580353 -0.62209726114815567 0 0 0 0 165.19064087708102 -118.31513020846432 0 -118.31513020846432 4.3285724987181311 0 0 0 0 -133.1131887035026 35.085612910297641 0 35.085612910297641 12.848199298048712 0 0 0 0 364.07259167112329 -42.186901345659862 0 -42.186901345659862 -102.72148672657931 0 0 0 0 0.24054942416124003 -4.5956240900186138 0 -4.5956240900186138 -27.010424494976832 0 0 0 0 713.35974460976172 -193.08452989165016 0 -193.08452989165016 -229.34740212867473 0 0 0 0 -215.10964919941989 133.2442081485442 0 133.2442081485442 -103.45101706754576 0 0 0 0 -1.538514641740127 1.2316177286101926 0 1.2316177286101926 -15.74730777521701 0 0 0 0 -502.73108158367495 141.60769010327385 0 141.60769010327385 -75.118963856486516 0 0 0 0 -187.93228639118206 -137.55037348639235 0 -137.55037348639235 -831.60843951006063 0 0 0 0 0.060260219267886939 -6.5874608356517186 0 -6.5874608356517186 -20.059877553118461 0 0 0 0 -169.53212302820702 212.18749312010914 0 212.18749312010914 -497.3213273383426 0 0 0 0 26.632200582371752 160.23216456392765 0 160.23216456392765 -170.96477250867611 0 0 0 0 -136.82754953765357 93.442523691071528 0 93.442523691071528 -114.39896046764625 0 0 0 0 -176.61059941604026 192.65741609066572 0 192.65741609066572 -100.97682315960037 0 0 0 0 -212.39571180191842 119.86515521966794 0 119.86515521966794 -88.622447258479951 0 0 0 0 -13.304576483796481 68.208270370601895 0 68.208270370601895 -130.63019121384787 0 0 0 0 -2.8898341660081428 35.142254298671105 0 35.142254298671105 -146.98992462445676 0 0 0 0 2.7276816460733926 60.364402433509895 0 60.364402433509895 -159.20492748517063 0 0 0 0 -42.198678248852048 43.680604907387533 0 43.680604907387533 -131.10741476772455 0 0 0 0 -56.235217720789933 186.03607828248823 0 186.03607828248823 -467.86172250915479 0 0 0 0 -1.3847529070876865 -1.7494715828102159 0 -1.7494715828102159 -1.4300285090980935 0 0 0 0 -68.192513461497924 -99.449066162140298 0 -99.449066162140298 -287.38525177596603 0 0 0 0 145.92048297634847 -52.14839540466528 0 -52.14839540466528 -320.05557604087517 0 0 0 0 -285.55722521073642 180.44954863111434 0 180.44954863111434 -541.91460202597955 0 0 0 0 -263.39196275806125 -189.23065447232511 0 -189.23065447232511 -107.53092541320439 0 0 0 0 83.031244799303067 -216.84338612447391 0 -216.84338612447391 -120.60357064154346 0 0 0 0 1.4800690604205424 -42.423644738848509 0 -42.423644738848509 -54.412599532994363 0 0 0 0 -69.89159499391053 460.46046732846844 0 460.46046732846844 -579.86410312976295 0 0 0 0 -154.05100881654607 -559.90932047429578 0 -559.90932047429578 -143.77270498375583 0 0 0 0 -0.42931283006763055 -2.1382156005916606 0 -2.1382156005916606 -10.737433546813079 0 0 0 0 -1.882468662483916 299.27659181737545 0 299.27659181737545 -202.19678664521052 0 0 0 0 -87.040033643292418 0.4992952109196267 0 0.4992952109196267 -309.53491100703104 0 0 0 0 95.130195027794798 127.58740694885273 0 127.58740694885273 -634.35232421205001 0 0 0 0 91.438408122138298 189.89309527835576 0 189.89309527835576 -629.82143418207852 0 0 0 0 296.14835136417605 160.12696598852563 0 160.12696598852563 -655.86779751558061 0 0 0 0 -305.11765139797399 103.78325147679516 0 103.78325147679516 -570.12133363435714 0 0 0 0 0.16206847622853715 -0.91106954863295897 0 -0.91106954863295897 -2.0774100474416315 0 0 0 0 282.65974562507972 -6.2028878271630674 0 -6.2028878271630674 -555.88529134720375 0 0 0 0 -215.97981737303274 42.126470354562571 0 42.126470354562571 14.810924110446649 0 0 0 0 321.86437795549955 186.22839018672676 0 186.22839018672676 -631.17118878342808 0 0 0 0 213.47372933710767 -48.243651706181481 0 -48.243651706181481 70.634142487011559 0 0 0 0 376.12829303082981 -151.98782252493766 0 -151.98782252493766 -1001.8207790401873 0 0 0 0 -1153.4299551528793 539.23507383487959 0 539.23507383487959 -470.84250600514497 0 0 0 0 317.68203583692321 388.98154546060937 0 388.98154546060937 -1001.8370797587922 0 0 0 0 0.60566368104303159 0.7348235490311481 0 0.7348235490311481 -11.263653832164294 0 0 0 0 39.130225952382808 169.30511091174623 0 169.30511091174623 -385.7339709237458 0 0 0 0 78.738211581525746 -636.29870042426671 0 -636.29870042426671 23.30718270118814 0 0 0 0 -1.9547310011284935 -25.937117595138261 0 -25.937117595138261 -56.810696737720718 0 0 0 0 25.123973065955397 -34.238754845646326 0 -34.238754845646326 12.873884533997625 0 0 0 0 -1.3426074552273581 -31.83379138792932 0 -31.83379138792932 -21.377403324018871 0 0 0 0 -9.441184901117424 -24.185094309530918 0 -24.185094309530918 -12.91474479071104 0 0 0 0 -14.206078827869987 -21.581045536591773 0 -21.581045536591773 -32.330325155780884 0 0 0 0 67.245110314973317 -68.079672366857267 0 -68.079672366857267 23.521352185605792 0 0 0 0 11.933877968262095 -72.300681801072642 0 -72.300681801072642 56.937656123418492 0 0 0 0 -3.3553175874172805 -2.304664801360488 0 -2.304664801360488 0.92034022246173208 0 0 0 0 0.91296185098599381 -27.322821108213247 0 -27.322821108213247 34.188399958744412 0 0 0 0 80.033684170004562 -22.548271654293785 0 -22.548271654293785 22.192205235536676 0 0 0 0 17.538579150173973 -5.2580345844980911 0 -5.2580345844980911 17.262534016786958 0 0 0 0 29.519053426189203 -17.312796274902212 0 -17.312796274902212 45.214661225909367 0 0 0 0 61.84051356038799 -38.667647675389162 0 -38.667647675389162 18.482465947265155 0 0 0 0 3.499011354979217 -18.841732088634217 0 -18.841732088634217 -34.387327319304859 0 0 0 0 -19.451272971065009 -31.083266832962181 0 -31.083266832962181 -63.659749685734823 0 0 0 0 -8.3563185684563539 -29.84449576812646 0 -29.84449576812646 2.8298602223225728 0 0 0 0 58.441746904321462 3.4782203206159465 0 3.4782203206159465 53.163438735733507 0 0 0 0 0.35819458907555379 -38.832402790664545 0 -38.832402790664545 -23.449338906645654 0 0 0 0 4.3130686332951882 -14.099724095918646 0 -14.099724095918646 -40.617725159216207 0 0 0 0 -12.873096147791431 -16.0396387024307 0 -16.0396387024307 10.951336840916902 0 0 0 0 36.870602683679863 -51.255222345881521 0 -51.255222345881521 42.857110617204853 0 0 0 0 1.2171425233382207 -38.076566672296998 0 -38.076566672296998 -34.738398526973242 0 0 0 0 -22.156611014870805 -35.082997555665315 0 -35.082997555665315 -27.503479058349512 0 0 0 0 0.50704326193686011 -6.8381259073295624 0 -6.8381259073295624 -14.021029529182705 0 0 0 0 -71.44403437949245 -277.51318092284157 0 -277.51318092284157 12.806567851244878 0 0 0 0 72.030428746569214 -52.77607247880583 0 -52.77607247880583 38.73021735675659 0 0 0 0 4.4222564525575692 -36.52552115632863 0 -36.52552115632863 -24.164956246342108 0 0 0 0 25.458382674853056 -55.500180253982961 0 -55.500180253982961 73.64693854106811 0 0 0 0 1.1780006693479113 -1.226694271589178 0 -1.226694271589178 -2.2382796187388174 0 0 0 0 -141.61999376448364 -110.74005026078299 0 -110.74005026078299 -134.22297450843803 0 0 0 0 -67.781914821394366 -109.47613379410464 0 -109.47613379410464 -278.92171350300418 0 0 0 0 -113.42063381753815 -115.11492175604246 0 -115.11492175604246 -136.1419266026127 0 0 0 0 -71.936243140988609 -79.46087588542315 0 -79.46087588542315 -218.49905587616331 0 0 0 0 -17.069186596267173 -107.39966244502875 0 -107.39966244502875 -182.03865562073031 0 0 0 0 8.4651331353941206 -1.4483183298857063 0 -1.4483183298857063 -12.393084576863188 0 0 0 0 -26.795606146301395 -1.7145985116141009 0 -1.7145985116141009 -92.692487759373591 0 0 0 0 -100.23804409330114 -110.64416662985866 0 -110.64416662985866 -68.643138570824732 0 0 0 0 -84.092902064384049 -186.18597906046193 0 -186.18597906046193 -268.7573136447561 0 0 0 0 -47.78841708183063 -149.2031747356782 0 -149.2031747356782 -200.14082707647003 0 0 0 0 -61.6213212305247 -160.21654927424095 0 -160.21654927424095 -295.20154677909136 0 0 0 0 -81.077984863406527 -125.80793137356363 0 -125.80793137356363 -216.55903196336362 0 0 0 0 -38.017744148516385 -122.47522484829778 0 -122.47522484829778 -454.36888245216539 0 0 0 0 -143.14398682292949 -101.1941331442182 0 -101.1941331442182 -279.64795642539872 0 0 0 0 39.131330281247983 -12.835223528742063 0 -12.835223528742063 -34.385384454695668 0 0 0 0 41.478800955068891 -34.534465786930468 0 -34.534465786930468 -43.433696724662695 0 0 0 0 44.615284030480097 3.5952244564291505 0 3.5952244564291505 -12.57080873009636 0 0 0 0 3.3041338667237108 0.61569647325620025 0 0.61569647325620025 -2.508609243679004 0 0 0 0 -16.295424214582226 -11.346120954337493 0 -11.346120954337493 -27.560609653385654 0 0 0 0 23.991274922347429 -38.047398836018601 0 -38.047398836018601 -37.414339507384284 0 0 0 0 16.341796841097675 -47.630766700076492 0 -47.630766700076492 -37.356911746168862 0 0 0 0 12.827895076122445 1.4838926584625369 0 1.4838926584625369 -11.003328747938212 0 0 0 0 -56.53187267904957 -88.62137107015306 0 -88.62137107015306 -173.94312515167553 0 0 0 0 9.2407493040727449 -0.19218785361778501 0 -0.19218785361778501 -10.164651479095264 0 0 0 0 -112.16065697868544 -154.01699080721005 0 -154.01699080721005 -152.97059279092048 0 0 0 0 -3.0280250913995133 19.189874870068252 0 19.189874870068252 31.47388681075563 0 0 0 0 -84.844699526984186 -103.38080365156111 0 -103.38080365156111 -53.761262224774327 0 0 0 0 0.30999826947639586 -0.37716277171265977 0 -0.37716277171265977 -1.2460476791865638 0 0 0 0 34.113479077704767 29.646443319277296 0 29.646443319277296 -9.3628731756443813 0 0 0 0 33.587813464299529 15.58788605844029 0 15.58788605844029 -26.13193218830429 0 0 0 0 12.931761181865383 -30.307928210173714 0 -30.307928210173714 -79.529929738711871 0 0 0 0 25.486311584463238 -70.993260825929156 0 -70.993260825929156 -145.83035963726616 0 0 0 0 4.1382805475589066 -65.724310731265632 0 -65.724310731265632 -31.509678858719326 0 0 0 0 -5.9763614433405223 -16.580622629571337 0 -16.580622629571337 -12.492892924086391 0 0 0 0 0.74539203434687096 1.0023418887868871 0 1.0023418887868871 1.2916536240034402 0 0 0 0 -65.069488336972427 -21.557204956607166 0 -21.557204956607166 -18.296548857117159 0 0 0 0 -41.816969614503932 -46.548756266735836 0 -46.548756266735836 -33.760850747039058 0 0 0 0 -13.674622128734853 -38.243648415729808 0 -38.243648415729808 -57.292101607975837 0 0 0 0 -11.045894766364995 -47.488954476479194 0 -47.488954476479194 -90.649777766185593 0 0 0 0 0.038184674006710884 -3.7332667141158549 0 -3.7332667141158549 -12.874378359103442 0 0 0 0 -68.346521360236466 -38.853625819490389 0 -38.853625819490389 -57.102243884325162 0 0 0 0 -98.613722980959665 -167.60707297214503 0 -167.60707297214503 186.27242226683302 0 0 0 0 -5.9685810770622485 -50.307691430302228 0 -50.307691430302228 -49.641993012937306 0 0 0 0 -132.93929411196063 3.4518048425306915 0 3.4518048425306915 164.67053520847548 0 0 0 0 -14.020203858739691 -24.763627406636431 0 -24.763627406636431 -75.483418089915176 0 0 0 0 2.202010232303337 -43.128856294863226 0 -43.128856294863226 -65.22500902479328 0 0 0 0 4.0541124172292484 -27.949078218492026 0 -27.949078218492026 -64.278474432534267 0 0 0 0 11.245002168533574 -37.761204902376676 0 -37.761204902376676 -74.809352951791425 0 0 0 0 -3.2912888769644724 -41.91198090917942 0 -41.91198090917942 -37.252254195197565 0 0 0 0 5.0505786025237285 -48.912076073744174 0 -48.912076073744174 -63.431531301536324 0 0 0 0 7.8484345594902152 -50.643249498628848 0 -50.643249498628848 -125.44695139123542 0 0 0 0 -9.6808053226729953 2.2466272411421642 0 2.2466272411421642 -24.537045850827781 0 0 0 0 19.754353555805437 -20.220894735857996 0 -20.220894735857996 -117.75879674699718 0 0 0 0 20.507689127628737 -26.552655228051322 0 -26.552655228051322 -76.846554837930853 0 0 0 0 11.666550559940333 -27.226880704430641 0 -27.226880704430641 -70.517776873952698 0 0 0 0 13.560760231546283 -31.965124630246805 0 -31.965124630246805 -61.230341327151564 0 0 0 0 -3.864041855096275 -15.599460708411016 0 -15.599460708411016 -42.974747644419949 0 0 0 0 -9.1521562695065768 -30.08069905322418 0 -30.08069905322418 -58.950074667807712 0 0 0 0 10.552321822079193 2.6461561518688654 0 2.6461561518688654 -98.558463902162657 0 0 0 0 10.695242531003714 -0.58881770116613552 0 -0.58881770116613552 -71.690703483655852 0 0 0 0 -3.1158210845837857 -2.5255609067378373 0 -2.5255609067378373 -29.159131553539055 0 0 0 0 -39.106208412002047 -13.184695734789159 0 -13.184695734789159 -5.0291990912282927 0 0 0 0 -31.849679061899224 -38.673460478745142 0 -38.673460478745142 1.316693141646283 0 0 0 0 -116.91452132454469 -50.683742712419189 0 -50.683742712419189 2.9141374606255681 0 0 0 0 -79.959576225117871 36.987846584940144 0 36.987846584940144 13.348654087041723 0 0 0 0 -5.9937223205033661 5.000827413137813 0 5.000827413137813 -25.12714745667472 0 0 0 0 -12.040753500745268 -19.233453679286868 0 -19.233453679286868 -7.3852173456721175 0 0 0 0 -0.46950164310156595 -3.8615813341488852 0 -3.8615813341488852 -8.6933802665415207 0 0 0 0 20.4519390579419 -68.307671641749948 0 -68.307671641749948 -48.483325024377336 0 0 0 0 -33.169711532990732 -52.22170897227852 0 -52.22170897227852 -34.833400862707322 0 0 0 0 20.194713131448452 -79.220208139742226 0 -79.220208139742226 -43.232813370964323 0 0 0 0 22.982138402315286 -89.146353057274609 0 -89.146353057274609 -40.789806076013974 0 0 0 0 -112.84112912555474 -153.61678490822169 0 -153.61678490822169 -53.602530339496298 0 0 0 0 28.742130449862543 -88.873019249676418 0 -88.873019249676418 -71.662561495019872 0 0 0 0 54.707325165968996 -66.828428175399495 0 -66.828428175399495 -53.109936728820685 0 0 0 0 70.237270871022929 -1.3377345523754229 0 -1.3377345523754229 -11.324039782868567 0 0 0 0 7.2865650223529199 -7.2483719877916126 0 -7.2483719877916126 2.1022701599343065 0 0 0 0 170.36285138668222 53.068658783802448 0 53.068658783802448 -15.499798037486471 0 0 0 0 270.09566562783493 -40.972314085838661 0 -40.972314085838661 -152.51132487270661 0 0 0 0 83.302691505085477 -90.016238005377545 0 -90.016238005377545 -84.063206882954546 0 0 0 0 133.723280937043 -64.991339232835571 0 -64.991339232835571 -96.678272098248272 0 0 0 0 109.56470869783379 -144.1890854475896 0 -144.1890854475896 -115.31262019540463 0 0 0 0 -103.94088513803376 -68.234084319022998 0 -68.234084319022998 26.302136241842163 0 0 0 0 -137.60799589316866 -313.85705141356402 0 -313.85705141356402 -177.14996347708984 0 0 0 0 134.00480790833672 -181.19768592942273 0 -181.19768592942273 -27.828247785890198 0 0 0 0 54.446826533981493 -53.033067796725845 0 -53.033067796725845 -233.19904963639237 0 0 0 0 -66.398112791927815 -98.89427899740258 0 -98.89427899740258 -191.15126076975866 0 0 0 0 -37.24801120812117 -253.01066542863282 0 -253.01066542863282 252.22297805109156 0 0 0 0 641.68727151031635 -111.82152971068263 0 -111.82152971068263 -107.52828656384554 0 0 0 0 -61.31076088034888 -147.76411150206673 0 -147.76411150206673 72.085593432266251 0 0 0 0 565.78064631947973 301.42596406828306 0 301.42596406828306 75.382875603416551 0 0 0 0 1.8096252223181111 -1.8993237381458652 0 -1.8993237381458652 2.3753886030463747 0 0 0 0 88.685446171626381 25.693551698205283 0 25.693551698205283 -104.40840676050539 0 0 0 0 206.15664154003389 103.51018613941051 0 103.51018613941051 114.22350076849125 0 0 0 0 153.45382409189597 17.202879698245852 0 17.202879698245852 22.132626547398104 0 0 0 0 357.79035421661183 66.490792045578019 0 66.490792045578019 -81.972526459925575 0 0 0 0 -97.606407868756378 -27.138183569058583 0 -27.138183569058583 193.26578857454933 0 0 0 0 -6.4294894569939665 4.0857742629303875 0 4.0857742629303875 0.14628515203711601 0 0 0 0 -13.936808603173176 45.106556694465326 0 45.106556694465326 16.374101917002008 0 0 0 0 -2.9261872425916904 -0.37016224689785471 0 -0.37016224689785471 -1.6680521522487552 0 0 0 0 9.5808851110928117 -199.7415200657756 0 -199.7415200657756 -71.327185186402858 0 0 0 0 0.14491547279971151 0.41531539278163443 0 0.41531539278163443 -2.3388536887248774 0 0 0 0 -229.93292014601138 102.59087197877034 0 102.59087197877034 -56.873290899622816 0 0 0 0 -453.17449093512278 -119.88217583714959 0 -119.88217583714959 18.664525821099915 0 0 0 0 -347.84954756997126 -182.18948164910717 0 -182.18948164910717 47.333304218734156 0 0 0 0 -333.08175407471799 -184.70843452620193 0 -184.70843452620193 -66.543818700793963 0 0 0 0 -123.44595780800751 -31.9723247673478 0 -31.9723247673478 -222.67410354792082 0 0 0 0 -114.48697438186184 -107.82433251271709 0 -107.82433251271709 -116.33807809262362 0 0 0 0 -37.810976268040349 -21.465173427759055 0 -21.465173427759055 -830.75300752349267 0 0 0 0 -318.48633748932207 -93.323095655938459 0 -93.323095655938459 -240.45813313668714 0 0 0 0 -452.68967874106215 197.06884992456935 0 197.06884992456935 -651.1584233699914 0 0 0 0 -485.18953381273752 -250.85448168361438 0 -250.85448168361438 -514.31245313197905 0 0 0 0 -119.84473798701788 126.82536921947167 0 126.82536921947167 -992.36958682281056 0 0 0 0 -152.74198231078492 181.74069204820262 0 181.74069204820262 -937.14741631601919 0 0 0 0 -304.27707988836119 -513.25450575661762 0 -513.25450575661762 -875.31677900786553 0 0 0 0 -818.3401993686648 -775.74123541462995 0 -775.74123541462995 -576.32186398531849 0 0 0 0 448.58096308695758 -24.835264907990222 0 -24.835264907990222 -97.110343562517301 0 0 0 0 -0.76436280254191136 1.0354860242728972 0 1.0354860242728972 -5.4953716317418007 0 0 0 0 217.35002850359615 294.05404013475891 0 294.05404013475891 40.103143822991115 0 0 0 0 -27.026202854454823 -140.05704339414706 0 -140.05704339414706 -615.15447687626693 0 0 0 0 -159.58513319348822 90.11259930567212 0 90.11259930567212 -166.93097410553878 0 0 0 0 243.50213812978473 -36.52816819484724 0 -36.52816819484724 -686.79272173881509 0 0 0 0 439.00350435086875 -284.28180065872402 0 -284.28180065872402 -1257.0736979502635 0 0 0 0 620.17086856034439 62.625621113583748 0 62.625621113583748 -907.55190529877655 0 0 0 0 -284.23863273419954 241.17357916282708 0 241.17357916282708 -503.05436424272966 0 0 0 0 -23.07872602576208 -437.19211401659868 0 -437.19211401659868 -1173.9240142094959 0 0 0 0 190.79828980489492 -349.81754924002144 0 -349.81754924002144 -1161.7115957428778 0 0 0 0 -5.8948202240844072 -0.40554125476102421 0 -0.40554125476102421 -0.99539241266789658 0 0 0 0 -51.684170809016905 -373.65968141047688 0 -373.65968141047688 -1057.8946282625566 0 0 0 0 -133.33301057708144 63.347110745119153 0 63.347110745119153 -20.051495790247372 0 0 0 0 -13.521788224073555 -1.1601984139625525 0 -1.1601984139625525 -0.29932587799373356 0 0 0 0 -345.86211190643769 31.489347096852498 0 31.489347096852498 -576.48660402338828 0 0 0 0 44.23876125616794 -94.03658392762236 0 -94.03658392762236 -362.02306337948903 0 0 0 0 48.732622180869953 162.24748649987578 0 162.24748649987578 -334.71835887902944 0 0 0 0 57.900389696862931 -91.784814769571312 0 -91.784814769571312 -256.85052230311339 0 0 0 0 178.04275736173668 -80.192124085876003 0 -80.192124085876003 -566.31919098260641 0 0 0 0 -304.53797810021479 -432.39581561979958 0 -432.39581561979958 -470.36760791431016 0 0 0 0 -531.15693952832044 -300.4793526405615 0 -300.4793526405615 -289.48228561033011 0 0 0 0 32.544854942907932 -102.06466174851948 0 -102.06466174851948 -294.4680747701741 0 0 0 0 -84.72020520215483 -74.452034408922145 0 -74.452034408922145 -167.16099206167428 0 0 0 0 -191.74842633067445 69.720053429362451 0 69.720053429362451 118.56750353045936 0 0 0 0 -12.644421155762068 -2.0760863230476279 0 -2.0760863230476279 0.73053580357800918 0 0 0 0 -88.078140759340613 -48.570328548090856 0 -48.570328548090856 94.700934916838378 0 0 0 0 108.94698877264625 -56.830187357617433 0 -56.830187357617433 -114.18389256296086 0 0 0 0 -5.4533407472671884 -4.2029046967425536 0 -4.2029046967425536 -1.4518603351583357 0 0 0 0 0.11310195214355634 -2.1219073413420793 0 -2.1219073413420793 -8.5879014848840498 0 0 0 0 -551.48193152147223 -453.52669915859622 0 -453.52669915859622 298.54458960627562 0 0 0 0 121.32934242341889 -55.066582675083737 0 -55.066582675083737 -33.276672960598262 0 0 0 0 -38.758541192639996 -71.775132816806945 0 -71.775132816806945 -127.30791250198604 0 0 0 0 0.68375056532694067 -3.0719937274409217 0 -3.0719937274409217 -6.9171433744016264 0 0 0 0 156.43927381178435 -93.869530201579494 0 -93.869530201579494 48.360172632399554 0 0 0 0 -77.144252152870195 -46.811827662802671 0 -46.811827662802671 -42.413628273276629 0 0 0 0 -85.842727756190243 -235.40381383576414 0 -235.40381383576414 -295.42277951369533 0 0 0 0 -183.464432386721 -132.12895060271603 0 -132.12895060271603 -46.302256582819837 0 0 0 0 -142.03871479083512 -346.66485366826913 0 -346.66485366826913 -462.79906664314012 0 0 0 0 0.42021615915477106 -1.2681466377742296 0 -1.2681466377742296 -3.0398065244600048 0 0 0 0 -466.55137719641539 -353.95234640527394 0 -353.95234640527394 -218.07833377526305 0 0 0 0 -85.473634690486506 -228.08779366292515 0 -228.08779366292515 -284.92028680459202 0 0 0 0 -79.970271857650232 -227.95097938099275 0 -227.95097938099275 -298.28977724823426 0 0 0 0 -85.943399023966322 -226.25824287727778 0 -226.25824287727778 -248.56695298505338 0 0 0 0 -154.86956518514057 -280.67305633275396 0 -280.67305633275396 -291.51350431974652 0 0 0 0 -150.73501139440305 -211.07233469255925 0 -211.07233469255925 -222.57956670192107 0 0 0 0 -150.57075659390722 -183.81381340473652 0 -183.81381340473652 -195.44245214233388 0 0 0 0 9.273715409132727 -2.0886021798260908 0 -2.0886021798260908 -11.746526188725003 0 0 0 0 -220.82995509295688 -214.42881557281089 0 -214.42881557281089 -191.57876468925463 0 0 0 0 -335.68681269531226 -303.81128188539697 0 -303.81128188539697 -235.20771510890336 0 0 0 0 2.9956805164562761 3.9725589724927701 0 3.9725589724927701 -16.240017848194501 0 0 0 0 -333.4006882780468 -287.1037955109864 0 -287.1037955109864 -256.7463147386643 0 0 0 0 -123.02001089488203 -341.70949470327037 0 -341.70949470327037 -426.88549332575531 0 0 0 0 -342.8716546180367 -262.06291585689269 0 -262.06291585689269 -282.761616938712 0 0 0 0 -348.98987605714865 -278.25478818229567 0 -278.25478818229567 -240.00956729035397 0 0 0 0 -51.366364410228243 -214.85115341733092 0 -214.85115341733092 -332.43424436972373 0 0 0 0 -88.255748686358402 -208.44310065371405 0 -208.44310065371405 -216.179458934183 0 0 0 0 -258.71718103760031 -67.948937983954238 0 -67.948937983954238 -479.19854053317613 0 0 0 0 9.3441086182447179 -76.000209370073208 0 -76.000209370073208 -444.73770634783796 0 0 0 0 -14.006844362920674 -206.68910101490656 0 -206.68910101490656 -807.75203403346677 0 0 0 0 -321.24508803845811 137.52610642407126 0 137.52610642407126 -1120.5137486370027 0 0 0 0 -1006.3329163247081 39.48454912336274 0 39.48454912336274 -461.739118501333 0 0 0 0 -458.80794120770747 50.767300755202541 0 50.767300755202541 -505.36314832683274 0 0 0 0 -518.26564005562432 76.089482744231191 0 76.089482744231191 -52.786927209297573 0 0 0 0 -62.321858270200664 11.059025614216807 0 11.059025614216807 -549.45168884519444 0 0 0 0 -155.0687660695155 49.202582620567227 0 49.202582620567227 144.89134178294444 0 0 0 0 -470.27790045896791 448.74079505693135 0 448.74079505693135 92.366350604243053 0 0 0 0 -1.6070039025507707 2.8351146793319018 0 2.8351146793319018 -4.2748008136963449 0 0 0 0 -240.59888189340427 225.33416339523274 0 225.33416339523274 -70.606571721429646 0 0 0 0 -409.03768302399703 306.16599529314408 0 306.16599529314408 -109.2963062355866 0 0 0 0 -297.25448283316291 395.79955849090402 0 395.79955849090402 -550.70310039600463 0 0 0 0 -393.90316147468548 320.35737141265236 0 320.35737141265236 -120.57403670539816 0 0 0 0 -454.5107658931629 190.61132784878691 0 190.61132784878691 -232.39883299130088 0 0 0 0 -191.51253057863687 279.34824670940179 0 279.34824670940179 -388.23555344981287 0 0 0 0 -392.71476606070615 88.638702423674772 0 88.638702423674772 -141.95722312865473 0 0 0 0 -226.97368878009001 176.82943956620875 0 176.82943956620875 -130.02601006183249 0 0 0 0 -167.45579328769236 -29.84111361481564 0 -29.84111361481564 148.28688691002026 0 0 0 0 -209.86705048584759 265.62827012535354 0 265.62827012535354 -180.3028876355238 0 0 0 0 -0.94558831200016424 1.7483611666922698 0 1.7483611666922698 -10.155677570256408 0 0 0 0 -188.67337267402036 261.86441533104608 0 261.86441533104608 -737.23330247282865 0 0 0 0 -759.54982901150925 -329.66583787313721 0 -329.66583787313721 -575.29308150029647 0 0 0 0 -469.83464509982559 -144.18972869864592 0 -144.18972869864592 -796.84157705074904 0 0 0 0 -494.66464966641252 197.17846467038908 0 197.17846467038908 -225.53280778816224 0 0 0 0 -756.24115673417259 -317.9598776737048 0 -317.9598776737048 -551.31806516951474 0 0 0 0 -634.27462889253502 342.30971748794946 0 342.30971748794946 -802.97673912126811 0 0 0 0 -907.70987402634819 -167.36387787304238 0 -167.36387787304238 -81.373319487789558 0 0 0 0 -373.3287955115502 395.41978792455302 0 395.41978792455302 -216.60124313167194 0 0 0 0 4.1589148706583554 0.6738138073331541 0 0.6738138073331541 0.72582513646683111 0 0 0 0 -260.85204093902667 238.19431372023064 0 238.19431372023064 -157.15221871842459 0 0 0 0 -82.573513720393294 10.803482238397919 0 10.803482238397919 191.45737103803049 0 0 0 0 1.9648474744705027 158.7096781285145 0 158.7096781285145 -155.30668054537455 0 0 0 0 180.61117189281913 16.210912345004544 0 16.210912345004544 -210.64257525991343 0 0 0 0 169.34743793958796 123.79367221797293 0 123.79367221797293 -86.880956605105894 0 0 0 0 263.96133941842231 52.635642378176271 0 52.635642378176271 -211.36634842770218 0 0 0 0 -15.751899921978747 61.626949665744178 0 61.626949665744178 -246.97140231094454 0 0 0 0 4.5639840057638139 13.777245779907389 0 13.777245779907389 -141.07835370060639 0 0 0 0 -160.40527914279664 -196.03633182105295 0 -196.03633182105295 -1042.971681451203 0 0 0 0 -289.44140667347529 359.3135699079794 0 359.3135699079794 -199.43939947264153 0 0 0 0 -296.40655879003225 -172.75949551943268 0 -172.75949551943268 -310.54613400580638 0 0 0 0 -993.23899718850316 -813.73844019841363 0 -813.73844019841363 -498.81137218934873 0 0 0 0 -459.97043958012046 -239.96027596666954 0 -239.96027596666954 -289.9900493733403 0 0 0 0 -460.68001348461371 -406.13622910329241 0 -406.13622910329241 -298.61656368418517 0 0 0 0 -169.09912021641117 -284.18349838063023 0 -284.18349838063023 -349.2217427544856 0 0 0 0 0.80967883809291941 1.1678965336758083 0 1.1678965336758083 -5.053136544880708 0 0 0 0 -164.61395193608269 -517.18202627768733 0 -517.18202627768733 -212.20731511238773 0 0 0 0 -59.118690368536136 -253.45717698413546 0 -253.45717698413546 30.01185865860316 0 0 0 0 26.093043030055014 -145.87037688914279 0 -145.87037688914279 -400.22100486792988 0 0 0 0 -0.76868820336426325 -111.28986648376076 0 -111.28986648376076 121.43488599453849 0 0 0 0 548.52670955417852 -19.990669754875853 0 -19.990669754875853 18.2673743814521 0 0 0 0 91.517714696517942 43.86552424303818 0 43.86552424303818 -117.70223188871068 0 0 0 0 -77.179112175957016 -24.183223761627232 0 -24.183223761627232 5.8438331871639093 0 0 0 0 6.6104294611941441 -47.207917650576746 0 -47.207917650576746 20.015606892868163 0 0 0 0 16.019563891258283 6.2141023897212193 0 6.2141023897212193 -32.372079760010763 0 0 0 0 59.186650378990635 -0.48228104141526273 0 -0.48228104141526273 -382.43782158885006 0 0 0 0 2.4625610942974454 -3.360491809831796 0 -3.360491809831796 -8.5811682927972512 0 0 0 0 -11.233005823754503 -19.51805894608318 0 -19.51805894608318 -31.710693009529507 0 0 0 0 -25.285001913573353 63.044956351636756 0 63.044956351636756 -173.73500656852411 0 0 0 0 -57.438501495687888 -148.63757662852731 0 -148.63757662852731 -438.60630966045028 0 0 0 0 19.556749361382572 -11.085436938088606 0 -11.085436938088606 -202.84479683837344 0 0 0 0 -77.275712072997294 -32.02035724894813 0 -32.02035724894813 -69.130753122743045 0 0 0 0 -61.436649055422095 -157.00427742244028 0 -157.00427742244028 -268.40914825665823 0 0 0 0 -38.253944585527449 -98.879469995721593 0 -98.879469995721593 -132.63444329838967 0 0 0 0 -24.926905048044773 -149.60669414442964 0 -149.60669414442964 -194.1725960910062 0 0 0 0 -141.35092382286757 -191.98848592025934 0 -191.98848592025934 -202.1702876424788 0 0 0 0 -432.76323460740241 -231.32625554601327 0 -231.32625554601327 38.135453252829393 0 0 0 0 -13.461988648589113 -160.7434864990355 0 -160.7434864990355 -160.26393168467257 0 0 0 0 -66.608331898679126 -111.06957982612767 0 -111.06957982612767 -44.503754608853342 0 0 0 0 -43.921234623944486 -154.5131014555609 0 -154.5131014555609 -84.116055981838144 0 0 0 0 298.59301183224306 -25.492349325277246 0 -25.492349325277246 -358.68007725245116 0 0 0 0 485.20090736023121 -203.07447765056213 0 -203.07447765056213 -617.78383782226229 0 0 0 0 -0.18617160426674673 7.1659937789905825 0 7.1659937789905825 -48.296999261240217 0 0 0 0 -66.046123377026561 -184.89243681952621 0 -184.89243681952621 -145.05627612871922 0 0 0 0 -87.409719238695288 -65.709880172699741 0 -65.709880172699741 -32.645385346489093 0 0 0 0 -1.0443064449491004 -4.0527382673561867 0 -4.0527382673561867 -7.8012189584341023 0 0 0 0 -0.28018669290520393 -17.681791113006 0 -17.681791113006 -17.555071427802432 0 0 0 0 -1.7635289410459798 -5.5593083871267517 0 -5.5593083871267517 -15.479664515307164 0 0 0 0 161.34359783923037 -79.199856848139461 0 -79.199856848139461 -39.474290418536839 0 0 0 0 13.827633974343915 3.866542836307211 0 3.866542836307211 -8.7619705252555296 0 0 0 0 20.421377437468891 -3.5853835943871672 0 -3.5853835943871672 -78.876414661246599 0 0 0 0 66.609132429205374 56.583290037185179 0 56.583290037185179 -13.635798699566294 0 0 0 0 -56.024245944101494 7.0067138063259335 0 7.0067138063259335 9.861346429256173 0 0 0 0 1.2646043767522959 -1.9577001688947835 0 -1.9577001688947835 -32.971115117967784 0 0 0 0 -3.610817971483419 6.1415266666453725 0 6.1415266666453725 -9.6574694865955379 0 0 0 0 -3.9803693982885306 -2.8552265760372393 0 -2.8552265760372393 -18.088271248996534 0 0 0 0 -1.832879698034958 3.9684749691914476 0 3.9684749691914476 -30.057752453895773 0 0 0 0 -2.2286688883577881 -0.76092847359450388 0 -0.76092847359450388 -24.274626391390484 0 0 0 0 -6.1720098906944258 4.87351333472634 0 4.87351333472634 -21.477884330881352 0 0 0 0 -31.125543188405572 58.636209450559363 0 58.636209450559363 88.158405548502742 0 0 0 0 14.572517053451065 36.222260026342155 0 36.222260026342155 12.285871429641702 0 0 0 0 -3.445330073664536 65.8812228821389 0 65.8812228821389 -101.37528543978624 0 0 0 0 83.270823210399158 74.338500203765079 0 74.338500203765079 -63.671750333514865 0 0 0 0 -1.6530050727107519 12.49399620466157 0 12.49399620466157 -32.652455212075267 0 0 0 0 -187.45893621721029 48.218866637348583 0 48.218866637348583 12.475814060780976 0 0 0 0 -14.557126404255314 158.90620598209057 0 158.90620598209057 -134.41670689625153 0 0 0 0 -128.55942078759676 -87.763920618770953 0 -87.763920618770953 -188.43315510539969 0 0 0 0 -128.32604019925657 179.70666052517481 0 179.70666052517481 -947.52657544502199 0 0 0 0 -300.87790462000066 665.21538329880332 0 665.21538329880332 -1340.1223429182041 0 0 0 0 126.2976239249349 -211.85773512839796 0 -211.85773512839796 -1193.65658988412 0 0 0 0 -2.4654456030803704 4.5259923744696664 0 4.5259923744696664 -13.142822554084457 0 0 0 0 -1096.1623501073773 615.91838731339158 0 615.91838731339158 -316.8711352268997 0 0 0 0 -509.70026222145202 813.78973623302227 0 813.78973623302227 -1149.3458423653319 0 0 0 0 -480.79114775822472 -30.657269440647724 0 -30.657269440647724 -1424.648777465555 0 0 0 0 -288.92572275121051 342.64997402898825 0 342.64997402898825 -821.27298700547726 0 0 0 0 -366.63203458582052 483.38883362436809 0 483.38883362436809 -540.92036999511947 0 0 0 0 -415.27851622080561 592.04736778585925 0 592.04736778585925 -497.26155178372937 0 0 0 0 -295.85950063980818 417.22531568791055 0 417.22531568791055 -270.32552432964394 0 0 0 0 -560.0860289503371 128.79648026381346 0 128.79648026381346 38.441190256082336 0 0 0 0 3.7866473348660747 55.958895616305199 0 55.958895616305199 -193.81313840883377 0 0 0 0 -53.992527533879183 -23.499384138034657 0 -23.499384138034657 -118.29164026916987 0 0 0 0 -217.27296205685798 220.46727353410188 0 220.46727353410188 -344.80803776550238 0 0 0 0 -341.15289375120801 161.22106739091578 0 161.22106739091578 -283.16417939365238 0 0 0 0 -634.5175500939863 159.17668144647814 0 159.17668144647814 -278.64205196853072 0 0 0 0 -706.99439972151163 -353.03316773244569 0 -353.03316773244569 -969.29473884662002 0 0 0 0 252.88510068455417 223.64384520426393 0 223.64384520426393 -1166.5684900178494 0 0 0 0 -299.10095560396394 373.21182721407422 0 373.21182721407422 -724.63187373302026 0 0 0 0 -37.39106059224514 578.5502876625269 0 578.5502876625269 -569.42357504745269 0 0 0 0 -36.295991607024803 403.48323446126642 0 403.48323446126642 -465.97484197248195 0 0 0 0 -200.09041740878774 618.80555558255173 0 618.80555558255173 -680.36751219102371 0 0 0 0 12.82802432479798 224.83353623628363 0 224.83353623628363 -478.54466695183328 0 0 0 0 -45.934352573801789 113.25643599225168 0 113.25643599225168 -689.17957181261716 0 0 0 0 316.41900050693107 151.31937977412417 0 151.31937977412417 -189.86617422019481 0 0 0 0 202.10385988931512 14.650541717563101 0 14.650541717563101 -300.67869071192808 0 0 0 0 207.61096906726266 243.28650665768509 0 243.28650665768509 197.48343957986071 0 0 0 0 77.939625214678927 519.65444146465234 0 519.65444146465234 -351.3996368187278 0 0 0 0 0.29083937591233411 2.5214637916129661 0 2.5214637916129661 -16.905476285606753 0 0 0 0 631.38823642066257 769.56612172978021 0 769.56612172978021 -387.01696853623798 0 0 0 0 -1164.3784108847267 -1198.2281017514988 0 -1198.2281017514988 -635.99547345926476 0 0 0 0 866.58571061103635 429.91204565274165 0 429.91204565274165 85.850885869695048 0 0 0 0 803.84049788311734 20.824436618312575 0 20.824436618312575 -261.22935521335967 0 0 0 0 546.43300561036767 -114.55849402806234 0 -114.55849402806234 -41.490728907473567 0 0 0 0 1.5157572643437176 8.4159118767016938 0 8.4159118767016938 -44.567865787838855 0 0 0 0 89.381554295100159 -385.25875404942235 0 -385.25875404942235 -809.33818851612887 0 0 0 0 -91.240872053568182 -751.7941924512761 0 -751.7941924512761 -592.35480634554915 0 0 0 0 -285.19452644847343 -585.37673505391649 0 -585.37673505391649 -473.84310964301949 0 0 0 0 -288.86638661843972 -679.24459271159503 0 -679.24459271159503 -826.09476490081124 0 0 0 0 7.5185595372969365 0.021751779613897071 0 0.021751779613897071 -18.396079198314197 0 0 0 0 -38.717163759872847 17.16870843941706 0 17.16870843941706 -59.665080102280626 0 0 0 0 5.6849552659258791 2.8699230007329817 0 2.8699230007329817 -22.219979404486125 0 0 0 0 498.69292297962465 283.07776238342922 0 283.07776238342922 -1467.7265948404156 0 0 0 0 -1355.4691922296106 21.700581681139738 0 21.700581681139738 871.78103500793804 0 0 0 0 1.2031888540927236 -0.96653706696922015 0 -0.96653706696922015 -5.3998232097578267 0 0 0 0 -723.90689037131403 413.67877323117682 0 413.67877323117682 -258.46425475382421 0 0 0 0 -2.6110244558780225 1.4831538907704207 0 1.4831538907704207 -5.873193056883423 0 0 0 0 -248.17832563150978 -432.3764652595346 0 -432.3764652595346 -1018.0092692584394 0 0 0 0 -99.071092114140356 -312.88296777018149 0 -312.88296777018149 -599.39955772866961 0 0 0 0 -3.6281828668513265 -3.9303581402207968 0 -3.9303581402207968 -2.8310543896312232 0 0 0 0 -237.42675945767121 -358.57046382710541 0 -358.57046382710541 -603.19856986249215 0 0 0 0 -11.542554439507512 -39.704550121743523 0 -39.704550121743523 -40.375531413752469 0 0 0 0 1.5108350587047727 -10.203831740839853 0 -10.203831740839853 -14.591814386580785 0 0 0 0 -1.1901962522742906 -9.6805975116694754 0 -9.6805975116694754 -20.434633216403199 0 0 0 0 -2.6992914827787899 -10.596089505879718 0 -10.596089505879718 -14.587292589050776 0 0 0 0 -3.7337516709454324 -3.6088077985262697 0 -3.6088077985262697 6.201403506502615 0 0 0 0 4.8980381353899247 -18.647060569308451 0 -18.647060569308451 -14.555422898210054 0 0 0 0 -4.6083056663275883 -12.678532351973882 0 -12.678532351973882 -13.158020216840754 0 0 0 0 2.3302679681764857 -13.029684223987715 0 -13.029684223987715 -10.559556895350397 0 0 0 0 4.6246216807325267 -4.8835943045894652 0 -4.8835943045894652 -10.252726276985481 0 0 0 0 269.98358318427472 -259.18736680053553 0 -259.18736680053553 12.683617585083994 0 0 0 0 1.1960378046421725 -6.3980183950959013 0 -6.3980183950959013 -10.754233109803387 0 0 0 0 262.4345244036781 -203.50048071711262 0 -203.50048071711262 119.78708926621766 0 0 0 0 -4.9678931243674924 -32.741249072895698 0 -32.741249072895698 -40.032605619539027 0 0 0 0 6.3380104909388137 -46.745913918386577 0 -46.745913918386577 -23.795219591938803 0 0 0 0 26.040388416009364 -90.606420911298301 0 -90.606420911298301 -22.386007549397618 0 0 0 0 89.63592376943825 9.0359882273796757 0 9.0359882273796757 -77.53646113201512 0 0 0 0 7.4195160650940579 -57.25131418901492 0 -57.25131418901492 -79.608396305113274 0 0 0 0 13.43340645227363 -3.3809496377489268 0 -3.3809496377489268 -94.372408210059803 0 0 0 0 0.49388746537971961 12.510447660753345 0 12.510447660753345 -55.13898186486864 0 0 0 0 413.0825141708815 159.91667666522426 0 159.91667666522426 -191.3459821389979 0 0 0 0 -44.095603885052242 -60.745020823616869 0 -60.745020823616869 58.167686720295023 0 0 0 0 324.99377692338805 -332.31370368314674 0 -332.31370368314674 -792.73515843448695 0 0 0 0 551.49770298269732 491.06771162621681 0 491.06771162621681 -394.45426447068166 0 0 0 0 -197.65745095649879 125.19205566526853 0 125.19205566526853 77.634275983517 0 0 0 0 437.50702421324263 -97.624773786683363 0 -97.624773786683363 25.03966134422808 0 0 0 0 47.113896532777289 -31.271315185933418 0 -31.271315185933418 371.82175486095093 0 0 0 0 396.49626407549795 -285.55641835251572 0 -285.55641835251572 -357.52493604650226 0 0 0 0 425.23628525570348 -113.49050468552923 0 -113.49050468552923 -74.189397724945593 0 0 0 0 -0.75518103356073896 -2.2192353021979905 0 -2.2192353021979905 -3.7675859922436956 0 0 0 0 -177.20474338186273 -15.30995043047642 0 -15.30995043047642 116.30230207496788 0 0 0 0 534.88294684423443 -181.55411879968415 0 -181.55411879968415 -354.56842452839555 0 0 0 0 -51.174217336774291 -10.42187819578794 0 -10.42187819578794 -30.038643424498332 0 0 0 0 350.81624207205368 -260.58834100482454 0 -260.58834100482454 -360.74332927275282 0 0 0 0 145.56197351716901 -205.09277563736759 0 -205.09277563736759 -74.60248327293084 0 0 0 0 265.17503252204324 -114.22446764353299 0 -114.22446764353299 -315.76011678560099 0 0 0 0 421.82443046153486 -193.98272461258523 0 -193.98272461258523 -349.49924552089215 0 0 0 0 233.33257501520211 -212.42588954983103 0 -212.42588954983103 -609.24401309711538 0 0 0 0 -46.552990407141806 -145.50286927070738 0 -145.50286927070738 -345.56904594154366 0 0 0 0 146.19791515856127 -260.42311344523705 0 -260.42311344523705 -423.21213691538651 0 0 0 0 -303.75670778923177 -268.37962970185345 0 -268.37962970185345 5.8831105130448123 0 0 0 0 172.25438974432495 -111.72351815958018 0 -111.72351815958018 53.201357418267435 0 0 0 0 42.035692557946277 -272.84108293320014 0 -272.84108293320014 149.99733710278088 0 0 0 0 265.92053290711647 -289.11754548225508 0 -289.11754548225508 -107.19120298287953 0 0 0 0 238.85134490002565 -181.72233737422357 0 -181.72233737422357 169.73108761469484 0 0 0 0 241.48848496807886 -269.48839480772403 0 -269.48839480772403 161.84804260546662 0 0 0 0 160.62986769444296 -350.72557963076724 0 -350.72557963076724 448.47119882611423 0 0 0 0 147.28761456018583 78.183840368024903 0 78.183840368024903 26.052017880673247 0 0 0 0 8.2150714605944071 0.12988502962063464 0 0.12988502962063464 -3.3250623257190641 0 0 0 0 360.5899666156339 72.671235033665312 0 72.671235033665312 227.71862600071836 0 0 0 0 419.80969727103366 -327.16568099084361 0 -327.16568099084361 131.14900493560344 0 0 0 0 -281.56860471288655 -123.44832045594012 0 -123.44832045594012 321.00346363827884 0 0 0 0 -146.61461660652617 58.104645217023972 0 58.104645217023972 506.25383633135243 0 0 0 0 -242.89347361169075 -125.65382995583332 0 -125.65382995583332 141.96853726333757 0 0 0 0 -4.1252953506064465 -6.0854754596927014 0 -6.0854754596927014 -8.5483966563752602 0 0 0 0 -206.85553363831602 -66.978470353424655 0 -66.978470353424655 179.66337843720066 0 0 0 0 -200.75952260729809 -61.575215083346848 0 -61.575215083346848 92.661415832844796 0 0 0 0 -120.96631692553819 61.794430213154556 0 61.794430213154556 214.18150184116621 0 0 0 0 -123.24559447463253 -113.09032266908071 0 -113.09032266908071 183.55879282588103 0 0 0 0 -816.86888351612333 -147.98404996141153 0 -147.98404996141153 -110.1092293451793 0 0 0 0 -210.95819972605628 80.240558628253211 0 80.240558628253211 -24.612227807781892 0 0 0 0 -82.667268450192523 -330.01625308331722 0 -330.01625308331722 -1049.8994593967436 0 0 0 0 33.502055867329318 188.36949316618848 0 188.36949316618848 -809.25166549054211 0 0 0 0 -991.71245445656314 -82.468837953481852 0 -82.468837953481852 -874.78972098526083 0 0 0 0 -2.0173851179537436 -2.3139688493981807 0 -2.3139688493981807 -4.1126297209891121 0 0 0 0 -502.2655563757254 408.81392323765749 0 408.81392323765749 -160.1878770787589 0 0 0 0 -68.465931513015448 318.13598143194395 0 318.13598143194395 -824.12055192889784 0 0 0 0 -272.30687628270607 324.73883838516122 0 324.73883838516122 -823.74734339598626 0 0 0 0 -426.50404373894207 197.93543644646479 0 197.93543644646479 -185.16412577007668 0 0 0 0 78.930522978620502 -79.10130579889119 0 -79.10130579889119 -279.66254828223498 0 0 0 0 -899.51722262071803 -646.73570598892775 0 -646.73570598892775 -204.72064044175477 0 0 0 0 192.71733433986606 -265.10354132685688 0 -265.10354132685688 -966.81524273360083 0 0 0 0 -2.8494280915236598 -3.8295727097279908 0 -3.8295727097279908 -4.1855561149552116 0 0 0 0 -462.47926447168993 -1131.5189513756814 0 -1131.5189513756814 -1082.3174412236422 0 0 0 0 -533.54676929831976 -902.14621091150639 0 -902.14621091150639 -1520.8870682797551 0 0 0 0 -366.25848235311508 -688.49323289872018 0 -688.49323289872018 -1442.8662627376943 0 0 0 0 -107.52971341897222 -1041.9228955917988 0 -1041.9228955917988 -1590.1168184499456 0 0 0 0 -29.294562991116742 -876.77159626295133 0 -876.77159626295133 -2499.4215928687827 0 0 0 0 -215.43364722965586 -1442.5824997741101 0 -1442.5824997741101 -2500.3509341305144 0 0 0 0 -373.27720671558598 -1283.3938904165261 0 -1283.3938904165261 -1184.7781932418293 0 0 0 0 -941.09243518063954 -2188.1675731076484 0 -2188.1675731076484 -2494.7493328207074 0 0 0 0 -771.5890647990808 -1270.4598437841105 0 -1270.4598437841105 -1154.5984292294561 0 0 0 0 -672.87975411039781 -195.9161861127734 0 -195.9161861127734 -35.039754856767104 0 0 0 0 -287.97751675980027 -562.72133985794062 0 -562.72133985794062 -523.40592958906564 0 0 0 0 -211.81596119745745 -65.594587279235384 0 -65.594587279235384 87.111102928418404 0 0 0 0 -143.3127970632454 -497.26802561875411 0 -497.26802561875411 -611.16537733040059 0 0 0 0 197.57770596315004 -447.02981368670589 0 -447.02981368670589 151.89549726074983 0 0 0 0 -330.34904351813157 -238.23909499216597 0 -238.23909499216597 77.860048891918268 0 0 0 0 120.87344043275334 -62.685245310793107 0 -62.685245310793107 -107.16173718895789 0 0 0 0 388.65102432348476 40.851680892734748 0 40.851680892734748 -69.841114379560167 0 0 0 0 -14.155735532832296 -19.734503845458676 0 -19.734503845458676 -29.162340262193538 0 0 0 0 247.93147510107588 99.239886235835002 0 99.239886235835002 -89.577648376711295 0 0 0 0 -1.4047096852669796 -4.699953119294431 0 -4.699953119294431 -8.8788493334002325 0 0 0 0 -6.1707515054308306 -29.179987335905096 0 -29.179987335905096 -37.721825173224836 0 0 0 0 219.73093213467109 128.59792016259235 0 128.59792016259235 22.100947462975455 0 0 0 0 256.84850503100461 21.987016401801156 0 21.987016401801156 -162.84186093177777 0 0 0 0 -46.656580278691891 1.7270392015007019 0 1.7270392015007019 -58.120748773086234 0 0 0 0 187.25627440070457 -206.09518196611862 0 -206.09518196611862 -69.453687271435228 0 0 0 0 192.01025362828477 12.088132843982748 0 12.088132843982748 -35.487308920839496 0 0 0 0 -5.793583639214865 -16.010211301476364 0 -16.010211301476364 -20.721905572519837 0 0 0 0 7.5805811735053794 -12.684666564064173 0 -12.684666564064173 -9.4897578344680369 0 0 0 0 -3.3243091561222395 -12.0224833359351 0 -12.0224833359351 -22.501188223386663 0 0 0 0 -7.8851092258994839 61.732124704907619 0 61.732124704907619 -23.512937473555212 0 0 0 0 64.458924889096679 -213.02566934034257 0 -213.02566934034257 336.5148787889193 0 0 0 0 -4.0070754483028379 -6.3079919243922156 0 -6.3079919243922156 3.426612637274161 0 0 0 0 -169.36779840714189 -363.08394703322483 0 -363.08394703322483 -293.93193269892754 0 0 0 0 129.01589544276521 -25.16841036198548 0 -25.16841036198548 -243.19051724877136 0 0 0 0 -257.6466658517129 -23.027654047862598 0 -23.027654047862598 -79.059174341071738 0 0 0 0 161.94860676064513 -97.723200054762856 0 -97.723200054762856 -327.8281544279962 0 0 0 0 -7.7592715194938124 -7.9667521225992886 0 -7.9667521225992886 -13.358588132645664 0 0 0 0 -2335.9639744974611 -1084.0868704447948 0 -1084.0868704447948 -74.736665612124568 0 0 0 0 -134.98660278671767 938.08617668683837 0 938.08617668683837 -2494.5562184836563 0 0 0 0 78.031694115502077 369.80311422941304 0 369.80311422941304 -1012.7425096722145 0 0 0 0 -12.02510364786569 -20.576813826576121 0 -20.576813826576121 -33.197952411610615 0 0 0 0 54.468169489484865 -77.510614231850923 0 -77.510614231850923 -481.57656175852026 0 0 0 0 -94.884665376086275 -198.25660240582511 0 -198.25660240582511 -555.36581629028296 0 0 0 0 21.137265149742177 14.739867976510141 0 14.739867976510141 -458.77236709555746 0 0 0 0 -61.618153456199664 179.70023557505101 0 179.70023557505101 -571.4066647751024 0 0 0 0 -1.3977402522047317 4.8041841011307547 0 4.8041841011307547 -18.022732686894912 0 0 0 0 -25.820905717623411 -2.5112226633027603 0 -2.5112226633027603 -467.58142860277621 0 0 0 0 -208.42662865425504 43.317142575440812 0 43.317142575440812 -460.8715797900993 0 0 0 0 425.60279075426888 79.618592659029673 0 79.618592659029673 -2502.1232536807192 0 0 0 0 -0.082255473288384451 -431.73588326197932 0 -431.73588326197932 -1032.909248355325 0 0 0 0 -178.81120391434325 -950.94282432318141 0 -950.94282432318141 -2494.2587272114833 0 0 0 0 -0.80550396616189968 1.7494580515694693 0 1.7494580515694693 -8.4355321081837502 0 0 0 0 -24.828484076891982 -91.217211663948547 0 -91.217211663948547 -17.638360481007112 0 0 0 0 35.876882905902505 46.343060414282263 0 46.343060414282263 -139.25795947930601 0 0 0 0 45.671848947052581 46.001787498651538 0 46.001787498651538 -378.71820606090478 0 0 0 0 -0.69754581907131108 1.1290534622053769 0 1.1290534622053769 -1.5759432039975962 0 0 0 0 -2.8807037351361942 -29.432147352770698 0 -29.432147352770698 -35.60598769038188 0 0 0 0 -6.4809325168668721 -16.4903699944986 0 -16.4903699944986 -22.26084782345562 0 0 0 0 -10.530746209135032 -20.694880131457467 0 -20.694880131457467 6.0730126066118828 0 0 0 0 0.021521268129738758 0.25987569924842546 0 0.25987569924842546 -4.5806372750077458 0 0 0 0 -10.251132076206886 -25.63681868945423 0 -25.63681868945423 -21.256381862076523 0 0 0 0 8.62277200850599 7.3047516170336166 0 7.3047516170336166 3.60505109902806 0 0 0 0 -5.3244783700349023 -16.13958959208594 0 -16.13958959208594 -24.93063478825934 0 0 0 0 -0.51930380965854672 -8.5859045004844887 0 -8.5859045004844887 2.1141198268844335 0 0 0 0 -56.469322006394705 -67.318504690319969 0 -67.318504690319969 -6.131845593212347 0 0 0 0 -113.76159376861487 -22.529541890387918 0 -22.529541890387918 132.9953331212746 0 0 0 0 -1.8357519105883711 -56.40564653031106 0 -56.40564653031106 117.57785007862549 0 0 0 0 -4.2570616209196714 -25.886888578846992 0 -25.886888578846992 -27.273656968987552 0 0 0 0 -0.78840347638037089 -11.243508117839127 0 -11.243508117839127 -20.692659762269471 0 0 0 0 -3.3681640357549583 -24.436825260228943 0 -24.436825260228943 -24.918866842293937 0 0 0 0 2.2528258129455025 -17.42570928035002 0 -17.42570928035002 -10.742605183848354 0 0 0 0 -4.0304721692998555 -15.56702554967816 0 -15.56702554967816 -18.666260208838807 0 0 0 0 -3.9449530681011993 -15.102264015538367 0 -15.102264015538367 -14.640137407608563 0 0 0 0 -2.8749375385246481 -17.971986429070967 0 -17.971986429070967 -27.044278826477353 0 0 0 0 9.0622493124506036 -17.188070790505662 0 -17.188070790505662 -16.437301528039825 0 0 0 0 -3.7396521847515287 -12.508260772478597 0 -12.508260772478597 -21.287277749870313 0 0 0 0 -5.1531205599158056 -14.543805556866573 0 -14.543805556866573 -14.710690152613552 0 0 0 0 -3.1679857884000739 -10.807716270372111 0 -10.807716270372111 -7.8953953545060358 0 0 0 0 99.236172328762109 -165.34130123649948 0 -165.34130123649948 -1546.5769768582145 0 0 0 0 54.843804103200654 -87.853187641025215 0 -87.853187641025215 -1322.737871610047 0 0 0 0 -1.9618601436771428 -132.60433218627531 0 -132.60433218627531 -1217.8011782261883 0 0 0 0 -23.828892925155913 -201.11901989087073 0 -201.11901989087073 -1365.0589506615015 0 0 0 0 -3.128466385631377 -304.6836669608706 0 -304.6836669608706 -1391.5248438957051 0 0 0 0 -63.107144154760618 -247.42829484963022 0 -247.42829484963022 -1353.1374929878939 0 0 0 0 -30.532129117434692 -356.6457022769082 0 -356.6457022769082 -1485.8102943469194 0 0 0 0 -119.92126725231051 -403.35886932690403 0 -403.35886932690403 -1007.9699958959018 0 0 0 0 -132.45747485099523 -734.83308470439363 0 -734.83308470439363 -1785.1706071221454 0 0 0 0 -245.91864107377933 -647.55607412840072 0 -647.55607412840072 -291.00178696221337 0 0 0 0 -2.7872756600316437 -6.8819209738030516 0 -6.8819209738030516 -15.525421272020667 0 0 0 0 65.17920079967007 602.00389107430715 0 602.00389107430715 -2057.3211458265605 0 0 0 0 238.84163302540401 189.46197605918911 0 189.46197605918911 -2490.8900674198067 0 0 0 0 0.66498454511520322 -324.53220879616254 0 -324.53220879616254 -2331.6485712571707 0 0 0 0 -0.65409666100674713 129.6632378878312 0 129.6632378878312 -2161.8737075663084 0 0 0 0 -40.193314507870355 -126.98789507802894 0 -126.98789507802894 -1129.9378802453866 0 0 0 0 -866.49088385666187 121.00906196848257 0 121.00906196848257 -1179.5767813077036 0 0 0 0 -657.90106819195501 -409.55373744917961 0 -409.55373744917961 -1517.5716747566944 0 0 0 0 -147.51968281878681 -37.719224791514534 0 -37.719224791514534 -1246.7362859590485 0 0 0 0 35.14878067381801 331.55625623179577 0 331.55625623179577 -502.03414128856548 0 0 0 0 -0.69983988049072687 0.58081977767243487 0 0.58081977767243487 -2.2969818220752458 0 0 0 0 -929.07991577278995 -436.42667583324959 0 -436.42667583324959 -502.81145515740718 0 0 0 0 -44.678106417149138 215.28091770013134 0 215.28091770013134 -129.09967017920553 0 0 0 0 -217.88866658513041 169.67473072888333 0 169.67473072888333 -195.60513591450012 0 0 0 0 -52.895276069754686 -113.46282730059329 0 -113.46282730059329 -48.735271868982636 0 0 0 0 -86.969136846368357 189.94230467383693 0 189.94230467383693 -478.62755016004212 0 0 0 0 -23.839312745993993 -40.091067164526976 0 -40.091067164526976 -558.92006067632474 0 0 0 0 85.334519390322157 38.294089336373418 0 38.294089336373418 -1402.0321949969664 0 0 0 0 -231.91373382953742 241.77850319586298 0 241.77850319586298 -746.1517810387104 0 0 0 0 63.129709469847228 -59.541670852378957 0 -59.541670852378957 -1251.1503656747436 0 0 0 0 21.893294480549045 78.909258581245467 0 78.909258581245467 -921.33226769960766 0 0 0 0 -3.3019769054903918 128.26201309542739 0 128.26201309542739 -647.80357239574369 0 0 0 0 60.10177623881151 -7.3808531847312224 0 -7.3808531847312224 -862.90207700631163 0 0 0 0 7.3264853887667982 -33.702715063183859 0 -33.702715063183859 -517.37103505851155 0 0 0 0 12.756954454897636 132.48934560664287 0 132.48934560664287 -618.45544352674005 0 0 0 0 -97.071940496402163 86.208759323249069 0 86.208759323249069 -636.86035489771939 0 0 0 0 20.783076373777305 140.67696123386708 0 140.67696123386708 -610.01885997803947 0 0 0 0 -276.32193553301772 198.22579299338122 0 198.22579299338122 -600.17579179838867 0 0 0 0 -44.515363363069895 105.87693321170445 0 105.87693321170445 -814.63519873414953 0 0 0 0 -216.92326994486942 40.710273507987949 0 40.710273507987949 -938.0366031220583 0 0 0 0 -213.65171975397072 74.037956467868753 0 74.037956467868753 -820.44819252125217 0 0 0 0 -46.475436563043772 -20.486567431149524 0 -20.486567431149524 -1086.7700183083189 0 0 0 0 -57.606660235457966 24.215213617406107 0 24.215213617406107 -918.11091738838968 0 0 0 0 30.455215408275166 28.473985569210981 0 28.473985569210981 -918.80818116619139 0 0 0 0 -263.67666117523424 162.01582149315709 0 162.01582149315709 -740.46908292121407 0 0 0 0 -495.65068313227448 86.748980547435167 0 86.748980547435167 -548.99395144940081 0 0 0 0 -386.40070644035518 -0.046156008974321594 0 -0.046156008974321594 -919.55056397386102 0 0 0 0 -300.25656533020049 147.41537821195561 0 147.41537821195561 -698.89594100758222 0 0 0 0 -421.49820954935103 60.699525154993012 0 60.699525154993012 -787.85965684725124 0 0 0 0 -376.09222925441139 122.45709980637275 0 122.45709980637275 -703.91355265799552 0 0 0 0 -469.17743975294695 155.09172142642865 0 155.09172142642865 -458.29897035944214 0 0 0 0 -253.82925949354455 265.74799876902011 0 265.74799876902011 -685.12546451531489 0 0 0 0 -608.02528298371931 -87.558651772457779 0 -87.558651772457779 -590.05854820257218 0 0 0 0 -401.41571461968192 -47.052081632667068 0 -47.052081632667068 -734.01148469396185 0 0 0 0 -376.77747439859797 -374.44724901021164 0 -374.44724901021164 -827.26464723512379 0 0 0 0 -421.40966080567614 -107.22265006663383 0 -107.22265006663383 -840.88939215758728 0 0 0 0 -198.92204125002087 -159.18165582676784 0 -159.18165582676784 -1223.2982903491429 0 0 0 0 -174.26885546379731 -95.841310294210416 0 -95.841310294210416 -1086.3213703573024 0 0 0 0 -329.22027372101309 -114.09547569288429 0 -114.09547569288429 -1170.2038834711129 0 0 0 0 -311.51188336510586 -26.92898594910821 0 -26.92898594910821 -942.63232400394691 0 0 0 0 -424.81251819908937 -209.57270491685267 0 -209.57270491685267 -1157.7095596800689 0 0 0 0 -286.42256060597578 -204.91507890433513 0 -204.91507890433513 -1204.0439799039436 0 0 0 0 -178.99821484656218 -400.13652587930801 0 -400.13652587930801 -1553.6160736670208 0 0 0 0 -55.49054072168002 -415.01345255176261 0 -415.01345255176261 -2119.4315298485481 0 0 0 0 24.260729729107993 -113.35794521436856 0 -113.35794521436856 -1674.3356340480132 0 0 0 0 -421.16271186276055 -440.14750023018269 0 -440.14750023018269 -1557.6788530045606 0 0 0 0 216.24312517737786 -1043.0873853588296 0 -1043.0873853588296 -222.208450909372 0 0 0 0 90.692515116375375 -616.01128035608508 0 -616.01128035608508 -1674.8037873572998 0 0 0 0 -140.23965708916305 730.14359131456899 0 730.14359131456899 -2302.3648908903024 0 0 0 0 -0.19226623730074666 -3.4306332698904551 0 -3.4306332698904551 -7.898666898029397 0 0 0 0 -238.50211275748927 -565.33330576187836 0 -565.33330576187836 -1351.4817930763425 0 0 0 0 -475.47582775079377 -670.30539721172454 0 -670.30539721172454 -1245.7759324296539 0 0 0 0 -325.9419926562345 -221.9345326486432 0 -221.9345326486432 -1420.4425062100327 0 0 0 0 -82.555125561957766 -497.37832329543016 0 -497.37832329543016 -1716.2684951614574 0 0 0 0 -230.04713505990571 -579.31165600929171 0 -579.31165600929171 -1559.8531132622084 0 0 0 0 -100.74609894043471 -706.9883617436285 0 -706.9883617436285 -1438.2979793232398 0 0 0 0 -116.49571982734476 -608.28183754812653 0 -608.28183754812653 -1811.8600631103654 0 0 0 0 -57.896153224747451 -422.0553462355806 0 -422.0553462355806 -1240.7666755228183 0 0 0 0 310.66270933443951 -448.42022225787537 0 -448.42022225787537 -2499.2076283514871 0 0 0 0 173.10191780702417 -476.65220558452711 0 -476.65220558452711 -1768.5311144652769 0 0 0 0 588.90922543699094 -6.4056316371766115 0 -6.4056316371766115 -1186.8655738075622 0 0 0 0 296.45279672185848 420.09451770440046 0 420.09451770440046 -878.84449826571063 0 0 0 0 408.54071695509992 51.860558809297117 0 51.860558809297117 -1499.0151223171652 0 0 0 0 380.31009343364389 -101.23634800234822 0 -101.23634800234822 -1932.8281899882431 0 0 0 0 716.57365291404074 370.55242738120296 0 370.55242738120296 -2500.0506984029817 0 0 0 0 -250.50949076903697 1248.9176054910849 0 1248.9176054910849 -2497.3062315680704 0 0 0 0 155.75289734506012 540.83173771547808 0 540.83173771547808 -1265.6720670110244 0 0 0 0 73.168425110896905 -396.86186077212028 0 -396.86186077212028 -63.13399975723587 0 0 0 0 0.3445307096078023 -2.1808193559603728 0 -2.1808193559603728 -8.7396490294970697 0 0 0 0 134.4333569796305 386.61522204844414 0 386.61522204844414 -801.5291745534123 0 0 0 0 0.49285997844304341 -6.4982048498381673 0 -6.4982048498381673 -15.180586886687607 0 0 0 0 213.49038584369146 66.249858522975046 0 66.249858522975046 -753.03805763301079 0 0 0 0 104.77067993425079 357.76414911926668 0 357.76414911926668 -1186.9312661062245 0 0 0 0 -85.725141288311136 294.27169681167788 0 294.27169681167788 -782.17420459130551 0 0 0 0 -55.885739144693133 265.65916365721023 0 265.65916365721023 -878.33957597152153 0 0 0 0 -57.361857367023035 -2.0564935185957438 0 -2.0564935185957438 -1036.3251539854016 0 0 0 0 -74.086660366631406 -87.417097768507574 0 -87.417097768507574 -1253.1742820539789 0 0 0 0 31.37133647252449 -63.528475755486397 0 -63.528475755486397 -1385.1202992534359 0 0 0 0 -219.52387988010597 268.44047983052428 0 268.44047983052428 -14.765261975138401 0 0 0 0 105.75670194893218 419.12350791022595 0 419.12350791022595 -471.65378760725025 0 0 0 0 -322.09514881300606 -1.1323497083774328 0 -1.1323497083774328 -617.35109395924746 0 0 0 0 -66.803945394619404 390.22031726007879 0 390.22031726007879 -820.1528165553791 0 0 0 0 -151.90795137338901 422.44135435259523 0 422.44135435259523 -704.08360287945197 0 0 0 0 -92.060588275825523 273.90950537147268 0 273.90950537147268 -569.77729704003923 0 0 0 0 -27.792768380279341 303.75828650761662 0 303.75828650761662 -1436.3079915930621 0 0 0 0 -136.84384791693191 609.23063845318393 0 609.23063845318393 -892.19214598994881 0 0 0 0 -65.634913318512076 367.1067763745209 0 367.1067763745209 -798.26326523257376 0 0 0 0 384.5975383256332 116.9474553075737 0 116.9474553075737 -2494.7199632499733 0 0 0 0 65.223708862375844 -275.76403940465133 0 -275.76403940465133 -1530.918813410346 0 0 0 0 323.5848279327285 403.44572188214977 0 403.44572188214977 -1496.6789734428892 0 0 0 0 279.24116944760226 696.22825224896758 0 696.22825224896758 -2500.4924659599715 0 0 0 0 -299.9033604268929 930.52183464645725 0 930.52183464645725 -1245.32076511793 0 0 0 0 -1287.6602049531255 851.74761868721566 0 851.74761868721566 -360.58368108741001 0 0 0 0 -298.76416203790541 1013.9914082322001 0 1013.9914082322001 -1700.1167895215451 0 0 0 0 -547.93558597710671 1534.9990627282723 0 1534.9990627282723 -2651.7549348155435 0 0 0 0 -293.70108341860833 375.59760100700839 0 375.59760100700839 -741.52089011180749 0 0 0 0 -12.469915208751114 -16.825598434008505 0 -16.825598434008505 -30.429308498225641 0 0 0 0 -305.93161077546853 805.47347625869804 0 805.47347625869804 -1261.3165994054921 0 0 0 0 -1.1322519620663551 -3.9263561073345228 0 -3.9263561073345228 -7.8726448025655138 0 0 0 0 -12.22491063812431 -228.19260347353111 0 -228.19260347353111 -2452.7103663650341 0 0 0 0 -842.70752228031779 -1301.5185964097948 0 -1301.5185964097948 -970.41509981557283 0 0 0 0 -72.101655367663113 38.216505002797931 0 38.216505002797931 -23.875707233501998 0 0 0 0 -1617.5869794798157 1036.2405007128509 0 1036.2405007128509 -2498.2777727411885 0 0 0 0 -5.0104754372807925 0.82194364907522655 0 0.82194364907522655 -4.4090005232430549 0 0 0 0 -113.66603703493934 503.16333052673372 0 503.16333052673372 -2751.7805166077296 0 0 0 0 -4.8324088827795268 -1.7853909737948164 0 -1.7853909737948164 -6.2575677216719043 0 0 0 0 -2227.4271761184455 1919.8265841261034 0 1919.8265841261034 -1015.6196117775278 0 0 0 0 -6.9543724331228205 9.5889696395632846 0 9.5889696395632846 7.7096164069278466 0 0 0 0 -30.276332581839029 -77.906664623478036 0 -77.906664623478036 23.27523867950822 0 0 0 0 -106.20674978330374 7.7686019832453894 0 7.7686019832453894 74.952684326906819 0 0 0 0 -440.98478272648464 -332.15117012050541 0 -332.15117012050541 -21.572924795669223 0 0 0 0 257.92361947675943 179.50013665019014 0 179.50013665019014 -422.34924761896218 0 0 0 0 462.46497662887998 -48.250211869947179 0 -48.250211869947179 -259.79504529847145 0 0 0 0 -5.3501756623910293 -3.1458502563010455 0 -3.1458502563010455 -16.900534900638888 0 0 0 0 -3.3356249444044526 12.636619966545322 0 12.636619966545322 -1.4042052839865455 0 0 0 0 -31.977467544201318 -29.664752773800956 0 -29.664752773800956 -23.786219531604729 0 0 0 0 -121.18113525861486 3.3005941382430137 0 3.3005941382430137 71.995687970326799 0 0 0 0 -5.5513926600435433 5.5201804126111487 0 5.5201804126111487 -12.201218150214196 0 0 0 0 -9.0254394123142507 9.6348153813022694 0 9.6348153813022694 -15.501280847555531 0 0 0 0 -54.168516243622435 36.720915698417684 0 36.720915698417684 -23.173560001324176 0 0 0 0 120.47197487665437 153.35108801230035 0 153.35108801230035 41.193691439329086 0 0 0 0 88.863984392119733 164.86758921993896 0 164.86758921993896 37.287921929533695 0 0 0 0 200.06221571743106 48.32209379277765 0 48.32209379277765 -481.77218248613184 0 0 0 0 -213.93693141938249 317.97915383518915 0 317.97915383518915 -388.69085891947998 0 0 0 0 -101.0465977381773 57.979793490007069 0 57.979793490007069 3.5826503064640747 0 0 0 0 73.355799528227863 -215.533813404527 0 -215.533813404527 31.618426899946826 0 0 0 0 -7.4794071944002258 -16.632374309931375 0 -16.632374309931375 -30.737230237929609 0 0 0 0 -489.21844510513984 -178.4523885382323 0 -178.4523885382323 54.485414265277313 0 0 0 0 59.079180512947062 683.44354660128329 0 683.44354660128329 -1314.6135894222352 0 0 0 0 1.2119838009093655 -82.362306224201348 0 -82.362306224201348 -1950.5895994469543 0 0 0 0 197.84395353746686 152.75730013166719 0 152.75730013166719 -1677.0396233973552 0 0 0 0 389.2078564759322 135.12346017721256 0 135.12346017721256 -1869.0240684468774 0 0 0 0 372.01540798696988 -118.12189876087655 0 -118.12189876087655 -2386.8388718851934 0 0 0 0 454.79091635338773 -393.68829985174943 0 -393.68829985174943 -2194.8467016588975 0 0 0 0 -3.4355675921380104 -2.8925879866250668 0 -2.8925879866250668 -4.1930185761359047 0 0 0 0 -33.858033240569057 -212.60917695650642 0 -212.60917695650642 -1847.4782799404429 0 0 0 0 143.99770089170124 -581.70454701465133 0 -581.70454701465133 -1765.1062880025618 0 0 0 0 -85.114365842214283 103.03180811432321 0 103.03180811432321 -127.66110806179222 0 0 0 0 225.77709476900782 -330.49072125437851 0 -330.49072125437851 -2068.3234070974231 0 0 0 0 -21.379362276996744 3.451415475455633 0 3.451415475455633 -8.1242712356979609 0 0 0 0 -1918.0610009456777 -1355.7669947600884 0 -1355.7669947600884 -1118.605838606185 0 0 0 0 -9.7540566036759095 1.8997304064273131 0 1.8997304064273131 -4.9737236515255567 0 0 0 0 -14.341030578149933 6.1863566052522909 0 6.1863566052522909 -13.863972100515083 0 0 0 0 -1248.1399960939561 -249.99832413021068 0 -249.99832413021068 542.50103982187056 0 0 0 0 -78.006638171696977 -289.41306047187209 0 -289.41306047187209 -1098.6413833482457 0 0 0 0 244.5265558827723 -711.76396417408341 0 -711.76396417408341 -2146.9153772416375 0 0 0 0 570.77822134718735 -790.577664595432 0 -790.577664595432 -795.28600700948664 0 0 0 0 -2.0547966501540555 1.0796659136224633 0 1.0796659136224633 0.41007203792693758 0 0 0 0 -38.330509181705928 7.9907806452703092 0 7.9907806452703092 -0.94680362072592805 0 0 0 0 19.738558583691258 180.92752370975086 0 180.92752370975086 241.41862848962046 0 0 0 0 -1276.8045914420454 575.59735771547912 0 575.59735771547912 941.52636807184081 0 0 0 0 -787.89932007808966 1638.5718702378754 0 1638.5718702378754 -1241.3120737551108 0 0 0 0 -1282.6193782216033 1475.5711841053289 0 1475.5711841053289 19.584758423610765 0 0 0 0 335.73390434212706 -145.84568783779469 0 -145.84568783779469 -738.94520190800085 0 0 0 0 186.80955290589736 269.24784168072483 0 269.24784168072483 -1506.0634801698941 0 0 0 0 973.37604702129829 -1027.0037687758449 0 -1027.0037687758449 -6630.1360136393923 0 0 0 0 374.19030375327566 34.066231603093911 0 34.066231603093911 -2698.774628062949 0 0 0 0 -474.56035157916676 980.24072668218946 0 980.24072668218946 -1495.0950272329428 0 0 0 0 263.3380240590991 269.17933229528126 0 269.17933229528126 -2977.7994489800149 0 0 0 0 152.00599083648558 -436.2635979399347 0 -436.2635979399347 -5741.4451562107606 0 0 0 0 -381.74105482547748 1790.3991810963844 0 1790.3991810963844 -3855.5755116090331 0 0 0 0 -427.26486796282188 584.97399562628743 0 584.97399562628743 -1620.9383700900598 0 0 0 0 -612.67828355735401 -2007.4167008083568 0 -2007.4167008083568 -4556.5771899043484 0 0 0 0 -508.82624371772135 -1509.9519764393201 0 -1509.9519764393201 -3206.8438356001716 0 0 0 0 61.466127969899389 -1215.489885136094 0 -1215.489885136094 -2390.1783840453818 0 0 0 0 481.56479758790738 -398.75359448424388 0 -398.75359448424388 -2949.0620147824065 0 0 0 0 569.05965165021553 -316.99577581247468 0 -316.99577581247468 -4370.6080129255915 0 0 0 0 -377.99250836732972 -862.95632082150587 0 -862.95632082150587 -1499.1516705846198 0 0 0 0 -816.38233690578636 -1545.5752849350092 0 -1545.5752849350092 -2344.2535189480368 0 0 0 0 -765.15007783050532 -1824.6035190962684 0 -1824.6035190962684 -3702.6819423919333 0 0 0 0 484.7503134638755 -678.85029456395478 0 -678.85029456395478 -5492.9663804018719 0 0 0 0 427.03817504914514 -235.01077852725825 0 -235.01077852725825 -2612.7613690339231 0 0 0 0 336.12018370366604 474.46461494590937 0 474.46461494590937 -3088.3250647335976 0 0 0 0 -55.681757240401566 1192.3307792060875 0 1192.3307792060875 -2680.2365946424698 0 0 0 0 -342.486298619845 781.66942415420976 0 781.66942415420976 -480.62456256804467 0 0 0 0 -43.759799516141356 -249.52296719650758 0 -249.52296719650758 63.763844070176901 0 0 0 0 -237.51331124446051 241.42110108525003 0 241.42110108525003 -333.30000365341084 0 0 0 0 -1.3742508817745378 0.009208052994253535 0 0.009208052994253535 -31.989756386046967 0 0 0 0 -1742.5213840928845 -1686.5983356066881 0 -1686.5983356066881 -1970.1376536646312 0 0 0 0 -1393.3500621910698 -814.03079843224805 0 -814.03079843224805 203.15111080842689 0 0 0 0 10.386609432282013 -0.44970452384983517 0 -0.44970452384983517 -83.309459826420294 0 0 0 0 140.31469067683793 70.310525530356244 0 70.310525530356244 -286.82299077629796 0 0 0 0 395.1809462674446 -201.71759659197824 0 -201.71759659197824 -74.852472973418571 0 0 0 0 29.969409142626318 -206.03898469820911 0 -206.03898469820911 195.80697222061053 0 0 0 0 189.82572539546527 -250.54010767197133 0 -250.54010767197133 -126.12373024388853 0 0 0 0 55.593322665640699 180.76355391255538 0 180.76355391255538 20.456696622964955 0 0 0 0 168.95849857222765 -352.59780489128025 0 -352.59780489128025 -563.98653312774513 0 0 0 0 -304.8898029814759 -371.42550848412111 0 -371.42550848412111 920.06250506316655 0 0 0 0 221.34722716484248 -729.39451125649339 0 -729.39451125649339 -244.37359026694025 0 0 0 0 39.399189520291657 16.993980318444073 0 16.993980318444073 -610.2659845774939 0 0 0 0 181.16636144615495 58.487914456610099 0 58.487914456610099 -1535.9825208484617 0 0 0 0 291.21074636387857 -102.43464162938065 0 -102.43464162938065 -1617.9808991696248 0 0 0 0 -95.257056187148009 -322.33792562758163 0 -322.33792562758163 -1094.5531524824974 0 0 0 0 312.11370599191127 427.21408928301054 0 427.21408928301054 -1545.029587746089 0 0 0 0 221.4565624732486 3.1907938706341383 0 3.1907938706341383 -1187.6084145119298 0 0 0 0 143.65930328993272 199.47674822427658 0 199.47674822427658 -1025.2961544893376 0 0 0 0 -40.19107481397532 -554.63219900715922 0 -554.63219900715922 -646.66589754818415 0 0 0 0 -82.076832141406499 -1154.6086535671061 0 -1154.6086535671061 -1412.9263992886881 0 0 0 0 71.546022901945179 504.88752237837684 0 504.88752237837684 -2236.4859466057751 0 0 0 0 -5.3590019631517789 -7.5644845988060503 0 -7.5644845988060503 -10.647483087425414 0 0 0 0 -147.5421733554299 -1154.1626457230941 0 -1154.1626457230941 0.18088618299634618 0 0 0 0 1.2714700679452724 -0.24965934066194251 0 -0.24965934066194251 -0.94545071277177328 0 0 0 0 297.75369696669867 -505.36320666180927 0 -505.36320666180927 -2553.7295215054401 0 0 0 0 -1078.1128183667111 -702.59160863278521 0 -702.59160863278521 -1148.1112712627205 0 0 0 0 409.4763335272537 -48.246200423222945 0 -48.246200423222945 -2000.391953305907 0 0 0 0 80.719946790339691 -154.57775673674951 0 -154.57775673674951 -609.75555012082623 0 0 0 0 129.29330641092201 -222.81188049413686 0 -222.81188049413686 -885.4876288201317 0 0 0 0 -265.65159266059163 -97.893558965206466 0 -97.893558965206466 -75.138653159872774 0 0 0 0 -105.28077020485671 -866.8967483821425 0 -866.8967483821425 -1737.0610265218766 0 0 0 0 -72.254523970850187 -608.04087670959689 0 -608.04087670959689 -931.8468722315265 0 0 0 0 20.621450657115474 -414.53610020580345 0 -414.53610020580345 -1379.1039115389176 0 0 0 0 227.33828061019631 -78.185305851131488 0 -78.185305851131488 -1212.43341923764 0 0 0 0 -137.20873921126031 130.68545899565561 0 130.68545899565561 -1329.4017245235827 0 0 0 0 -1.404949545612908 -529.86357470833173 0 -529.86357470833173 -1720.3856470949568 0 0 0 0 214.60636991789215 -201.32272055740941 0 -201.32272055740941 -2252.0625354580025 0 0 0 0 446.66036964165687 373.25728196454656 0 373.25728196454656 -1678.0441572711879 0 0 0 0 100.73048306730288 395.83236078750497 0 395.83236078750497 -1061.5369482287333 0 0 0 0 -26.183656752075649 7.8195213288973129 0 7.8195213288973129 0.8376475200898148 0 0 0 0 577.80194101690722 405.51226128217968 0 405.51226128217968 -1687.1124593723932 0 0 0 0 -107.34990796818693 164.52771701899565 0 164.52771701899565 -1318.3010419751881 0 0 0 0 -8.4316142535628469 4.1924032615182902 0 4.1924032615182902 -0.19164902174296516 0 0 0 0 37.228435037504255 397.99443027397774 0 397.99443027397774 -1865.203546942219 0 0 0 0 -478.9719305067606 672.78516754239627 0 672.78516754239627 -957.69351569495666 0 0 0 0 -333.27922082424709 -59.74502061363205 0 -59.74502061363205 -499.29357481573606 0 0 0 0 -218.34727294363213 -387.80227474286676 0 -387.80227474286676 -776.6277924043261 0 0 0 0 -125.9521208117402 -11.892206973498105 0 -11.892206973498105 346.11319657301692 0 0 0 0 786.03803211348554 -356.93357069523245 0 -356.93357069523245 -292.03160841586759 0 0 0 0 245.27034016623838 3.1959049693223278 0 3.1959049693223278 -309.95873275784061 0 0 0 0 164.01316932747363 8.2959463479064652 0 8.2959463479064652 -116.82999095117702 0 0 0 0 43.054081259793406 -124.08119833374485 0 -124.08119833374485 -243.16849732397895 0 0 0 0 -573.90272145738504 804.46415072581726 0 804.46415072581726 727.04330389709412 0 0 0 0 -33.00778939579223 -29.400017330328524 0 -29.400017330328524 -796.7573885384827 0 0 0 0 -0.32098683965719021 9.9142050100393497 0 9.9142050100393497 -1.2047715081526555 0 0 0 0 233.55961858287947 -110.05374751011641 0 -110.05374751011641 809.11164302176667 0 0 0 0 -0.96766596322405363 49.823453488470022 0 49.823453488470022 -1155.5567305071017 0 0 0 0 115.28512359582828 55.158801865417445 0 55.158801865417445 -1028.3135769055298 0 0 0 0 44.097840362269835 154.14564413871176 0 154.14564413871176 -1107.5112056852322 0 0 0 0 43.848059361695789 277.72421927284267 0 277.72421927284267 -39.032837545591974 0 0 0 0 -253.14574904205097 216.26831828219747 0 216.26831828219747 748.70586545147012 0 0 0 0 73.326203542267464 78.261265300683817 0 78.261265300683817 -162.13487160671866 0 0 0 0 -101.99140593940109 122.41370146712507 0 122.41370146712507 -1202.0582255975626 0 0 0 0 -2.2765001810166625 3.4480726340475627 0 3.4480726340475627 -0.57776827145466125 0 0 0 0 -190.34321483394234 -29.291692838089148 0 -29.291692838089148 1334.491276752362 0 0 0 0 -204.41153021122898 -110.99763453107244 0 -110.99763453107244 -726.22694301581214 0 0 0 0 -205.59409507780316 -60.086987409095855 0 -60.086987409095855 -1175.8236723589398 0 0 0 0 -328.00174536870708 114.67521112210488 0 114.67521112210488 -101.65417458917364 0 0 0 0 -291.19334269300646 164.67819050296293 0 164.67819050296293 -967.44067615151835 0 0 0 0 -299.87895616563623 -714.22196372307735 0 -714.22196372307735 -1245.8427549079715 0 0 0 0 131.188825259422 -495.30230258494703 0 -495.30230258494703 -1804.9806010130069 0 0 0 0 174.37680825997299 -619.28703192768626 0 -619.28703192768626 -1476.1992346457118 0 0 0 0 125.98022663783186 -1097.4824173947163 0 -1097.4824173947163 -2495.0061307458504 0 0 0 0 221.38142269986002 137.28066898890393 0 137.28066898890393 -1795.9534966424944 0 0 0 0 84.303443865300324 -12.805691867728456 0 -12.805691867728456 -1252.4377013032927 0 0 0 0 83.530567029711335 -25.470315564149132 0 -25.470315564149132 -1446.9015709808991 0 0 0 0 419.66961291944153 -145.87621889537331 0 -145.87621889537331 -2500.3104282960967 0 0 0 0 505.80347650048839 259.67666809820548 0 259.67666809820548 -2499.1506693954307 0 0 0 0 428.9768569245233 -66.618884897864518 0 -66.618884897864518 -1830.7015392862288 0 0 0 0 461.09986893531527 390.41661454900168 0 390.41661454900168 -1816.1765197253135 0 0 0 0 202.24363510733627 218.74811335678396 0 218.74811335678396 -1359.4532901804196 0 0 0 0 313.11562030183967 431.06003984575909 0 431.06003984575909 -1817.8402658928608 0 0 0 0 -60.216539736080506 641.57470474069032 0 641.57470474069032 -1210.0336981440014 0 0 0 0 359.64291458634034 828.49082152204937 0 828.49082152204937 -2500.5562008881116 0 0 0 0 181.5212104785403 762.17413016500359 0 762.17413016500359 -1649.4951291192383 0 0 0 0 -147.0551010182846 1295.0269883164128 0 1295.0269883164128 -2495.1194259418571 0 0 0 0 -1489.4589256253421 1343.2219359523588 0 1343.2219359523588 -1109.2069604174085 0 0 0 0 -2.1724442748384414 2.000005075691357 0 2.000005075691357 -18.854072039911529 0 0 0 0 -599.24354121459442 400.46559495045767 0 400.46559495045767 -160.4820831240886 0 0 0 0 -299.65256877722067 1031.7270863882823 0 1031.7270863882823 -1581.4221089389839 0 0 0 0 -9.2875768959468417 417.8987414916337 0 417.8987414916337 -714.85418486258277 0 0 0 0 -126.59153756749514 433.22380786470103 0 433.22380786470103 -660.37187589603127 0 0 0 0 -127.51206812901398 -62.953110656590979 0 -62.953110656590979 -101.31269459414398 0 0 0 0 -130.03076906023836 191.90093978162804 0 191.90093978162804 -132.94664479788662 0 0 0 0 9.8401085087205047 -71.210408297307367 0 -71.210408297307367 -263.49462529729863 0 0 0 0 56.597717954703285 -0.20620480459274404 0 -0.20620480459274404 -156.44605733483877 0 0 0 0 0.49341103561004224 3.231662920976289 0 3.231662920976289 -45.682491289541105 0 0 0 0 -48.951261534004914 30.184462257573614 0 30.184462257573614 2.7396269960918289 0 0 0 0 2.710581093780799 -14.291640456244004 0 -14.291640456244004 -6.1958303049027279 0 0 0 0 16.184300462885972 22.372355703042558 0 22.372355703042558 -80.317007224837653 0 0 0 0 -2.8127904993220341 -7.6139057002292247 0 -7.6139057002292247 -12.043071104970295 0 0 0 0 2.3590988929395946 -3.0078486939169977 0 -3.0078486939169977 -12.673818582663554 0 0 0 0 8.2330868375871393 -21.172362667589312 0 -21.172362667589312 -96.488403638330055 0 0 0 0 5.6841684530697467 -4.4328413673271605 0 -4.4328413673271605 -46.09388361243731 0 0 0 0 -61.063990886154329 -61.729284307044509 0 -61.729284307044509 -48.053532430167252 0 0 0 0 -1.2973813903694473 -15.458240664183194 0 -15.458240664183194 -5.5084372245809643 0 0 0 0 97.919470770386397 -147.91330598210698 0 -147.91330598210698 -53.03996295304978 0 0 0 0 1.6580291071211282 -0.43441846689948704 0 -0.43441846689948704 -0.93251971671974587 0 0 0 0 28.374697503889951 96.05519068362301 0 96.05519068362301 -497.72903776766543 0 0 0 0 27.114007184753632 -68.444684460720964 0 -68.444684460720964 -209.1077602124351 0 0 0 0 10.795801322082937 9.1797530859250251 0 9.1797530859250251 -7.1830532529245517 0 0 0 0 -93.867043236429936 113.26714871821969 0 113.26714871821969 -337.80195220448695 0 0 0 0 24.700241767443345 -41.39427752814936 0 -41.39427752814936 -607.16118517948053 0 0 0 0 -4.1545843206512814 315.13509551415427 0 315.13509551415427 -881.22300211204129 0 0 0 0 168.45231625556994 313.70270216346216 0 313.70270216346216 -1322.3789848998431 0 0 0 0 36.60974129174167 222.28988365511032 0 222.28988365511032 -828.7797274881741 0 0 0 0 -140.64514557664234 246.48734543950741 0 246.48734543950741 -343.96815670074375 0 0 0 0 -57.349446911366044 365.89603570588042 0 365.89603570588042 -611.76068793499508 0 0 0 0 45.775832293199812 -191.1497277607923 0 -191.1497277607923 -496.62771906022317 0 0 0 0 -14.386056093818937 -190.29312290438656 0 -190.29312290438656 -480.19592815202486 0 0 0 0 366.71583957182503 -343.84231461714262 0 -343.84231461714262 -2493.4265268504751 0 0 0 0 0.1761816484890435 2.7318735620822565 0 2.7318735620822565 -4.7213450315581582 0 0 0 0 344.26746727471578 -274.85698290083019 0 -274.85698290083019 -2659.4241917296022 0 0 0 0 121.21406635036776 164.93827377235721 0 164.93827377235721 -2503.5391263139318 0 0 0 0 122.56992254247677 162.8097634165897 0 162.8097634165897 -397.48072895737005 0 0 0 0 40.705535416242128 -172.55055946679931 0 -172.55055946679931 -489.39523165286482 0 0 0 0 71.63631317045116 -175.1802629410231 0 -175.1802629410231 -495.57807119305289 0 0 0 0 50.078941400123824 -165.35226214570139 0 -165.35226214570139 -477.90270509738184 0 0 0 0 78.856418026138613 -211.77166135695052 0 -211.77166135695052 -537.38297144864919 0 0 0 0 -401.32961505789967 -334.20882412324136 0 -334.20882412324136 -380.90831858017918 0 0 0 0 -53.001625961896877 -303.71610330451949 0 -303.71610330451949 -505.87876828775552 0 0 0 0 -81.22138444335809 -482.07237248593265 0 -482.07237248593265 -932.31970109739996 0 0 0 0 232.0572978614226 121.82383246295558 0 121.82383246295558 -1161.7378197398066 0 0 0 0 331.80237470059211 -314.75733738032068 0 -314.75733738032068 -2189.1283457188638 0 0 0 0 -707.79762229374342 -988.69667467559441 0 -988.69667467559441 -1166.4606123042759 0 0 0 0 347.46301605163944 -305.13394525422336 0 -305.13394525422336 -2493.0695465370995 0 0 0 0 -286.42018749810018 -62.68851348852877 0 -62.68851348852877 -148.30404880202332 0 0 0 0 -57.176638943666944 64.111813521580189 0 64.111813521580189 -194.06200502582033 0 0 0 0 -20.04503216314156 -14.010440175124984 0 -14.010440175124984 -65.039514479514764 0 0 0 0 -3.5197429001883052 4.637108982034988 0 4.637108982034988 -53.406701181513199 0 0 0 0 1.4076908406461826 -28.261308043631288 0 -28.261308043631288 -68.849356082777376 0 0 0 0 -0.21992999486746045 2.0984499820790461 0 2.0984499820790461 -14.920437050363887 0 0 0 0 -0.27953095283549434 -1.8815507957300497 0 -1.8815507957300497 -8.4669640852877723 0 0 0 0 -8.3195600809029742 -21.264515968021442 0 -21.264515968021442 -73.471992866092478 0 0 0 0 -22.836916911032688 10.327244152314961 0 10.327244152314961 -35.672636864779633 0 0 0 0 0.39052057192420597 -3.3170887402071259 0 -3.3170887402071259 -4.6246165825696721 0 0 0 0 -4.3529208987670813 -5.8429016717054765 0 -5.8429016717054765 -33.226596038097341 0 0 0 0 -4.865775373868928 -9.3071007739345077 0 -9.3071007739345077 -25.005835943215061 0 0 0 0 -82.844161978087755 -18.001034429405991 0 -18.001034429405991 7.4463264928772332 0 0 0 0 -56.136999057591254 -124.69389626579141 0 -124.69389626579141 -203.55055067004287 0 0 0 0 -28.396281674038637 -144.22187190709928 0 -144.22187190709928 -211.15542398609978 0 0 0 0 -87.727787990205698 -132.56516353202824 0 -132.56516353202824 -22.813102825880378 0 0 0 0 -110.50559505612557 -92.023777963717293 0 -92.023777963717293 -231.90412961363836 0 0 0 0 -90.127916404921166 -132.71952837969366 0 -132.71952837969366 -186.17331428828766 0 0 0 0 -172.89244210358487 -239.41549893606134 0 -239.41549893606134 -288.69411716546165 0 0 0 0 -68.633549898795252 -209.2091776553716 0 -209.2091776553716 -329.08435477414969 0 0 0 0 18.982853977349293 -197.36565627236632 0 -197.36565627236632 -358.97950289289292 0 0 0 0 25.216226668932904 -142.42057289741206 0 -142.42057289741206 -358.21199157417141 0 0 0 0 18.690169692899396 -208.03604810075916 0 -208.03604810075916 -432.80101704155823 0 0 0 0 17.853982552262977 -163.87716050824747 0 -163.87716050824747 -389.06576463842066 0 0 0 0 -3.2512037765335435 -152.20944877277361 0 -152.20944877277361 -350.92980884774806 0 0 0 0 24.593797170244045 -109.30483555455612 0 -109.30483555455612 -376.84756505243422 0 0 0 0 8.6181522721391843 -99.202663780577495 0 -99.202663780577495 -238.47938658275234 0 0 0 0 -33.788878890850668 -132.47587635517812 0 -132.47587635517812 -194.58382858065306 0 0 0 0 -32.008421753331447 -97.241727789514698 0 -97.241727789514698 -216.00508325298506 0 0 0 0 -32.996491778502957 -44.166778972510656 0 -44.166778972510656 -112.21417496547656 0 0 0 0 -70.164463321231295 -83.00951790453837 0 -83.00951790453837 -61.131727801606758 0 0 0 0 -29.301371653053593 -67.434090475704579 0 -67.434090475704579 -118.06499032440479 0 0 0 0 -4.8103064106974216 -43.411089984430873 0 -43.411089984430873 -125.98556655262655 0 0 0 0 26.258497233724654 -44.346478140185354 0 -44.346478140185354 -54.367051964989514 0 0 0 0 -43.648403519967928 -37.494852389172593 0 -37.494852389172593 -64.810464857044281 0 0 0 0 9.2399121332300638 -28.887182593243779 0 -28.887182593243779 -68.395580136784702 0 0 0 0 -27.799132584380004 -57.063214087043889 0 -57.063214087043889 -12.237143171674688 0 0 0 0 -24.062184835845528 -62.233580571511993 0 -62.233580571511993 -24.755431595916889 0 0 0 0 -21.475236645013979 -41.475185532792239 0 -41.475185532792239 -58.580577422617353 0 0 0 0 -23.253575474132731 -47.705932080927596 0 -47.705932080927596 -61.492846260473016 0 0 0 0 4.7789095012066127 -41.204317866173369 0 -41.204317866173369 -150.57455682156433 0 0 0 0 -1.8350888486153281 -57.858114215472597 0 -57.858114215472597 -149.87796692163101 0 0 0 0 2.0262072401778823 -82.742721025169885 0 -82.742721025169885 -244.41935935331094 0 0 0 0 23.816420150556553 -72.840376239004399 0 -72.840376239004399 -281.76225840505504 0 0 0 0 -37.912694080237316 -19.601495135892947 0 -19.601495135892947 -249.33796127507958 0 0 0 0 -28.11353157102451 -65.209397661645198 0 -65.209397661645198 -178.64715642770261 0 0 0 0 18.674167080824191 -25.180927812340087 0 -25.180927812340087 7.2367209539452233 0 0 0 0 41.820454342947841 -51.763277718575409 0 -51.763277718575409 -181.41270325295045 0 0 0 0 0.87460212618782407 1.4203068772767438 0 1.4203068772767438 -55.286370617293869 0 0 0 0 -35.526445189225115 18.120419753577153 0 18.120419753577153 -30.241241085765068 0 0 0 0 -3.7126490753331196 -5.1912208202670556 0 -5.1912208202670556 -6.3309766801634737 0 0 0 0 -16.516811894974012 -59.683501691877609 0 -59.683501691877609 -286.98887178928999 0 0 0 0 -33.936566734030862 -39.521288232990628 0 -39.521288232990628 -297.18838245891675 0 0 0 0 10.446970340099369 -90.223345984697517 0 -90.223345984697517 -282.04113696675608 0 0 0 0 19.966990328705151 -81.93025007129836 0 -81.93025007129836 -452.16932252364495 0 0 0 0 45.362267666379807 -140.49309330161486 0 -140.49309330161486 -478.15823290387198 0 0 0 0 24.712607035550931 -137.77460957319272 0 -137.77460957319272 -446.12937631308887 0 0 0 0 -1.2442684277725675 -11.327496752994193 0 -11.327496752994193 -36.109848106534628 0 0 0 0 -225.82447845146964 206.14367766741634 0 206.14367766741634 -183.49953335102691 0 0 0 0 5.0144861095398863 -3.405220471794479 0 -3.405220471794479 -4.8272196643137164 0 0 0 0 29.344325393971076 -283.94850937175579 0 -283.94850937175579 -121.2871395669099 0 0 0 0 -552.68320520768657 -67.643449303832313 0 -67.643449303832313 72.791199146020517 0 0 0 0 0.46512702863689936 -2.6577044029946961 0 -2.6577044029946961 -4.6620139101372544 0 0 0 0 -566.89157455542636 -250.40185755403945 0 -250.40185755403945 -160.2005491090822 0 0 0 0 -531.16384216775623 -112.58406859323441 0 -112.58406859323441 -979.30457263963763 0 0 0 0 21.9244102242846 -29.371677101273235 0 -29.371677101273235 -50.781272555501346 0 0 0 0 6.2471530937243003 -2.2866313178958819 0 -2.2866313178958819 -3.8445437781798333 0 0 0 0 -11.69265528051983 -16.914818469260354 0 -16.914818469260354 -21.587096762901638 0 0 0 0 75.117132568439047 -15.233121840952663 0 -15.233121840952663 -214.9607343862881 0 0 0 0 -17.032649215733045 -67.775051276228623 0 -67.775051276228623 4.6714759256924481 0 0 0 0 -7.7699034024703515 -17.627123575649065 0 -17.627123575649065 -13.399352654262188 0 0 0 0 11.102279509672371 -73.23650958421058 0 -73.23650958421058 -28.751133549747465 0 0 0 0 1.9097496748741527 -14.524454505474672 0 -14.524454505474672 -16.544994391574406 0 0 0 0 1.5828042149969406 -9.8667114925046917 0 -9.8667114925046917 -27.583534324920038 0 0 0 0 -0.85279739352469086 -13.128595795978498 0 -13.128595795978498 -7.858330413833869 0 0 0 0 9.2954363112235701 -10.250315009135697 0 -10.250315009135697 -31.171369122920936 0 0 0 0 165.6702953738594 -195.61773513202934 0 -195.61773513202934 -105.50953268368903 0 0 0 0 26.064780347033206 -125.79345866172662 0 -125.79345866172662 379.48750667277636 0 0 0 0 63.748883056426394 -56.625130757936859 0 -56.625130757936859 -259.95515194612381 0 0 0 0 108.41907671246997 -29.226104500452493 0 -29.226104500452493 -244.75207784627855 0 0 0 0 61.753256244452501 49.007968430454639 0 49.007968430454639 -327.79769991383728 0 0 0 0 23.993468027487648 31.390996825696035 0 31.390996825696035 2.5228027568038804 0 0 0 0 -92.402205016870994 100.5175573414017 0 100.5175573414017 -294.55001350483508 0 0 0 0 -639.0149292360328 -144.65288139296899 0 -144.65288139296899 -325.63010737425066 0 0 0 0 -45.346297815907747 -12.614744478982175 0 -12.614744478982175 -806.43964345395216 0 0 0 0 -45.40660915607387 -38.652399321144912 0 -38.652399321144912 -390.00852324775769 0 0 0 0 79.825197075117558 -76.101718386635184 0 -76.101718386635184 -432.28225190451485 0 0 0 0 -84.261318440949708 213.15065359951404 0 213.15065359951404 -464.04705744815874 0 0 0 0 3.3793375681725379 11.777238306646792 0 11.777238306646792 -2.3256397729392972 0 0 0 0 -77.482729264997943 314.91187884284591 0 314.91187884284591 -748.71284480468967 0 0 0 0 144.54356111266651 22.931299936266441 0 22.931299936266441 -369.79633561469382 0 0 0 0 -13.161313010108822 45.566365760956614 0 45.566365760956614 -139.9275340243621 0 0 0 0 25.322470722134582 -113.61626878268453 0 -113.61626878268453 -3.3561491883810959 0 0 0 0 44.523531996526827 -33.985992012241695 0 -33.985992012241695 -144.83754626556765 0 0 0 0 -3.7972301613954897 -22.784294000521186 0 -22.784294000521186 -49.376079767853298 0 0 0 0 27.539598334579697 -125.79199654204103 0 -125.79199654204103 -2.7262386518195854 0 0 0 0 1.6788587077544221 0.89467493001595244 0 0.89467493001595244 -9.2749728361518038 0 0 0 0 -2.1364561397449511 -18.856616496580159 0 -18.856616496580159 -11.572291004145363 0 0 0 0 6.2648828005112591 -13.674994771523416 0 -13.674994771523416 -31.857347820347059 0 0 0 0 -10.050141867551929 -3.6531966537368135 0 -3.6531966537368135 -25.270074011568795 0 0 0 0 -3.6866104872765391 -17.75219509760791 0 -17.75219509760791 -13.777118536876515 0 0 0 0 6.5156862463722973 -10.682904349385353 0 -10.682904349385353 -71.118934678862388 0 0 0 0 -4.6848970122374212 -0.53306881673199769 0 -0.53306881673199769 -43.553240058390656 0 0 0 0 -0.78023968480238182 -14.170462156333087 0 -14.170462156333087 -17.901929516974633 0 0 0 0 1.9257339648361267 -20.539712068901281 0 -20.539712068901281 -49.344860649798648 0 0 0 0 53.917064035849833 6.8838682363566477 0 6.8838682363566477 -185.75227658787117 0 0 0 0 2.3299876984174235 -14.362107810241042 0 -14.362107810241042 -22.011991043860597 0 0 0 0 15.956600338728151 -37.526718840124886 0 -37.526718840124886 -64.474982831765374 0 0 0 0 1.1058093552701393 30.783264758058067 0 30.783264758058067 -116.19327764951959 0 0 0 0 -86.992543565946107 50.972932585669696 0 50.972932585669696 17.396606641494145 0 0 0 0 -90.272447660518537 139.30928551601573 0 139.30928551601573 -122.86491837327776 0 0 0 0 14.310734208535566 31.182496426078124 0 31.182496426078124 -0.23518802996869326 0 0 0 0 19.304605235728559 -104.57097245676414 0 -104.57097245676414 -402.34196608947605 0 0 0 0 4.7661744599035956 123.40872896561268 0 123.40872896561268 -293.53919580761431 0 0 0 0 22.644729908020054 -26.23439985368168 0 -26.23439985368168 -96.614884787359188 0 0 0 0 84.307069081714872 -6.3467642676914693 0 -6.3467642676914693 -181.86207891939921 0 0 0 0 21.082496076912321 20.645266301364245 0 20.645266301364245 -135.2502295651866 0 0 0 0 32.554479502332924 65.118261950766737 0 65.118261950766737 -80.91818335064454 0 0 0 0 1.2437092761408564 -16.890062452176007 0 -16.890062452176007 -63.19833110841688 0 0 0 0 86.230166162427849 33.314720074147772 0 33.314720074147772 -65.776102303696462 0 0 0 0 127.01844847081793 36.925798655709514 0 36.925798655709514 -115.44095656255377 0 0 0 0 87.929341054219549 18.992648927092887 0 18.992648927092887 -7.355537804778578 0 0 0 0 -48.689745254565196 -174.79731324546447 0 -174.79731324546447 -31.120822603272245 0 0 0 0 0.31474975652488979 -182.35521375849567 0 -182.35521375849567 -115.37608521088259 0 0 0 0 -362.5135976423685 -61.72226917138687 0 -61.72226917138687 141.05725083813741 0 0 0 0 -32.829221405180419 40.114638163198833 0 40.114638163198833 -63.806251429406984 0 0 0 0 -41.01679288594584 -95.308417841194455 0 -95.308417841194455 -286.88524159443477 0 0 0 0 -10.158474484468783 -17.66887483604394 0 -17.66887483604394 -27.339447438156682 0 0 0 0 15.140098668411838 -140.01587252389618 0 -140.01587252389618 -243.65956917929725 0 0 0 0 274.341448159018 85.914923273530803 0 85.914923273530803 -21.438814862202889 0 0 0 0 314.20855095516458 102.36836764446707 0 102.36836764446707 -223.2555953824176 0 0 0 0 -11.292580990549011 -23.764944676543763 0 -23.764944676543763 -33.523872489834773 0 0 0 0 -62.369945565335797 -36.821952926402446 0 -36.821952926402446 22.078104082696882 0 0 0 0 10.159115359758403 -55.526215859679724 0 -55.526215859679724 3.271492066756764 0 0 0 0 -20.067671250387093 -21.812728272598179 0 -21.812728272598179 -6.1940380617515984 0 0 0 0 1.214399654109573 -6.0228957481735961 0 -6.0228957481735961 -17.454797358113865 0 0 0 0 0.0045919622347696532 -17.002339806338568 0 -17.002339806338568 -13.328738598567725 0 0 0 0 -1.2416134955376492 0.33006002709953464 0 0.33006002709953464 -37.760640541891917 0 0 0 0 -26.428487936497703 13.155707151236129 0 13.155707151236129 -36.703952752199257 0 0 0 0 -13.426436696280689 -5.0140358523967734 0 -5.0140358523967734 -11.91773931192165 0 0 0 0 5.5662542116624536 -12.102050276862428 0 -12.102050276862428 -30.700385049589386 0 0 0 0 -0.7598974620911948 -9.6383679716842927 0 -9.6383679716842927 -22.121258147105635 0 0 0 0 1.0382577088248013 -12.19291979681293 0 -12.19291979681293 -15.984272384059295 0 0 0 0 0.66334827728364587 -7.099732463647797 0 -7.099732463647797 -28.63531962459092 0 0 0 0 0.36084317227383167 -9.7820848711126018 0 -9.7820848711126018 -21.422691301544546 0 0 0 0 -0.65073175926002591 -3.6760663526620192 0 -3.6760663526620192 -24.085235844744602 0 0 0 0 4.2261828015515448 -7.3126942810486071 0 -7.3126942810486071 -39.180118397140177 0 0 0 0 4.61384918834068 -10.549102359193057 0 -10.549102359193057 -27.644123614009004 0 0 0 0 6.4052055720170529 -9.2604796843606891 0 -9.2604796843606891 -43.971388577578182 0 0 0 0 4.1508088734185886 -2.6632888167037834 0 -2.6632888167037834 -12.844295044957605 0 0 0 0 8.477333885255689 -12.897475121593743 0 -12.897475121593743 -40.236295389477164 0 0 0 0 12.159266130285658 -3.3302647117161541 0 -3.3302647117161541 -59.005768877792434 0 0 0 0 9.5123093810010459 -8.3133526737710781 0 -8.3133526737710781 -49.611092850405839 0 0 0 0 9.4132921436224226 -9.4631021866989613 0 -9.4631021866989613 -56.139980074149207 0 0 0 0 3.8714718781186548 -3.3115702414579573 0 -3.3115702414579573 -42.013785570794425 0 0 0 0 12.193264972913994 -2.445279932107951 0 -2.445279932107951 -53.479472142778832 0 0 0 0 8.4830386563360829 3.564507356088825 0 3.564507356088825 -59.696437946854459 0 0 0 0 16.706837233900956 3.6981708884559339 0 3.6981708884559339 -56.248382162206326 0 0 0 0 14.50797318107908 5.0344192964348622 0 5.0344192964348622 -48.804290085376124 0 0 0 0 -2.5520609613175793 1.7491027798823779 0 1.7491027798823779 -58.996068866592395 0 0 0 0 -2.5097056134071636 0.99796428907939116 0 0.99796428907939116 -45.810564402294403 0 0 0 0 4.1869425095412112 -4.7188663249689853 0 -4.7188663249689853 -41.797913256115862 0 0 0 0 8.5036046028416763 -5.5164371986029437 0 -5.5164371986029437 -52.654900851365255 0 0 0 0 8.585940265155898 1.5805775320059183 0 1.5805775320059183 -53.595081271858362 0 0 0 0 -47.871135533227857 -15.597488183799214 0 -15.597488183799214 -42.301121459055139 0 0 0 0 -14.508124182757058 7.3796822811264065 0 7.3796822811264065 -29.678013432941952 0 0 0 0 0.95315343961192933 0.87564326865751241 0 0.87564326865751241 0.036000763847505723 0 0 0 0 -322.75050984356858 -230.87633976024063 0 -230.87633976024063 -103.92243360602879 0 0 0 0 71.337235514429182 141.42242531671036 0 141.42242531671036 -383.17098615259602 0 0 0 0 -65.269835152046653 -131.44167531092353 0 -131.44167531092353 -240.59350756855201 0 0 0 0 7.1766748895344108 -2.042062148135301 0 -2.042062148135301 -37.765279656417988 0 0 0 0 4.7017745217646469 3.229311336609122 0 3.229311336609122 -8.5722034877145123 0 0 0 0 0.85628327012966765 2.6048898804924647 0 2.6048898804924647 -1.2729544365032268 0 0 0 0 -105.00785017212866 11.382964762080519 0 11.382964762080519 126.55156818055639 0 0 0 0 118.03001172010198 -106.8746722492142 0 -106.8746722492142 -573.5342572604095 0 0 0 0 -576.82542131338346 -710.1113674515982 0 -710.1113674515982 -720.3163554869426 0 0 0 0 -368.99038911210823 -0.61571795229974668 0 -0.61571795229974668 -594.25367960569929 0 0 0 0 90.376661768234158 -744.00077907225113 0 -744.00077907225113 -1675.9417555730251 0 0 0 0 154.5862001743958 -457.89580568925157 0 -457.89580568925157 -1011.5492483520211 0 0 0 0 20.23456092419201 -132.42737974591728 0 -132.42737974591728 -724.54017453528866 0 0 0 0 -149.95167362137664 -257.50115542511594 0 -257.50115542511594 -196.93594851041053 0 0 0 0 36.002421196298201 -119.47472512155218 0 -119.47472512155218 -1056.8037402448681 0 0 0 0 5.5984935156391202 -74.981827189569231 0 -74.981827189569231 -254.51819426504335 0 0 0 0 61.106865518889656 381.82024868870928 0 381.82024868870928 -1376.0219256472192 0 0 0 0 284.66525292814885 -635.27572701461736 0 -635.27572701461736 -1426.7420920984187 0 0 0 0 238.8375416726949 -531.13749470958646 0 -531.13749470958646 -1179.1885956977494 0 0 0 0 278.39388243872338 -72.830087532052858 0 -72.830087532052858 -1091.8652426582203 0 0 0 0 128.5234540188585 -574.3821206663788 0 -574.3821206663788 669.5620998181621 0 0 0 0 448.64728168537022 -275.97378602985191 0 -275.97378602985191 269.41163512604544 0 0 0 0 300.00478728611836 -142.45143334753675 0 -142.45143334753675 -1914.1399049992433 0 0 0 0 -8.1812937841925191 -6.3730558986613488 0 -6.3730558986613488 -4.4293647396972418 0 0 0 0 -338.05904362768132 -550.89747376009836 0 -550.89747376009836 897.22805299758329 0 0 0 0 -291.26318236459713 -651.92072672519953 0 -651.92072672519953 -475.5317739986931 0 0 0 0 -78.990631071316784 -225.81127955518969 0 -225.81127955518969 -789.68205338626831 0 0 0 0 -390.22509815112863 -748.95687124065626 0 -748.95687124065626 150.02805398177588 0 0 0 0 -156.11601692951172 -194.11438011433711 0 -194.11438011433711 179.37846926973043 0 0 0 0 -382.46419072507069 -384.09707769404122 0 -384.09707769404122 21.776858828918193 0 0 0 0 -382.20788707674672 -386.29709033328982 0 -386.29709033328982 -45.307063729080255 0 0 0 0 -453.39132944748371 -402.93872907453442 0 -402.93872907453442 -44.870155850239826 0 0 0 0 -235.90149838521188 -366.24568720356365 0 -366.24568720356365 -330.37887590126047 0 0 0 0 -234.41006594660689 -351.88341459590083 0 -351.88341459590083 -246.7076714378527 0 0 0 0 -74.164611516258446 -217.89160526414707 0 -217.89160526414707 -137.49751755086436 0 0 0 0 72.782911107053224 -236.82768932629551 0 -236.82768932629551 -346.26179193216376 0 0 0 0 171.75531533252342 -188.64385366766146 0 -188.64385366766146 -333.54045508571926 0 0 0 0 -85.490668802384789 -253.28077718437908 0 -253.28077718437908 -3.082794836445828 0 0 0 0 113.98717604266085 -240.8057532524399 0 -240.8057532524399 -90.263359510259761 0 0 0 0 216.64555756182926 -49.304801324189611 0 -49.304801324189611 -322.69065498715645 0 0 0 0 357.9149567637146 -200.77461064353338 0 -200.77461064353338 -84.098461837867944 0 0 0 0 -46.391317059991707 -246.16280088946223 0 -246.16280088946223 310.00155496911611 0 0 0 0 -32.915487328655217 -358.86801639462647 0 -358.86801639462647 -46.149952966072306 0 0 0 0 -92.783539915637448 -224.9714336976831 0 -224.9714336976831 211.37044041143963 0 0 0 0 385.24371808447904 133.53505547618988 0 133.53505547618988 25.53460235302191 0 0 0 0 -1.9137821356527986 -1.8276061319838135 0 -1.8276061319838135 0.72814782975032699 0 0 0 0 -197.81280411073794 97.08664063215474 0 97.08664063215474 9.7318838606806821 0 0 0 0 228.58425139716599 10.738511929874221 0 10.738511929874221 -307.71752009901684 0 0 0 0 78.17822652909399 16.722404413223558 0 16.722404413223558 -52.533895065462275 0 0 0 0 217.10089086591597 -62.288965088206169 0 -62.288965088206169 -152.72770030920219 0 0 0 0 -2.0565784000902743 -19.038421389809088 0 -19.038421389809088 -59.600976323491537 0 0 0 0 59.923794331561112 -105.85029522962577 0 -105.85029522962577 -92.44699045262314 0 0 0 0 -83.932167033304722 -107.23271601356464 0 -107.23271601356464 -7.9688828407670371 0 0 0 0 145.27756845126959 106.51861351947082 0 106.51861351947082 -97.816771020672604 0 0 0 0 -2.6660358729030795 -18.965748724638807 0 -18.965748724638807 -51.1077366664815 0 0 0 0 -185.6577473616635 -195.83825720989262 0 -195.83825720989262 -15.211837494352949 0 0 0 0 -89.884812447437071 -196.44506963468666 0 -196.44506963468666 -109.42503130684781 0 0 0 0 34.711370007826645 -124.35543709851072 0 -124.35543709851072 -179.87166216743208 0 0 0 0 -74.899148828486432 -113.03836378159394 0 -113.03836378159394 -83.592344863091967 0 0 0 0 -87.689238240215673 -226.63813924720671 0 -226.63813924720671 -234.60897355911948 0 0 0 0 -110.11542638836886 -235.1875196434662 0 -235.1875196434662 -237.84892160143499 0 0 0 0 -304.86766379404889 -353.30538499924296 0 -353.30538499924296 -146.79203757489267 0 0 0 0 -429.60754092623074 -379.70021747384817 0 -379.70021747384817 -3.4929400049441028 0 0 0 0 -280.8868478141394 -420.24093532809638 0 -420.24093532809638 0.84105167242523748 0 0 0 0 -366.20937266914007 -351.58427512643539 0 -351.58427512643539 -10.659984893034562 0 0 0 0 -487.14383023004757 -244.42692821038918 0 -244.42692821038918 23.412059229369333 0 0 0 0 -527.38881076085454 -388.78175900571296 0 -388.78175900571296 -3.9374129862871996 0 0 0 0 -586.25508047049243 -479.18366371018055 0 -479.18366371018055 -214.85964169240833 0 0 0 0 -444.68518572410051 -379.13569164700948 0 -379.13569164700948 -147.31541248324356 0 0 0 0 -555.42317968139605 -320.49967792904135 0 -320.49967792904135 -183.41289419680106 0 0 0 0 -648.99419470924659 -381.43265638508456 0 -381.43265638508456 -81.679343352956494 0 0 0 0 -1167.308228203854 -122.08661254956678 0 -122.08661254956678 14.666699575867824 0 0 0 0 -5.2585374221096881 -3.5594198441042408 0 -3.5594198441042408 1.6454801982555693 0 0 0 0 -488.30161833098919 53.322716407073131 0 53.322716407073131 51.870044448776753 0 0 0 0 -317.62943373152939 -235.44966693876268 0 -235.44966693876268 -14.225820014597844 0 0 0 0 -351.78927827013911 -218.47185078954749 0 -218.47185078954749 3.6828016630170168 0 0 0 0 -192.86004893115023 -105.58926279267689 0 -105.58926279267689 -24.898602445686265 0 0 0 0 -167.72587230517183 -9.3521368217934651 0 -9.3521368217934651 -12.635193622460065 0 0 0 0 -0.36210934447825927 -10.332157519372473 0 -10.332157519372473 -37.078495714972405 0 0 0 0 589.7407980606971 -224.26189643458929 0 -224.26189643458929 -79.446301600488368 0 0 0 0 2.4989567308775911 -0.40198835575037961 0 -0.40198835575037961 -11.571883353233744 0 0 0 0 100.93007933651097 1.0889458769979683 0 1.0889458769979683 -85.587977499715635 0 0 0 0 343.36682537960746 -46.538428617313912 0 -46.538428617313912 -2.5934428695400129 0 0 0 0 104.80048288164789 -143.991769843371 0 -143.991769843371 63.13563389024057 0 0 0 0 287.11794318609554 -155.5525346127688 0 -155.5525346127688 78.097611888919346 0 0 0 0 5.869716289037104 2.9573143883447273 0 2.9573143883447273 -8.5532983478346694 0 0 0 0 504.69302094954651 -205.93708131245876 0 -205.93708131245876 -14.111087070705253 0 0 0 0 372.56768227708335 -175.74463143980029 0 -175.74463143980029 -1536.9446321877404 0 0 0 0 31.273451369121005 -83.128021994625669 0 -83.128021994625669 136.16876508052519 0 0 0 0 -17.158929535103823 138.68986895828129 0 138.68986895828129 -238.78237516692025 0 0 0 0 129.81210952846277 -53.241126389935744 0 -53.241126389935744 -2.6450851792760659 0 0 0 0 238.09209264276751 -308.97064224490259 0 -308.97064224490259 101.34102928885841 0 0 0 0 6.1745868524558318 146.03375323093132 0 146.03375323093132 -184.85147632061125 0 0 0 0 -1247.2959564048388 -416.48584641037087 0 -416.48584641037087 38.285529255677829 0 0 0 0 -1511.9547493094456 -812.11901537425547 0 -812.11901537425547 -444.64148528305304 0 0 0 0 -1.2123746833360189 -4.8087588382079591 0 -4.8087588382079591 -15.915411613227178 0 0 0 0 504.91772702131607 319.90988672741332 0 319.90988672741332 -725.41912994621816 0 0 0 0 -1133.4008615753414 -1003.2850889076399 0 -1003.2850889076399 -1100.1474232742294 0 0 0 0 -772.70218033623496 -562.9578315107392 0 -562.9578315107392 -595.19664462648507 0 0 0 0 -778.31687737054472 -537.18658771423907 0 -537.18658771423907 -391.51454534462391 0 0 0 0 -863.50382042251067 -409.95178079511243 0 -409.95178079511243 -403.58396716079005 0 0 0 0 -1177.7084205680117 -610.52772473996902 0 -610.52772473996902 -504.03951371864241 0 0 0 0 -472.46124193248966 -507.88349320185807 0 -507.88349320185807 -690.05715791418334 0 0 0 0 -352.97675973294417 -441.65963806105356 0 -441.65963806105356 -506.7316346156731 0 0 0 0 -453.13733803592237 -445.61847828789541 0 -445.61847828789541 -493.07785427683848 0 0 0 0 -312.21956966422795 -397.72338073952415 0 -397.72338073952415 -1011.450636084046 0 0 0 0 -756.09642797614185 -615.81287170945916 0 -615.81287170945916 -730.50234931429441 0 0 0 0 -257.52364188643975 -336.5542867584154 0 -336.5542867584154 -1067.8789854282149 0 0 0 0 -456.67041329405686 -346.27406039952257 0 -346.27406039952257 -925.12837960130128 0 0 0 0 -446.5061071349262 -27.768518863347708 0 -27.768518863347708 -958.20678072333976 0 0 0 0 -525.27637232248526 61.439376976653875 0 61.439376976653875 -1066.1850594694297 0 0 0 0 -556.56317890559274 54.796035586219659 0 54.796035586219659 -1412.8933201681866 0 0 0 0 -521.44161856345852 -110.60089629879803 0 -110.60089629879803 -986.53945445553109 0 0 0 0 -523.27302828856079 -585.06944881853997 0 -585.06944881853997 -1756.109524180516 0 0 0 0 -953.76482538044661 -222.33969824223641 0 -222.33969824223641 -1040.2512192969225 0 0 0 0 -620.63694448498904 -755.94468442911602 0 -755.94468442911602 -1294.0389200049904 0 0 0 0 -81.791597226464091 -515.47651458597829 0 -515.47651458597829 -1201.8199236560504 0 0 0 0 -82.199396543407815 -494.84706288814203 0 -494.84706288814203 -1123.1391379470442 0 0 0 0 48.371771390452977 -615.69592880562413 0 -615.69592880562413 -1656.3039643651464 0 0 0 0 198.70868887928646 -281.5577250985807 0 -281.5577250985807 -733.50367648708198 0 0 0 0 241.00851147418462 -225.64718121547412 0 -225.64718121547412 -669.01175376363244 0 0 0 0 253.5920679838564 -239.9749841587236 0 -239.9749841587236 -682.61739222657343 0 0 0 0 223.35261787817035 -277.9312810195006 0 -277.9312810195006 -728.44564162281313 0 0 0 0 219.32612522362319 -221.83724418082829 0 -221.83724418082829 -492.03353097655054 0 0 0 0 228.10531285023796 -178.79410899051891 0 -178.79410899051891 -547.2230488419882 0 0 0 0 255.26478737351954 -147.72032541593217 0 -147.72032541593217 -690.15720407545996 0 0 0 0 47.178121838037441 -307.76506372573931 0 -307.76506372573931 -496.13816318419413 0 0 0 0 174.53032664128659 -265.72197273418715 0 -265.72197273418715 -645.92226590469545 0 0 0 0 171.16105745914143 -233.75362297749166 0 -233.75362297749166 -607.73108580557164 0 0 0 0 35.898879026372825 -274.21071394030878 0 -274.21071394030878 -498.78098552148731 0 0 0 0 -125.17456801416216 -388.74667636227241 0 -388.74667636227241 -579.84557730140659 0 0 0 0 -357.80240971236276 -474.07603201198435 0 -474.07603201198435 -425.00958898769022 0 0 0 0 -149.33402162516512 -340.44458199265864 0 -340.44458199265864 -550.93012349785931 0 0 0 0 -297.54397216989264 -502.1006436093794 0 -502.1006436093794 -726.25288529650425 0 0 0 0 -118.62447876836848 -308.2962748027021 0 -308.2962748027021 -757.56387435993838 0 0 0 0 -313.95230474819522 -428.85183470446134 0 -428.85183470446134 -819.36740298879158 0 0 0 0 -107.99057956946589 -380.79730083535469 0 -380.79730083535469 -731.94798861999152 0 0 0 0 80.782202389893882 -284.48883199431657 0 -284.48883199431657 -636.1302211687871 0 0 0 0 80.775070352314742 -285.57608665931184 0 -285.57608665931184 -688.49554772975534 0 0 0 0 129.95965717152183 -284.85829856803502 0 -284.85829856803502 -719.04089485580334 0 0 0 0 109.42166548563759 -239.04323758395731 0 -239.04323758395731 -797.35875586206384 0 0 0 0 -101.16891572701475 -310.3421400045554 0 -310.3421400045554 -773.12998899757076 0 0 0 0 -162.89097661336953 -205.7783100979068 0 -205.7783100979068 -888.30860589101576 0 0 0 0 -215.89086233795601 -149.28258986786022 0 -149.28258986786022 -705.56485456209703 0 0 0 0 -220.03888562537952 -107.41030348810455 0 -107.41030348810455 -958.33670819531835 0 0 0 0 88.98459730560171 -174.24207513871079 0 -174.24207513871079 -851.86042533008367 0 0 0 0 101.89253154949188 -228.29124134430094 0 -228.29124134430094 -637.14043888430751 0 0 0 0 119.25131592763091 1.4154385696456302 0 1.4154385696456302 -600.98932716125546 0 0 0 0 297.87774931317063 -128.81680033207886 0 -128.81680033207886 -526.90240232718133 0 0 0 0 218.74422611703994 -114.64121331547631 0 -114.64121331547631 -526.15983616664744 0 0 0 0 245.22414479802137 -162.95294172706053 0 -162.95294172706053 -720.12785743040149 0 0 0 0 224.21525122475123 -210.60903875972144 0 -210.60903875972144 -703.22539219879764 0 0 0 0 225.20540164702697 -247.63203211183645 0 -247.63203211183645 -624.98159534714796 0 0 0 0 245.89870158498888 -244.14127796638786 0 -244.14127796638786 -682.03543327808347 0 0 0 0 192.15773619753054 -28.870625555015067 0 -28.870625555015067 -217.79958154489577 0 0 0 0 187.94372556310327 -56.302133714449155 0 -56.302133714449155 -330.51401984451513 0 0 0 0 121.6494861032179 -118.48133851632883 0 -118.48133851632883 -213.17545386569691 0 0 0 0 96.348380203731722 -229.47842520381164 0 -229.47842520381164 -472.77010236103524 0 0 0 0 8.5399944343983503 -2.8574725912475998 0 -2.8574725912475998 -7.4152706188881012 0 0 0 0 77.467045676178714 -5.9944631337202736 0 -5.9944631337202736 -173.92584129916759 0 0 0 0 -59.334228634397732 -137.97864652738281 0 -137.97864652738281 -145.78069331433289 0 0 0 0 733.15543790577067 107.98214244030896 0 107.98214244030896 -363.53417335912673 0 0 0 0 638.74608836783591 203.35584000809467 0 203.35584000809467 -347.8764154310702 0 0 0 0 -129.39828249489619 -265.80466750583582 0 -265.80466750583582 -439.27595149289482 0 0 0 0 4.8439003301149643 -4.1152182116245655 0 -4.1152182116245655 -2.1171412855165812 0 0 0 0 68.535908896174078 -120.47183103356656 0 -120.47183103356656 137.95438811712665 0 0 0 0 8.580514229381869 -1.830519705294595 0 -1.830519705294595 -14.192535712175101 0 0 0 0 -186.58186537068786 -316.31537506485074 0 -316.31537506485074 -390.73332234716509 0 0 0 0 19.666439646241088 -382.07609513976786 0 -382.07609513976786 -684.42748649817804 0 0 0 0 174.65348356679579 -210.94827554983931 0 -210.94827554983931 -498.10091974976967 0 0 0 0 219.78756657514805 -272.38159261361579 0 -272.38159261361579 -733.66440511964902 0 0 0 0 41.858506116081116 -375.40508991697061 0 -375.40508991697061 -770.77241435708129 0 0 0 0 -621.52888875157623 -529.8925988005285 0 -529.8925988005285 -571.82223248850278 0 0 0 0 -134.1586888271213 -265.09350016122698 0 -265.09350016122698 -858.97428542720081 0 0 0 0 70.976912274756614 -418.76224854496104 0 -418.76224854496104 -1086.8767399704448 0 0 0 0 119.91467989113153 -338.36865756028783 0 -338.36865756028783 -876.75382782569795 0 0 0 0 99.875799930086941 -3.2614813466279884 0 -3.2614813466279884 -497.01136187525844 0 0 0 0 230.14219567445707 -131.32797450410726 0 -131.32797450410726 -845.59099173131381 0 0 0 0 211.96372326128494 -202.09437080098905 0 -202.09437080098905 -521.07875196392706 0 0 0 0 12.061334602098214 161.90558884749044 0 161.90558884749044 -1345.7116461965343 0 0 0 0 132.58643245283747 -199.42489911807206 0 -199.42489911807206 -879.06175221573722 0 0 0 0 -254.62148136967107 -365.9347780898288 0 -365.9347780898288 -950.48924707304832 0 0 0 0 -41.313415302660928 -295.69276722210725 0 -295.69276722210725 -704.61184230977233 0 0 0 0 7.5119939992748641 32.042943877805101 0 32.042943877805101 -692.56364039811888 0 0 0 0 107.88752342043153 -404.62072449996049 0 -404.62072449996049 -691.0135325046831 0 0 0 0 169.05340768970927 -69.072083457594999 0 -69.072083457594999 -1045.9583534218327 0 0 0 0 210.87907852662829 -206.71079185263443 0 -206.71079185263443 -1011.6310112073152 0 0 0 0 -919.88485690923699 -1219.7148656296931 0 -1219.7148656296931 -1081.5247436906939 0 0 0 0 1394.6770088263365 409.06023986003493 0 409.06023986003493 -486.99143926808756 0 0 0 0 3.1674543786052354 -2.0654270565229247 0 -2.0654270565229247 -6.0580430065737971 0 0 0 0 1116.7520468440148 -274.49016695309365 0 -274.49016695309365 -1519.4810476536295 0 0 0 0 59.687013277547067 -727.75292561140122 0 -727.75292561140122 -1691.99276907272 0 0 0 0 88.439427164060362 133.72203697667828 0 133.72203697667828 -621.64677038269292 0 0 0 0 -168.29397447528845 -337.21999662817325 0 -337.21999662817325 -76.560846931719425 0 0 0 0 132.18995251294837 -152.50339132538647 0 -152.50339132538647 -1174.4477115712434 0 0 0 0 -0.77670118363502816 1.0320962610331286 0 1.0320962610331286 -10.265463952950626 0 0 0 0 86.575637594737827 181.6968695734131 0 181.6968695734131 -263.88039806138841 0 0 0 0 -44.32983229448746 -41.338706251273834 0 -41.338706251273834 178.43102493599872 0 0 0 0 748.61737911232285 -92.96938604285242 0 -92.96938604285242 -181.61608909484494 0 0 0 0 299.79191844143133 247.5288758257193 0 247.5288758257193 338.0759670886473 0 0 0 0 1060.6119883396095 -135.15895781198924 0 -135.15895781198924 -30.090316273919598 0 0 0 0 339.89189596975029 8.60985242339666 0 8.60985242339666 -133.36607498579906 0 0 0 0 147.34740237044844 -76.537187018089753 0 -76.537187018089753 -43.082944043570023 0 0 0 0 5.2448385099682167 0.88380685058297548 0 0.88380685058297548 -31.857003993129737 0 0 0 0 -13.812069553820947 -31.310712017295373 0 -31.310712017295373 -18.821199406505912 0 0 0 0 24.722789103429022 -72.845494146571582 0 -72.845494146571582 15.023804920716429 0 0 0 0 -56.216609776936821 -8.5845226041419664 0 -8.5845226041419664 26.037379836605396 0 0 0 0 -36.273227280995343 26.991966889301693 0 26.991966889301693 -75.571595430912566 0 0 0 0 -32.078315488390217 -7.5369193069273024 0 -7.5369193069273024 -7.969161955893469 0 0 0 0 7.3562293355680595 -15.533163514715852 0 -15.533163514715852 -9.1170634033260285 0 0 0 0 4.9158727546030345 -0.9780504057667585 0 -0.9780504057667585 -1.8255570120061435 0 0 0 0 14.132399395325244 3.8670861524002191 0 3.8670861524002191 -6.4682683097396634 0 0 0 0 16.510719758347477 -7.1689832100018975 0 -7.1689832100018975 -81.525543555014565 0 0 0 0 8.0798615505445923 32.693992911588794 0 32.693992911588794 -83.249756375967991 0 0 0 0 25.211251390734105 37.948574917620135 0 37.948574917620135 -105.71135343265632 0 0 0 0 -39.127963123253721 82.070250041317195 0 82.070250041317195 -141.51369273464661 0 0 0 0 3.3453066701313219 40.189469841265236 0 40.189469841265236 -104.6651693190579 0 0 0 0 19.86922394148587 52.298208730244369 0 52.298208730244369 -145.54436122954939 0 0 0 0 22.206703621283054 59.79721597673506 0 59.79721597673506 -163.51045061489276 0 0 0 0 -46.221926465856086 58.376024904187943 0 58.376024904187943 -186.47619972647954 0 0 0 0 25.866978253079878 38.689236469267144 0 38.689236469267144 -186.66348829132039 0 0 0 0 -44.837720734004506 101.83365574075651 0 101.83365574075651 -216.50676287713577 0 0 0 0 -44.053472025540074 32.959390285977165 0 32.959390285977165 -87.291128561351798 0 0 0 0 -66.526126165897949 58.845599129454058 0 58.845599129454058 -45.038103194565338 0 0 0 0 -46.054339355055617 4.8126353591528641 0 4.8126353591528641 -88.594718051645032 0 0 0 0 3.042635255842125 4.596158191405145 0 4.596158191405145 -17.211258090965529 0 0 0 0 -6.7405959234688453 -15.422380394906213 0 -15.422380394906213 -42.649088734913448 0 0 0 0 3.8753165059169987 -37.402347555580491 0 -37.402347555580491 -125.02234045027944 0 0 0 0 -8.1989993830175081 -14.668506554109626 0 -14.668506554109626 -38.939254286098731 0 0 0 0 -7.6206250712093606 -18.296279291524115 0 -18.296279291524115 -42.885027045500465 0 0 0 0 36.973185227934664 13.520334075801657 0 13.520334075801657 -104.91862499849231 0 0 0 0 26.664928285270435 -3.7137404781424266 0 -3.7137404781424266 -133.05083826416376 0 0 0 0 76.999196419870714 35.970815699572995 0 35.970815699572995 -158.97146813611107 0 0 0 0 72.076011362344047 2.7769884032368282 0 2.7769884032368282 -155.25090388458921 0 0 0 0 168.19011554862118 2.6412805578511325 0 2.6412805578511325 -184.32775116906851 0 0 0 0 87.406188953499623 -103.6901751721125 0 -103.6901751721125 -114.16929891409382 0 0 0 0 33.043979060237234 -54.315745946550123 0 -54.315745946550123 -127.72119075068622 0 0 0 0 -19.90386532282173 -30.630347852467821 0 -30.630347852467821 -119.85159826409654 0 0 0 0 -1.9712402185758524 -48.156856488663003 0 -48.156856488663003 -83.843094517282978 0 0 0 0 -15.759104502933951 -55.310189477440872 0 -55.310189477440872 -120.6234500033097 0 0 0 0 117.26708499316646 -195.03141251866597 0 -195.03141251866597 -335.17704493034694 0 0 0 0 11.333821222927781 3.2139706937765595 0 3.2139706937765595 -130.28148798415015 0 0 0 0 -159.16212444895893 -56.623157017896233 0 -56.623157017896233 39.389986133840878 0 0 0 0 263.34709845436282 -122.45520509337075 0 -122.45520509337075 -125.65992286260007 0 0 0 0 -5.1635208894406235 -47.020422074210536 0 -47.020422074210536 -95.1383832942292 0 0 0 0 87.914496945985775 13.861397693483013 0 13.861397693483013 -125.23770379704365 0 0 0 0 -36.903645928507103 43.927111268927547 0 43.927111268927547 422.20662068522506 0 0 0 0 313.60063168684383 76.997338056174158 0 76.997338056174158 -117.39002055586025 0 0 0 0 -149.40684405957109 -5.8866496602656753 0 -5.8866496602656753 -376.93362928717806 0 0 0 0 -220.91262154351898 -929.33598872880975 0 -929.33598872880975 409.04949734906523 0 0 0 0 -163.25537923740058 -152.80275326942842 0 -152.80275326942842 -380.70967365823952 0 0 0 0 -50.049139837412895 -232.26615357937834 0 -232.26615357937834 -336.94275495909733 0 0 0 0 -52.435168543188865 -274.61538538973286 0 -274.61538538973286 -427.95382783284981 0 0 0 0 145.76551141150048 -75.040838951725163 0 -75.040838951725163 -753.7156379879525 0 0 0 0 -18.619806298780532 -84.204113345967926 0 -84.204113345967926 -386.43840075327898 0 0 0 0 -16.57623058104582 -27.516281728283502 0 -27.516281728283502 -407.76147255550313 0 0 0 0 82.449960009442293 -6.1091193566826405 0 -6.1091193566826405 -191.17065491094399 0 0 0 0 55.179523160453755 38.101453366449277 0 38.101453366449277 -260.29585153780499 0 0 0 0 -139.66582848090547 -260.3444982234505 0 -260.3444982234505 -334.69742754295294 0 0 0 0 -136.46675938092812 -117.75326343323832 0 -117.75326343323832 -164.88606082892147 0 0 0 0 -36.760686424699088 -217.74328786772821 0 -217.74328786772821 -652.78269185832323 0 0 0 0 -103.57603992531011 -378.27169299396041 0 -378.27169299396041 -238.90641462287749 0 0 0 0 -87.410906423014694 -595.76789726817719 0 -595.76789726817719 -1064.9394504539669 0 0 0 0 552.79575837923767 -1711.3935611087654 0 -1711.3935611087654 -1522.4461522649508 0 0 0 0 -8.9703023794018044 -48.229507922065864 0 -48.229507922065864 -89.531329953063377 0 0 0 0 -210.97305684109597 -1162.8327282353639 0 -1162.8327282353639 -1017.1951100857259 0 0 0 0 157.13564985671292 -386.33530795688421 0 -386.33530795688421 -1064.0805831670295 0 0 0 0 260.86447169200801 -689.57213322541065 0 -689.57213322541065 -1809.3911641774903 0 0 0 0 176.95175679515432 -329.79579207385541 0 -329.79579207385541 -1373.0083638529904 0 0 0 0 75.858471860095733 -374.01165608857491 0 -374.01165608857491 -1020.4723569757625 0 0 0 0 56.363246143881042 -275.34319780400256 0 -275.34319780400256 -632.33186475243929 0 0 0 0 90.85512581605326 -348.38865780019842 0 -348.38865780019842 -1051.7042281570139 0 0 0 0 151.05462291144067 -241.40791321151119 0 -241.40791321151119 -956.48263099473843 0 0 0 0 152.37964421605284 -96.379363832005765 0 -96.379363832005765 -1045.0168451134741 0 0 0 0 110.73727088831583 231.55649505952169 0 231.55649505952169 -667.38494637842814 0 0 0 0 -9.4374661876273755 -43.10401660858151 0 -43.10401660858151 -90.423280523084074 0 0 0 0 298.93935566427899 -36.277312411424646 0 -36.277312411424646 -1684.0107239625686 0 0 0 0 314.58756978511701 -738.54827601115903 0 -738.54827601115903 1275.5088890017832 0 0 0 0 666.80975000293711 -743.46778442390132 0 -743.46778442390132 1192.187521834876 0 0 0 0 43.869155457425222 339.26192601002731 0 339.26192601002731 -247.11622893776803 0 0 0 0 -193.49550703831574 -546.81742291724368 0 -546.81742291724368 1272.5504368082984 0 0 0 0 -2.079802370962891 -22.829050132790449 0 -22.829050132790449 -1.6006927620763634 0 0 0 0 136.98914843324383 166.01075083757314 0 166.01075083757314 -1117.0569621577852 0 0 0 0 738.89155592365569 -627.53550754405296 0 -627.53550754405296 1247.9012367039904 0 0 0 0 -274.41153329329177 22.939171920204984 0 22.939171920204984 -167.56123501947889 0 0 0 0 -3.2584366503457289 -6.1708781801062571 0 -6.1708781801062571 -4.8918532183060606 0 0 0 0 -300.44539564463582 -134.2888664620377 0 -134.2888664620377 -188.96331434560807 0 0 0 0 -144.59966812917338 12.612129664383829 0 12.612129664383829 -172.32713866468987 0 0 0 0 -139.68018696268155 -75.679030133500703 0 -75.679030133500703 -168.27734307210756 0 0 0 0 -194.5252792819349 -80.651198196347195 0 -80.651198196347195 -100.63798894894103 0 0 0 0 -49.659801810389354 -34.70235758278136 0 -34.70235758278136 -156.52087268496234 0 0 0 0 -0.77532806275786825 -10.828412095895608 0 -10.828412095895608 -102.00461621445088 0 0 0 0 863.74378986986017 -856.87425498140101 0 -856.87425498140101 368.71721461757261 0 0 0 0 430.47778883650409 2.3951459465432379 0 2.3951459465432379 -325.86486100498632 0 0 0 0 51.512791750794349 -223.73650933369157 0 -223.73650933369157 -460.55849409255086 0 0 0 0 -107.40258236480622 -82.372455827262456 0 -82.372455827262456 -215.61948278637919 0 0 0 0 94.333240060788285 -83.717255219632094 0 -83.717255219632094 -372.41031762535079 0 0 0 0 -108.0770028861316 -122.2477337679361 0 -122.2477337679361 -401.91318306957214 0 0 0 0 33.177067044552587 -88.473323464722398 0 -88.473323464722398 -231.32813011774005 0 0 0 0 -148.74536854484279 -87.599158384464261 0 -87.599158384464261 -69.041620087894216 0 0 0 0 33.561393011849759 -66.483462581086201 0 -66.483462581086201 -8.6585917368879564 0 0 0 0 110.74902373349232 -156.99947430006091 0 -156.99947430006091 -38.826428140565383 0 0 0 0 34.152999439558243 -106.20656513369477 0 -106.20656513369477 168.50820546477667 0 0 0 0 -33.378310765425113 -174.18444633818774 0 -174.18444633818774 111.40700484834997 0 0 0 0 0.053839338100537759 -1.190449176430298 0 -1.190449176430298 -2.3175185790632913 0 0 0 0 -94.361717474494526 -126.76803289001123 0 -126.76803289001123 -169.28864349766582 0 0 0 0 -34.574968793712742 -198.93573022094392 0 -198.93573022094392 -83.123541552852686 0 0 0 0 -12.462246578986992 -107.85674509983306 0 -107.85674509983306 -175.04026438067876 0 0 0 0 11.602895785044893 -167.95058057072106 0 -167.95058057072106 -598.7467059452797 0 0 0 0 9.1301531021634474 -2.4125533765399192 0 -2.4125533765399192 2.7691113160261129 0 0 0 0 76.988313213168112 -207.27492656168124 0 -207.27492656168124 -583.24111874163918 0 0 0 0 20.072295387266109 152.96277279097603 0 152.96277279097603 -265.0501134774895 0 0 0 0 -109.40900378074934 -67.685111655552646 0 -67.685111655552646 -156.14670230277648 0 0 0 0 -84.473128925905257 -101.07070429038185 0 -101.07070429038185 -113.61857922422621 0 0 0 0 30.678043618249628 -5.8473986486445488 0 -5.8473986486445488 -23.0566865404681 0 0 0 0 -30.990314644940725 -76.724420435482557 0 -76.724420435482557 -222.09781470124562 0 0 0 0 3.0136292128728428 -30.086419243074488 0 -30.086419243074488 -158.73446636826313 0 0 0 0 10.350179602825479 -3.6843243892814659 0 -3.6843243892814659 -101.05812032854693 0 0 0 0 137.97887093482831 -28.59596733862918 0 -28.59596733862918 -199.38715421811503 0 0 0 0 -2.0179450082168842 -41.230130449841454 0 -41.230130449841454 -73.729365410745231 0 0 0 0 23.492543048708711 -1.3625569478220854 0 -1.3625569478220854 -23.768332552769557 0 0 0 0 -68.410282160734369 -105.28662866095692 0 -105.28662866095692 -135.5091214330896 0 0 0 0 67.25881606610892 -99.745296272816631 0 -99.745296272816631 -270.94816304885899 0 0 0 0 235.24989453441117 -214.72518847481479 0 -214.72518847481479 -155.57731251848145 0 0 0 0 -60.269813821305213 41.999847742806537 0 41.999847742806537 -4.1086310804021196 0 0 0 0 92.240540252887513 18.017270648088015 0 18.017270648088015 -97.790979209452189 0 0 0 0 8.8184217748031362 -0.20233951505034753 0 -0.20233951505034753 1.3047304170982339 0 0 0 0 2.7942763024931878 -85.647082359120759 0 -85.647082359120759 50.744631865291012 0 0 0 0 90.040026429302543 -139.93139653442995 0 -139.93139653442995 74.532165488426244 0 0 0 0 -306.77590833428803 -354.64715421565779 0 -354.64715421565779 66.770835118666582 0 0 0 0 -17.609953808280004 -16.269338703074652 0 -16.269338703074652 -10.503234559080624 0 0 0 0 131.07597202598822 -331.40305169912608 0 -331.40305169912608 54.180109065375746 0 0 0 0 103.32573030143385 -35.526127564651688 0 -35.526127564651688 72.507627849085111 0 0 0 0 101.24106927427283 -349.45589094398201 0 -349.45589094398201 437.57435599195014 0 0 0 0 -19.180492551125408 -18.560575266942152 0 -18.560575266942152 -12.099486751910028 0 0 0 0 73.434761480607449 -434.74451714688257 0 -434.74451714688257 538.47071791556664 0 0 0 0 268.55648764204716 -353.82850478109503 0 -353.82850478109503 169.9189724814205 0 0 0 0 140.34808404514843 -145.29346083010751 0 -145.29346083010751 468.79312957669299 0 0 0 0 306.8983252849057 -103.10539955628701 0 -103.10539955628701 -559.28391129273496 0 0 0 0 5.2422619953026697 -124.04565088072923 0 -124.04565088072923 433.15224178387871 0 0 0 0 140.40568132326734 -270.33781117121453 0 -270.33781117121453 -231.45762352194288 0 0 0 0 176.90397155131723 -41.494156085587747 0 -41.494156085587747 -60.288657613360556 0 0 0 0 -1.66755296411975 -102.41968152154368 0 -102.41968152154368 -223.36903461923066 0 0 0 0 391.08360364213331 -196.50773304890754 0 -196.50773304890754 -201.06975803163732 0 0 0 0 146.32471015420379 -238.30661736009279 0 -238.30661736009279 -518.29921130747971 0 0 0 0 -12.820565347898858 -15.16061642823189 0 -15.16061642823189 -10.370147249482613 0 0 0 0 -44.4801403942256 -456.84073905369223 0 -456.84073905369223 269.4500883280441 0 0 0 0 -213.22496062350911 28.69977507146541 0 28.69977507146541 302.77573954462605 0 0 0 0 -84.696914874761205 -329.46574069906637 0 -329.46574069906637 -68.238677845496568 0 0 0 0 132.94111247038381 11.45485972519964 0 11.45485972519964 -528.61514558548515 0 0 0 0 71.258532578175618 -28.012973994365893 0 -28.012973994365893 -483.32360552762111 0 0 0 0 131.12135050300458 -498.43744098791467 0 -498.43744098791467 635.86480847405619 0 0 0 0 90.17578278386668 -394.24922032436734 0 -394.24922032436734 680.6270436012237 0 0 0 0 315.71461377700871 -383.90591260270594 0 -383.90591260270594 175.62455288922865 0 0 0 0 -0.18772696394026944 1.5559811476484242 0 1.5559811476484242 -11.886149663307648 0 0 0 0 45.917972628050052 -252.57721100655453 0 -252.57721100655453 603.2440112129334 0 0 0 0 112.68698364543889 -151.64692109612952 0 -151.64692109612952 374.38514147636306 0 0 0 0 -26.154439768143448 -63.949435072754568 0 -63.949435072754568 135.80383978040118 0 0 0 0 326.89228028979551 -93.843070495360735 0 -93.843070495360735 -67.93606405173341 0 0 0 0 -0.57886138741377313 -5.3592518967394085 0 -5.3592518967394085 -2.9938412495059481 0 0 0 0 13.677828923270994 4.8648895766455098 0 4.8648895766455098 -15.968642154119152 0 0 0 0 -139.31460235894332 -66.983944867715763 0 -66.983944867715763 21.144556717499654 0 0 0 0 -0.016731626231704752 -1.5402534500749567 0 -1.5402534500749567 -18.187572760915216 0 0 0 0 0.7022882720826864 -1.6179250424134786 0 -1.6179250424134786 -10.784086318870521 0 0 0 0 0.0016588281710633759 -1.381700472197102 0 -1.381700472197102 -7.9328888839809224 0 0 0 0 0.19469624228462862 -0.76291036069960683 0 -0.76291036069960683 -14.815096080731564 0 0 0 0 46.973494214047378 -22.221470695974858 0 -22.221470695974858 -173.78703089111514 0 0 0 0 -307.31037681920088 -47.515964576425176 0 -47.515964576425176 101.59060005887295 0 0 0 0 -212.84195589343756 -271.86407954725291 0 -271.86407954725291 -266.43790506524965 0 0 0 0 -371.0325785984092 -319.34622397159546 0 -319.34622397159546 -189.99530908481393 0 0 0 0 38.644746820696241 -54.128458772596787 0 -54.128458772596787 -288.53045936035051 0 0 0 0 -22.40883021150961 -170.43343257498054 0 -170.43343257498054 -554.04017108157132 0 0 0 0 -1.3142282272978838 -0.4863496786169037 0 -0.4863496786169037 0.14238063753116137 0 0 0 0 -55.605310333851151 -466.28323754336452 0 -466.28323754336452 -694.1672415397552 0 0 0 0 -39.856451288314474 -7.1383158867174643 0 -7.1383158867174643 -24.555916446341143 0 0 0 0 -4.2272843212425055 -2.0386271073698765 0 -2.0386271073698765 -0.68687272368991614 0 0 0 0 -296.34932948024868 -226.47178414161681 0 -226.47178414161681 -182.66258810130239 0 0 0 0 -103.95529138262316 -227.4755378780028 0 -227.4755378780028 -488.75610040407628 0 0 0 0 -3.9437143859219717 -0.60503154133779447 0 -0.60503154133779447 -0.11819829950694327 0 0 0 0 -139.64257172208676 -369.35779436584744 0 -369.35779436584744 -833.9808874903174 0 0 0 0 -10.95241872577688 -126.59782963975886 0 -126.59782963975886 -469.5025192770845 0 0 0 0 -656.26423978536104 68.691817346421885 0 68.691817346421885 484.26912368804187 0 0 0 0 -6.9676817649185088 -3.081933094328221 0 -3.081933094328221 1.5457649419092405 0 0 0 0 -131.56103533136957 -142.30413567277719 0 -142.30413567277719 -226.20465730249271 0 0 0 0 -88.720015040473129 -297.92249935329528 0 -297.92249935329528 -390.47258979237813 0 0 0 0 -161.92023729206267 -415.1871942677144 0 -415.1871942677144 -1272.7185916558956 0 0 0 0 -364.79412162277413 -94.442746479006018 0 -94.442746479006018 249.89345621842222 0 0 0 0 202.50535012140881 277.07245198231976 0 277.07245198231976 -636.71743032537051 0 0 0 0 -38.320894967379445 189.79036878869738 0 189.79036878869738 299.25861147425167 0 0 0 0 282.3353995234807 -222.57828032947691 0 -222.57828032947691 -944.99021005808027 0 0 0 0 346.34413827589469 -443.16768027290891 0 -443.16768027290891 -752.79123240841 0 0 0 0 0.67559226059419952 -1.8023611737956102 0 -1.8023611737956102 -11.925773865800011 0 0 0 0 -191.57689307353189 852.9814305767286 0 852.9814305767286 -1131.9573921762394 0 0 0 0 -35.232848264291761 620.95828080204956 0 620.95828080204956 -956.49664818816382 0 0 0 0 0.30051183753294497 73.09259629015105 0 73.09259629015105 -328.77748883266759 0 0 0 0 -212.66219170429201 126.34226923083406 0 126.34226923083406 -102.38777566379576 0 0 0 0 212.42757888215857 -93.875148621518747 0 -93.875148621518747 -24.593063417472877 0 0 0 0 0.53775309698852536 2.1208900894189746 0 2.1208900894189746 -19.449732434894543 0 0 0 0 83.288065400952746 -206.9331030371759 0 -206.9331030371759 -110.04351673230121 0 0 0 0 -229.43964287308555 649.68171512591289 0 649.68171512591289 -627.06629806298224 0 0 0 0 -0.41974300316105029 2.4656716721781677 0 2.4656716721781677 -7.4603965328062145 0 0 0 0 -453.76632478144461 -104.71501064294716 0 -104.71501064294716 46.601559614035068 0 0 0 0 -239.42129229488265 332.84300610089849 0 332.84300610089849 -116.21548652352067 0 0 0 0 92.209907241313715 236.91225899692745 0 236.91225899692745 -1415.3149090048828 0 0 0 0 -339.62488371043457 -319.58301348336681 0 -319.58301348336681 -223.64939947711537 0 0 0 0 -4.1313202832616298 -379.8250128806103 0 -379.8250128806103 -561.11877356156765 0 0 0 0 2.174639222056399 -4.0111239474542799 0 -4.0111239474542799 -26.531462269806326 0 0 0 0 153.46628396452491 -157.85568627854082 0 -157.85568627854082 -340.79620748265006 0 0 0 0 6.1708422563205829 57.990343487399514 0 57.990343487399514 89.516381421824917 0 0 0 0 -19.511321480954795 -45.579687544654007 0 -45.579687544654007 90.734625401299127 0 0 0 0 -0.38063273197103153 0.31037526544368887 0 0.31037526544368887 2.3975284706685898 0 0 0 0 1.3320780136451731 99.261217601713724 0 99.261217601713724 111.90205452538794 0 0 0 0 -128.44574567197867 152.38064788740303 0 152.38064788740303 107.08217197338308 0 0 0 0 -72.769958432699241 -49.461410081697977 0 -49.461410081697977 -46.034107753497665 0 0 0 0 -57.076515858969628 21.988633178028977 0 21.988633178028977 130.09642439275922 0 0 0 0 0.73676147547631177 -3.6671863398177535 0 -3.6671863398177535 4.38677858050238 0 0 0 0 -0.89016454494574782 -1.2307136264062137 0 -1.2307136264062137 -137.43994122396543 0 0 0 0 37.561215963962127 -74.235654371586861 0 -74.235654371586861 26.767249954300496 0 0 0 0 470.90117688780879 309.16095047122508 0 309.16095047122508 -922.91168405264034 0 0 0 0 2.3226673589823754 -1.7441752179078094 0 -1.7441752179078094 -26.719999705889535 0 0 0 0 -1389.4669698020141 1153.8912180286352 0 1153.8912180286352 8.7823596812158939 0 0 0 0 -0.43814483460746811 0.017840019127312701 0 0.017840019127312701 -5.8486518406853065 0 0 0 0 29.465361924343952 -46.970310315024108 0 -46.970310315024108 -604.62812390727049 0 0 0 0 -82.62020146368792 -1498.8407790797501 0 -1498.8407790797501 -2486.6027598380465 0 0 0 0 2.4580976937576495 -7.2230466593100573 0 -7.2230466593100573 -2478.0359405528661 0 0 0 0 0.071779238857505284 -0.67513704829355703 0 -0.67513704829355703 -2.647296826840261 0 0 0 0 752.57875228386911 441.45574550219317 0 441.45574550219317 -2500.0931048976126 0 0 0 0 521.3721916432271 1155.3367085442078 0 1155.3367085442078 -2495.9276822332067 0 0 0 0 678.54322825871247 571.42149210097705 0 571.42149210097705 -1336.1898031670498 0 0 0 0 174.30402324364786 374.59368162109604 0 374.59368162109604 -86.365148867342214 0 0 0 0 534.1830293116243 404.04033547372819 0 404.04033547372819 -1357.9887200718977 0 0 0 0 361.82951664413326 221.32529314305975 0 221.32529314305975 -1506.0572215733409 0 0 0 0 343.04417765178164 295.09191508759432 0 295.09191508759432 -605.61274122551549 0 0 0 0 298.26750079209569 -188.8265737817128 0 -188.8265737817128 -616.66847507574505 0 0 0 0 228.27796745149786 -38.926887373509089 0 -38.926887373509089 -738.8274497781531 0 0 0 0 1053.2047455812071 -455.12557603482855 0 -455.12557603482855 -321.4445087133472 0 0 0 0 519.23958308936699 -808.02362454735157 0 -808.02362454735157 15.602622075835825 0 0 0 0 507.55503460583861 124.21166362430449 0 124.21166362430449 -157.30112747759995 0 0 0 0 237.77627847825079 -503.72904263040073 0 -503.72904263040073 -470.13668537867488 0 0 0 0 -12.063664469955597 -343.45068466144221 0 -343.45068466144221 -325.07839843379406 0 0 0 0 -20.255666331479233 -276.83034102135207 0 -276.83034102135207 -698.87149975784632 0 0 0 0 -159.82486719164672 -463.37528047948581 0 -463.37528047948581 -494.20237419454497 0 0 0 0 -237.76519251741615 -362.64048182906117 0 -362.64048182906117 -407.82746856156155 0 0 0 0 -122.84160883706571 -325.04718650280074 0 -325.04718650280074 -890.11759213305777 0 0 0 0 -132.18641335773171 -366.23956619656246 0 -366.23956619656246 -766.35649872418435 0 0 0 0 169.50300009656667 -112.09862309260643 0 -112.09862309260643 -793.32919904351729 0 0 0 0 167.97916075670037 -142.56976537069932 0 -142.56976537069932 -1226.3029326321266 0 0 0 0 117.81607951277108 -292.47672507548896 0 -292.47672507548896 -1599.8877681768499 0 0 0 0 117.40498286806343 -328.27398441026162 0 -328.27398441026162 -1412.4716317667553 0 0 0 0 458.95300266922084 -329.58819199689424 0 -329.58819199689424 -2499.2369650999026 0 0 0 0 524.54579514632644 -18.07297252589342 0 -18.07297252589342 -1826.0914219809565 0 0 0 0 505.16248979447749 31.313478291402134 0 31.313478291402134 -1642.6734186532849 0 0 0 0 -192.27765953332698 -1013.8202104057636 0 -1013.8202104057636 -2500.190537028604 0 0 0 0 101.36143519187785 -555.9887470306453 0 -555.9887470306453 -1911.5086830441505 0 0 0 0 100.46736827339701 -515.92160526713633 0 -515.92160526713633 -1791.09282240006 0 0 0 0 -333.35606893083127 -1037.633932708588 0 -1037.633932708588 -1747.4124272577137 0 0 0 0 -817.09113000911509 -917.82216777957728 0 -917.82216777957728 -852.57159427165607 0 0 0 0 -584.93079353894905 -452.4692627124266 0 -452.4692627124266 -338.35489859314112 0 0 0 0 -201.80156100477555 -541.67988082256488 0 -541.67988082256488 -1143.909898258913 0 0 0 0 -202.26086945938209 -603.30948836691459 0 -603.30948836691459 -1144.1193684838217 0 0 0 0 -594.18870587066795 -717.57796941301467 0 -717.57796941301467 -706.95903216044826 0 0 0 0 -209.04005475452828 -417.77116652446421 0 -417.77116652446421 -707.34442855926318 0 0 0 0 -469.64757612491348 -400.02594630285603 0 -400.02594630285603 -535.95311425477848 0 0 0 0 -456.53902899563707 -386.41278505995433 0 -386.41278505995433 -648.53011777959182 0 0 0 0 156.49491194928135 -26.925195049821923 0 -26.925195049821923 -472.53660369681984 0 0 0 0 -476.75146493466707 -444.34841817316556 0 -444.34841817316556 -405.34335139897303 0 0 0 0 -194.66473857858978 -330.38945428049919 0 -330.38945428049919 -505.99800650327961 0 0 0 0 17.911319470450167 19.252876064179873 0 19.252876064179873 -4.6973875660696649 0 0 0 0 -10.747425055998974 -92.288468708302389 0 -92.288468708302389 -102.68759914426482 0 0 0 0 4.5287647435080771 -8.0819786265928997 0 -8.0819786265928997 -30.949326933456177 0 0 0 0 4.8858395181252039 -5.8615033230371267 0 -5.8615033230371267 -11.985692421894456 0 0 0 0 2.7377935152360973 -1.6236386119288966 0 -1.6236386119288966 -6.9070426155535642 0 0 0 0 10.663410384452501 3.5569817541059621 0 3.5569817541059621 -12.118611710177163 0 0 0 0 22.204170825017904 0.45220153015883824 0 0.45220153015883824 -31.845593990733988 0 0 0 0 -48.213205767481213 -140.19885079441156 0 -140.19885079441156 -187.38217557525059 0 0 0 0 1.590766197810126 28.46362298715394 0 28.46362298715394 -39.382566928205051 0 0 0 0 -369.14903408336642 -357.18703555457978 0 -357.18703555457978 -209.43620610726066 0 0 0 0 -194.98283042259118 -66.798601736842102 0 -66.798601736842102 7.3344160279739299 0 0 0 0 -715.57676446224775 -414.59524572455121 0 -414.59524572455121 -165.88792870177713 0 0 0 0 -2.3368371419657654 -2.5360514833086114 0 -2.5360514833086114 -0.52892814474736838 0 0 0 0 -159.43619839245918 -378.9623578199753 0 -378.9623578199753 -416.55046325387229 0 0 0 0 -160.11277914961664 -354.52295060719916 0 -354.52295060719916 -307.65794325659226 0 0 0 0 -6.8878033887998527 -369.64729235160848 0 -369.64729235160848 -528.48606387896143 0 0 0 0 -19.402172602656606 -391.48512842292985 0 -391.48512842292985 -459.171732611685 0 0 0 0 284.84226458852652 -177.33260375383111 0 -177.33260375383111 -407.11984059118549 0 0 0 0 -180.13539558176626 -235.52462444271805 0 -235.52462444271805 -284.43449973886527 0 0 0 0 -170.03683168305753 -351.53075244177126 0 -351.53075244177126 -294.30837623398111 0 0 0 0 -180.83814979398005 -197.95720316567167 0 -197.95720316567167 -100.5163873065394 0 0 0 0 -148.02086471054605 -349.08515720187279 0 -349.08515720187279 -308.59109175209687 0 0 0 0 -2.3287363901942228 -6.0333453091716365 0 -6.0333453091716365 -32.978166124594281 0 0 0 0 0.93908764033065151 2.2811740232162379 0 2.2811740232162379 -4.9963544593701243 0 0 0 0 0.42553981809142272 -13.621930244805299 0 -13.621930244805299 -34.694341364898719 0 0 0 0 10.240509297010796 8.6912630710387475 0 8.6912630710387475 -55.158081044020946 0 0 0 0 -3.2267366362185186 -184.34686465949198 0 -184.34686465949198 -446.05917146835418 0 0 0 0 -8.4144161219041802 -9.5679603003878668 0 -9.5679603003878668 -8.1981373549223289 0 0 0 0 -0.91632863022897171 0.21356664600816089 0 0.21356664600816089 -1.1130316958359892 0 0 0 0 -324.11047531183561 30.643901996132627 0 30.643901996132627 -39.43256968564674 0 0 0 0 -178.3785250885004 -494.72705946565839 0 -494.72705946565839 -602.94167968463444 0 0 0 0 20.877482168443343 4.0575722350489656 0 4.0575722350489656 -18.939102795332587 0 0 0 0 -9.9958431526110871 -48.71499886517995 0 -48.71499886517995 -65.200803753167179 0 0 0 0 97.713042962442159 98.538088088505901 0 98.538088088505901 -48.530609906207246 0 0 0 0 105.831330177376 39.116296737167431 0 39.116296737167431 -216.77260176942218 0 0 0 0 5.5394153994152475 219.81716703192797 0 219.81716703192797 204.00081570760085 0 0 0 0 -309.52189150240474 523.10250513066421 0 523.10250513066421 -524.0768215137432 0 0 0 0 -757.16119619524898 -56.398316574737692 0 -56.398316574737692 605.88482598550763 0 0 0 0 167.84236908463663 -105.28578830027254 0 -105.28578830027254 -13.843829425844888 0 0 0 0 2.9935571117912332 -12.25016702632638 0 -12.25016702632638 -33.83157549657335 0 0 0 0 -4.8177427598284321 -14.346069351590117 0 -14.346069351590117 -24.835315417264951 0 0 0 0 0.68217773375954494 -8.0991520152165322 0 -8.0991520152165322 -26.707942005014047 0 0 0 0 5.322360233589734 -9.9835892996379698 0 -9.9835892996379698 -31.940627973461233 0 0 0 0 -3.7197354437940255 -5.7104240011360332 0 -5.7104240011360332 -5.3871897487707576 0 0 0 0 3.4717999521262541 0.50085135951056259 0 0.50085135951056259 -7.7257187004820764 0 0 0 0 3.3937861593512935 -5.4914296556889894 0 -5.4914296556889894 -47.586446974659339 0 0 0 0 -2.5506134519109764 -10.583851238334319 0 -10.583851238334319 -27.848903449692443 0 0 0 0 6.2036955177271791 5.2211181897622936 0 5.2211181897622936 -10.775799117567232 0 0 0 0 3.7410762501267811 -3.7337344896729832 0 -3.7337344896729832 -5.6816957560659738 0 0 0 0 -422.57456769533019 -100.85546570592123 0 -100.85546570592123 34.331464936978591 0 0 0 0 -311.15054773412703 -108.70758770665998 0 -108.70758770665998 21.990409053774783 0 0 0 0 -303.70536776226072 -228.32320232919301 0 -228.32320232919301 55.512923086618684 0 0 0 0 -422.68641933470917 -140.19555461922937 0 -140.19555461922937 116.06718758158968 0 0 0 0 -354.62381821081544 -179.37168173748069 0 -179.37168173748069 15.178661288126023 0 0 0 0 -339.8879666221801 -109.65860186081409 0 -109.65860186081409 23.821673323400319 0 0 0 0 -348.09285777777768 -185.33890527369658 0 -185.33890527369658 -171.75792967660527 0 0 0 0 19.725935184551417 -74.317327435564948 0 -74.317327435564948 -120.52279381789413 0 0 0 0 -327.75946783639074 -142.54185752861486 0 -142.54185752861486 12.647340456125676 0 0 0 0 -0.092783648126037122 -4.7284468492413794 0 -4.7284468492413794 -7.0884013057335178 0 0 0 0 -136.91138058345859 49.381493558314105 0 49.381493558314105 114.98535576016002 0 0 0 0 -285.4139541791701 -138.51143920680624 0 -138.51143920680624 11.461623535295075 0 0 0 0 -369.38812727219806 -97.694460721755149 0 -97.694460721755149 10.201680338344886 0 0 0 0 611.21141195315568 -315.22592799948325 0 -315.22592799948325 0.56372383762936806 0 0 0 0 -375.26395893363588 -47.032057846583484 0 -47.032057846583484 -32.304404104954216 0 0 0 0 -943.6623269112024 -803.61578608123091 0 -803.61578608123091 -146.6498499862646 0 0 0 0 -7.2691432038747843 -13.565400689816499 0 -13.565400689816499 -21.036566958830036 0 0 0 0 -422.74494909203531 -48.823764144512097 0 -48.823764144512097 -33.733941256497928 0 0 0 0 -411.39945473009766 -140.22009166721728 0 -140.22009166721728 86.38218683906598 0 0 0 0 -528.88011982981152 -69.939744973336929 0 -69.939744973336929 58.440064038135461 0 0 0 0 -525.89442169457266 -247.55446980053398 0 -247.55446980053398 62.230156968114898 0 0 0 0 -85.996957070098688 -269.59267910817289 0 -269.59267910817289 -292.30819838141906 0 0 0 0 197.45487000637331 -20.089124903242919 0 -20.089124903242919 -88.158893014056957 0 0 0 0 -256.71578393833443 -236.40925108277588 0 -236.40925108277588 95.771849947166629 0 0 0 0 -240.48296716840014 -208.21104494690371 0 -208.21104494690371 50.033233245769225 0 0 0 0 202.14636781338504 -146.70305097242817 0 -146.70305097242817 -47.45268225025211 0 0 0 0 671.9103118234998 -27.631641754633165 0 -27.631641754633165 -20.450535988635238 0 0 0 0 53.320579442618509 -82.473730406942195 0 -82.473730406942195 513.02225810964592 0 0 0 0 395.54233269400174 -521.04325561418227 0 -521.04325561418227 294.00555327167967 0 0 0 0 -20.264155713757646 -247.27169155493175 0 -247.27169155493175 119.24617897716962 0 0 0 0 948.32129292782338 -178.45550710411771 0 -178.45550710411771 -77.879364059466752 0 0 0 0 -301.61233644329877 -210.55800758983241 0 -210.55800758983241 191.45427074068721 0 0 0 0 29.857099976364225 -189.5195962853104 0 -189.5195962853104 71.490652189058892 0 0 0 0 -65.436503632037784 -391.28024775893573 0 -391.28024775893573 22.021180465930229 0 0 0 0 -217.99278146406687 -454.19114021116548 0 -454.19114021116548 -196.39812374136272 0 0 0 0 -220.73098831773837 -259.21463740871877 0 -259.21463740871877 -88.444683873967733 0 0 0 0 -224.98193885526962 -192.35122091295125 0 -192.35122091295125 -215.61843179530842 0 0 0 0 159.6169222401345 -42.723200547025044 0 -42.723200547025044 -663.31915771440254 0 0 0 0 462.7808313415585 -86.357288563813199 0 -86.357288563813199 -287.05826192427776 0 0 0 0 239.70933702927141 -100.76023930305382 0 -100.76023930305382 -79.487119603811152 0 0 0 0 273.43660337327401 -378.71405080339173 0 -378.71405080339173 -145.96850504561007 0 0 0 0 139.10866918955253 -214.39615736592532 0 -214.39615736592532 -276.34559629553405 0 0 0 0 0.37836804832979887 1.8455333376225695 0 1.8455333376225695 -1.7286150212529563 0 0 0 0 198.62292833668153 -404.40640912630624 0 -404.40640912630624 -856.01369615855219 0 0 0 0 -10.208060066897438 -54.369584537111223 0 -54.369584537111223 273.39968976779346 0 0 0 0 -91.574328471055196 -63.658861767442431 0 -63.658861767442431 0.55574060027902306 0 0 0 0 -54.977603559818817 -12.750011994019587 0 -12.750011994019587 10.818481886039081 0 0 0 0 -49.934583046680928 -83.060613405425102 0 -83.060613405425102 -64.650161720049994 0 0 0 0 30.763508329955833 -12.32521375730613 0 -12.32521375730613 -16.085938123654799 0 0 0 0 -8.0255379007878673 -0.39861791109242972 0 -0.39861791109242972 -2.0614142275898928 0 0 0 0 21.26300674666345 -15.675771057751263 0 -15.675771057751263 -64.610108834620604 0 0 0 0 15.960073414382753 -12.204294547636026 0 -12.204294547636026 -28.766173887669225 0 0 0 0 -172.26717242763061 -410.77873569904477 0 -410.77873569904477 -416.52514232902467 0 0 0 0 -294.93548547541286 -213.90660641267459 0 -213.90660641267459 -291.5079171902762 0 0 0 0 -406.74378851335109 -225.81989140846201 0 -225.81989140846201 -163.75645144327427 0 0 0 0 -1.470206406090792 -1.4832213892014838 0 -1.4832213892014838 -0.67516725252866649 0 0 0 0 -235.97647081562332 -333.59059072514719 0 -333.59059072514719 -153.9802360812464 0 0 0 0 7.4882897440804754 -10.908919937235623 0 -10.908919937235623 -39.24367308964429 0 0 0 0 55.799973076105744 -77.43504600587039 0 -77.43504600587039 -243.3597426859269 0 0 0 0 13.263086367508862 0.30111813005744636 0 0.30111813005744636 -15.761328145411994 0 0 0 0 10.730681337508031 -13.051046431472059 0 -13.051046431472059 -38.620251626969548 0 0 0 0 -40.92129268867393 -29.314586966404022 0 -29.314586966404022 -25.885537687623582 0 0 0 0 -170.71410084284935 16.102357090354417 0 16.102357090354417 -3.4820500791611266 0 0 0 0 17.211561561059863 0.48025548901004811 0 0.48025548901004811 -25.752829976293413 0 0 0 0 -305.38239254108748 -106.05099053693266 0 -106.05099053693266 -22.907314909221896 0 0 0 0 203.52954164277526 31.144784375119343 0 31.144784375119343 -196.88247345540731 0 0 0 0 -86.025158069560206 -81.897280576169578 0 -81.897280576169578 -4.8459002688250621 0 0 0 0 9.30106352553614 -3.079820158008876 0 -3.079820158008876 -54.63576050841499 0 0 0 0 69.584874238346572 -71.358328041349182 0 -71.358328041349182 -13.571341938986734 0 0 0 0 -1.0979760039320468 -200.24362034087608 0 -200.24362034087608 -317.7414576070405 0 0 0 0 277.69255108582934 -30.955781333293999 0 -30.955781333293999 -216.00198692877166 0 0 0 0 -0.61600225875274817 -4.804027975421528 0 -4.804027975421528 -43.173335966649773 0 0 0 0 -44.521981055974265 -386.18352141845389 0 -386.18352141845389 -484.51960656081792 0 0 0 0 -0.92891688709621045 -2.1194014783085646 0 -2.1194014783085646 -17.950491740770047 0 0 0 0 -1573.8251104709352 -1685.1929668739467 0 -1685.1929668739467 -1545.816487355336 0 0 0 0 -573.71132935525873 -299.14131324386835 0 -299.14131324386835 -299.17537304817233 0 0 0 0 -384.86454179197489 611.4496042486935 0 611.4496042486935 -611.21269732576911 0 0 0 0 -78.954962321028574 1136.9181382265378 0 1136.9181382265378 -2252.3786913421645 0 0 0 0 299.07497910496966 -303.58837305385896 0 -303.58837305385896 -3367.6579453793274 0 0 0 0 -2202.1599582987865 -404.30183412370025 0 -404.30183412370025 -2500.3029323062256 0 0 0 0 -667.283120966669 -263.05783753139985 0 -263.05783753139985 -3239.9266371844933 0 0 0 0 423.29293625239467 -254.82585514121092 0 -254.82585514121092 -2029.816985086316 0 0 0 0 483.21970949873031 50.687711877129914 0 50.687711877129914 -2499.9919870998674 0 0 0 0 88.918866192476571 50.034424930868227 0 50.034424930868227 -2101.2552650120851 0 0 0 0 168.62629625390051 291.51254758342748 0 291.51254758342748 -1372.4112951117932 0 0 0 0 284.1000754652232 262.08236325007601 0 262.08236325007601 -2173.5140969402491 0 0 0 0 119.58485953563297 -176.35069779442711 0 -176.35069779442711 -1098.6361879464403 0 0 0 0 0.901454356345468 52.711445823977556 0 52.711445823977556 -111.26696461652227 0 0 0 0 -346.12370570596869 89.331016176713092 0 89.331016176713092 -102.32797992345149 0 0 0 0 29.009168439221412 25.800917676759127 0 25.800917676759127 -84.411824717935815 0 0 0 0 18.770179722631291 4.0240415859247207 0 4.0240415859247207 -13.691610832528198 0 0 0 0 103.0316477951701 -235.39190950020929 0 -235.39190950020929 -86.431836155083147 0 0 0 0 108.95208147657917 -270.11272233731279 0 -270.11272233731279 77.566238189108844 0 0 0 0 -47.006626249669807 -277.21166500808249 0 -277.21166500808249 154.34968147744439 0 0 0 0 -1.5235670935913959 -227.61835375348892 0 -227.61835375348892 163.31771311829652 0 0 0 0 50.349595752237292 -95.167265167234291 0 -95.167265167234291 46.509741115834004 0 0 0 0 94.132649424672309 -116.90949575156264 0 -116.90949575156264 -89.891521523837582 0 0 0 0 -2.8410619991905151 -194.48810200733897 0 -194.48810200733897 13.573078934336081 0 0 0 0 57.295998473055079 -43.791470235737506 0 -43.791470235737506 -116.62452072363885 0 0 0 0 38.429019360521124 -33.319072879425221 0 -33.319072879425221 213.95857410495955 0 0 0 0 136.61047051997275 -120.39034597881437 0 -120.39034597881437 42.24997264934791 0 0 0 0 -319.60355120547206 201.74548951522956 0 201.74548951522956 -1704.2523588167132 0 0 0 0 0.94526121115118666 1.762465393519463 0 1.762465393519463 -2.6732329270733359 0 0 0 0 1426.6599396557795 192.44530328558903 0 192.44530328558903 -2404.5581403716642 0 0 0 0 -119.3768458087618 -204.99143945041578 0 -204.99143945041578 335.92209170969181 0 0 0 0 -8.8822911805234206 -4.0506195414703967 0 -4.0506195414703967 -3.0264952159153253 0 0 0 0 6.1229996160093183 12.392651112608959 0 12.392651112608959 -21.576782480705944 0 0 0 0 -823.72406190786137 749.14320643628162 0 749.14320643628162 -871.67982534303883 0 0 0 0 -64.126961518858479 -410.75654363990543 0 -410.75654363990543 -27.50965357766836 0 0 0 0 -167.6586209342006 -297.8524443388269 0 -297.8524443388269 158.09216341014712 0 0 0 0 1213.6188863640846 -292.92326300352579 0 -292.92326300352579 -2528.9615316287345 0 0 0 0 74.868964146966945 50.405202504764702 0 50.405202504764702 -756.62813792898669 0 0 0 0 -87.135074993194138 -682.04209380636166 0 -682.04209380636166 -1422.9045589870839 0 0 0 0 373.45596563336443 266.68139210210211 0 266.68139210210211 400.91750271666024 0 0 0 0 433.16336604255105 138.50174469446392 0 138.50174469446392 165.27025674265315 0 0 0 0 -0.22516973637942528 11.795742420676746 0 11.795742420676746 -18.219997430595399 0 0 0 0 -82.553891661008024 -572.62729956518251 0 -572.62729956518251 -1650.4700872022149 0 0 0 0 576.61122958012106 -82.518161967247579 0 -82.518161967247579 490.40938016350992 0 0 0 0 -264.34100850487022 -807.57616083592075 0 -807.57616083592075 -1689.7194125944588 0 0 0 0 416.44842159493038 -222.55703313547588 0 -222.55703313547588 -1888.4901267868263 0 0 0 0 264.93128277118586 -673.3145904323901 0 -673.3145904323901 -2499.3456560192708 0 0 0 0 -48.049384069875956 538.65734542544487 0 538.65734542544487 -632.72206907419059 0 0 0 0 -60.85975318001195 355.73365614245813 0 355.73365614245813 474.85710554479374 0 0 0 0 -570.08489464124978 -1306.1786787237361 0 -1306.1786787237361 -2498.8087073708834 0 0 0 0 -0.066418350107088964 3.6316880840801815 0 3.6316880840801815 -8.5535087086688577 0 0 0 0 297.89198463403625 405.35552469270988 0 405.35552469270988 148.50663642703148 0 0 0 0 0.70858498669998471 4.4697577594896032 0 4.4697577594896032 -5.4188890428924026 0 0 0 0 -48.704523398320021 -153.75201190914595 0 -153.75201190914595 -566.77715380841437 0 0 0 0 3.6656794746897745 -236.95690801877686 0 -236.95690801877686 -598.1226407191607 0 0 0 0 40.052845054663891 -187.872535482476 0 -187.872535482476 -556.08128912859684 0 0 0 0 3.6495837262622786 19.772901922719029 0 19.772901922719029 -736.72677576076603 0 0 0 0 -42.152069063062918 -58.93702173692418 0 -58.93702173692418 -264.07117941310571 0 0 0 0 -16.21002847131922 37.55581888549932 0 37.55581888549932 -460.43613363605891 0 0 0 0 -147.59278530367033 -210.90543550137591 0 -210.90543550137591 -575.25770776191348 0 0 0 0 -25.896146522843992 -57.053671568453865 0 -57.053671568453865 -928.0066974703368 0 0 0 0 -151.58487371655769 -253.31999481160165 0 -253.31999481160165 -802.75614785194193 0 0 0 0 29.587870132040734 -173.91630796502614 0 -173.91630796502614 181.33260510351101 0 0 0 0 -24.587998737389462 -13.886908557923917 0 -13.886908557923917 -8.097973921236985 0 0 0 0 -14.263277348649353 -54.566213688958669 0 -54.566213688958669 128.5719612962057 0 0 0 0 85.838955311646714 -104.72204030442299 0 -104.72204030442299 -63.684041428125056 0 0 0 0 -0.041498168571706628 -114.75729640284408 0 -114.75729640284408 -42.424978649658442 0 0 0 0 -37.351981174868293 -24.503784365078737 0 -24.503784365078737 -11.128070594080278 0 0 0 0 -34.598278366816345 -74.043095575889311 0 -74.043095575889311 -256.37916479086562 0 0 0 0 43.304201627493057 -51.81990198537278 0 -51.81990198537278 -23.210152724583168 0 0 0 0 -25.331414053902336 -128.3350356179144 0 -128.3350356179144 -39.92709025935801 0 0 0 0 34.950345538845021 -7.505693696202556 0 -7.505693696202556 -13.596901993047197 0 0 0 0 -29.611881956381694 -0.42223451997415395 0 -0.42223451997415395 -17.579425946823903 0 0 0 0 -66.576336394876307 -69.018194008967839 0 -69.018194008967839 -19.881146244253614 0 0 0 0 41.583934880828565 -10.624323711852412 0 -10.624323711852412 -61.756155652146845 0 0 0 0 -14.848798507754054 -4.3044661368694506 0 -4.3044661368694506 -6.5872640806701384 0 0 0 0 24.356079467242125 -23.163667538858135 0 -23.163667538858135 -7.4644892200958566 0 0 0 0 3.7256626823768357 1.4460696461026146 0 1.4460696461026146 -0.81989518676547846 0 0 0 0 180.02482847557985 -14.937746865674853 0 -14.937746865674853 -161.66482111289224 0 0 0 0 35.222131496164963 -0.42800322341513208 0 -0.42800322341513208 -10.181510413256802 0 0 0 0 135.02927652851326 -10.36339101741396 0 -10.36339101741396 -31.933663854433689 0 0 0 0 70.322991843348063 -23.756083594824304 0 -23.756083594824304 -8.0745408931015845 0 0 0 0 -1.0032213869963016 -85.676271426782478 0 -85.676271426782478 -149.3560287313594 0 0 0 0 22.149566390264226 -79.252923838299466 0 -79.252923838299466 -163.20880020176526 0 0 0 0 88.559792675749122 -77.348511625012179 0 -77.348511625012179 -163.2037583963247 0 0 0 0 62.799099559292699 -106.64252101402235 0 -106.64252101402235 -189.8762231157416 0 0 0 0 55.891715402105547 -46.655186994408723 0 -46.655186994408723 -201.51991033040395 0 0 0 0 51.563112936425114 -71.331937920447672 0 -71.331937920447672 -69.688919581938535 0 0 0 0 50.301201015152401 -48.263029342735535 0 -48.263029342735535 -111.41364012272606 0 0 0 0 -4.5284013722639429 -51.383955047727795 0 -51.383955047727795 -112.15462238298642 0 0 0 0 57.293183964735363 -71.127070521695714 0 -71.127070521695714 -198.17947415960953 0 0 0 0 64.23486006937128 -6.1101128730224445 0 -6.1101128730224445 -212.66359967917379 0 0 0 0 56.772382190995131 -22.870309806172372 0 -22.870309806172372 -146.02839868623414 0 0 0 0 50.499041837493223 -58.155912419102606 0 -58.155912419102606 -152.9415245570417 0 0 0 0 -146.743350200809 -269.7326265226402 0 -269.7326265226402 -323.56352083641832 0 0 0 0 182.80527794296586 52.145649944795878 0 52.145649944795878 -246.95604226765863 0 0 0 0 205.31189797948934 -14.965072852399317 0 -14.965072852399317 -361.45158006894417 0 0 0 0 41.780587008284783 -9.6988721817542682 0 -9.6988721817542682 -193.52640973967209 0 0 0 0 14.18352891272832 3.4274321654811502 0 3.4274321654811502 32.372376343177166 0 0 0 0 185.70117094829732 100.24963479195321 0 100.24963479195321 -131.48149334796472 0 0 0 0 286.41621890702299 142.80986764132831 0 142.80986764132831 23.004577916362905 0 0 0 0 234.66683580928395 -26.917211390251396 0 -26.917211390251396 -187.38836777656979 0 0 0 0 27.524927197072188 0.8702945292167783 0 0.8702945292167783 -13.793246094584759 0 0 0 0 31.323223637379556 23.914900359937747 0 23.914900359937747 -76.330865022661442 0 0 0 0 -7.2554334990873031 -79.672855389340839 0 -79.672855389340839 -68.696763476385968 0 0 0 0 -9.2848686890374665 -66.402365017973352 0 -66.402365017973352 -141.40282183460658 0 0 0 0 8.4790295485136085 -37.65922339568715 0 -37.65922339568715 -141.00152314404841 0 0 0 0 43.310505598075352 38.653422325501538 0 38.653422325501538 -149.63841328152921 0 0 0 0 4.6528631335422688 0.60784501711896155 0 0.60784501711896155 -75.706716246200358 0 0 0 0 -189.81002224188705 65.894969615728769 0 65.894969615728769 167.35350897212629 0 0 0 0 101.93342867306637 55.877249918939924 0 55.877249918939924 -1.815701722051017 0 0 0 0 -66.528240517962331 -77.878528995770466 0 -77.878528995770466 6.7595137147582136 0 0 0 0 -5.1690510283915501 -1.5380726433868404 0 -1.5380726433868404 -22.813058203100809 0 0 0 0 13.667170958560746 -12.468214311309566 0 -12.468214311309566 -26.327628131031815 0 0 0 0 25.368727209606732 -24.372550235930248 0 -24.372550235930248 -54.647994375001872 0 0 0 0 27.908973705645622 -20.651201289925666 0 -20.651201289925666 -31.339986660153954 0 0 0 0 77.609608925462453 12.224273483720026 0 12.224273483720026 -36.077043584900821 0 0 0 0 531.65810237591347 -395.05912767872633 0 -395.05912767872633 238.48154381263885 0 0 0 0 655.27982196682274 331.46615188090436 0 331.46615188090436 153.71544846866163 0 0 0 0 257.10264583384594 116.23110892847762 0 116.23110892847762 53.646577299499768 0 0 0 0 4.3366036676615813 -2.6612462698060284 0 -2.6612462698060284 -4.6053400419526582 0 0 0 0 4.5587889635026482 1.6310393529964422 0 1.6310393529964422 -0.10114715042283251 0 0 0 0 16.360175794665793 -20.178104470956896 0 -20.178104470956896 -76.530611300462624 0 0 0 0 1.5293009460228579 -9.9620441758844436 0 -9.9620441758844436 -20.732050612727591 0 0 0 0 -23.83388784458657 -7.7930521702910482 0 -7.7930521702910482 -16.001747112706653 0 0 0 0 416.71450389754364 -225.37427030390973 0 -225.37427030390973 27.983068998066301 0 0 0 0 25.698619468943434 -47.780074954494921 0 -47.780074954494921 -10.069716941179649 0 0 0 0 -7.8128372153901182 -35.473780631707996 0 -35.473780631707996 5.0900326752889669 0 0 0 0 95.490251776243895 -33.023803204156138 0 -33.023803204156138 -31.922285121923778 0 0 0 0 30.753846218636681 1.1950149269905523 0 1.1950149269905523 -30.092372737798541 0 0 0 0 116.65569560987507 40.615410495209744 0 40.615410495209744 -22.024990025529405 0 0 0 0 2.6877492196294419 -0.29273833912795055 0 -0.29273833912795055 -2.2218449946054903 0 0 0 0 -74.481709324443273 -183.56105176192432 0 -183.56105176192432 -133.11100959317992 0 0 0 0 -96.908236473912439 -87.498277875500207 0 -87.498277875500207 -141.76839825925799 0 0 0 0 -108.88230912587642 -99.074209263613739 0 -99.074209263613739 -140.66922580850223 0 0 0 0 8.4665080442455292 -18.161515821710054 0 -18.161515821710054 -3.526076286897478 0 0 0 0 3.6824535691630293 -0.3882033552754578 0 -0.3882033552754578 -2.1890450943002406 0 0 0 0 44.530274578306773 -171.38757937836704 0 -171.38757937836704 -124.27886599468184 0 0 0 0 64.496150445482272 10.746777286985889 0 10.746777286985889 -14.391006111982279 0 0 0 0 8.4571311010385841 -18.350964252786184 0 -18.350964252786184 1.648689597932389 0 0 0 0 61.822521505068835 5.449484907585429 0 5.449484907585429 -17.798592892650049 0 0 0 0 68.162470971639777 2.4276461067056516 0 2.4276461067056516 -31.509331212902907 0 0 0 0 76.854995286151734 12.180296663300396 0 12.180296663300396 -24.372385249822401 0 0 0 0 -153.30684657756274 -122.61992177607681 0 -122.61992177607681 -42.512346505797723 0 0 0 0 -114.46071575272299 -231.83903777401792 0 -231.83903777401792 -30.018467320802301 0 0 0 0 -42.698771212913016 -159.50714043359039 0 -159.50714043359039 -50.136530852466421 0 0 0 0 27.022855310285195 -289.30707141839957 0 -289.30707141839957 -14.834957477860371 0 0 0 0 76.172036306301379 -159.41553668790766 0 -159.41553668790766 -130.09314433024701 0 0 0 0 250.33662015413256 -386.87827162516624 0 -386.87827162516624 -3.9227924809783872 0 0 0 0 0.85047469044002355 -118.77938978481325 0 -118.77938978481325 -90.897071322997363 0 0 0 0 -84.185540885755017 -183.33729730711639 0 -183.33729730711639 -5.860943384886923 0 0 0 0 -117.28194335379385 -120.77280945198254 0 -120.77280945198254 -62.64164780050487 0 0 0 0 -39.828808054671754 -17.484671215031995 0 -17.484671215031995 -19.115950436651474 0 0 0 0 -108.17592832173978 -55.743899010638415 0 -55.743899010638415 -40.233863922207092 0 0 0 0 492.8244566821013 -162.12924048172863 0 -162.12924048172863 75.18257320982957 0 0 0 0 724.45483798092778 -63.843476878510046 0 -63.843476878510046 -197.83675028552898 0 0 0 0 -1.6706765089766553 -7.6990927845950452 0 -7.6990927845950452 -15.054065369719666 0 0 0 0 547.93567956397555 -154.58858302087538 0 -154.58858302087538 -148.29462894384778 0 0 0 0 -70.857370710351461 -82.082928356365301 0 -82.082928356365301 -43.037495433927688 0 0 0 0 -0.5787471583169963 -3.0649457884566562 0 -3.0649457884566562 -5.8214949508891607 0 0 0 0 -212.99743921718073 -71.987408290329768 0 -71.987408290329768 -40.599354456640867 0 0 0 0 -591.29747513715029 -206.60420182581584 0 -206.60420182581584 -7.0212146770281834 0 0 0 0 336.19393423666884 172.77299430866879 0 172.77299430866879 -130.69618596949294 0 0 0 0 528.04294294849706 -22.612886599306876 0 -22.612886599306876 -252.66790347061033 0 0 0 0 23.083616782656463 -258.62756953280405 0 -258.62756953280405 -340.9045719552505 0 0 0 0 -113.87967215196932 -466.00687811081298 0 -466.00687811081298 -188.32086935025291 0 0 0 0 -82.259420192964171 -37.021605940557492 0 -37.021605940557492 21.280368704523426 0 0 0 0 -98.257195895564109 11.312517323087377 0 11.312517323087377 12.576780619143392 0 0 0 0 -1.591327134799517 3.2725337400818972 0 3.2725337400818972 -5.4677611356540012 0 0 0 0 -131.65396855801578 -149.36122446039735 0 -149.36122446039735 -168.08945864626003 0 0 0 0 -13.027558939800315 -91.597153883422379 0 -91.597153883422379 -177.71909103818325 0 0 0 0 165.37758628196036 -147.15015786465483 0 -147.15015786465483 12.794022903421137 0 0 0 0 0.4639370772368574 0.6421740836331935 0 0.6421740836331935 -2.5211982055172655 0 0 0 0 182.07655692545268 -12.145051901963598 0 -12.145051901963598 -53.663097526958154 0 0 0 0 -76.782867642534711 1.3958682154698181 0 1.3958682154698181 49.653543977590743 0 0 0 0 -67.006528475743835 -30.741115232365701 0 -30.741115232365701 25.335808243806241 0 0 0 0 47.25679443157469 2.6197116363036912 0 2.6197116363036912 11.742165801304509 0 0 0 0 -169.94230683365413 -143.79206648255786 0 -143.79206648255786 -198.91155781816269 0 0 0 0 -22.173358068037942 -123.7698730547454 0 -123.7698730547454 -28.085474881685514 0 0 0 0 -112.83004136831585 39.220651263742184 0 39.220651263742184 -21.548455370560987 0 0 0 0 -131.17668716997196 18.812661922522238 0 18.812661922522238 2.1061679917111178 0 0 0 0 -4.4869810059665838 26.890327317409628 0 26.890327317409628 -56.171427138498984 0 0 0 0 -4.3824376739385116 -5.6031149567716056 0 -5.6031149567716056 -51.145943621740116 0 0 0 0 -53.846461743186865 -186.20853269880172 0 -186.20853269880172 -742.86895587058825 0 0 0 0 15.168184489352825 -96.682727027546207 0 -96.682727027546207 -820.39121679331583 0 0 0 0 -1.0123872494499402 -0.58502105821737871 0 -0.58502105821737871 -0.82376035684528404 0 0 0 0 64.477968747926298 -84.766451876377687 0 -84.766451876377687 -577.2702250928196 0 0 0 0 96.107724409226421 151.44736061317963 0 151.44736061317963 -628.10359968477132 0 0 0 0 -21.203734565816831 -186.52093337877523 0 -186.52093337877523 -1024.9256816739871 0 0 0 0 191.06655035517963 -190.00439178764282 0 -190.00439178764282 -1119.5338608962338 0 0 0 0 -20.059091039216014 -172.1567726170415 0 -172.1567726170415 -938.61067064593954 0 0 0 0 12.168891784632933 -121.1710774155581 0 -121.1710774155581 -842.41013317528996 0 0 0 0 -86.111159360979627 -206.78389015721041 0 -206.78389015721041 -914.39554294107074 0 0 0 0 -52.332042242783245 -325.58044801931101 0 -325.58044801931101 -1011.7307873182763 0 0 0 0 -28.007552704857517 -285.29133835719404 0 -285.29133835719404 -976.8593773227185 0 0 0 0 -278.32836448970556 -354.91506129528716 0 -354.91506129528716 -958.02019839672721 0 0 0 0 -129.19729046593852 -292.68615799754843 0 -292.68615799754843 -932.2003738850326 0 0 0 0 -144.9939178741497 -348.85420655697817 0 -348.85420655697817 -1008.0500392526592 0 0 0 0 -90.126900260176626 -389.55584947765601 0 -389.55584947765601 -990.4042920491629 0 0 0 0 -91.662787091915561 -445.05916039545991 0 -445.05916039545991 -1118.8032295621815 0 0 0 0 19.870999505784312 -353.30380526017325 0 -353.30380526017325 -1049.8728075392501 0 0 0 0 1.2863682168235755 -437.10777715652875 0 -437.10777715652875 -1293.306676996086 0 0 0 0 -243.36268957359789 -51.537143204070162 0 -51.537143204070162 -796.04438926906914 0 0 0 0 -416.40723809670453 125.04397390094528 0 125.04397390094528 -888.98596016374358 0 0 0 0 -581.24289600204156 38.546266179317172 0 38.546266179317172 -631.8320762104413 0 0 0 0 -480.41885852003816 -87.288792275030573 0 -87.288792275030573 -665.5278633373473 0 0 0 0 -439.35433212425914 -106.59591381857172 0 -106.59591381857172 -805.33093410863512 0 0 0 0 -345.61134680609666 -227.69504131944268 0 -227.69504131944268 -886.78685566794957 0 0 0 0 -165.99421470162179 -187.02037141260371 0 -187.02037141260371 -878.63002711001354 0 0 0 0 -206.29154374132213 -248.77595424583342 0 -248.77595424583342 -927.71686837518064 0 0 0 0 -268.3761888974027 -98.197084148265276 0 -98.197084148265276 -882.51153726266057 0 0 0 0 -83.709126642079923 -75.870285018616414 0 -75.870285018616414 -880.58966595015954 0 0 0 0 -52.088808307585623 -227.35271529018792 0 -227.35271529018792 -901.96572342872241 0 0 0 0 52.097090784312059 -83.862626108799304 0 -83.862626108799304 -811.28434013006336 0 0 0 0 -153.77127431461849 -85.983466069483256 0 -85.983466069483256 -810.48283297363923 0 0 0 0 -76.109551741420773 51.43346067110906 0 51.43346067110906 -915.84163215549779 0 0 0 0 -340.55969812634839 322.93518345327175 0 322.93518345327175 -1192.5016576063645 0 0 0 0 -2.4299013147824251 2.6941155372457217 0 2.6941155372457217 -3.8831741109692075 0 0 0 0 -20.443662300722281 -240.25236386732286 0 -240.25236386732286 -1168.5631521870382 0 0 0 0 -169.07662367832086 -244.19516142248722 0 -244.19516142248722 -301.12337757735077 0 0 0 0 11.320368194679759 47.469263257240527 0 47.469263257240527 -261.48233763489407 0 0 0 0 -5.4374577225639928 6.5678085657597762 0 6.5678085657597762 -10.56841000575713 0 0 0 0 -51.795245568665905 -202.64777122632222 0 -202.64777122632222 -629.79058110032929 0 0 0 0 70.33618607127778 83.007855738504986 0 83.007855738504986 -467.53670467418851 0 0 0 0 -117.25442205660693 -105.78566827048053 0 -105.78566827048053 -117.54004011153302 0 0 0 0 -3.7332776145477649 4.609204469241476 0 4.609204469241476 -7.8761586089500781 0 0 0 0 -3.4225543032902692 19.855006621753091 0 19.855006621753091 -21.353145551824127 0 0 0 0 -128.4969983594583 349.31927646194163 0 349.31927646194163 -203.88344424309253 0 0 0 0 -4.6792107900442943 -10.024678548876523 0 -10.024678548876523 -4.4814677836402552 0 0 0 0 -2.9903085608827951 0.5406410670720021 0 0.5406410670720021 -4.2607090038996631 0 0 0 0 -15.221495721940755 18.838103792229958 0 18.838103792229958 -31.356207046024792 0 0 0 0 135.71923329624315 -86.440756031035562 0 -86.440756031035562 -79.926019948026806 0 0 0 0 -0.4839021032324311 -3.4941066174922071 0 -3.4941066174922071 -6.689924075536851 0 0 0 0 19.462465827339201 24.8693378935277 0 24.8693378935277 -154.56837211342645 0 0 0 0 -253.54831875359741 292.54568158956681 0 292.54568158956681 -250.2027117177422 0 0 0 0 -55.79995784762832 -83.169725053165166 0 -83.169725053165166 -14.579011019592144 0 0 0 0 67.209077299866294 122.28645700660854 0 122.28645700660854 -625.38159181244714 0 0 0 0 -232.54743513814492 588.57933628081082 0 588.57933628081082 -637.18536012509139 0 0 0 0 -255.35201804964345 490.79923702615633 0 490.79923702615633 -378.53773826153702 0 0 0 0 -79.35415375343382 376.09106445453654 0 376.09106445453654 -349.13161661189224 0 0 0 0 -172.50997643092251 471.06807373123229 0 471.06807373123229 -502.88698346100136 0 0 0 0 -677.85452171036923 362.81351205768442 0 362.81351205768442 -23.102292585665055 0 0 0 0 -228.70049177158444 566.68740449865436 0 566.68740449865436 -753.34543545651832 0 0 0 0 -897.46727377651587 155.41484872128058 0 155.41484872128058 -597.29943651583017 0 0 0 0 -284.0495402667766 50.668645205973007 0 50.668645205973007 -957.73159935258445 0 0 0 0 59.377419111362542 150.07281010282168 0 150.07281010282168 -477.74447534936189 0 0 0 0 -243.9698467465455 209.10430928397273 0 209.10430928397273 -333.082382279179 0 0 0 0 -392.56025566930612 -102.52407212663093 0 -102.52407212663093 -162.37645065707329 0 0 0 0 -488.86801007657323 -75.600837114026945 0 -75.600837114026945 -497.52134870069858 0 0 0 0 -492.16889929808258 -55.433509172886261 0 -55.433509172886261 -565.72153526830334 0 0 0 0 -397.45167919055029 -45.434477609131136 0 -45.434477609131136 -595.58308997970744 0 0 0 0 362.58247503365533 24.603382849796617 0 24.603382849796617 -218.8960720242394 0 0 0 0 1.1680576792170028 -3.9359761645858029 0 -3.9359761645858029 -29.344455255135415 0 0 0 0 1007.4688735427908 -157.93975115321882 0 -157.93975115321882 -294.10964151158623 0 0 0 0 141.42900394236784 -174.87225136033476 0 -174.87225136033476 65.258865867712302 0 0 0 0 110.1253550224601 333.31385549767583 0 333.31385549767583 -89.48599617448599 0 0 0 0 1.9542014119832039 -1.9929684826485818 0 -1.9929684826485818 -28.803437252337062 0 0 0 0 739.18697277919534 -12.647489527062135 0 -12.647489527062135 -419.56535591000284 0 0 0 0 4.9753557171973171 180.3757849061567 0 180.3757849061567 -305.3707611281061 0 0 0 0 -469.08425493834511 319.14645179999206 0 319.14645179999206 -298.16734615016753 0 0 0 0 -89.161796151747694 656.57121282682056 0 656.57121282682056 -664.28787148619449 0 0 0 0 141.71034645035843 274.59365350359076 0 274.59365350359076 -826.35353843420307 0 0 0 0 -181.68291720451828 513.68640612499439 0 513.68640612499439 -389.31127671843569 0 0 0 0 -68.494176685896605 123.24818266587499 0 123.24818266587499 -70.099685194290942 0 0 0 0 -16.042848938446241 571.58815697761383 0 571.58815697761383 -708.47768859811185 0 0 0 0 528.42672873863921 568.99139969485259 0 568.99139969485259 -751.19659228242381 0 0 0 0 105.8349182411107 -175.11966777075213 0 -175.11966777075213 -126.06225034367526 0 0 0 0 4.4729133720708987 -1.6776619108091353 0 -1.6776619108091353 -7.8005962369746555 0 0 0 0 138.51279296866096 369.21025791366264 0 369.21025791366264 68.639128211158095 0 0 0 0 782.30569785957823 -197.49746511721241 0 -197.49746511721241 11.280092476365098 0 0 0 0 -3.4580529083693969 -11.001824868544524 0 -11.001824868544524 -23.821861350045197 0 0 0 0 734.97890376931923 -393.16100766283489 0 -393.16100766283489 -795.37507228817049 0 0 0 0 97.503826575892845 -286.84146872597648 0 -286.84146872597648 104.54653604434861 0 0 0 0 -32.623523568952805 55.623196671309415 0 55.623196671309415 52.641607994388323 0 0 0 0 -92.029627703315782 39.556436682611093 0 39.556436682611093 135.80113405152952 0 0 0 0 -42.508030446704652 65.341975757910404 0 65.341975757910404 43.305526084935991 0 0 0 0 -0.70547864889507661 -1.8982133028943338 0 -1.8982133028943338 -6.494376479193761 0 0 0 0 -109.29956753298029 54.65851687004033 0 54.65851687004033 56.770294835274399 0 0 0 0 -3.4399265478008374 -5.3459002515504466 0 -5.3459002515504466 -7.9113082036069073 0 0 0 0 -435.65235299038341 579.73370831753709 0 579.73370831753709 -502.32374942426395 0 0 0 0 -22.059977830624121 -15.931958813302117 0 -15.931958813302117 -18.695965448816423 0 0 0 0 -53.780939308394409 93.316876016382594 0 93.316876016382594 -9.6606038727477426 0 0 0 0 -2.5643462602562366 -5.6172031776905129 0 -5.6172031776905129 -3.6248929739911944 0 0 0 0 18.80944548981779 34.128905804698661 0 34.128905804698661 -176.1269999856886 0 0 0 0 61.32355482418734 107.12268347580539 0 107.12268347580539 -157.32114380054918 0 0 0 0 161.72167152767861 195.73395920408439 0 195.73395920408439 -203.67446071344966 0 0 0 0 158.40038415021672 93.943826989310764 0 93.943826989310764 20.835465800671955 0 0 0 0 -194.25876622851592 197.94128749027732 0 197.94128749027732 -23.509218661269188 0 0 0 0 -135.40651908645123 77.877546705618443 0 77.877546705618443 101.98650501734664 0 0 0 0 -62.056723019170931 245.68454244854729 0 245.68454244854729 -173.04946563347039 0 0 0 0 -64.779624099822115 288.87927027944556 0 288.87927027944556 -562.90359914832516 0 0 0 0 223.82646190881587 12.754330129901064 0 12.754330129901064 -84.43590898122784 0 0 0 0 506.08514423981273 -122.64526773315083 0 -122.64526773315083 -252.51033225002175 0 0 0 0 -47.718356933175528 -25.024067569655017 0 -25.024067569655017 -205.42846750571516 0 0 0 0 219.93196009206417 -49.478905569920244 0 -49.478905569920244 -499.76458093541441 0 0 0 0 -262.18294496033786 -445.56077009764704 0 -445.56077009764704 -1029.8328177232397 0 0 0 0 -1214.3553286799042 -178.66265765833668 0 -178.66265765833668 -42.244560908471612 0 0 0 0 -2.5195824398344158 -4.390448503600954 0 -4.390448503600954 -9.4036629148806981 0 0 0 0 -1.7879777355595219 -5.3012439349082641 0 -5.3012439349082641 -12.592096953754321 0 0 0 0 538.97381739981438 119.43510269611033 0 119.43510269611033 -1446.8914057322218 0 0 0 0 631.38444803326502 521.8338723246452 0 521.8338723246452 -1071.2671939271022 0 0 0 0 -1335.4061584899428 479.72208492041318 0 479.72208492041318 86.289675661755609 0 0 0 0 -11.481181243932951 516.69317749557376 0 516.69317749557376 -981.20081144949745 0 0 0 0 -238.74296281165698 -190.83427865965496 0 -190.83427865965496 294.86605509521178 0 0 0 0 -677.71616693297983 276.81005719706445 0 276.81005719706445 90.194717762322398 0 0 0 0 -490.17145360191671 -159.07993118703234 0 -159.07993118703234 -235.25619638678472 0 0 0 0 -264.43789934248684 -280.81028040217461 0 -280.81028040217461 -233.65421978158702 0 0 0 0 -52.106176970162323 -24.640175771237409 0 -24.640175771237409 -96.22412698851258 0 0 0 0 -315.71495819814436 -657.6892035108358 0 -657.6892035108358 8.2886708111363987 0 0 0 0 -562.20248376566724 -344.80566255171289 0 -344.80566255171289 277.58847944131776 0 0 0 0 -136.24564117119871 -493.32446588570565 0 -493.32446588570565 -909.68013977304508 0 0 0 0 -15.125550453190954 -80.212017737187125 0 -80.212017737187125 -176.4962505359872 0 0 0 0 45.207838123779766 -127.42868628077122 0 -127.42868628077122 -197.64127236640343 0 0 0 0 77.086176122065353 -1.8625705186168489 0 -1.8625705186168489 -135.81955137073965 0 0 0 0 91.844492093419831 -17.221726219690026 0 -17.221726219690026 -120.53329513194694 0 0 0 0 62.566421326470163 -56.990020665207339 0 -56.990020665207339 -82.828438738724799 0 0 0 0 95.644726061742233 -134.71532368717499 0 -134.71532368717499 64.36086775471631 0 0 0 0 24.972494647193344 -102.48984537753131 0 -102.48984537753131 -123.23610434333932 0 0 0 0 113.69589314744098 -18.662254899380059 0 -18.662254899380059 -45.833898551725724 0 0 0 0 -205.0307578423799 -251.21076575607367 0 -251.21076575607367 413.60189680507028 0 0 0 0 -5.3849921586446392 -3.8883791684326212 0 -3.8883791684326212 -2.8602276938192546 0 0 0 0 -15.510819178880144 -10.538891545257584 0 -10.538891545257584 -5.7436640114034816 0 0 0 0 97.918958663615868 -90.195068820865458 0 -90.195068820865458 -1024.0695113442707 0 0 0 0 -247.21746536403907 -537.47748555212092 0 -537.47748555212092 -768.59836130401527 0 0 0 0 93.223377771995104 130.62051504079352 0 130.62051504079352 -1820.9329020113219 0 0 0 0 256.74841537589396 128.24567409657175 0 128.24567409657175 -1317.863164843191 0 0 0 0 -329.27116420740231 -3.1358670992885891 0 -3.1358670992885891 -500.17323532199953 0 0 0 0 -258.53433047064914 -492.12183181584987 0 -492.12183181584987 -516.84748985437909 0 0 0 0 -278.38549568077951 -469.48064085834631 0 -469.48064085834631 -107.41221490155704 0 0 0 0 -452.1520981706185 142.69809115275712 0 142.69809115275712 -1317.5022325344762 0 0 0 0 176.25491361223703 35.737182901237247 0 35.737182901237247 -199.9956321047066 0 0 0 0 -639.63059332519651 -552.27570522060705 0 -552.27570522060705 -609.05889807047788 0 0 0 0 661.05674526497523 -355.78578529469087 0 -355.78578529469087 -750.09812510730262 0 0 0 0 -475.68576316428403 967.00080499580872 0 967.00080499580872 -556.78919556127948 0 0 0 0 0.72339761203673381 -0.090408630734987838 0 -0.090408630734987838 -12.625996556750124 0 0 0 0 278.03796417095782 393.91273556803571 0 393.91273556803571 -1702.2093499580078 0 0 0 0 33.434337150015836 101.53133503038407 0 101.53133503038407 99.371725875453194 0 0 0 0 27.455349167918939 -375.9663687818138 0 -375.9663687818138 -110.51529090258555 0 0 0 0 34.959159980874404 62.54612555456788 0 62.54612555456788 39.308151930505119 0 0 0 0 -178.5699498044612 -103.74449627198373 0 -103.74449627198373 35.198323107979377 0 0 0 0 531.14505764817557 -1.702864519902505 0 -1.702864519902505 -60.260381170504843 0 0 0 0 108.02503681569397 -96.242914252663468 0 -96.242914252663468 10.869413327862276 0 0 0 0 136.45609701859576 69.279628795717144 0 69.279628795717144 11.28674435792496 0 0 0 0 -10.757185158870698 9.9335378732139361 0 9.9335378732139361 -145.44364760887765 0 0 0 0 -10.630595041970309 -46.940934143171035 0 -46.940934143171035 -77.388849872084393 0 0 0 0 -1.078839029960406 -0.19576808171130722 0 -0.19576808171130722 0.63749973928183579 0 0 0 0 -7.3424820171994725 -15.433189348281303 0 -15.433189348281303 8.0189160595364228 0 0 0 0 -3.3133629587662199 -31.363499414666876 0 -31.363499414666876 -197.18860861038775 0 0 0 0 -0.7160928154302546 -0.085431875511460476 0 -0.085431875511460476 0.11946372744911571 0 0 0 0 -35.983393077718347 30.687582963455498 0 30.687582963455498 32.082360301516019 0 0 0 0 -32.120578031046904 -55.942281513202261 0 -55.942281513202261 -36.196692039047775 0 0 0 0 27.271491706821507 -9.1899042666736932 0 -9.1899042666736932 -85.967222821236646 0 0 0 0 19.441720950602303 -35.485153504687332 0 -35.485153504687332 -472.79846385798737 0 0 0 0 5.0216312728886123 32.514593891442928 0 32.514593891442928 5.7843509421290946 0 0 0 0 19.896655271118561 31.115837446952355 0 31.115837446952355 -47.7236870461129 0 0 0 0 1.7490547630222384 0.69556882896914374 0 0.69556882896914374 -1.7059651942055893 0 0 0 0 -12.36460615851172 -230.94259167851123 0 -230.94259167851123 -951.31668565957079 0 0 0 0 8.4184198553753049 -189.75635381152097 0 -189.75635381152097 -944.66227097647061 0 0 0 0 4.244918127554314 2.4257422904529591 0 2.4257422904529591 -5.2192787851545148 0 0 0 0 10.978267730179596 -2.1805046742138074 0 -2.1805046742138074 -19.273011931923975 0 0 0 0 14.55126166562286 -6.0481160183480824 0 -6.0481160183480824 -28.638135139768565 0 0 0 0 14.520222292930271 -5.2719687377521041 0 -5.2719687377521041 -24.763942596204288 0 0 0 0 4.4764744959686595 -17.239565924362978 0 -17.239565924362978 -30.426010244171266 0 0 0 0 7.0878123418148107 -8.6312379539795074 0 -8.6312379539795074 -12.018013720749877 0 0 0 0 -1.6859562017374428 -6.4441956907815126 0 -6.4441956907815126 -16.280616350395007 0 0 0 0 3.4783425756304496 -14.423457343356858 0 -14.423457343356858 -18.213362222144497 0 0 0 0 0.72227881848129982 -11.36818072758615 0 -11.36818072758615 -10.881236581815756 0 0 0 0 -7.1782348077761071 -15.067744214244158 0 -15.067744214244158 -12.549031618618756 0 0 0 0 -0.35739662139821071 -6.5192234884525533 0 -6.5192234884525533 -16.227879355152254 0 0 0 0 0.0027523042096044992 -7.3576441043660452 0 -7.3576441043660452 -17.631522966526973 0 0 0 0 -0.633645433424884 -7.1983719472082157 0 -7.1983719472082157 -14.384499218154815 0 0 0 0 1.8678738596441562 -7.264260110900068 0 -7.264260110900068 -18.624784488551086 0 0 0 0 0.050410765595588103 -7.5506897821032908 0 -7.5506897821032908 -14.902696468980139 0 0 0 0 -1.6396546423849341 -5.6072768933309902 0 -5.6072768933309902 -15.477946729066389 0 0 0 0 -0.0078756994183438993 -7.6194851828586252 0 -7.6194851828586252 -14.783059658722777 0 0 0 0 -0.62296696679221775 -1.4303960559287674 0 -1.4303960559287674 -2.1881049553590373 0 0 0 0 -0.27324800785338255 -7.2654684878034459 0 -7.2654684878034459 -14.108665745523467 0 0 0 0 -21.398260498905046 -114.85580636586383 0 -114.85580636586383 -733.10182627593167 0 0 0 0 -172.17028470458331 -283.26702486496652 0 -283.26702486496652 -471.41274492502271 0 0 0 0 9.2040381355722047 -6.8528892024914967 0 -6.8528892024914967 -23.944846527476329 0 0 0 0 1.160304400829701 1.527032811447576 0 1.527032811447576 -1.5395504865524288 0 0 0 0 -47.244198193122884 -155.75388471521001 0 -155.75388471521001 -784.28709028410231 0 0 0 0 -63.645964398542162 -162.72521255155516 0 -162.72521255155516 -1031.6442993458622 0 0 0 0 -85.958674828915804 -237.98596809371338 0 -237.98596809371338 -871.0524287828157 0 0 0 0 0.081474560852118669 -125.69084006083334 0 -125.69084006083334 -761.47295220383967 0 0 0 0 -20.226330491029103 -144.69400222304102 0 -144.69400222304102 -774.8226304189011 0 0 0 0 -43.207990927297132 -135.8487012616315 0 -135.8487012616315 -750.55797476111911 0 0 0 0 -0.19998749143820782 -125.34042185303042 0 -125.34042185303042 -732.89560797030572 0 0 0 0 14.714061236988471 -111.10595183422265 0 -111.10595183422265 -794.23825159580156 0 0 0 0 -77.749822791683812 82.703096662989992 0 82.703096662989992 225.52419359170017 0 0 0 0 -2.5616308435262543 140.55387581318439 0 140.55387581318439 -221.90694056650682 0 0 0 0 0.89229525845331115 0.15531566471935321 0 0.15531566471935321 -1.2586265174787172 0 0 0 0 -20.393200606388547 -168.04736328293802 0 -168.04736328293802 -758.0036878634055 0 0 0 0 -8.0733618313253146 27.504950870032189 0 27.504950870032189 -349.9423082062749 0 0 0 0 -18.701538206108133 -223.28980747490255 0 -223.28980747490255 -521.71201035616104 0 0 0 0 25.829198129131669 -45.443556270300178 0 -45.443556270300178 -685.18516598278438 0 0 0 0 -3.4627464100683767 -172.22819362829432 0 -172.22819362829432 -778.08890896786761 0 0 0 0 14.334832932724339 -200.99495137897611 0 -200.99495137897611 -840.96684468943567 0 0 0 0 -121.91573497671811 -201.95630732904101 0 -201.95630732904101 -828.43281753292831 0 0 0 0 16.994672930932438 -345.30893201958679 0 -345.30893201958679 -1297.2646406456988 0 0 0 0 -35.132418048246109 -80.475016311444051 0 -80.475016311444051 -994.14703174857277 0 0 0 0 -81.074169476670534 -119.05787199218321 0 -119.05787199218321 -381.09097480960918 0 0 0 0 11.047910715007376 89.042297639447497 0 89.042297639447497 -603.63611710362602 0 0 0 0 -22.356250378670126 -17.187205134992553 0 -17.187205134992553 -9.5879464012355839 0 0 0 0 -0.32462800075518317 -77.317445597073856 0 -77.317445597073856 -27.333280485363503 0 0 0 0 24.419755752945498 -1.0144133365750605 0 -1.0144133365750605 -17.550717560538629 0 0 0 0 24.625912366630473 -16.309943654156086 0 -16.309943654156086 -59.269248008404247 0 0 0 0 24.529363719816594 3.0757035420164271 0 3.0757035420164271 -16.004770285660484 0 0 0 0 0.55735797282841304 -99.792417968856171 0 -99.792417968856171 -71.242873111592417 0 0 0 0 -77.185459752009876 -71.706377126323787 0 -71.706377126323787 159.36616740560567 0 0 0 0 1.4552183488030188 -27.762782172672246 0 -27.762782172672246 -107.3452053652727 0 0 0 0 21.021826104226761 -52.755644050441333 0 -52.755644050441333 -104.98741588670327 0 0 0 0 -149.02176442170901 -316.23252237866109 0 -316.23252237866109 -265.92817787102831 0 0 0 0 -179.71060475397769 -270.13968505803496 0 -270.13968505803496 -273.13264103900292 0 0 0 0 -0.41455341263364442 -1.3627530413469415 0 -1.3627530413469415 -4.3823947203714511 0 0 0 0 -673.87376724755393 -558.74028174993873 0 -558.74028174993873 -439.7834414455283 0 0 0 0 -624.49301143739319 -379.36566638293152 0 -379.36566638293152 -167.69479722017422 0 0 0 0 -0.0010674475926488567 -1.3783328708923364 0 -1.3783328708923364 -7.9338115183909395 0 0 0 0 -327.55548864168856 -495.83437509994837 0 -495.83437509994837 -520.14673191952897 0 0 0 0 -19.181281009297834 -207.30435243795364 0 -207.30435243795364 42.792270177618775 0 0 0 0 -312.58447643109253 -707.6085137003538 0 -707.6085137003538 -770.67436733961222 0 0 0 0 143.35390784837062 156.99744294558695 0 156.99744294558695 -72.868318936940341 0 0 0 0 -48.236939443151755 -184.98272675029148 0 -184.98272675029148 -730.41622136226215 0 0 0 0 0.54809156386548397 -2.4951550861569558 0 -2.4951550861569558 -4.6401628803018298 0 0 0 0 0.57340737887199889 -3.5275560572849969 0 -3.5275560572849969 -5.8655137302076525 0 0 0 0 11.866426893421817 1.8776388897094876 0 1.8776388897094876 -316.55330422490715 0 0 0 0 17.135240703996232 12.165670877089724 0 12.165670877089724 -94.072612502641277 0 0 0 0 -0.0094223528056554609 -81.073725639053009 0 -81.073725639053009 30.205341191816842 0 0 0 0 0.042485297910633872 -90.229506280687929 0 -90.229506280687929 -179.19146609721429 0 0 0 0 -14.207352185879756 -49.07952993564686 0 -49.07952993564686 -173.17978410921933 0 0 0 0 -2.8465315320137279 -56.988834164192667 0 -56.988834164192667 -164.29862147367385 0 0 0 0 -3.7547579296595188 -98.738518332348576 0 -98.738518332348576 -0.92272921826224774 0 0 0 0 37.502842726764598 -75.917220297160384 0 -75.917220297160384 -159.91260669028998 0 0 0 0 -14.298456180717494 -12.678805980340258 0 -12.678805980340258 29.176859008119209 0 0 0 0 0.02628963515281435 -0.39239107597524026 0 -0.39239107597524026 -0.45118981669605773 0 0 0 0 -34.379263531121126 -30.455153324144703 0 -30.455153324144703 48.448255147857708 0 0 0 0 13.290721165592913 -49.634847194418398 0 -49.634847194418398 -37.550151349933003 0 0 0 0 18.031112227883227 3.7854538014184982 0 3.7854538014184982 -23.936108709851396 0 0 0 0 2.631864903952561 -26.092534281393455 0 -26.092534281393455 38.702537587290863 0 0 0 0 -2.9007999712456467 -39.36563418462174 0 -39.36563418462174 49.756164089381855 0 0 0 0 -10.022787069984243 -14.195586575366164 0 -14.195586575366164 -14.36857920329274 0 0 0 0 10.370609959642497 1.5296880470459229 0 1.5296880470459229 -5.6526805540403338 0 0 0 0 2.5238783653066483 -3.4405386211075921 0 -3.4405386211075921 -5.0418306275263269 0 0 0 0 1.850213027485097 -28.758098690537736 0 -28.758098690537736 47.963075160614608 0 0 0 0 4.8652842940279868 -31.691548987408169 0 -31.691548987408169 35.29355230058718 0 0 0 0 3.7972059273107561 -26.269270776909252 0 -26.269270776909252 38.371526762814028 0 0 0 0 3.6581121259952516 -23.881584748671457 0 -23.881584748671457 34.154642117689946 0 0 0 0 -0.039749696611655505 -0.38026217195348977 0 -0.38026217195348977 -0.2872134601658729 0 0 0 0 35.433636973587852 -17.468931351726496 0 -17.468931351726496 -10.882255812117364 0 0 0 0 -163.2941758190824 -340.19368254348956 0 -340.19368254348956 -471.218428342072 0 0 0 0 -10.774298961949883 -32.894191783943825 0 -32.894191783943825 167.45416749238211 0 0 0 0 0.088514954977724672 -119.84635237376642 0 -119.84635237376642 33.55306760755775 0 0 0 0 0.17353699536743145 -0.61333080535928275 0 -0.61333080535928275 -0.20571546010009811 0 0 0 0 0.25243672068256806 -176.47228235532748 0 -176.47228235532748 -1209.4700158495107 0 0 0 0 -44.93182253530523 -562.58433800416242 0 -562.58433800416242 -1351.2292832359672 0 0 0 0 25.972580185834033 -3.1942606681841426 0 -3.1942606681841426 -1676.6062633932452 0 0 0 0 64.006925841579601 -185.73983017195133 0 -185.73983017195133 -1269.950394374493 0 0 0 0 10.212552482529418 -124.96183713649953 0 -124.96183713649953 -1677.5097306161624 0 0 0 0 -209.82568804077226 -55.903468235235778 0 -55.903468235235778 -26.404800077039909 0 0 0 0 -1.1991163843359425 -3.6959965554620737 0 -3.6959965554620737 -5.102891146942909 0 0 0 0 -266.78264374088496 -11.151926483398711 0 -11.151926483398711 -1234.7594539415586 0 0 0 0 -153.46932572560641 -357.42532594735894 0 -357.42532594735894 -1263.908223632825 0 0 0 0 21.653299997613203 -233.86268734235637 0 -233.86268734235637 -1178.8883942626708 0 0 0 0 -123.6580656280202 -157.94384901287049 0 -157.94384901287049 -1097.329887586915 0 0 0 0 0.066228603231509087 -136.16579619810727 0 -136.16579619810727 -1300.2184709775065 0 0 0 0 64.877957954352837 -85.472672488860553 0 -85.472672488860553 -1069.4734139568718 0 0 0 0 0.50580991131494313 0.48380273278448271 0 0.48380273278448271 -1.3059363139281146 0 0 0 0 -0.0060280801196144476 -6.9405676067035529 0 -6.9405676067035529 -20.745948673160456 0 0 0 0 -151.23429486241207 173.47500997524185 0 173.47500997524185 -220.80907569309056 0 0 0 0 -5.2023858667299692 -344.34991544773675 0 -344.34991544773675 -931.76578289884492 0 0 0 0 -1.3153024706398093 -9.316238630724456 0 -9.316238630724456 -19.877961990488984 0 0 0 0 1.9372889363366192 -1.3569518145797019 0 -1.3569518145797019 -4.379446259421016 0 0 0 0 -0.80835302368715933 -5.6893290355401405 0 -5.6893290355401405 -18.947143238241551 0 0 0 0 -53.33007088757131 -31.621151839339291 0 -31.621151839339291 -171.1488329148342 0 0 0 0 -0.25262383738761596 -2.3947928216347378 0 -2.3947928216347378 -2.3525718973766772 0 0 0 0 0.25098951499416877 -1.7122863711193901 0 -1.7122863711193901 -6.1498828304381732 0 0 0 0 4.1402033848200972 166.36471961524512 0 166.36471961524512 -1084.0971731136087 0 0 0 0 105.08933327348473 -57.662137104052817 0 -57.662137104052817 -1315.3047907402397 0 0 0 0 -369.37963262197218 -532.75884096310801 0 -532.75884096310801 -536.54650998827856 0 0 0 0 -219.21777361467832 15.877147136219719 0 15.877147136219719 -1002.5658231571142 0 0 0 0 -29.472889766248954 -465.54980769722897 0 -465.54980769722897 -1335.3369116557096 0 0 0 0 -304.61711558229354 -347.70618296646353 0 -347.70618296646353 -1224.77799553558 0 0 0 0 -110.06173725540134 -61.102394117613585 0 -61.102394117613585 -705.04143397898588 0 0 0 0 13.809564547268067 -4.1696613577461221 0 -4.1696613577461221 -1000.6108095255913 0 0 0 0 34.646882218039309 17.900969523350795 0 17.900969523350795 -1054.2198874835158 0 0 0 0 7.7519429367525241 2.621656562842162 0 2.621656562842162 -1.5561188376641368 0 0 0 0 -3.4019545037454009 -28.765210808291158 0 -28.765210808291158 -1016.238486120681 0 0 0 0 32.344955795587339 7.132406710403302 0 7.132406710403302 -989.59324378860128 0 0 0 0 3.1248466372989778 0.69336757055194198 0 0.69336757055194198 -0.98668505334644152 0 0 0 0 539.91972902160069 -25.059359515260439 0 -25.059359515260439 -1050.6846979572638 0 0 0 0 224.37347968967742 -209.19103317356166 0 -209.19103317356166 -1113.1031286207653 0 0 0 0 231.542872847409 -146.56622119198437 0 -146.56622119198437 -1004.104441821597 0 0 0 0 241.16242902104295 -95.557196337962523 0 -95.557196337962523 -1048.5665301746358 0 0 0 0 94.697392998935896 -170.50349993011741 0 -170.50349993011741 -818.04917259631475 0 0 0 0 146.06916887182206 -78.20360361031635 0 -78.20360361031635 -746.37254178544754 0 0 0 0 344.22725707886275 -17.793331501750799 0 -17.793331501750799 -871.5118193590497 0 0 0 0 146.15877084947786 -130.65976448450044 0 -130.65976448450044 -786.53616742917802 0 0 0 0 3.6318651900796652 -126.80875101745323 0 -126.80875101745323 -373.0915713020222 0 0 0 0 -97.599839287263592 -315.55750349430764 0 -315.55750349430764 -480.94685008051601 0 0 0 0 245.5304194336436 -54.698799898626021 0 -54.698799898626021 -271.36902339802327 0 0 0 0 18.036759530607242 193.43412196141617 0 193.43412196141617 -256.71618643428519 0 0 0 0 189.37881693400959 97.083448723547917 0 97.083448723547917 -472.90595041041888 0 0 0 0 201.34235200372825 146.66809981757069 0 146.66809981757069 -862.27805996296229 0 0 0 0 363.10472411569617 27.155869682566845 0 27.155869682566845 -945.57420206121969 0 0 0 0 260.43279066062837 27.04832487468957 0 27.04832487468957 -858.65900910673736 0 0 0 0 350.51154270839015 67.93019532884864 0 67.93019532884864 -363.21076301365247 0 0 0 0 316.01333474686453 -80.13101070720586 0 -80.13101070720586 -952.83521151747118 0 0 0 0 -191.78383270083759 -208.50130785711735 0 -208.50130785711735 -329.5915386673114 0 0 0 0 101.60500390000459 -110.10094338924864 0 -110.10094338924864 -310.7341108674882 0 0 0 0 -211.01462618534379 -343.10025686759764 0 -343.10025686759764 -162.48101397548817 0 0 0 0 562.06456518008235 32.650011992514919 0 32.650011992514919 -508.015581979751 0 0 0 0 133.28453149467521 -212.69147221636558 0 -212.69147221636558 -259.5970782604636 0 0 0 0 318.4096909217651 247.39207201903628 0 247.39207201903628 47.859747878341295 0 0 0 0 60.467836603636897 48.406712775049527 0 48.406712775049527 -84.726617550790252 0 0 0 0 93.881460547426286 -15.216395189570903 0 -15.216395189570903 -106.13351619595778 0 0 0 0 -9.9055082535226031 -12.420620459294682 0 -12.420620459294682 -12.830127908030136 0 0 0 0 123.16876465203359 -109.38991716919554 0 -109.38991716919554 37.710578067868482 0 0 0 0 182.35302698155829 -14.559709182365623 0 -14.559709182365623 -76.951746067032673 0 0 0 0 237.45034631449062 -65.125739567080018 0 -65.125739567080018 -74.493341134784714 0 0 0 0 -7.4687725562541294 -10.265828843368297 0 -10.265828843368297 -10.694398636702573 0 0 0 0 273.81056536482447 -323.08501422635527 0 -323.08501422635527 42.53045576270415 0 0 0 0 76.665816790517852 -54.751546686815345 0 -54.751546686815345 -178.49387674729951 0 0 0 0 -27.583678132793239 32.471816324716201 0 32.471816324716201 -112.32787827024003 0 0 0 0 -30.920007622804178 -40.071769027694245 0 -40.071769027694245 -179.43179800635198 0 0 0 0 42.744418365106753 115.62629426981994 0 115.62629426981994 -493.14699543672032 0 0 0 0 56.480392062213468 84.141082539565105 0 84.141082539565105 -1011.7853097944171 0 0 0 0 -3.3315434395981551 -4.2074861379005597 0 -4.2074861379005597 -4.4686891481432269 0 0 0 0 -297.64301704587069 -549.19888916554919 0 -549.19888916554919 322.07952614520946 0 0 0 0 115.8592456984652 -87.002508866409698 0 -87.002508866409698 36.66446008724597 0 0 0 0 -270.61864260885136 -350.26774275643402 0 -350.26774275643402 -225.48512514257891 0 0 0 0 -289.94783177748695 -278.00019617559519 0 -278.00019617559519 -279.46972070123229 0 0 0 0 -285.23275471779789 -455.98330129245733 0 -455.98330129245733 -82.451673635274346 0 0 0 0 -303.79426766397728 -267.57975246668866 0 -267.57975246668866 -111.98953637557088 0 0 0 0 -258.92257925768035 -579.11425906736986 0 -579.11425906736986 -331.24386892078473 0 0 0 0 -290.59386291003261 -393.45289040842727 0 -393.45289040842727 -297.74802514669864 0 0 0 0 -146.57355953786509 -267.45291284840641 0 -267.45291284840641 -297.36022016985032 0 0 0 0 -136.16748165651575 -150.32871460687602 0 -150.32871460687602 -204.56738576566568 0 0 0 0 -0.69600844877226731 1.2467841771439865 0 1.2467841771439865 -6.3296307572317403 0 0 0 0 -8.2334985922868782 2.3488121461341507 0 2.3488121461341507 -10.167224763226841 0 0 0 0 -62.60142675958059 -10.246336240830715 0 -10.246336240830715 1.3838421984182787 0 0 0 0 0.44982083658308936 -0.08324238215814006 0 -0.08324238215814006 -3.2419704170930288 0 0 0 0 -351.33266413411661 -308.22035928389232 0 -308.22035928389232 -308.39663994865987 0 0 0 0 -172.50873859113858 38.595856531737809 0 38.595856531737809 -19.665377991535934 0 0 0 0 -351.78495720007345 -246.62785612664084 0 -246.62785612664084 -130.32591873693673 0 0 0 0 -362.49683615393587 -179.40829642242534 0 -179.40829642242534 -375.62964439919415 0 0 0 0 -394.45105817065144 -198.74928733325942 0 -198.74928733325942 -304.69278646617022 0 0 0 0 -406.74644902375735 -238.51528032345959 0 -238.51528032345959 -433.29890739687107 0 0 0 0 -349.64306519410457 -188.02311703613668 0 -188.02311703613668 -538.38933622204058 0 0 0 0 -335.25992956762002 -255.84118065621806 0 -255.84118065621806 -686.82415352153475 0 0 0 0 -389.84164985713642 -131.78075110684949 0 -131.78075110684949 -387.43405156609151 0 0 0 0 -370.71602188266706 -317.75823589271658 0 -317.75823589271658 -298.87092803049745 0 0 0 0 -190.8708775938253 -270.98900707188841 0 -270.98900707188841 -691.6921551251944 0 0 0 0 -558.25993221145745 -328.36199490291256 0 -328.36199490291256 -687.06119689314619 0 0 0 0 -487.93688165694226 -9.66170551142568 0 -9.66170551142568 -828.01892603599845 0 0 0 0 147.73726519508455 -252.04726157211735 0 -252.04726157211735 -1511.3252089954694 0 0 0 0 -0.14173420894388267 -2.355501152506541 0 -2.355501152506541 -13.000439782291636 0 0 0 0 -19.966738602630357 576.55664058028196 0 576.55664058028196 -1072.5127533474879 0 0 0 0 87.445288964398287 -834.01225368092855 0 -834.01225368092855 -270.78243595944514 0 0 0 0 140.26900203944069 -748.86799588432768 0 -748.86799588432768 -989.23576022378984 0 0 0 0 12.799620262925941 9.7307081397116235 0 9.7307081397116235 246.22241435345495 0 0 0 0 -400.77927250796438 -292.89201558308196 0 -292.89201558308196 -518.43719079768925 0 0 0 0 -313.79333209424613 -341.35850970105093 0 -341.35850970105093 -731.61790909295087 0 0 0 0 -441.61397751886625 -171.2260271950654 0 -171.2260271950654 -775.32762281080068 0 0 0 0 -324.43346720437557 -349.67408073891784 0 -349.67408073891784 -293.74923660048808 0 0 0 0 -42.871959162333496 -301.61666246362256 0 -301.61666246362256 -431.07296480781224 0 0 0 0 17.500298087399642 -397.59501852419999 0 -397.59501852419999 -1364.7613888744454 0 0 0 0 -59.147130291262783 -523.51541564878426 0 -523.51541564878426 -943.34976876097426 0 0 0 0 -317.7575285321841 -302.95715632963038 0 -302.95715632963038 -779.19174556506914 0 0 0 0 -328.33642502214343 -323.22719717976724 0 -323.22719717976724 -786.21708146469609 0 0 0 0 -188.24302839420659 -330.34148371723222 0 -330.34148371723222 -1171.8623766695528 0 0 0 0 -105.40814490796515 -300.91700060074436 0 -300.91700060074436 -924.02178014592209 0 0 0 0 -184.13341842569781 -367.28817246142671 0 -367.28817246142671 -1119.7503165332892 0 0 0 0 -146.39319871294219 -423.19203505421319 0 -423.19203505421319 -1122.8035380923648 0 0 0 0 -145.76290042295491 -386.82731966672071 0 -386.82731966672071 -1181.1231511410733 0 0 0 0 -175.47490548807218 -132.40664096344699 0 -132.40664096344699 -1326.1991705203509 0 0 0 0 -278.82330778630921 -368.16538475590278 0 -368.16538475590278 -870.18608961865539 0 0 0 0 -298.79943929947683 -391.58955590163896 0 -391.58955590163896 -587.87389894876833 0 0 0 0 -443.84497113399448 -564.0614607505413 0 -564.0614607505413 -444.15063826505502 0 0 0 0 -492.86492181810809 -656.47836098214611 0 -656.47836098214611 -431.99125884725254 0 0 0 0 -279.04408444672214 -532.80287503063846 0 -532.80287503063846 -798.50894328285358 0 0 0 0 -297.71587355433849 -729.81485547592456 0 -729.81485547592456 -1111.9904969742056 0 0 0 0 -269.79853420617701 -594.28229757164081 0 -594.28229757164081 -958.17465374994208 0 0 0 0 -850.86821865503555 -783.60945182055184 0 -783.60945182055184 -614.71199748964864 0 0 0 0 -940.32492076080803 668.68975694799519 0 668.68975694799519 425.28318543083151 0 0 0 0 -857.6740033565743 543.49856410437496 0 543.49856410437496 -1155.5502643302316 0 0 0 0 -1.5440295885304001 -3.387492642286837 0 -3.387492642286837 -18.632609833527965 0 0 0 0 -646.2992526085676 -425.2874333240743 0 -425.2874333240743 -16.726207224768586 0 0 0 0 -683.69452182874647 -656.77454623550875 0 -656.77454623550875 -216.39742703660158 0 0 0 0 -422.52832964487493 -323.43457235934329 0 -323.43457235934329 -62.074691803049063 0 0 0 0 -456.51624018219923 -652.91686397900048 0 -652.91686397900048 -633.62350754925865 0 0 0 0 -691.60913646903032 -743.28983464016346 0 -743.28983464016346 -506.01539468142437 0 0 0 0 -298.86154885521637 -704.36732005339582 0 -704.36732005339582 -1117.7764868960803 0 0 0 0 -590.61805393681266 -874.76120021753013 0 -874.76120021753013 -804.49602089036489 0 0 0 0 -1941.0360334930647 -844.99594839956262 0 -844.99594839956262 -1323.3894800393027 0 0 0 0 -629.36933778837363 -1522.7725770141988 0 -1522.7725770141988 -1915.1382933405112 0 0 0 0 1311.8482616291408 -1017.2916910107888 0 -1017.2916910107888 -3146.5744005474844 0 0 0 0 -144.4329533415912 -528.8642845411232 0 -528.8642845411232 -1893.900637853716 0 0 0 0 -113.56868063880847 -838.92616951950185 0 -838.92616951950185 -1246.4624511397706 0 0 0 0 713.36927572788409 33.981488924404402 0 33.981488924404402 -1615.4921780246077 0 0 0 0 -1629.1108128940768 176.65768868327723 0 176.65768868327723 -1219.3640125920356 0 0 0 0 -571.34707175428275 207.74293301167199 0 207.74293301167199 -1521.4789635421621 0 0 0 0 -631.10006863620765 -229.648873729966 0 -229.648873729966 -1173.9017740218696 0 0 0 0 -1546.9083224268607 -832.12224292647352 0 -832.12224292647352 -1256.5986432874051 0 0 0 0 -734.76642548152768 -840.1722796354079 0 -840.1722796354079 -1740.0125670814741 0 0 0 0 -839.66199151214005 -514.53881447989261 0 -514.53881447989261 -1114.0058557721204 0 0 0 0 -786.45019662817867 -784.94913793007436 0 -784.94913793007436 -1374.6516447931936 0 0 0 0 -347.07474376906339 -541.91506981298153 0 -541.91506981298153 -1510.806236070639 0 0 0 0 -239.94067817136192 -442.32751661964721 0 -442.32751661964721 -969.85345125941558 0 0 0 0 -209.46478328496187 -438.20686418673722 0 -438.20686418673722 -1329.2828013513063 0 0 0 0 -206.39227429351376 -486.9930961640639 0 -486.9930961640639 -1195.4131119230187 0 0 0 0 -250.90699290568023 -353.29305989112254 0 -353.29305989112254 -1233.3925653041806 0 0 0 0 -588.47090807789027 -48.0328424400941 0 -48.0328424400941 -1338.0109427616153 0 0 0 0 -339.23150537551646 -339.5319974112208 0 -339.5319974112208 -967.08159219629306 0 0 0 0 -398.28846155974497 -200.72558574519644 0 -200.72558574519644 -1000.6864233349424 0 0 0 0 -442.25803837838816 -257.62427701716661 0 -257.62427701716661 -868.28627177390445 0 0 0 0 -472.39070995642123 -203.62421555675974 0 -203.62421555675974 -961.50766535956063 0 0 0 0 -614.17417905371894 -231.25185266917833 0 -231.25185266917833 -831.56489578681067 0 0 0 0 -669.92309754550797 -152.82427461010229 0 -152.82427461010229 -973.78391244936211 0 0 0 0 -350.33469330521172 -249.11705586355492 0 -249.11705586355492 -1189.0188300751906 0 0 0 0 -958.80581017973554 -206.96057882742025 0 -206.96057882742025 -996.53311206736544 0 0 0 0 -896.25624796716693 -553.80869640750279 0 -553.80869640750279 -1064.5156579326722 0 0 0 0 -628.63432368575832 -289.14329353155335 0 -289.14329353155335 -982.28459700971143 0 0 0 0 -447.86495810124688 -539.48687530583993 0 -539.48687530583993 -1196.7558021649602 0 0 0 0 -731.02268072928428 -438.36988594439754 0 -438.36988594439754 -984.76403427655168 0 0 0 0 -622.13029590565338 -631.52781942028741 0 -631.52781942028741 -1115.8210264187946 0 0 0 0 -534.17850319082982 -395.97328947066126 0 -395.97328947066126 -923.46783455203695 0 0 0 0 -482.67920394678367 -536.79175590906198 0 -536.79175590906198 -991.68418477769592 0 0 0 0 -658.08871775183434 -472.86711986122828 0 -472.86711986122828 -969.16025150618952 0 0 0 0 -742.4403051240779 -290.58334585302509 0 -290.58334585302509 -907.55051607797213 0 0 0 0 -561.61111396423712 -314.61494185854099 0 -314.61494185854099 -908.06630499259336 0 0 0 0 -517.69769799425683 -265.43287057729958 0 -265.43287057729958 -853.66346079169307 0 0 0 0 -522.06692266516984 -270.43883329183882 0 -270.43883329183882 -834.70887144067092 0 0 0 0 -396.46364195933984 -342.24783810647932 0 -342.24783810647932 -885.86726311942039 0 0 0 0 -531.59124628548307 -407.40775327063511 0 -407.40775327063511 -908.01196349150268 0 0 0 0 -248.02888935139617 -291.55755478935316 0 -291.55755478935316 -888.62040138448356 0 0 0 0 -377.35035942861646 -332.14079760656205 0 -332.14079760656205 -900.99829301888531 0 0 0 0 -435.14475189931363 -224.6959305022865 0 -224.6959305022865 -810.88252947272849 0 0 0 0 -331.52371512156151 -201.56720352058255 0 -201.56720352058255 -838.37237560254289 0 0 0 0 -472.55621809625063 -202.9127907420916 0 -202.9127907420916 -744.42471180069333 0 0 0 0 -445.63685706762021 -91.423324256775231 0 -91.423324256775231 -697.42906482082617 0 0 0 0 -499.51702721054698 -174.61744598849691 0 -174.61744598849691 -771.4919954129582 0 0 0 0 -475.38042037675405 -217.17597392051539 0 -217.17597392051539 -843.38510508253967 0 0 0 0 -153.18094721500256 -496.22639791038819 0 -496.22639791038819 -1022.1473243580695 0 0 0 0 -94.351782588178139 -531.94428213390347 0 -531.94428213390347 -1024.7143376227905 0 0 0 0 -51.056029987741567 -486.08490192266618 0 -486.08490192266618 -1037.5225876739969 0 0 0 0 -79.743172044991525 -512.73563047805874 0 -512.73563047805874 -1042.0078445680847 0 0 0 0 -58.904496041763196 -517.45988268403016 0 -517.45988268403016 -1131.5725139689966 0 0 0 0 -87.145414116602524 -497.24766972158432 0 -497.24766972158432 -1058.2465482802654 0 0 0 0 -227.4663644682696 -460.63337574656907 0 -460.63337574656907 -1022.8072205277567 0 0 0 0 -221.96009187915342 -387.65383263367403 0 -387.65383263367403 -946.30958009338065 0 0 0 0 -344.53797123491336 -462.62034001225402 0 -462.62034001225402 -963.63786728758714 0 0 0 0 -357.87706226113096 -455.45326900771033 0 -455.45326900771033 -967.21362222351308 0 0 0 0 -156.36067477124971 -503.82811023699833 0 -503.82811023699833 -1016.1094454968843 0 0 0 0 -261.45859875518545 -512.28280163352611 0 -512.28280163352611 -994.14325950085185 0 0 0 0 -137.61913050470412 -494.60612136335112 0 -494.60612136335112 -1067.3427508133027 0 0 0 0 -282.14770643517681 -551.02719829203852 0 -551.02719829203852 -1036.6761722270167 0 0 0 0 -270.88630428142915 -495.52314140321687 0 -495.52314140321687 -1042.4427371286356 0 0 0 0 -430.31895331038413 -501.52260193711845 0 -501.52260193711845 -1035.2406816116272 0 0 0 0 -377.08668469575605 -593.29977160368435 0 -593.29977160368435 -1105.6940474328876 0 0 0 0 -251.21986380938324 -481.58292725331557 0 -481.58292725331557 -1150.4564160836162 0 0 0 0 -409.80802108375019 -616.8076997366079 0 -616.8076997366079 -1258.2341376178374 0 0 0 0 -233.38588542783623 -560.89201596944986 0 -560.89201596944986 -1077.0943165114732 0 0 0 0 -213.66981793712853 -540.03819506462241 0 -540.03819506462241 -1217.9241717104451 0 0 0 0 -97.973881369862283 -418.93879412462411 0 -418.93879412462411 -1102.7955821621254 0 0 0 0 -101.24628329801362 -422.69254187234765 0 -422.69254187234765 -1024.5721424562216 0 0 0 0 -60.155294945470814 -367.3767882688262 0 -367.3767882688262 -835.97119579304126 0 0 0 0 -39.381907395409144 -390.62852132555417 0 -390.62852132555417 -1051.7484007543608 0 0 0 0 -76.174238841156694 -466.84458424991317 0 -466.84458424991317 -992.82806049684586 0 0 0 0 -135.86780115986357 -507.71028644863327 0 -507.71028644863327 -972.08112605681526 0 0 0 0 -77.909093382459105 -503.25387723578388 0 -503.25387723578388 -952.35293317491596 0 0 0 0 -24.491929510639693 -401.24835042384075 0 -401.24835042384075 -867.48515177356603 0 0 0 0 -77.169782519124055 -488.80882136293076 0 -488.80882136293076 -937.58954404739779 0 0 0 0 6.6549275458946795 -429.80643135725404 0 -429.80643135725404 -849.58336197161407 0 0 0 0 -34.50387545798003 -362.97847366667702 0 -362.97847366667702 -885.36901220226719 0 0 0 0 -59.238534510730915 -380.5716574427679 0 -380.5716574427679 -667.13079558764002 0 0 0 0 -76.818905082113815 108.6332650204713 0 108.6332650204713 -448.80813377454615 0 0 0 0 -118.32042543029365 -335.69544207414583 0 -335.69544207414583 -398.73539888217056 0 0 0 0 -5.7822601317165621 17.327894939266116 0 17.327894939266116 -8.7179506438915269 0 0 0 0 -4.7196963890632917 9.0774831266741671 0 9.0774831266741671 -7.9162512375795018 0 0 0 0 -32.885712812632619 -189.8460196960732 0 -189.8460196960732 -672.17551000992535 0 0 0 0 -5.122896373374715 -215.36959082321846 0 -215.36959082321846 -898.67394781005714 0 0 0 0 48.895582647866831 54.953433060014504 0 54.953433060014504 -801.92300909570884 0 0 0 0 -36.713033741765685 -196.71817790112982 0 -196.71817790112982 -801.81286280165659 0 0 0 0 175.26947066448156 222.31544461635349 0 222.31544461635349 -970.40284154411347 0 0 0 0 3.7203161211482918 0.63394495487844438 0 0.63394495487844438 -5.2655281220401093 0 0 0 0 -151.34469637907159 -342.55016997591883 0 -342.55016997591883 -1728.2880920681748 0 0 0 0 -159.49292280973623 -504.79391967513948 0 -504.79391967513948 -1554.8637034852145 0 0 0 0 -344.47663331709464 -508.99762307402852 0 -508.99762307402852 -1412.4456329750537 0 0 0 0 -237.3220805030378 -411.80154142920219 0 -411.80154142920219 -1325.4258527799975 0 0 0 0 -109.42047594303631 -455.25817585661571 0 -455.25817585661571 -1506.8709047619777 0 0 0 0 -41.048371115153714 -292.57757334178314 0 -292.57757334178314 -1145.3196924040385 0 0 0 0 -35.73868662842051 -280.28839656374475 0 -280.28839656374475 -1205.7911438993669 0 0 0 0 42.987868693966448 -191.33390108939784 0 -191.33390108939784 -1050.3883837792655 0 0 0 0 230.59180607602411 120.94192456624296 0 120.94192456624296 -1199.2280445565848 0 0 0 0 145.56432085147776 -41.408813721791375 0 -41.408813721791375 -1296.062105691235 0 0 0 0 105.84581700014496 -70.416997922060546 0 -70.416997922060546 -1451.8360501888474 0 0 0 0 -9.9604081820547332 5.4418901528007808 0 5.4418901528007808 -3.5390941496345647 0 0 0 0 173.12641019248576 238.52654148488364 0 238.52654148488364 -1283.8557078390368 0 0 0 0 -218.68618042344588 10.001688842106887 0 10.001688842106887 -26.935531640650879 0 0 0 0 15.661266572922614 -6.3560991201811703 0 -6.3560991201811703 -26.057951687296736 0 0 0 0 -192.54253958223853 807.75675290439176 0 807.75675290439176 -267.62586296252266 0 0 0 0 2.7708348113691752 -0.3487198251815613 0 -0.3487198251815613 -2.1397946483124741 0 0 0 0 -51.72794470410156 45.398496708308812 0 45.398496708308812 -684.08491977601079 0 0 0 0 0.98459711906980152 2.9771983569453226 0 2.9771983569453226 -4.0236977528390412 0 0 0 0 0.53898093268814751 0.95275804977268308 0 0.95275804977268308 -3.2953868130112767 0 0 0 0 -81.128357770944774 55.601558077005393 0 55.601558077005393 -281.59544857496803 0 0 0 0 15.016253208646834 0.46095925361024115 0 0.46095925361024115 -13.10164538234821 0 0 0 0 -75.98398722294462 40.315927284551435 0 40.315927284551435 -373.14486357942224 0 0 0 0 -94.721858854199809 208.88353598668618 0 208.88353598668618 -402.68014225545267 0 0 0 0 -93.856056720954143 157.14264858153001 0 157.14264858153001 -210.5754935190198 0 0 0 0 -63.389733623393568 61.950875795049797 0 61.950875795049797 -349.77626557483745 0 0 0 0 -196.78086463915281 95.410784370877082 0 95.410784370877082 -175.14332127497983 0 0 0 0 36.693204365838938 140.65225607833054 0 140.65225607833054 -229.28645259328914 0 0 0 0 -48.087929565094441 -34.311016851370368 0 -34.311016851370368 76.319231513683917 0 0 0 0 137.57625184346523 -64.628198583139238 0 -64.628198583139238 -144.97724757148535 0 0 0 0 -1.4261870749917991 -8.5752017780150354 0 -8.5752017780150354 -39.4362430048742 0 0 0 0 -137.21571061416807 147.21190473554816 0 147.21190473554816 -139.77281222183956 0 0 0 0 -190.18883583885213 337.59840351331513 0 337.59840351331513 -461.91644518086105 0 0 0 0 -255.94476791752555 73.264651024631348 0 73.264651024631348 260.65838035255729 0 0 0 0 -1029.1657113915662 1983.4583744282572 0 1983.4583744282572 -227.88267850475677 0 0 0 0 -296.60331295322521 203.87302237862605 0 203.87302237862605 459.54108436979732 0 0 0 0 -478.28907513225283 -67.244340736811864 0 -67.244340736811864 446.56245057750493 0 0 0 0 -513.12491783285009 -356.89929102315273 0 -356.89929102315273 102.43722492383677 0 0 0 0 -417.50893983121159 -201.44565116112062 0 -201.44565116112062 97.374290456442395 0 0 0 0 -197.74268262242151 -39.445124543635757 0 -39.445124543635757 135.37845634545738 0 0 0 0 95.171217470406503 -102.03624269471038 0 -102.03624269471038 -188.11804724825924 0 0 0 0 182.94985197062474 312.74514450412971 0 312.74514450412971 71.679773396826931 0 0 0 0 -389.93436661253679 -407.07382636972397 0 -407.07382636972397 -271.53021086804802 0 0 0 0 -331.13762834063073 -401.37682446349936 0 -401.37682446349936 -579.87382496008649 0 0 0 0 -318.88676600457939 -251.20983842122223 0 -251.20983842122223 -122.08654073331854 0 0 0 0 -139.61192280858199 -183.43731524229224 0 -183.43731524229224 -300.7287145227092 0 0 0 0 -430.51570555069503 -149.2949851205467 0 -149.2949851205467 -74.191888909233967 0 0 0 0 -48.722876194921469 60.939036181400297 0 60.939036181400297 -37.600540324139729 0 0 0 0 540.1248031235657 -52.761202988745936 0 -52.761202988745936 -171.39603637401888 0 0 0 0 101.83147876887102 -106.95709252956294 0 -106.95709252956294 5.5450259838617058 0 0 0 0 128.58985661558248 98.0671724237327 0 98.0671724237327 -85.217525910076802 0 0 0 0 -14.973183859735514 60.769816418967821 0 60.769816418967821 -26.407011450304708 0 0 0 0 -13.013432879342872 41.345854939107085 0 41.345854939107085 -75.287094964041898 0 0 0 0 -92.875673266340755 135.16549180221773 0 135.16549180221773 -180.58572489289872 0 0 0 0 -21.926748007888364 45.918592817404715 0 45.918592817404715 -13.22257695368171 0 0 0 0 -101.84237674070451 76.888019578436797 0 76.888019578436797 -20.784860735846451 0 0 0 0 80.40443093538434 58.733480949464138 0 58.733480949464138 -56.911978541029384 0 0 0 0 -19.239809118694893 62.289629683291423 0 62.289629683291423 -35.194221021120029 0 0 0 0 34.850408556111418 32.224011017526209 0 32.224011017526209 -34.426800927682052 0 0 0 0 72.758763485605812 -1.6176133136063982 0 -1.6176133136063982 -19.141761112376116 0 0 0 0 -8.8312747390860977 -77.094406512249407 0 -77.094406512249407 -2.3991707526986374 0 0 0 0 62.220489467022219 -48.43341306891125 0 -48.43341306891125 -126.81031589860504 0 0 0 0 -169.12528403822108 46.603575052718952 0 46.603575052718952 65.925832551649364 0 0 0 0 -8.8610576892581321 66.631678235145955 0 66.631678235145955 -14.391827203971843 0 0 0 0 -138.6900487272375 90.719994319329999 0 90.719994319329999 7.3279672092903638 0 0 0 0 -151.5062732350321 -84.515798168904439 0 -84.515798168904439 -11.862907591377734 0 0 0 0 -0.21298414898939771 0.99388498578822393 0 0.99388498578822393 -2.2691272883679119 0 0 0 0 -1.4736521325652725 -9.4362458857847678 0 -9.4362458857847678 -41.693087876228788 0 0 0 0 131.98887549528814 -95.908335841595544 0 -95.908335841595544 -158.8695045447239 0 0 0 0 236.96667415082379 -3.9024567198048317 0 -3.9024567198048317 -92.735202192641736 0 0 0 0 1.3059707155230167 5.3771520907710766 0 5.3771520907710766 -6.3549376889723774 0 0 0 0 -3.3458381198518055 4.9700552234135102 0 4.9700552234135102 -35.146963555089314 0 0 0 0 1.256821336494454 6.6010058000720164 0 6.6010058000720164 -40.823279909282064 0 0 0 0 0.18423405751974853 5.4794581118555286 0 5.4794581118555286 -20.775075210394988 0 0 0 0 8.1303462625237444 6.2641833532470628 0 6.2641833532470628 -12.445313155891199 0 0 0 0 14.038581458677356 6.1536387588621437 0 6.1536387588621437 -54.062136732478393 0 0 0 0 0.28992565751854582 2.230103384980616 0 2.230103384980616 -21.805373474139373 0 0 0 0 6.0588039690735513 6.1005598537449259 0 6.1005598537449259 -42.401930420630379 0 0 0 0 4.2228177298793526 14.5784797487795 0 14.5784797487795 -43.610860286637035 0 0 0 0 -18.33395011192988 2.3618259805007256 0 2.3618259805007256 -13.436111883042031 0 0 0 0 9.5862384260186104 4.397592375476961 0 4.397592375476961 -34.629002107889391 0 0 0 0 1.5611267594349387 0.41911205716822053 0 0.41911205716822053 -2.9821262005997475 0 0 0 0 4.7036863081370939 10.298596815177007 0 10.298596815177007 -45.076755984482588 0 0 0 0 1.2267748474021209 2.5643910040539168 0 2.5643910040539168 -1.4303919216644658 0 0 0 0 1.9358874196705074 3.1738260451820679 0 3.1738260451820679 -54.708618425225723 0 0 0 0 11.985410647915614 14.861577590811066 0 14.861577590811066 -49.121322627266636 0 0 0 0 -23.67492271308339 2.1526302960846806 0 2.1526302960846806 -14.753962890896219 0 0 0 0 1.6149546084669315 -0.99021373133323465 0 -0.99021373133323465 -33.831758098321785 0 0 0 0 10.941592971275441 1.8661660535581177 0 1.8661660535581177 -17.063149578571029 0 0 0 0 5.802009645056958 -4.3568949805428758 0 -4.3568949805428758 -50.900735140308768 0 0 0 0 39.822187404093427 -10.588689238938969 0 -10.588689238938969 -12.301230662909802 0 0 0 0 6.8448636641438299 17.855593495410378 0 17.855593495410378 -8.7403383719537544 0 0 0 0 -0.70002941559360032 2.8055157690518762 0 2.8055157690518762 -20.755209220883529 0 0 0 0 -0.87658097028233772 -2.7371277941648628 0 -2.7371277941648628 -8.8824842705899414 0 0 0 0 -34.761921817555873 -30.104003356985231 0 -30.104003356985231 -4.8187613417758257 0 0 0 0 -55.504824212837775 20.971582722908352 0 20.971582722908352 -22.40427156581427 0 0 0 0 -0.51226655671793297 -1.2980461679508295 0 -1.2980461679508295 -3.543421226889933 0 0 0 0 -1.7809442086408329 -5.9210963176170566 0 -5.9210963176170566 -41.456680199580092 0 0 0 0 56.825744740775235 11.320181578850679 0 11.320181578850679 -60.385006408017944 0 0 0 0 33.655074890535445 19.625981100070931 0 19.625981100070931 -75.945191424980294 0 0 0 0 -4.2142381533269653 4.6719562826619949 0 4.6719562826619949 -48.618802713128389 0 0 0 0 -13.661084814867479 24.607600773531885 0 24.607600773531885 -44.689065693564771 0 0 0 0 44.076529778655811 40.379830232421227 0 40.379830232421227 -40.627758059839834 0 0 0 0 -6.5245782517601469 36.483523094255361 0 36.483523094255361 -30.091088994980964 0 0 0 0 -22.721354175896977 33.734255617353483 0 33.734255617353483 -20.575706953019107 0 0 0 0 -2.177949397929813 4.6611385581257139 0 4.6611385581257139 2.717092107300644 0 0 0 0 -1.8147971618701835 6.2338938508983119 0 6.2338938508983119 -31.998668123225798 0 0 0 0 -1.3875303750170609 5.3188687696074339 0 5.3188687696074339 -30.356644612096716 0 0 0 0 0.3031717946806225 1.8340574739559088 0 1.8340574739559088 -29.708022456150502 0 0 0 0 -1.2720289177709958 1.1275982682018366 0 1.1275982682018366 -21.286977552968892 0 0 0 0 -2.3784879755857462 3.2863418192018798 0 3.2863418192018798 -27.501940599897353 0 0 0 0 -2.1540587135707803 4.9035996864467961 0 4.9035996864467961 -22.960256248625228 0 0 0 0 -1.1386344601203431 -0.16447296058298377 0 -0.16447296058298377 -3.2618437091270422 0 0 0 0 -1.9360052899520781 2.4021209049424215 0 2.4021209049424215 -19.699126407373114 0 0 0 0 0.49252419084155008 4.5326346756119165 0 4.5326346756119165 -21.513669727228262 0 0 0 0 0.2787759712771517 -2.0339012915469254 0 -2.0339012915469254 -28.206732513418785 0 0 0 0 2.7085541898522365 -6.0338661358837271 0 -6.0338661358837271 -24.0912385924712 0 0 0 0 -0.31663104929946606 2.7830554371972696 0 2.7830554371972696 -16.25578384158834 0 0 0 0 -27.858316513305908 10.251949168465217 0 10.251949168465217 -61.940939448366407 0 0 0 0 2.7631582883720593 0.29100228823762109 0 0.29100228823762109 -20.617812036187388 0 0 0 0 -31.807404306574995 -13.745926608149603 0 -13.745926608149603 -20.915030014584772 0 0 0 0 -26.881494665644368 -16.656291370316467 0 -16.656291370316467 -53.432059763203142 0 0 0 0 7.8634520459395958 14.524588297437731 0 14.524588297437731 -12.779792921639455 0 0 0 0 -0.18654244329050862 5.0212545842958605 0 5.0212545842958605 -20.534081382292186 0 0 0 0 2.1312066362200426 1.51895244134721 0 1.51895244134721 -34.615507445472758 0 0 0 0 -11.561922410254226 -9.929739956096455 0 -9.929739956096455 -25.762854717962909 0 0 0 0 -0.38275706339726989 1.6981806673919948 0 1.6981806673919948 -22.763854799208815 0 0 0 0 16.966845063971277 13.289386795207975 0 13.289386795207975 -48.639595600558096 0 0 0 0 9.2238862717565553 22.46093683836807 0 22.46093683836807 -58.89130913484405 0 0 0 0 8.7340195010751813 5.3192967873619637 0 5.3192967873619637 -42.188994181036833 0 0 0 0 14.921588410857396 6.8502166334274079 0 6.8502166334274079 -43.923462443344761 0 0 0 0 7.0132711414137248 -1.0626857420938904 0 -1.0626857420938904 -44.339936743708677 0 0 0 0 40.666912337194447 10.667790684938154 0 10.667790684938154 -67.098610541972448 0 0 0 0 24.008039027633799 -18.300833031276852 0 -18.300833031276852 -33.489890141427168 0 0 0 0 40.105730282269178 -44.002777101333777 0 -44.002777101333777 -24.598493347803014 0 0 0 0 2.3670058946001973 -12.969029851730738 0 -12.969029851730738 -30.90755191010976 0 0 0 0 1.1877469611986271 -14.824136197421467 0 -14.824136197421467 -24.394796673761448 0 0 0 0 8.3911832791734469 -23.033531537170347 0 -23.033531537170347 -53.120469490881078 0 0 0 0 8.3398354279290174 -19.048324550765756 0 -19.048324550765756 -18.559454385103891 0 0 0 0 11.24256038315059 -14.662622059878231 0 -14.662622059878231 -27.622321285598446 0 0 0 0 49.818455958640357 -21.791968811536208 0 -21.791968811536208 -49.261466655487311 0 0 0 0 11.3764267407837 -17.489369632428861 0 -17.489369632428861 -70.53517975685827 0 0 0 0 -51.306661344990061 -11.978825241734739 0 -11.978825241734739 -44.48028671530119 0 0 0 0 12.302675395828601 13.385371250289609 0 13.385371250289609 -60.237290724198829 0 0 0 0 12.192211872080065 13.956430339951112 0 13.956430339951112 -35.774968606478069 0 0 0 0 -13.981540839110039 -4.3165910940806498 0 -4.3165910940806498 -11.273781739291735 0 0 0 0 -2.7082962350136208 -4.9130098469060499 0 -4.9130098469060499 -20.803491867219066 0 0 0 0 -37.506646812774136 25.617094825684035 0 25.617094825684035 -69.140580194594804 0 0 0 0 -42.586068094426992 -37.139470102585619 0 -37.139470102585619 29.173554731911281 0 0 0 0 -4.3093708412870795 -6.4894376047727533 0 -6.4894376047727533 4.7262132938248271 0 0 0 0 -6.9336440878635912 -11.688043513023445 0 -11.688043513023445 -30.069869517871645 0 0 0 0 -32.745959711883643 26.958644641941646 0 26.958644641941646 -82.501459088525735 0 0 0 0 1.6196567099746577 -1.9678001213670768 0 -1.9678001213670768 -7.6182894398605754 0 0 0 0 37.184454114532031 -13.72736479505329 0 -13.72736479505329 -51.653647313360125 0 0 0 0 -2.1205186852586513 -2.1230648689003502 0 -2.1230648689003502 -13.770723877273696 0 0 0 0 -16.700235778122988 -7.242720042799192 0 -7.242720042799192 3.8046958839258878 0 0 0 0 4.4271028256807767 -12.787836986342882 0 -12.787836986342882 -37.15851105422189 0 0 0 0 15.684052931338869 -60.36513229193497 0 -60.36513229193497 -25.986533665534807 0 0 0 0 -2.1994803513293872 -8.9459318092777806 0 -8.9459318092777806 -31.441499794984537 0 0 0 0 -1.4110687484545996 3.9827412562598816 0 3.9827412562598816 -10.664401950160453 0 0 0 0 -90.453699162423163 -46.401682898624131 0 -46.401682898624131 0.66270756282756338 0 0 0 0 -24.15468935104758 9.2680968121239857 0 9.2680968121239857 -20.053837802122871 0 0 0 0 -28.195446808867302 -7.6786503686635115 0 -7.6786503686635115 -34.027258718422672 0 0 0 0 17.403033332048665 -26.270401020461577 0 -26.270401020461577 -47.111749822484853 0 0 0 0 -1.9071478266203006 -8.8604116935647816 0 -8.8604116935647816 -34.581594068651412 0 0 0 0 81.230723608766766 -32.202613825626031 0 -32.202613825626031 -54.74656709789997 0 0 0 0 42.11648321709481 16.772747525445084 0 16.772747525445084 -23.253609714884078 0 0 0 0 -44.436533901477333 -31.973162825946929 0 -31.973162825946929 27.418170932272915 0 0 0 0 -44.310822850834953 -40.813240171884104 0 -40.813240171884104 -53.541607185135945 0 0 0 0 -21.97791305719079 -44.76204985264485 0 -44.76204985264485 -16.017678736097878 0 0 0 0 -101.99398327723543 12.7123505147174 0 12.7123505147174 -21.92708865532768 0 0 0 0 6.1831555623725762 16.295684516589972 0 16.295684516589972 -20.551882988249417 0 0 0 0 -26.313949811441717 -47.789976135518373 0 -47.789976135518373 9.5527833702799398 0 0 0 0 -24.808719298727738 -55.580448726897885 0 -55.580448726897885 -43.646667925131624 0 0 0 0 -101.1205620034134 -34.296603036549641 0 -34.296603036549641 3.6194146583802649 0 0 0 0 -64.256528995087592 -22.615446113290091 0 -22.615446113290091 6.0338443938453565 0 0 0 0 -65.286262396550683 -33.261775293292885 0 -33.261775293292885 -83.70166296903335 0 0 0 0 20.746672664747848 -43.360108589477022 0 -43.360108589477022 -21.427301814692328 0 0 0 0 20.533873218504596 -43.039496725337813 0 -43.039496725337813 28.658872379404784 0 0 0 0 93.576470161773614 -83.064990727645636 0 -83.064990727645636 -33.057716063514818 0 0 0 0 -2.1974580746030306 -0.95653130388704 0 -0.95653130388704 -4.2070168395821668 0 0 0 0 -6.4445474564574852 14.172366355711347 0 14.172366355711347 -9.5910086142466753 0 0 0 0 -10.291266729714778 0.25848916352879314 0 0.25848916352879314 -0.2169884857503348 0 0 0 0 -2.3022935464575767 -12.334799732558167 0 -12.334799732558167 -38.264484745064692 0 0 0 0 -1.0887446909161518 0.85616688700847021 0 0.85616688700847021 -0.5472423726893112 0 0 0 0 -102.44823264474098 -86.770714756956636 0 -86.770714756956636 -23.713396128616296 0 0 0 0 -164.52727521541874 -50.61373324710803 0 -50.61373324710803 21.459009007347049 0 0 0 0 -19.598818722459271 5.4803459832137378 0 5.4803459832137378 3.4277583206712734 0 0 0 0 -20.353082606571263 14.837792764745245 0 14.837792764745245 3.3552149034076137 0 0 0 0 -4.5922789099574359 4.8782618680151018 0 4.8782618680151018 -4.4714238659532271 0 0 0 0 -1.4254603241399479 -3.8600197951927839 0 -3.8600197951927839 -20.322730831787339 0 0 0 0 -9.6925304237148566 5.6778447302203858 0 5.6778447302203858 -0.86622071978490567 0 0 0 0 -6.0213485906559949 4.9450410898406716 0 4.9450410898406716 -3.1681675398381373 0 0 0 0 -6.0958171107614021 -3.6576144279169966 0 -3.6576144279169966 -7.3599328034906648 0 0 0 0 -5.6059480060309284 -0.60332030968856998 0 -0.60332030968856998 -20.186872608333942 0 0 0 0 -4.2419025234514152 -0.93401992022700142 0 -0.93401992022700142 -20.337746213789842 0 0 0 0 -3.2034628193524313 -3.0664317877399299 0 -3.0664317877399299 -28.926011011586525 0 0 0 0 15.176494573736761 12.442480879009963 0 12.442480879009963 -13.109602074560826 0 0 0 0 -11.058716486220618 -18.596247696210412 0 -18.596247696210412 -56.770920544600813 0 0 0 0 -44.344960183922296 32.111426393748843 0 32.111426393748843 -15.694880663868389 0 0 0 0 17.990605911636464 -46.08731389066088 0 -46.08731389066088 -58.632173645157309 0 0 0 0 -13.22986221305807 1.9251974144026462 0 1.9251974144026462 -11.995346343377605 0 0 0 0 -0.22120648469229576 -2.0011550896213066 0 -2.0011550896213066 -2.4394372516046587 0 0 0 0 -28.083822746613805 -49.248006001042086 0 -49.248006001042086 -32.103987505994155 0 0 0 0 -7.2761599056950672 16.360395322142722 0 16.360395322142722 -40.92455163008708 0 0 0 0 -18.467063235926616 11.270360741851619 0 11.270360741851619 -18.969514524607803 0 0 0 0 0.66037902115685498 9.7971599640191585 0 9.7971599640191585 -27.829472189201624 0 0 0 0 0.59872983050581752 4.6928944756582496 0 4.6928944756582496 -27.641153397664311 0 0 0 0 -10.700862727982269 7.8381296238294453 0 7.8381296238294453 -24.966025305904623 0 0 0 0 -1.9480182689119943 5.0292616308215656 0 5.0292616308215656 -26.091427030478371 0 0 0 0 -2.1369270092194483 3.8610028046241496 0 3.8610028046241496 -33.287925527336483 0 0 0 0 -16.81462410197372 6.7166352813947015 0 6.7166352813947015 -19.447173899287009 0 0 0 0 -12.683922069088368 4.5697420904944011 0 4.5697420904944011 -20.956813855402288 0 0 0 0 -14.20426617650773 2.6548048287513666 0 2.6548048287513666 -22.41684215341229 0 0 0 0 -15.356901949577548 0.78228576535911998 0 0.78228576535911998 -22.047611398797017 0 0 0 0 -9.5907674797160212 3.0642072348782676 0 3.0642072348782676 -23.770070857768587 0 0 0 0 -6.2206909826486481 4.1992044938378967 0 4.1992044938378967 -23.764738407729965 0 0 0 0 -8.9201279087370438 2.1553323736407037 0 2.1553323736407037 -23.443043854204006 0 0 0 0 -11.253641719196139 2.4752464793418767 0 2.4752464793418767 -24.061573239407153 0 0 0 0 -12.457046209354758 -0.64536036661957041 0 -0.64536036661957041 -24.789839925288106 0 0 0 0 -6.6012244482220126 3.406522171702818 0 3.406522171702818 -26.538271248678939 0 0 0 0 -5.9768133616113914 0.12295203228859464 0 0.12295203228859464 -20.41772974950436 0 0 0 0 -5.8121191802113685 0.84205870341247646 0 0.84205870341247646 -21.461493733266252 0 0 0 0 -10.936136690587091 3.8300372804005747 0 3.8300372804005747 -19.222045019312645 0 0 0 0 -9.1580850177893467 0.030520379863446578 0 0.030520379863446578 -11.826787460260675 0 0 0 0 -7.7708090598179069 5.8976796547867707 0 5.8976796547867707 -14.196388528951502 0 0 0 0 -10.704698361210376 2.1843163113480841 0 2.1843163113480841 -10.053292522701668 0 0 0 0 -1.8002707074530919 2.1497462224217685 0 2.1497462224217685 -1.7757403189169452 0 0 0 0 -5.1204007590284846 7.9163708234409569 0 7.9163708234409569 -17.930935774202226 0 0 0 0 -9.0060553387567666 5.7704804232198512 0 5.7704804232198512 -18.832991933057201 0 0 0 0 -7.7443106136110487 5.432029885101656 0 5.432029885101656 -19.874229757930152 0 0 0 0 -7.82273263786999 2.1110975791234523 0 2.1110975791234523 -26.196290101099294 0 0 0 0 -8.9289475515006558 6.2884659147607636 0 6.2884659147607636 -18.007220176135888 0 0 0 0 -8.8184076797005524 3.5185903187814347 0 3.5185903187814347 -30.431172042211983 0 0 0 0 -6.9452929466896194 4.2476966372050811 0 4.2476966372050811 -16.262712664407445 0 0 0 0 -6.288657865691718 3.4574156629041681 0 3.4574156629041681 -18.363899833173491 0 0 0 0 -7.1582146039093004 8.0248988729435951 0 8.0248988729435951 -13.538349356807885 0 0 0 0 -3.7431640676618372 2.7799561155115953 0 2.7799561155115953 -9.7457564186988748 0 0 0 0 -14.022809669332673 8.4696876991001773 0 8.4696876991001773 5.8178354258343461 0 0 0 0 -12.531285796636098 11.805627848058066 0 11.805627848058066 -3.8250324516848195 0 0 0 0 -9.3297985014307301 5.3377232618415036 0 5.3377232618415036 -2.9553237122522091 0 0 0 0 -11.824429007074286 9.7615375772438711 0 9.7615375772438711 -9.5774727730386076 0 0 0 0 -11.365828839602727 3.9849215741087392 0 3.9849215741087392 -2.7944184460757242 0 0 0 0 -11.15417230344292 3.2187850961563527 0 3.2187850961563527 -4.3873671718611149 0 0 0 0 -7.5973638197676792 9.6236907043494284 0 9.6236907043494284 -6.5700300870194042 0 0 0 0 -9.2259042421236686 4.1466282457166272 0 4.1466282457166272 -2.8223404854522869 0 0 0 0 -8.2666239074414989 7.4456950026360573 0 7.4456950026360573 -16.130848889049958 0 0 0 0 -30.061869577851212 14.013456301938277 0 14.013456301938277 4.8036798144312343 0 0 0 0 0.97979922451923529 1.1139505961875926 0 1.1139505961875926 -2.2360603289563983 0 0 0 0 -38.476895461072445 -0.20317504106424167 0 -0.20317504106424167 -6.7851246673380956 0 0 0 0 -26.419868252805259 7.2599456461903173 0 7.2599456461903173 -4.2059070006107504 0 0 0 0 -24.78170361850573 16.797303026964073 0 16.797303026964073 -0.48844216763973236 0 0 0 0 -12.493681541820266 7.1037515947227803 0 7.1037515947227803 -23.686087580557796 0 0 0 0 -27.652013258294119 7.0343147536768811 0 7.0343147536768811 -3.6160643002222059 0 0 0 0 -11.718144150955879 10.703216401017926 0 10.703216401017926 -12.143973188067321 0 0 0 0 -1.2550813234228753 0.59097238445068001 0 0.59097238445068001 -0.95614154993103284 0 0 0 0 -27.637303739741043 -31.285968458057905 0 -31.285968458057905 -41.012893176666694 0 0 0 0 -14.332395161902696 -1.1025488697196124 0 -1.1025488697196124 -24.316977524984395 0 0 0 0 -24.827771194441652 -12.594034419584204 0 -12.594034419584204 -37.552191644586856 0 0 0 0 -18.203437518127302 8.3600444952509037 0 8.3600444952509037 -6.6550832928332966 0 0 0 0 -6.7138593935200959 2.389696032867505 0 2.389696032867505 -17.983206645294558 0 0 0 0 -9.5158237069435927 16.81173444801243 0 16.81173444801243 -13.615753791647876 0 0 0 0 -7.7671591143344543 7.7290796727606903 0 7.7290796727606903 -9.8017877980271066 0 0 0 0 -1.2640487280833599 1.1862613466486085 0 1.1862613466486085 -6.6909055017882224 0 0 0 0 -1.4449700310747167 6.4879450419989793 0 6.4879450419989793 -20.577727198705418 0 0 0 0 -0.67515739980626677 17.946622532635956 0 17.946622532635956 -13.494256870893878 0 0 0 0 1.7969569064930511 12.853124000677781 0 12.853124000677781 -38.062229319504695 0 0 0 0 11.157677752403288 20.743449245572265 0 20.743449245572265 -21.573531078989618 0 0 0 0 3.7301397086393768 -0.97359052723707862 0 -0.97359052723707862 -5.7239957044104415 0 0 0 0 -14.497164047440577 -0.58792989265930373 0 -0.58792989265930373 -25.920807644288288 0 0 0 0 -22.182024475197863 -5.1562636788221425 0 -5.1562636788221425 -24.808848268899965 0 0 0 0 -36.193258415819457 11.987806438126427 0 11.987806438126427 -25.472175562666962 0 0 0 0 -18.166518151055698 39.607197587130941 0 39.607197587130941 15.162459599938302 0 0 0 0 -86.944535522051979 5.223591304034926 0 5.223591304034926 25.096567971850163 0 0 0 0 -15.986131154859635 1.1829673299198475 0 1.1829673299198475 -17.435195813770406 0 0 0 0 -16.104805537258386 1.7786169468890876 0 1.7786169468890876 -20.368693596945377 0 0 0 0 -16.002031255265194 1.0380786006207927 0 1.0380786006207927 -22.022764489127439 0 0 0 0 -19.880368848869466 1.4845116220167256 0 1.4845116220167256 -16.725376858608797 0 0 0 0 -17.744175354439278 3.0115437795393518 0 3.0115437795393518 -14.986230430862634 0 0 0 0 -17.968643717038049 3.8150795771070989 0 3.8150795771070989 -17.75427408865653 0 0 0 0 -12.706995753745616 -0.86402232789987465 0 -0.86402232789987465 -21.614409205925767 0 0 0 0 -19.154485075171692 5.6052818309544818 0 5.6052818309544818 -15.736567455518525 0 0 0 0 -1.1088965709141507 7.5761644126384677 0 7.5761644126384677 -21.936175206741865 0 0 0 0 -2.5500889354417495 7.4442854048393201 0 7.4442854048393201 -19.212856675392686 0 0 0 0 46.824399143219125 0.92692696484300541 0 0.92692696484300541 -30.329048825398786 0 0 0 0 7.1919830469517478 36.570154116720005 0 36.570154116720005 -18.953412560076686 0 0 0 0 9.5836948396452613 19.869373891370742 0 19.869373891370742 -18.568783105933107 0 0 0 0 57.212031789551475 18.225018986151554 0 18.225018986151554 -25.888642020938278 0 0 0 0 24.058098016511394 46.653380972267769 0 46.653380972267769 -13.787172847136389 0 0 0 0 16.926759808609404 18.890195117564872 0 18.890195117564872 -3.7309113529190654 0 0 0 0 117.14268539338082 86.023199575123726 0 86.023199575123726 22.504624999448424 0 0 0 0 3.6922882160107715 -2.3792979835208925 0 -2.3792979835208925 -3.4979885709516907 0 0 0 0 -0.37230909674508439 15.964936362106528 0 15.964936362106528 36.123772955108507 0 0 0 0 116.40035767850395 3.2340554066940967 0 3.2340554066940967 -87.709192991678719 0 0 0 0 -1.5587485340506491 2.3414024647751965 0 2.3414024647751965 1.2009680070711397 0 0 0 0 -35.555363950002175 79.633949639697676 0 79.633949639697676 -28.750967885483988 0 0 0 0 -3.4449625561413484 9.4269126936963019 0 9.4269126936963019 -21.935208880144131 0 0 0 0 5.5824225663355662 21.062884313683753 0 21.062884313683753 -51.711883016410866 0 0 0 0 -9.9131799948002648 61.775264186162389 0 61.775264186162389 19.79055558804248 0 0 0 0 -21.570246358365523 -1.6808227346336935 0 -1.6808227346336935 -21.392467195328209 0 0 0 0 -28.077615977318317 8.1222292873972037 0 8.1222292873972037 -18.786066452870728 0 0 0 0 -15.925303768838035 15.089595847246528 0 15.089595847246528 -27.230068752047373 0 0 0 0 -0.24137986639947751 -0.17195569961272383 0 -0.17195569961272383 -0.14860942849854553 0 0 0 0 -0.83131833939513988 -0.28828090691999364 0 -0.28828090691999364 0.053055762379145222 0 0 0 0 -1.9367488451249528 8.1136842547057313 0 8.1136842547057313 -25.845261368009233 0 0 0 0 -4.2299297433547736 5.5595120994803437 0 5.5595120994803437 -20.94892485634773 0 0 0 0 -2.8750041478578225 3.1514977406513935 0 3.1514977406513935 -26.933289296721341 0 0 0 0 -4.2761684089087311 -1.9031772295020346 0 -1.9031772295020346 -45.097223169374047 0 0 0 0 -24.287194407573963 -8.7800705267163721 0 -8.7800705267163721 -13.978736819677579 0 0 0 0 -7.1265673908401084 10.779938205963845 0 10.779938205963845 -13.9990754636916 0 0 0 0 -3.6521947917718354 4.5212154891887621 0 4.5212154891887621 -26.379964283614754 0 0 0 0 -9.4163129835866641 6.1738903605582891 0 6.1738903605582891 -21.542023908768897 0 0 0 0 -19.514917639627789 -3.120793487004903 0 -3.120793487004903 -2.075359451053373 0 0 0 0 -5.5059969429294942 4.4933246135013434 0 4.4933246135013434 -1.4504050296228073 0 0 0 0 -0.89110483363696691 1.4753817129967217 0 1.4753817129967217 -3.7634806907536813 0 0 0 0 -100.82553018647468 -68.237914302189893 0 -68.237914302189893 72.800866071169366 0 0 0 0 -189.3752355452923 -235.28500550656463 0 -235.28500550656463 -295.52299016081088 0 0 0 0 -57.190715475908746 -220.15864629648422 0 -220.15864629648422 -360.47686792786408 0 0 0 0 -111.39214578298152 -254.96841911137017 0 -254.96841911137017 -793.72903914276685 0 0 0 0 -129.3675228790969 -249.57499598725553 0 -249.57499598725553 -280.54786968854751 0 0 0 0 -37.961935611411491 41.066935616127012 0 41.066935616127012 -234.85779375454877 0 0 0 0 -169.20305702762698 -161.39251263331244 0 -161.39251263331244 -19.538607797206168 0 0 0 0 -4.1011584074871283 8.3434975552815303 0 8.3434975552815303 -17.597557865838496 0 0 0 0 63.824449226924798 53.477696020683652 0 53.477696020683652 -145.35595441929763 0 0 0 0 -30.890089929608621 -43.599814944529498 0 -43.599814944529498 38.684990720917995 0 0 0 0 -112.62007466310615 -192.86945291787561 0 -192.86945291787561 -319.73963168135379 0 0 0 0 -355.65140040555252 -485.79846755323524 0 -485.79846755323524 -439.67110980912003 0 0 0 0 -465.63433260014244 -139.45968688917128 0 -139.45968688917128 -213.06871610495 0 0 0 0 -105.10881043428822 -188.92291931403088 0 -188.92291931403088 -287.19282577326521 0 0 0 0 -34.592151962078788 -351.20927750225019 0 -351.20927750225019 -943.99996066535095 0 0 0 0 48.508271283669274 -201.37748280828237 0 -201.37748280828237 -538.32275094192482 0 0 0 0 9.0358993978252613 -131.57840645363649 0 -131.57840645363649 -361.28685170199606 0 0 0 0 40.841160331334663 -56.772660075195745 0 -56.772660075195745 -398.26252985147585 0 0 0 0 -25.429211612041286 -174.26671972748773 0 -174.26671972748773 -392.11315769700741 0 0 0 0 -9.8989815868325195 -166.98789125998883 0 -166.98789125998883 -402.9405519180691 0 0 0 0 -21.574148806645667 -249.8290773335516 0 -249.8290773335516 -440.56243351093144 0 0 0 0 -57.311696092436478 -245.21199897874612 0 -245.21199897874612 -438.21028352144458 0 0 0 0 -61.94740577934931 -190.90010330008408 0 -190.90010330008408 -515.91226771422953 0 0 0 0 -74.237825853657114 -152.08439300906684 0 -152.08439300906684 -334.83434332163597 0 0 0 0 -128.53180510908351 -268.39988494540012 0 -268.39988494540012 -382.83255913286121 0 0 0 0 -76.264964380579272 -181.23906698947212 0 -181.23906698947212 -446.76582600585243 0 0 0 0 -60.520521262444163 -209.82344389979698 0 -209.82344389979698 -420.18774513366225 0 0 0 0 -64.25576167541567 -224.88392792698869 0 -224.88392792698869 -470.80992174761195 0 0 0 0 -79.000297292544388 -268.09276453965322 0 -268.09276453965322 -552.8771680470818 0 0 0 0 -38.481188548043974 -52.908587164209166 0 -52.908587164209166 -339.58924918187404 0 0 0 0 -84.480685963418523 -238.92718008018437 0 -238.92718008018437 -428.74574555025902 0 0 0 0 -15.974869339792576 29.973665776909911 0 29.973665776909911 4.6552305558871012 0 0 0 0 -0.34896470060616736 0.15339237182664078 0 0.15339237182664078 -0.58302532243524752 0 0 0 0 -73.156856866557973 -102.08191845619876 0 -102.08191845619876 -242.41453682239808 0 0 0 0 -13.699385251654803 29.515560733394523 0 29.515560733394523 -99.828339339343074 0 0 0 0 -42.378151966920882 -39.325595512638756 0 -39.325595512638756 -186.16940862275078 0 0 0 0 -170.05454922096988 -226.13028961923555 0 -226.13028961923555 -240.79480886929377 0 0 0 0 -146.52320347074419 -171.81113187858864 0 -171.81113187858864 -227.66094072189662 0 0 0 0 -119.09697467678859 -99.974791121896487 0 -99.974791121896487 -143.29248729658138 0 0 0 0 -197.9052300279468 -60.453674719268747 0 -60.453674719268747 -64.244515708647668 0 0 0 0 -77.604954229870998 -95.455899910268272 0 -95.455899910268272 -109.86513931459922 0 0 0 0 -105.93901791398775 -27.907081311615912 0 -27.907081311615912 -29.004845319548622 0 0 0 0 -12.402105235271279 -24.678141257778407 0 -24.678141257778407 -20.966883731423877 0 0 0 0 -47.852258882856404 21.0167357018654 0 21.0167357018654 -79.426333947165404 0 0 0 0 -42.962918354653993 5.2611691609781701 0 5.2611691609781701 -60.837206054180569 0 0 0 0 -12.864000484215467 44.704111006358289 0 44.704111006358289 -7.5375801387090178 0 0 0 0 -13.661586846635146 34.020367521530716 0 34.020367521530716 -23.07486921679083 0 0 0 0 -59.173918371556738 6.5367934619207517 0 6.5367934619207517 -12.340004141442478 0 0 0 0 -9.4119655936519848 26.0899932145403 0 26.0899932145403 -12.100511162352632 0 0 0 0 -58.112552648343808 21.778198310574226 0 21.778198310574226 -8.4304874849040061 0 0 0 0 -76.342582366004024 -30.666462024005796 0 -30.666462024005796 -36.945219483983237 0 0 0 0 -22.776958262154039 1.0604054467112292 0 1.0604054467112292 -18.285623031151772 0 0 0 0 -63.548596249043385 31.695812671074236 0 31.695812671074236 -25.603666517570673 0 0 0 0 -38.011525488862162 -6.8252667706392458 0 -6.8252667706392458 -4.3474007216718746 0 0 0 0 -20.892122547089002 23.919633723911829 0 23.919633723911829 -11.309449951309944 0 0 0 0 -20.98594713797138 24.165177522623708 0 24.165177522623708 -10.835955258851754 0 0 0 0 -43.276664575550512 15.884722850094477 0 15.884722850094477 -2.6922125161217991 0 0 0 0 -13.539799925489888 7.6185952992855164 0 7.6185952992855164 -4.4111092650855426 0 0 0 0 -20.628379539049547 11.505920491123106 0 11.505920491123106 -1.9977582023147988 0 0 0 0 -23.866743060133388 2.1710828063432928 0 2.1710828063432928 -1.6241727593442192 0 0 0 0 -11.290783132932347 -1.6987122855389316 0 -1.6987122855389316 -5.4302339890491567 0 0 0 0 -9.3277648790738112 10.165166553713789 0 10.165166553713789 -36.282476392741955 0 0 0 0 -21.758480823099717 18.898417059186613 0 18.898417059186613 -30.00858950035763 0 0 0 0 -4.7514080472833777 -2.7115808172432736 0 -2.7115808172432736 -11.467028719821116 0 0 0 0 -16.502035389033423 1.8170364745612915 0 1.8170364745612915 -1.6860393304959871 0 0 0 0 -10.455374928494102 7.8195703667699945 0 7.8195703667699945 -8.654207063395404 0 0 0 0 -8.013290266215563 11.51189612782764 0 11.51189612782764 -15.27137149614282 0 0 0 0 -16.790979951782447 6.0875626083798124 0 6.0875626083798124 -4.6841417162986545 0 0 0 0 -4.6072484042059614 16.468484841556347 0 16.468484841556347 -43.045829331298592 0 0 0 0 -11.833399412665994 13.69401068791386 0 13.69401068791386 8.8277867606658305 0 0 0 0 -6.2258884627594 31.027839485162986 0 31.027839485162986 -62.033013646345353 0 0 0 0 -10.111921072311727 20.648510151322398 0 20.648510151322398 -34.791423302231124 0 0 0 0 -9.5950927776505068 19.917153262482316 0 19.917153262482316 -45.857522307414911 0 0 0 0 -17.93136756654053 15.696991350465396 0 15.696991350465396 -37.924899184741662 0 0 0 0 -2.0078371699409936 -5.0900888902749557 0 -5.0900888902749557 -7.8880850626853771 0 0 0 0 3.1185946625752194 -6.8774845170228218 0 -6.8774845170228218 -22.675585495144333 0 0 0 0 3.0243414500205938 13.125489543399596 0 13.125489543399596 -50.072628291120054 0 0 0 0 -9.4619247926434582 -5.898381272869301 0 -5.898381272869301 -4.8775561986813045 0 0 0 0 -1.5366574965112807 -4.1644642646501779 0 -4.1644642646501779 -7.5446498334112277 0 0 0 0 4.1781099568454749 -18.368428458408744 0 -18.368428458408744 -7.2577668949670624 0 0 0 0 -9.9205379822647046 -20.018442733777192 0 -20.018442733777192 -2.3661329078458948 0 0 0 0 5.4451835665176986 -0.17545618084113812 0 -0.17545618084113812 -5.613443750665283 0 0 0 0 -26.409854356896631 -20.056273843925737 0 -20.056273843925737 -16.903302102495218 0 0 0 0 12.405351265329045 -2.7351145294378512 0 -2.7351145294378512 -34.96585548332223 0 0 0 0 8.34299880819826 -15.079271117553617 0 -15.079271117553617 -16.117387399834115 0 0 0 0 14.869160832782853 6.0332885972602526 0 6.0332885972602526 -5.829462199631962 0 0 0 0 -0.52239853491763055 0.1754534497442819 0 0.1754534497442819 -2.8505066809533446 0 0 0 0 -0.8045722554088135 -1.1842644898180765 0 -1.1842644898180765 -0.43497397722049413 0 0 0 0 -301.05645213247681 -324.68188561416173 0 -324.68188561416173 -201.38375176846785 0 0 0 0 20.087119528099038 -76.51219746984134 0 -76.51219746984134 -649.75536521417962 0 0 0 0 -0.32852540110268769 -0.55865896137541426 0 -0.55865896137541426 -1.4094965348237736 0 0 0 0 -78.275671150606087 -202.65470748624102 0 -202.65470748624102 -264.47595219321374 0 0 0 0 -106.14968509431549 -100.47209546199883 0 -100.47209546199883 -188.03835350206236 0 0 0 0 7.7724533390427482 15.010753511885923 0 15.010753511885923 -93.341001267952379 0 0 0 0 -0.15306028365759516 -26.149357100941415 0 -26.149357100941415 -60.190265855155303 0 0 0 0 -22.597414787066214 -11.095690370690136 0 -11.095690370690136 5.7813343889647513 0 0 0 0 -9.5601440657624721 4.8499501516926102 0 4.8499501516926102 10.365592645364814 0 0 0 0 -3.2728931975219098 -9.7399124582698278 0 -9.7399124582698278 -62.464480453927536 0 0 0 0 -6.2340585304154388 32.458280882157851 0 32.458280882157851 -84.44946453616285 0 0 0 0 -7.5713228380127831 -2.1438591046098736 0 -2.1438591046098736 -121.51476274046581 0 0 0 0 -6.9306810370337644 5.4466768433485413 0 5.4466768433485413 -50.371376590352156 0 0 0 0 -57.39756350313084 11.111031028485741 0 11.111031028485741 -62.89317779531666 0 0 0 0 -10.848987196465487 33.702216822064656 0 33.702216822064656 -104.35776928463019 0 0 0 0 -24.668262530356458 56.382633578818059 0 56.382633578818059 -141.55073760313098 0 0 0 0 0.41641496998425964 -7.189008559245849 0 -7.189008559245849 -156.38004627930786 0 0 0 0 -44.612504611425521 83.581690345483366 0 83.581690345483366 -103.663841976193 0 0 0 0 -3.4597133570325735 4.723848483316786 0 4.723848483316786 2.5652330338726586 0 0 0 0 -7.2913000404712687 15.567462135046171 0 15.567462135046171 4.6750083710849637 0 0 0 0 -22.000885550321811 34.056351332365011 0 34.056351332365011 -47.941389433064614 0 0 0 0 -24.046630608689611 34.97675193419127 0 34.97675193419127 113.47490593915063 0 0 0 0 7.0016329148785372 -9.4983850252847333 0 -9.4983850252847333 -14.08709555913083 0 0 0 0 0.027650504919323034 -15.552996440459538 0 -15.552996440459538 -14.410589726947364 0 0 0 0 1.9787832202424909 -3.2944105288552237 0 -3.2944105288552237 -20.731564878085919 0 0 0 0 -0.81167434477887546 0.9391202101003131 0 0.9391202101003131 -5.3429924428257607 0 0 0 0 10.381940253733472 5.5266659565895679 0 5.5266659565895679 -30.220037748098548 0 0 0 0 -9.1873276330442906 3.4838386759984132 0 3.4838386759984132 -94.502930489121354 0 0 0 0 -3.8017200591353912 35.135359533553128 0 35.135359533553128 -111.79637465062115 0 0 0 0 -4.0085744815130795 31.766785400322988 0 31.766785400322988 -105.54191998344322 0 0 0 0 -28.109205677278847 -35.96145553831775 0 -35.96145553831775 -269.70463862495671 0 0 0 0 -0.080409370585413753 -0.39832073545659341 0 -0.39832073545659341 -0.17324396779584106 0 0 0 0 -58.649029328850069 -111.83847107959446 0 -111.83847107959446 -288.05166000889585 0 0 0 0 -0.10037674193372881 -59.653756687028363 0 -59.653756687028363 -255.08298470705631 0 0 0 0 -0.21138043794343275 26.829221618518204 0 26.829221618518204 -108.02144872526696 0 0 0 0 -0.45059503186139277 -0.10355039113973419 0 -0.10355039113973419 0.20865326854058708 0 0 0 0 -62.341578655152347 -106.56876690906211 0 -106.56876690906211 -213.43642881869891 0 0 0 0 -33.64134134516388 -144.16347724247316 0 -144.16347724247316 -328.39498527243995 0 0 0 0 -35.719763891672869 -144.19700623489916 0 -144.19700623489916 -302.88125924802807 0 0 0 0 0.036322845411922128 -107.01922627821401 0 -107.01922627821401 -352.74312966697471 0 0 0 0 16.077253712046684 -81.184794767963467 0 -81.184794767963467 -371.68233236046581 0 0 0 0 -5.8980226752822205 -117.40803281910121 0 -117.40803281910121 -363.96018336761972 0 0 0 0 -7.0853683157006344 -107.20450494079341 0 -107.20450494079341 -420.74420710213599 0 0 0 0 -35.387988252252512 -177.5843519064656 0 -177.5843519064656 -363.39054691702768 0 0 0 0 -29.01459241268644 -154.98512258543633 0 -154.98512258543633 -516.9262185612024 0 0 0 0 -111.88398496186528 -77.171855884436809 0 -77.171855884436809 -438.35715711738885 0 0 0 0 -41.720339552413463 -135.59359792843679 0 -135.59359792843679 -412.95833411003696 0 0 0 0 -217.44923596293273 -189.53897508299633 0 -189.53897508299633 -402.84356875314552 0 0 0 0 -78.916306750186777 -278.98905910085887 0 -278.98905910085887 -519.74003554592491 0 0 0 0 -50.207393524654208 -161.43464941097045 0 -161.43464941097045 -409.12710618421625 0 0 0 0 -64.491802164813407 -147.62480219146528 0 -147.62480219146528 -365.30338717441191 0 0 0 0 -50.292030827182543 -84.61519277242769 0 -84.61519277242769 -380.36466876633131 0 0 0 0 -20.477576332040968 -117.55881956863595 0 -117.55881956863595 -345.23419940442545 0 0 0 0 7.6414207609387432 -68.243863909388892 0 -68.243863909388892 -318.78352992228611 0 0 0 0 5.2214150949004079 -110.78400626296934 0 -110.78400626296934 -372.96323069738992 0 0 0 0 16.981445965758155 -56.260915293454673 0 -56.260915293454673 -288.44455598093919 0 0 0 0 -31.018992515667264 -117.31021283185328 0 -117.31021283185328 -290.88836937191081 0 0 0 0 21.237276731078964 -98.959385230045882 0 -98.959385230045882 -280.68592620574782 0 0 0 0 18.333627857180119 -44.513016089029406 0 -44.513016089029406 -277.64104813899758 0 0 0 0 0.015226468421883983 -101.14762064220342 0 -101.14762064220342 -307.87979793985869 0 0 0 0 0.71955172105320186 1.2563941436800121 0 1.2563941436800121 -9.6121346178806988 0 0 0 0 -562.9129991947716 -1454.299899126403 0 -1454.299899126403 483.68037670127524 0 0 0 0 806.15969480337924 713.56328984606444 0 713.56328984606444 -186.29856992117129 0 0 0 0 -0.52041245547849746 1.6175337050488992 0 1.6175337050488992 -5.3318803718901933 0 0 0 0 -983.377339798717 -306.46891368452816 0 -306.46891368452816 -318.85350330434267 0 0 0 0 -309.25777846602239 -581.64114504949976 0 -581.64114504949976 -256.52897680304886 0 0 0 0 4.0308456041614713 2.6718467468987122 0 2.6718467468987122 -27.497902468955942 0 0 0 0 -193.77757029851682 -354.15064183919094 0 -354.15064183919094 -420.90363860835714 0 0 0 0 -168.16057571421021 -307.98182906896409 0 -307.98182906896409 -484.06160793598974 0 0 0 0 438.86196056800856 232.00484812476861 0 232.00484812476861 424.84407944786653 0 0 0 0 803.09663142578688 -101.44680328466711 0 -101.44680328466711 -136.88913149243308 0 0 0 0 438.55991062632773 251.68535441995482 0 251.68535441995482 -390.85539955232525 0 0 0 0 283.16577950332839 45.735760902614857 0 45.735760902614857 -146.06523272398772 0 0 0 0 160.21634516459221 21.56426395701601 0 21.56426395701601 -563.90067009132326 0 0 0 0 225.26864691722392 156.81046321152826 0 156.81046321152826 -282.72191386860504 0 0 0 0 -165.11926032442307 597.84633729527923 0 597.84633729527923 -524.18123404790822 0 0 0 0 217.15682701407445 306.08476048760349 0 306.08476048760349 -331.54843747703126 0 0 0 0 703.63498413678906 421.17494012687894 0 421.17494012687894 -670.0369705852936 0 0 0 0 235.36406982574658 398.17109752133911 0 398.17109752133911 -118.97316961715478 0 0 0 0 581.46252538837439 547.54744367259991 0 547.54744367259991 -445.45475123824872 0 0 0 0 636.44299466551774 267.50099971820964 0 267.50099971820964 -915.79205030965386 0 0 0 0 353.43028690078086 -44.733512379258173 0 -44.733512379258173 -210.33877178486728 0 0 0 0 443.74155927367099 354.59500703847152 0 354.59500703847152 -503.98980497810771 0 0 0 0 367.81001487353888 -54.782471163206537 0 -54.782471163206537 -856.36382097369642 0 0 0 0 -8.923669319634655 341.38109629877727 0 341.38109629877727 -285.93161744049576 0 0 0 0 242.15651552623592 183.75642437629358 0 183.75642437629358 -414.4496713713088 0 0 0 0 36.253531139000643 72.922493675116129 0 72.922493675116129 -203.44473170707352 0 0 0 0 -91.873270063468212 0.86483768063772004 0 0.86483768063772004 -203.81390227685915 0 0 0 0 27.485040751524593 62.554682731100911 0 62.554682731100911 -162.38215292769746 0 0 0 0 -19.984026737537093 450.78628921497511 0 450.78628921497511 -116.77275408239802 0 0 0 0 -261.21835840909552 433.13579914635056 0 433.13579914635056 -49.926398486670223 0 0 0 0 -332.55395309349547 148.22155593379284 0 148.22155593379284 -100.61024017949239 0 0 0 0 -1.2694168020136503 0.29629207943443703 0 0.29629207943443703 -1.768156829014103 0 0 0 0 -156.96026961427128 -788.50754484697245 0 -788.50754484697245 -545.42465396774423 0 0 0 0 -396.58848912548092 1053.6829692206811 0 1053.6829692206811 -2363.1433776746853 0 0 0 0 98.057441456235892 169.46073892673303 0 169.46073892673303 -458.50739028856333 0 0 0 0 -2.4849712935052795 5.5301822353825969 0 5.5301822353825969 -9.6435611416333842 0 0 0 0 34.021682215995497 44.887304608557315 0 44.887304608557315 -83.912386252639408 0 0 0 0 3.533678823452874 28.713991209420783 0 28.713991209420783 -84.203352124312744 0 0 0 0 3.6005872051211778 6.2658789085684745 0 6.2658789085684745 -181.9663965669024 0 0 0 0 -35.839353485634092 35.707536682723003 0 35.707536682723003 -100.91288108232493 0 0 0 0 -0.98500534410641194 21.855403580535494 0 21.855403580535494 -97.961590757515296 0 0 0 0 -37.076010903243059 5.4641178365891392 0 5.4641178365891392 -103.07539057282702 0 0 0 0 -77.903887583437836 28.353579393971813 0 28.353579393971813 -21.762729942187434 0 0 0 0 -59.681542828623606 30.282636971071042 0 30.282636971071042 -82.168695218471839 0 0 0 0 -88.853734650391743 19.617408596510359 0 19.617408596510359 -21.022861079171889 0 0 0 0 -65.97489305895806 36.113885970877163 0 36.113885970877163 -12.474503991776146 0 0 0 0 -80.491977882427818 3.125649463137961 0 3.125649463137961 9.4371608763176482 0 0 0 0 46.488721754213486 -21.29433766090051 0 -21.29433766090051 -58.904191639099736 0 0 0 0 -28.275949496120575 -37.402944847832259 0 -37.402944847832259 28.822866375641752 0 0 0 0 -35.600086322736843 -8.8438297552529548 0 -8.8438297552529548 -27.19055319626932 0 0 0 0 -60.909985750482747 5.9432922503292502 0 5.9432922503292502 -25.227449925252586 0 0 0 0 177.8874796662999 43.254057218466187 0 43.254057218466187 -47.4915470345004 0 0 0 0 221.19189593799774 49.694875333887467 0 49.694875333887467 -63.482705305037598 0 0 0 0 207.34315836847327 18.785785846674116 0 18.785785846674116 -108.17629239848611 0 0 0 0 82.939063414904012 -14.425766814089002 0 -14.425766814089002 -55.874855299778574 0 0 0 0 7.5823854657878655 4.1505910396263062 0 4.1505910396263062 -38.204309107317385 0 0 0 0 60.089250018701136 45.012859479544204 0 45.012859479544204 -65.958367905870546 0 0 0 0 -35.112731252724643 -1.7464394191847532 0 -1.7464394191847532 -83.627607420607092 0 0 0 0 -56.486328678514383 66.836169095142395 0 66.836169095142395 -86.254572650721457 0 0 0 0 -55.451222015943586 13.653078648785595 0 13.653078648785595 -61.751988254007301 0 0 0 0 -20.903916298110289 49.055578186791536 0 49.055578186791536 -26.431892829707067 0 0 0 0 -56.778248109332026 23.708405470570142 0 23.708405470570142 -15.897881823329953 0 0 0 0 25.05417909721109 46.57699939554368 0 46.57699939554368 -37.372469177098537 0 0 0 0 107.6283317033417 59.233522367259866 0 59.233522367259866 -32.334557158777898 0 0 0 0 123.00090983865425 70.9558424280076 0 70.9558424280076 -35.035757729223405 0 0 0 0 35.971230318717517 15.533504190028907 0 15.533504190028907 -23.884676697145551 0 0 0 0 231.28227768383749 3.9894187589525245 0 3.9894187589525245 -58.090911638418675 0 0 0 0 239.24858284670813 45.280378121994545 0 45.280378121994545 -59.107839801494265 0 0 0 0 142.58523852213875 -3.1773489687620895 0 -3.1773489687620895 -50.767322795345535 0 0 0 0 186.97219928441632 54.380034887650254 0 54.380034887650254 15.501500471746112 0 0 0 0 156.37899305234441 -3.6987846914526017 0 -3.6987846914526017 -65.589865393076252 0 0 0 0 -11.392633875596857 13.650510224346363 0 13.650510224346363 -52.296246923855506 0 0 0 0 74.893885783645146 72.301177921561248 0 72.301177921561248 -101.49047051196976 0 0 0 0 -45.44299458404214 46.256043048950232 0 46.256043048950232 -57.960817676699662 0 0 0 0 -50.855360156646384 51.723196673941857 0 51.723196673941857 -24.6327080331248 0 0 0 0 -26.558141811779137 51.159440007018929 0 51.159440007018929 -136.62601526033541 0 0 0 0 -16.769173574169599 21.777742599785597 0 21.777742599785597 -188.52728644939634 0 0 0 0 -117.57216691481426 -29.72438896328822 0 -29.72438896328822 -140.83346907335113 0 0 0 0 -12.790324816834527 -1.2409835170192309 0 -1.2409835170192309 -62.640471535232791 0 0 0 0 172.14101106659564 -63.284684883768932 0 -63.284684883768932 -234.81375050901988 0 0 0 0 205.10649737694575 63.47927783803425 0 63.47927783803425 -13.185231729545194 0 0 0 0 -80.230367096079135 8.677261651992012 0 8.677261651992012 52.793686784318197 0 0 0 0 -142.11522260220423 -319.91741454545581 0 -319.91741454545581 -581.86490863612198 0 0 0 0 -56.161077880237599 90.091702519432147 0 90.091702519432147 -24.353753796305682 0 0 0 0 -0.54958713386515701 2.1664332575075989 0 2.1664332575075989 -5.3574568577558068 0 0 0 0 -94.854594355882909 38.172527414586511 0 38.172527414586511 -0.40422633016896725 0 0 0 0 -87.735939962875364 29.197939225590744 0 29.197939225590744 -45.411102157529967 0 0 0 0 -104.07717727556701 37.479287207221205 0 37.479287207221205 -12.484259613978907 0 0 0 0 -103.52527556286805 46.425196774340293 0 46.425196774340293 -57.908236679992115 0 0 0 0 -87.234445857046012 37.13787083747593 0 37.13787083747593 -163.11354019017017 0 0 0 0 -110.28490330217664 48.434874687227421 0 48.434874687227421 -41.798675734725293 0 0 0 0 -56.208649205961819 93.928865971105552 0 93.928865971105552 -199.7364952760181 0 0 0 0 -313.10890062059434 -185.18125420077195 0 -185.18125420077195 -127.93265257296298 0 0 0 0 -30.634624276948443 14.390036985769257 0 14.390036985769257 -429.68772201753745 0 0 0 0 -92.515579154881834 -109.2846532459298 0 -109.2846532459298 -397.27153364665719 0 0 0 0 -43.331001257770822 21.336567193626252 0 21.336567193626252 -160.83968834231018 0 0 0 0 -730.59272505048921 -631.51801441085991 0 -631.51801441085991 -475.11322759988798 0 0 0 0 -0.13657502633375707 2.2748569927203448 0 2.2748569927203448 -6.0067266819986003 0 0 0 0 118.31790209212932 -173.93367099805619 0 -173.93367099805619 -758.84679738136037 0 0 0 0 -169.0862955771729 -309.45813502102601 0 -309.45813502102601 -431.74666037446877 0 0 0 0 -217.89446129122535 -283.56842140503431 0 -283.56842140503431 -430.35129990987616 0 0 0 0 -283.14781773904735 -232.93432390914677 0 -232.93432390914677 -142.4793146753218 0 0 0 0 -150.28178662373341 -207.5737769816551 0 -207.5737769816551 -424.68983894569101 0 0 0 0 -357.60353924611809 -357.9460697787872 0 -357.9460697787872 -362.91566459892056 0 0 0 0 -287.66803734671748 -133.64091075075703 0 -133.64091075075703 -127.29225367906005 0 0 0 0 -207.59674246899158 -344.46967889137159 0 -344.46967889137159 -616.78441824817855 0 0 0 0 -0.1968762790273173 1.03811399376076 0 1.03811399376076 -3.1884224332589781 0 0 0 0 -287.31645958091406 -450.22951494038625 0 -450.22951494038625 -543.48269552292186 0 0 0 0 1.9015855240318473 -0.12002218733685766 0 -0.12002218733685766 -3.3243223316042645 0 0 0 0 -437.61016640347304 -361.38530290156996 0 -361.38530290156996 -614.42918988858764 0 0 0 0 -11.384444942156563 3.721561115969962 0 3.721561115969962 -6.0750294359604595 0 0 0 0 48.172731341484791 51.520835597120822 0 51.520835597120822 -199.73922562379812 0 0 0 0 326.85435752043577 -229.17717539561272 0 -229.17717539561272 -18.876260008150894 0 0 0 0 102.49451292198842 -11.278666126645476 0 -11.278666126645476 -126.55235457164235 0 0 0 0 -30.576989110785689 53.454951766074373 0 53.454951766074373 -273.28766747586633 0 0 0 0 -67.36600458513476 -275.47678368228662 0 -275.47678368228662 -417.05259878743345 0 0 0 0 -279.9474877752823 -55.450996350293281 0 -55.450996350293281 -183.40485557557486 0 0 0 0 -94.564640515408314 -220.04725893403156 0 -220.04725893403156 -413.05389348154495 0 0 0 0 -460.35682148848048 -326.74571101400761 0 -326.74571101400761 -204.42449041606596 0 0 0 0 21.5694231369921 -389.56613817706238 0 -389.56613817706238 -218.50372130645883 0 0 0 0 228.00414573285093 -93.024418841341685 0 -93.024418841341685 76.427370887147845 0 0 0 0 -90.875525440091224 -510.1946050347542 0 -510.1946050347542 -122.31666196108927 0 0 0 0 79.30910989236645 -538.14037400036068 0 -538.14037400036068 -245.60313556187248 0 0 0 0 77.483596745797513 -516.46109779292419 0 -516.46109779292419 -378.77618223664672 0 0 0 0 2.9758790538102158 2.0151135650720988 0 2.0151135650720988 -7.2231095405605998 0 0 0 0 -1.8725744044515267 -6.1080417649616834 0 -6.1080417649616834 -22.271087631906994 0 0 0 0 7.088660033844576 -5.0512866345097791 0 -5.0512866345097791 -32.98776463276954 0 0 0 0 1.0875985414945717 -2.9003602890097682 0 -2.9003602890097682 -22.627372687697061 0 0 0 0 -33.418005131310792 -645.48838388103832 0 -645.48838388103832 -320.77304668041324 0 0 0 0 51.059536116641311 -75.530909474760847 0 -75.530909474760847 -60.723188141113496 0 0 0 0 9.5725753815986536 7.3853088322830445 0 7.3853088322830445 -5.5577400710126312 0 0 0 0 -2.0919490453148448 -2.0360381652254773 0 -2.0360381652254773 -12.690944541689532 0 0 0 0 19.951435275890219 4.2594661120274395 0 4.2594661120274395 -26.915488053313311 0 0 0 0 13.624967132768601 -14.874409523676647 0 -14.874409523676647 2.2882013478909045 0 0 0 0 8.2894114791677289 2.6982343201485719 0 2.6982343201485719 -34.160281004398257 0 0 0 0 83.631397011852982 1.0998689645693958 0 1.0998689645693958 -64.537692766032706 0 0 0 0 24.67514135170336 13.523829771871533 0 13.523829771871533 -17.447459755763703 0 0 0 0 22.369338164084951 -16.589163631240993 0 -16.589163631240993 -1.2864344749517329 0 0 0 0 54.979697550271567 -9.8006254950523726 0 -9.8006254950523726 -41.613850614863622 0 0 0 0 15.191861692812381 -43.595800511022389 0 -43.595800511022389 -52.012244687248312 0 0 0 0 933.55753500969695 538.38935361706535 0 538.38935361706535 197.02997973627134 0 0 0 0 531.450830838196 208.54013586341534 0 208.54013586341534 8.3503594868234359 0 0 0 0 8.7524843513284925 -2.197348601854813 0 -2.197348601854813 -7.8417087400733791 0 0 0 0 961.39897251826005 -171.28158257621544 0 -171.28158257621544 -146.13958137330542 0 0 0 0 5.9912172176444098 -4.0417093080768964 0 -4.0417093080768964 -13.080223076926842 0 0 0 0 371.62691593927144 -319.18014170576362 0 -319.18014170576362 245.25494644483842 0 0 0 0 -14.306511525450645 -80.08308040862903 0 -80.08308040862903 -31.911806267697102 0 0 0 0 -62.26576902049144 -55.966983504025848 0 -55.966983504025848 -23.400600836284866 0 0 0 0 244.2654118129999 43.507793012046022 0 43.507793012046022 -121.61367916293784 0 0 0 0 -309.38260166149661 -310.06387831347865 0 -310.06387831347865 183.24896372409421 0 0 0 0 4.43079181866905 3.2883332127368625 0 3.2883332127368625 -34.665786931876966 0 0 0 0 0.26906701027151431 -0.62964044308608003 0 -0.62964044308608003 -3.7335756333642962 0 0 0 0 978.6310794073031 -4.1672676212074293 0 -4.1672676212074293 -312.72075214348297 0 0 0 0 739.14754557387914 3.0871334076509811 0 3.0871334076509811 -133.57998737970775 0 0 0 0 751.06975928988891 -146.4638539528205 0 -146.4638539528205 -296.06707774741517 0 0 0 0 383.95764303701401 -46.079794797871727 0 -46.079794797871727 -122.36050299410999 0 0 0 0 568.11728581697616 -63.387360282111331 0 -63.387360282111331 -284.67128714913997 0 0 0 0 568.58963078397517 509.27898437728891 0 509.27898437728891 -252.87501532604074 0 0 0 0 903.12450010597365 391.11489774257734 0 391.11489774257734 -291.80939096844668 0 0 0 0 -200.7703872264774 -353.64512623845076 0 -353.64512623845076 -311.62937205022899 0 0 0 0 356.86981699271564 -73.855876550980611 0 -73.855876550980611 -459.4569723777422 0 0 0 0 352.63290724476815 -35.203922329663328 0 -35.203922329663328 -225.37771843787777 0 0 0 0 570.96454990224947 -34.739363587876142 0 -34.739363587876142 -328.49722852132982 0 0 0 0 304.71187671767393 98.762412210526236 0 98.762412210526236 -107.9412656705681 0 0 0 0 580.51550864833405 83.726443045134147 0 83.726443045134147 -267.91377515173372 0 0 0 0 729.06509922784926 -35.71768388793862 0 -35.71768388793862 -280.38777608470673 0 0 0 0 291.07118188112054 -5.4884840546183113 0 -5.4884840546183113 -175.75729283706823 0 0 0 0 -51.184194315943046 -133.46546386211639 0 -133.46546386211639 -156.49031146723428 0 0 0 0 -78.002840225588216 -43.929217062173848 0 -43.929217062173848 -120.16217843521008 0 0 0 0 -507.87155382684296 -278.78732947535673 0 -278.78732947535673 -3.319835835332924 0 0 0 0 -406.35237559511734 185.18811603250424 0 185.18811603250424 140.16800268781662 0 0 0 0 210.68781825327596 4.7981729590792384 0 4.7981729590792384 -460.23183987808443 0 0 0 0 963.18304469109353 202.1956024340252 0 202.1956024340252 -185.55657646523105 0 0 0 0 201.56512392977493 -6.6707111846408225 0 -6.6707111846408225 825.57858153631969 0 0 0 0 -152.36813663076484 -72.628033527110688 0 -72.628033527110688 50.210301213825005 0 0 0 0 1115.3509603760672 -455.12000625427754 0 -455.12000625427754 59.647977844892011 0 0 0 0 4.8497399980371512 -2.0703670388033331 0 -2.0703670388033331 -3.8600686649948841 0 0 0 0 -183.1234941571397 -659.59334037590816 0 -659.59334037590816 185.68463194720971 0 0 0 0 31.921283386060168 6.5209027068813157 0 6.5209027068813157 -30.045368093793513 0 0 0 0 122.36752727534713 -94.016121970944369 0 -94.016121970944369 -131.46911644564534 0 0 0 0 308.25232975220797 259.24745339266155 0 259.24745339266155 27.566057074665878 0 0 0 0 4.8033290763717034 2.8531427593545686 0 2.8531427593545686 -7.6149700203106363 0 0 0 0 -9.2587473823284654 -23.125620083708782 0 -23.125620083708782 15.190624578881398 0 0 0 0 0.53810554954332535 -1.574752201374011 0 -1.574752201374011 0.5834504475835729 0 0 0 0 10.109578308521577 23.816088542112993 0 23.816088542112993 -15.894515037587553 0 0 0 0 185.05889554025237 58.144619903669081 0 58.144619903669081 53.22012473893119 0 0 0 0 409.02953300294803 548.26065151466173 0 548.26065151466173 202.5563534762623 0 0 0 0 372.6242903873457 38.344999963966984 0 38.344999963966984 -260.68869508057833 0 0 0 0 238.0647394839084 71.42744721604322 0 71.42744721604322 -264.53251016284776 0 0 0 0 226.40707086322843 -106.46735865355834 0 -106.46735865355834 -495.90238980425056 0 0 0 0 108.81831460184549 -17.051470116632117 0 -17.051470116632117 -486.63262541341101 0 0 0 0 245.61947337394417 218.65356863410852 0 218.65356863410852 -344.60425272056455 0 0 0 0 -98.109254328519057 132.96772546548164 0 132.96772546548164 -594.35089902391337 0 0 0 0 100.53912596491729 -162.32365798279534 0 -162.32365798279534 -782.39176390443026 0 0 0 0 -238.42582538050405 -134.2901598018816 0 -134.2901598018816 -902.81218221106974 0 0 0 0 -83.701417706150096 349.09813807870341 0 349.09813807870341 -189.24535970811849 0 0 0 0 -287.45174561194193 502.77674754593318 0 502.77674754593318 -782.13384351326386 0 0 0 0 -192.86091579046069 183.36461644645533 0 183.36461644645533 -94.507306852952752 0 0 0 0 -370.52578623882982 402.23707849663333 0 402.23707849663333 74.882131614074751 0 0 0 0 268.97058941084492 129.2726858585047 0 129.2726858585047 -53.637129029382777 0 0 0 0 -202.29655778492844 183.6316506062758 0 183.6316506062758 333.45408221051184 0 0 0 0 -185.86948036309934 609.37837635626965 0 609.37837635626965 371.90017008467112 0 0 0 0 -179.7615044377909 340.86166831920855 0 340.86166831920855 -844.17227474572064 0 0 0 0 -51.460814546300981 137.31132547363086 0 137.31132547363086 -917.11423464216205 0 0 0 0 -0.79849798381641612 2.6777620175819692 0 2.6777620175819692 -3.5565902262371338 0 0 0 0 -564.29837535615889 393.08175879769988 0 393.08175879769988 -605.63800721170992 0 0 0 0 -89.621462570521089 -328.14849010899889 0 -328.14849010899889 -536.53902366746115 0 0 0 0 0.22426427119316017 4.9389348121389887 0 4.9389348121389887 -7.7659604793252583 0 0 0 0 -72.142799387386106 -133.33586303499874 0 -133.33586303499874 -128.07963283289428 0 0 0 0 6.8096061497899427 -2.9382142606118578 0 -2.9382142606118578 -109.36709249006526 0 0 0 0 -32.008281670073302 -337.30861641827505 0 -337.30861641827505 -722.4284135299531 0 0 0 0 -165.31983967884025 -416.29012950202741 0 -416.29012950202741 -816.98294792270462 0 0 0 0 -60.583990494995476 -286.64751156999137 0 -286.64751156999137 -701.272150536548 0 0 0 0 -43.390057792295011 -411.30297744424024 0 -411.30297744424024 -884.60326436629111 0 0 0 0 -80.245441160686369 -443.43299844809462 0 -443.43299844809462 -827.89710574303172 0 0 0 0 -117.80513329120504 -523.93749960951391 0 -523.93749960951391 -1000.5735715626724 0 0 0 0 -114.67112891924694 -485.5626772673786 0 -485.5626772673786 -1016.8870487917739 0 0 0 0 -230.16875811503269 -602.17787621499883 0 -602.17787621499883 -1134.601205811392 0 0 0 0 -201.24027294838493 -380.22034792558952 0 -380.22034792558952 -837.04548808619438 0 0 0 0 -241.56557443519159 -420.57146648392518 0 -420.57146648392518 -819.74768037116155 0 0 0 0 -298.46920490030834 -227.73691735311877 0 -227.73691735311877 -1067.9953501481014 0 0 0 0 -160.21364557477546 -396.16314926290579 0 -396.16314926290579 -947.74833938572556 0 0 0 0 -474.7111103751165 -407.12340102207236 0 -407.12340102207236 -948.01337176030211 0 0 0 0 -208.33024277317872 -251.23628248948353 0 -251.23628248948353 -997.17576314977487 0 0 0 0 -8.4960308290943711 8.429326677683818 0 8.429326677683818 -6.6012825014897487 0 0 0 0 -107.93464205331111 -210.06773967795743 0 -210.06773967795743 -544.3312610218909 0 0 0 0 -41.989628547145912 -483.28271838786895 0 -483.28271838786895 -832.2637851004838 0 0 0 0 -254.51070716327285 -326.4141892022817 0 -326.4141892022817 -511.7601005851393 0 0 0 0 -245.21923528563002 -460.40386256959755 0 -460.40386256959755 -561.92982849988039 0 0 0 0 -168.88155810985972 -334.41597413057752 0 -334.41597413057752 -780.14892697025789 0 0 0 0 -244.35523679142256 -36.260612329671858 0 -36.260612329671858 -1229.8786562723399 0 0 0 0 -4.226535563157479 3.8461459505584941 0 3.8461459505584941 -3.5776541992072737 0 0 0 0 0.64534190915125267 0.3034825935522889 0 0.3034825935522889 -0.29052403211410649 0 0 0 0 105.46324548023904 -298.42486504977569 0 -298.42486504977569 -38.110974225036898 0 0 0 0 -40.508476520038357 -251.81069546417115 0 -251.81069546417115 -1019.8238765599235 0 0 0 0 -428.1140681358371 -1.9183669946596638 0 -1.9183669946596638 -1104.3557987465028 0 0 0 0 -290.17808398581838 -276.29231211337901 0 -276.29231211337901 -997.89614172084111 0 0 0 0 -367.49244437445986 63.435329349376843 0 63.435329349376843 -1098.7036344681983 0 0 0 0 -479.90214367549265 -52.066080719407182 0 -52.066080719407182 -816.6806854229435 0 0 0 0 -440.86619223527725 156.4371209332312 0 156.4371209332312 -1195.0596277764707 0 0 0 0 -687.86592160158978 188.76692314133834 0 188.76692314133834 -918.37979199183974 0 0 0 0 -363.94336596201782 212.05612494774687 0 212.05612494774687 -17.184145615894522 0 0 0 0 -556.34436513408923 414.7332058609245 0 414.7332058609245 2.9798140486091143 0 0 0 0 -325.43083762209221 195.88476272024127 0 195.88476272024127 78.013532049228161 0 0 0 0 -181.95709087837821 294.9828209829102 0 294.9828209829102 71.189597029580909 0 0 0 0 -82.956520741208124 215.67716654098331 0 215.67716654098331 78.613522578486482 0 0 0 0 42.663964053236271 45.958957013517647 0 45.958957013517647 -487.75068923200888 0 0 0 0 -163.96102153264832 427.33740191188735 0 427.33740191188735 -318.9235932296142 0 0 0 0 42.806156071868259 54.940626101404632 0 54.940626101404632 -187.64417978458368 0 0 0 0 96.263656083125056 44.630799703329103 0 44.630799703329103 -200.44685815870616 0 0 0 0 178.9732717365647 -12.243058194202604 0 -12.243058194202604 -213.0839073390307 0 0 0 0 107.21877756847445 81.893248345413667 0 81.893248345413667 -79.657670206521288 0 0 0 0 128.15002853243544 53.476793946698308 0 53.476793946698308 -46.495491238412797 0 0 0 0 -137.57100614923942 206.25085953819871 0 206.25085953819871 245.28643904764613 0 0 0 0 59.60336323114808 39.545971693205502 0 39.545971693205502 129.93018870219385 0 0 0 0 143.95598526376222 87.839602937794552 0 87.839602937794552 -34.311322037421633 0 0 0 0 -66.312018218176888 215.04713587417609 0 215.04713587417609 -46.701016794861061 0 0 0 0 -12.413314885610093 199.47544468209207 0 199.47544468209207 -54.818411900261708 0 0 0 0 -55.835471068730357 -81.598805718953372 0 -81.598805718953372 1.9337557798498892 0 0 0 0 1.2229021147414354 1.1988472942396271 0 1.1988472942396271 -1.0434156055347188 0 0 0 0 83.934192927704629 98.971702195023681 0 98.971702195023681 55.305693518283078 0 0 0 0 138.4785136816256 101.05412833703303 0 101.05412833703303 -10.08249122351117 0 0 0 0 101.81630876617608 -59.181727434151981 0 -59.181727434151981 18.021439401145471 0 0 0 0 123.67594672159498 68.021820732734341 0 68.021820732734341 -8.0014485434144262 0 0 0 0 176.73589475605385 -35.999657629905414 0 -35.999657629905414 -58.250266461653155 0 0 0 0 106.99302945333599 30.632782041408063 0 30.632782041408063 -73.700712906720582 0 0 0 0 69.358493637060775 39.294432676957513 0 39.294432676957513 44.324944439693354 0 0 0 0 -2.4161632765456602 19.555843929752882 0 19.555843929752882 -16.282674759320798 0 0 0 0 18.790031442914596 -13.155795349601249 0 -13.155795349601249 -0.25650977110854001 0 0 0 0 2.9342872146660284 8.7870808894804213 0 8.7870808894804213 -16.581311779056932 0 0 0 0 -15.973424590713336 2.4401761760018417 0 2.4401761760018417 3.9555458507529693 0 0 0 0 93.544890136377404 29.587233097248827 0 29.587233097248827 -104.34407485777047 0 0 0 0 77.369079512818644 -402.27819288501632 0 -402.27819288501632 -694.01173911276419 0 0 0 0 25.644939605369245 -45.203328472583962 0 -45.203328472583962 -287.25225678420975 0 0 0 0 -165.82165757621368 19.759344641099233 0 19.759344641099233 -293.78582023582567 0 0 0 0 -26.417419244431471 59.163760275121604 0 59.163760275121604 -283.63118187984946 0 0 0 0 -96.872989726994092 128.21735851017729 0 128.21735851017729 -323.09873360999336 0 0 0 0 18.328361303955688 144.96993839031074 0 144.96993839031074 -448.19025481589051 0 0 0 0 0.61474821117450018 -0.21638959182770634 0 -0.21638959182770634 -0.36006976355641029 0 0 0 0 126.87985999093715 11.113193481713097 0 11.113193481713097 -338.28921280695431 0 0 0 0 87.568670193290359 98.647169266772835 0 98.647169266772835 -260.54005185343703 0 0 0 0 137.18051488305463 47.581375653309806 0 47.581375653309806 -292.66453391373216 0 0 0 0 81.166243596744494 -20.804291296873998 0 -20.804291296873998 -296.86782919194957 0 0 0 0 23.111427822873679 -3.8694795084356883 0 -3.8694795084356883 -218.2078861498012 0 0 0 0 -29.066675933499596 -60.118035657767905 0 -60.118035657767905 -209.03338757325582 0 0 0 0 3.0472865215593146 30.786591023168512 0 30.786591023168512 -77.785879442209989 0 0 0 0 16.161768862365193 -21.968936421086255 0 -21.968936421086255 -70.812119209380853 0 0 0 0 3.6233656439230768 2.3933951479300077 0 2.3933951479300077 1.4850836832620189 0 0 0 0 6.7349334283655438 28.604185272307859 0 28.604185272307859 -213.04536499056849 0 0 0 0 1.1810291977124028 0.67192268830885382 0 0.67192268830885382 0.27452972439070322 0 0 0 0 90.730586008528746 -93.452757327486324 0 -93.452757327486324 10.322576367019792 0 0 0 0 15.776850249573272 9.5720609470117779 0 9.5720609470117779 -1.0476853804852908 0 0 0 0 20.597702673260414 27.195548451858485 0 27.195548451858485 -76.477381877863081 0 0 0 0 6.9494063605694123 42.272461502325314 0 42.272461502325314 -90.8028347803629 0 0 0 0 -37.803194357714574 57.999995421239873 0 57.999995421239873 -63.616561227136117 0 0 0 0 -122.1322342796725 -19.716874768455455 0 -19.716874768455455 -41.935056947004341 0 0 0 0 84.470222932393014 32.419877940358333 0 32.419877940358333 -68.289195009856485 0 0 0 0 -84.823077818309685 132.09835342478618 0 132.09835342478618 -118.44736142386319 0 0 0 0 93.87189534996358 -267.34332752826447 0 -267.34332752826447 -472.52622353226616 0 0 0 0 -57.665903369460011 18.128075638174778 0 18.128075638174778 -52.862302707962954 0 0 0 0 -363.4174203780226 229.6594427484597 0 229.6594427484597 -147.7378016867151 0 0 0 0 -0.28303543214788807 1.2581553904019227 0 1.2581553904019227 -11.020342419168173 0 0 0 0 -806.47960990549723 664.72958279700333 0 664.72958279700333 -457.64486814094562 0 0 0 0 45.842215529535679 285.09923737758436 0 285.09923737758436 -1155.8002875835955 0 0 0 0 84.039398263020075 129.07979585790599 0 129.07979585790599 -896.57521573365193 0 0 0 0 130.79928295728175 -22.405105551894849 0 -22.405105551894849 -503.39966705219558 0 0 0 0 -90.832656929950645 0.13201402414051699 0 0.13201402414051699 -325.58211430271331 0 0 0 0 -31.436639381090004 -85.241767532621452 0 -85.241767532621452 -336.40341651086646 0 0 0 0 -106.55666638112302 88.154536321973865 0 88.154536321973865 -415.59785427947463 0 0 0 0 -43.295573693847018 -86.373278779818065 0 -86.373278779818065 -253.39875550953366 0 0 0 0 -37.451663912152753 51.519640637081466 0 51.519640637081466 -100.09838120326094 0 0 0 0 -43.844485733002443 17.489327892788424 0 17.489327892788424 16.350666778656887 0 0 0 0 -14.625838345391003 41.155937032177462 0 41.155937032177462 -24.423209581320407 0 0 0 0 -15.286332555225499 8.2738181343775068 0 8.2738181343775068 -54.737388638150151 0 0 0 0 -10.133124809683892 41.498955578625782 0 41.498955578625782 -18.771131645931746 0 0 0 0 142.21874754742134 56.051740296343269 0 56.051740296343269 -86.182995743369247 0 0 0 0 -0.16701786061970281 1.972260177243033 0 1.972260177243033 -29.879582687162099 0 0 0 0 -65.204386989891077 122.54321316691357 0 122.54321316691357 -109.29931043762917 0 0 0 0 -29.925347442430848 119.74905374858281 0 119.74905374858281 -144.70016851751643 0 0 0 0 49.114264330454262 -3.0418286703934427 0 -3.0418286703934427 -32.300193325681903 0 0 0 0 82.968139699717568 -10.134600706576975 0 -10.134600706576975 -80.487099930825934 0 0 0 0 4.1609448833603135 1.5784045713252546 0 1.5784045713252546 -44.651351059776459 0 0 0 0 21.113201146581105 4.285193536648876 0 4.285193536648876 -62.5217119627996 0 0 0 0 16.623519488525346 4.7482433086988749 0 4.7482433086988749 -69.073783802974503 0 0 0 0 175.16956311354943 20.759876286952931 0 20.759876286952931 -47.300512588539277 0 0 0 0 23.766683667350662 -11.495478450913652 0 -11.495478450913652 -24.346546130807837 0 0 0 0 5.1167114203769444 3.9758798288739179 0 3.9758798288739179 -44.945376414819378 0 0 0 0 70.200918619894765 -25.521664182164386 0 -25.521664182164386 -20.281452643908779 0 0 0 0 15.553227587470291 -0.92406927929852856 0 -0.92406927929852856 -29.248776355680796 0 0 0 0 4.1426737180011672 0.23374802010816609 0 0.23374802010816609 -2.9212670472500264 0 0 0 0 -0.21011534281035438 4.8627448281622492 0 4.8627448281622492 -64.55798849198618 0 0 0 0 7.7662438343400026 -7.187220018091466 0 -7.187220018091466 -46.629550811418426 0 0 0 0 33.602404615449814 13.545569484529551 0 13.545569484529551 -46.871463357390212 0 0 0 0 20.165080903180524 8.356046625005547 0 8.356046625005547 -69.378627558369772 0 0 0 0 15.764379472720544 4.2446724531034903 0 4.2446724531034903 -12.763755635999058 0 0 0 0 12.046228823917318 9.3806540028381278 0 9.3806540028381278 -60.952105201693485 0 0 0 0 29.412062041699301 49.525843849842204 0 49.525843849842204 -20.72505727009775 0 0 0 0 70.635496253328256 33.370143965371426 0 33.370143965371426 -41.868083280060091 0 0 0 0 -7.5917680263592047 36.920234040051582 0 36.920234040051582 -11.304232115006016 0 0 0 0 8.2075189226268321 22.472126269385626 0 22.472126269385626 -6.6630174210004043 0 0 0 0 -2.7546043314638382 20.881170888416818 0 20.881170888416818 -4.932636660625576 0 0 0 0 14.247818484164327 27.989475672944536 0 27.989475672944536 -8.8827154087994131 0 0 0 0 6.6460623770088549 4.8017099441551636 0 4.8017099441551636 3.1389725784358404 0 0 0 0 -0.74118338285393293 -8.7078690076555176 0 -8.7078690076555176 17.243686321948189 0 0 0 0 -10.630926927321752 23.095889547083061 0 23.095889547083061 -10.799468131612684 0 0 0 0 0.0098822673688072626 2.5632114373813977 0 2.5632114373813977 1.2093899735564491 0 0 0 0 1.8418863602531275 -0.36756323405958824 0 -0.36756323405958824 -1.7129328930396639 0 0 0 0 3.8824786789905374 7.9203128477238351 0 7.9203128477238351 -85.224662105400057 0 0 0 0 0.65242820775938526 34.638507444644347 0 34.638507444644347 -127.953369678944 0 0 0 0 8.3458670580203034 32.169775607690099 0 32.169775607690099 -141.31116456983773 0 0 0 0 -8.5036623919402246 37.999496606600587 0 37.999496606600587 -80.446028242135071 0 0 0 0 9.2709393787124554 15.476658029008831 0 15.476658029008831 -52.407735883170972 0 0 0 0 11.775619168838602 -2.6787870971602388 0 -2.6787870971602388 -87.454534461443473 0 0 0 0 12.074818065470936 12.981336904020282 0 12.981336904020282 -90.098796599100751 0 0 0 0 1.4004033078201701 24.304752954110882 0 24.304752954110882 -2.3497021915682126 0 0 0 0 12.213180649284435 3.9995068299336225 0 3.9995068299336225 0.64798442528274602 0 0 0 0 12.10160567429557 3.9660815919814922 0 3.9660815919814922 -73.068559508486942 0 0 0 0 5.3568372102137118 17.42572418157124 0 17.42572418157124 -61.105253405403346 0 0 0 0 2.0215695736475254 8.0271207932828474 0 8.0271207932828474 -52.862040285777766 0 0 0 0 10.738972819010087 9.6271231358114164 0 9.6271231358114164 -50.757426878462866 0 0 0 0 8.6155143959488214 7.1373825358386966 0 7.1373825358386966 -54.052143075343338 0 0 0 0 -4.8834851353440172 3.5765089730230102 0 3.5765089730230102 -48.727362990717666 0 0 0 0 -4.3690684746316037 20.428615931672539 0 20.428615931672539 -68.689408014688524 0 0 0 0 2.3320769779348893 5.7020749551975314 0 5.7020749551975314 -48.331208225667069 0 0 0 0 7.3161479705090642 10.246741235507216 0 10.246741235507216 -45.856110125929263 0 0 0 0 12.114828278857658 13.973206495480554 0 13.973206495480554 -41.746571074614621 0 0 0 0 4.7861619836148748 9.5072326823101321 0 9.5072326823101321 -42.889309044439869 0 0 0 0 13.647652785119135 12.765810605942534 0 12.765810605942534 -49.826352780713933 0 0 0 0 6.1155256969873335 12.149979159628856 0 12.149979159628856 -49.85832057585867 0 0 0 0 22.995563172240963 16.174175929765624 0 16.174175929765624 -53.011969592713285 0 0 0 0 14.958003097646269 8.8248879893326375 0 8.8248879893326375 -38.074765391218534 0 0 0 0 21.576826899021853 10.45327672798885 0 10.45327672798885 -48.967061413335614 0 0 0 0 58.273784640374743 125.8618731942297 0 125.8618731942297 50.462868350102326 0 0 0 0 125.17835766948338 107.5228096261817 0 107.5228096261817 -5.6914149662989075 0 0 0 0 -0.63999498082803585 7.2724359217588415 0 7.2724359217588415 -42.261773142942531 0 0 0 0 -3.8902711027234318 32.089643436611368 0 32.089643436611368 -2.2729499899360235 0 0 0 0 40.772464370128773 81.387989979062695 0 81.387989979062695 8.879307677372708 0 0 0 0 -8.7910185071996807 35.437539203363485 0 35.437539203363485 -24.72029639579705 0 0 0 0 -0.53604588425062361 6.940060626119541 0 6.940060626119541 -0.6743388412745901 0 0 0 0 117.52926509540976 49.939554299005977 0 49.939554299005977 -25.260722410341259 0 0 0 0 38.41436587722211 22.587103585540717 0 22.587103585540717 -4.8199051703704754 0 0 0 0 34.450134491068155 61.680967064517063 0 61.680967064517063 -9.728024201685912 0 0 0 0 14.501661334274559 38.829493860175717 0 38.829493860175717 -11.727706901772763 0 0 0 0 3.9099369319799506 -7.0632646782375339 0 -7.0632646782375339 -5.6769511059092963 0 0 0 0 16.444204912724217 12.042977865392459 0 12.042977865392459 -48.020461313928536 0 0 0 0 16.781565396542192 9.3146758694565506 0 9.3146758694565506 -63.323158796440111 0 0 0 0 13.86830784175504 16.281413936574609 0 16.281413936574609 -53.271921950974502 0 0 0 0 3.7394553023827939 20.279875278029067 0 20.279875278029067 -45.693881629840689 0 0 0 0 -1.606786087234866 22.345533224804058 0 22.345533224804058 -46.990736360385199 0 0 0 0 -0.1128472666620155 16.523780211191479 0 16.523780211191479 -26.093448914340115 0 0 0 0 -19.543106883318728 2.8704502990003675 0 2.8704502990003675 -12.735133777045121 0 0 0 0 -32.81546652482799 30.772266581007443 0 30.772266581007443 -31.665067692301818 0 0 0 0 -34.542054577331669 11.230342406597629 0 11.230342406597629 -16.509092286141822 0 0 0 0 -14.177079715294667 33.571636237418716 0 33.571636237418716 -39.041434080980252 0 0 0 0 -7.8849317833861505 40.111734419122513 0 40.111734419122513 -40.012349303811789 0 0 0 0 9.4250224999219654 29.076651914128888 0 29.076651914128888 -43.435192556440597 0 0 0 0 1.6973146375079295 17.762750301476444 0 17.762750301476444 -36.519692073678016 0 0 0 0 3.8412235502808016 27.741215638328867 0 27.741215638328867 -54.460463933062783 0 0 0 0 0.8463780295280432 0.038548787356859293 0 0.038548787356859293 0.059575914206963176 0 0 0 0 -6.9836788333821005 25.371991837193491 0 25.371991837193491 -40.264180897785991 0 0 0 0 27.035030535096212 4.4401658944134397 0 4.4401658944134397 -73.880877519397472 0 0 0 0 31.536433264081438 -16.908885234436184 0 -16.908885234436184 -9.1819782090024091 0 0 0 0 38.333673712901486 20.283233766893318 0 20.283233766893318 -40.807722497804207 0 0 0 0 18.747038568362768 20.596471191925957 0 20.596471191925957 -44.768943347764434 0 0 0 0 18.767562127342217 25.186781823686033 0 25.186781823686033 -50.242324893755722 0 0 0 0 31.743825835038251 15.771468367682246 0 15.771468367682246 -49.753162410339428 0 0 0 0 21.962908506640588 27.077904721634695 0 27.077904721634695 -47.443025458807824 0 0 0 0 10.43907351884809 -1.1831580045873125 0 -1.1831580045873125 -38.284451708843335 0 0 0 0 37.017235908031353 14.063836377166808 0 14.063836377166808 -59.726449227404373 0 0 0 0 -0.69636999547969936 24.755575089242484 0 24.755575089242484 -58.126673289270911 0 0 0 0 -3.1740555645487802 24.335824757767114 0 24.335824757767114 -50.783391930428479 0 0 0 0 0.36297679377474923 -0.16597351002724281 0 -0.16597351002724281 -0.15498294886264929 0 0 0 0 -0.53012645134140257 21.98167461995763 0 21.98167461995763 -16.136790911605203 0 0 0 0 4.8928727638009377 12.864240712297033 0 12.864240712297033 -75.749245001745294 0 0 0 0 -26.02373623893493 29.226009272239025 0 29.226009272239025 -42.710302287494414 0 0 0 0 -63.410097965509635 52.75871099962751 0 52.75871099962751 -54.737153574977128 0 0 0 0 -60.156459858879771 104.24892710926724 0 104.24892710926724 -93.749153010759983 0 0 0 0 0.61081139775622018 0.13672198229696875 0 0.13672198229696875 -0.8827264132822279 0 0 0 0 121.56316524521282 -91.747369422719203 0 -91.747369422719203 -20.618562989358907 0 0 0 0 97.056192571443489 -13.567477152035281 0 -13.567477152035281 -62.432097571138002 0 0 0 0 12.709492441255861 23.665695957843127 0 23.665695957843127 -149.94192431957345 0 0 0 0 46.561273759868527 -9.3205661550746299 0 -9.3205661550746299 -37.6890421393 0 0 0 0 52.523745903776557 16.502357516103075 0 16.502357516103075 -31.623753543934981 0 0 0 0 47.139619417846411 -44.859955062797326 0 -44.859955062797326 26.707785869861254 0 0 0 0 58.759093944604729 7.5529246792902995 0 7.5529246792902995 -14.393316943991522 0 0 0 0 1.1684898491400117 0.21186936991033178 0 0.21186936991033178 -1.6608686502880516 0 0 0 0 54.741988714438094 10.528624175909499 0 10.528624175909499 -11.891242619678451 0 0 0 0 70.604570802516662 -6.102536679946752 0 -6.102536679946752 -16.569966858201951 0 0 0 0 -25.648780909028233 36.821654765577478 0 36.821654765577478 -44.207227131882973 0 0 0 0 8.6056011116003219 12.05579466983545 0 12.05579466983545 -43.482707318071334 0 0 0 0 -8.3733714927261644 16.348012864576958 0 16.348012864576958 -22.051189849014918 0 0 0 0 -5.2710876373798783 20.629143742194174 0 20.629143742194174 -32.575103898299858 0 0 0 0 -5.2425431962187758 13.132465310245607 0 13.132465310245607 -22.959479898397149 0 0 0 0 1.5135636810504995 0.55951209041689509 0 0.55951209041689509 -2.4674419065377435 0 0 0 0 -5.2442209192632117 14.025058893992529 0 14.025058893992529 -21.018491783746867 0 0 0 0 -10.686513750419863 18.82206056952964 0 18.82206056952964 -15.599237938738952 0 0 0 0 0.93834926807607921 -1.7694672832169189 0 -1.7694672832169189 -7.9696922872321636 0 0 0 0 -10.270755388891985 28.50236219571525 0 28.50236219571525 -60.251470034914291 0 0 0 0 0.68654286848706647 0.33271411010075269 0 0.33271411010075269 -1.2154410636778179 0 0 0 0 8.4286310390808694 3.4684348279770347 0 3.4684348279770347 -5.3657174644831684 0 0 0 0 2.8561375952485832 10.880380798808801 0 10.880380798808801 9.4889083839807427 0 0 0 0 45.258939532840031 47.449338736019854 0 47.449338736019854 41.014894555039064 0 0 0 0 0.3628303354382334 -0.17994138232779733 0 -0.17994138232779733 0.074465517405872816 0 0 0 0 101.88773296057889 -3.2351158939345623 0 -3.2351158939345623 -128.31884488021888 0 0 0 0 56.452093485539535 -12.713475153494073 0 -12.713475153494073 -8.4246620604244526 0 0 0 0 86.707320726411012 -7.3550219991084305 0 -7.3550219991084305 -40.024543823761633 0 0 0 0 56.969044982852438 12.170288209729733 0 12.170288209729733 -28.88311942837754 0 0 0 0 95.147579090765703 45.736083812334982 0 45.736083812334982 -24.431354758882662 0 0 0 0 120.19185715213416 -294.9728916514905 0 -294.9728916514905 -382.77438392071053 0 0 0 0 -211.59692273456903 168.75581976753165 0 168.75581976753165 -15.646703089465518 0 0 0 0 -157.17595050120866 -207.87666756692306 0 -207.87666756692306 -225.96857568869018 0 0 0 0 13.441047372272124 -189.01138205973257 0 -189.01138205973257 -341.40405025491054 0 0 0 0 -12.869563257222126 -25.745760810470529 0 -25.745760810470529 -102.60005599416763 0 0 0 0 -39.330149112184245 21.697577312701469 0 21.697577312701469 49.262356404467937 0 0 0 0 20.495571539254342 17.019157955926858 0 17.019157955926858 -37.196792781345721 0 0 0 0 236.34878277163364 140.77913405836625 0 140.77913405836625 -106.75201603341702 0 0 0 0 9.425029344988161 14.360006871953374 0 14.360006871953374 -33.423212281340966 0 0 0 0 -0.13915144475001417 7.7179705732261716 0 7.7179705732261716 -38.471662332056383 0 0 0 0 4.9879237723855567 10.864242878767982 0 10.864242878767982 -37.94961251164932 0 0 0 0 9.7795427139135427 14.521319199739082 0 14.521319199739082 -37.51716285235716 0 0 0 0 4.7745305821758848 16.370231858356419 0 16.370231858356419 -44.150414027511943 0 0 0 0 5.3177902770955825 13.872035735692407 0 13.872035735692407 -32.708431839579134 0 0 0 0 7.7069120725673201 14.486974106737762 0 14.486974106737762 -32.809673915899111 0 0 0 0 1.5377152455996566 13.852352066929598 0 13.852352066929598 -26.314427429089847 0 0 0 0 1.7708261737141129 13.092028373110224 0 13.092028373110224 -26.279112844291376 0 0 0 0 8.0000991216543298 13.585744701420481 0 13.585744701420481 -30.445085769984871 0 0 0 0 12.110025245341831 10.708735877178697 0 10.708735877178697 -32.528612128735404 0 0 0 0 6.0925617252156599 8.8080584054896462 0 8.8080584054896462 -26.738920000127109 0 0 0 0 1.8989810557829752 4.2771259872837213 0 4.2771259872837213 -32.794267295765977 0 0 0 0 12.003420573587391 12.401063833978696 0 12.401063833978696 -30.297893646067678 0 0 0 0 -1.7181634408239006 8.5775424556995858 0 8.5775424556995858 -12.669137603370473 0 0 0 0 3.546682787696227 11.290879084615881 0 11.290879084615881 -25.640285605452846 0 0 0 0 1.9406696761734441 3.3841360948812138 0 3.3841360948812138 -2.1164261147674104 0 0 0 0 4.1308591391180016 -2.6070777165878098 0 -2.6070777165878098 -18.27878361332705 0 0 0 0 0.51918081983376396 0.8929970494536974 0 0.8929970494536974 -10.004805344520719 0 0 0 0 2.6294642631977516 0.79920169795419227 0 0.79920169795419227 -16.519160209581855 0 0 0 0 -55.91023969625985 -47.874584417188089 0 -47.874584417188089 -38.029871136874135 0 0 0 0 -50.834724090446798 -54.394120504075545 0 -54.394120504075545 -31.34508679562714 0 0 0 0 2.87566215101333 -1.4080902766290819 0 -1.4080902766290819 -21.233556868225151 0 0 0 0 2.0782603368518453 2.3284492299560071 0 2.3284492299560071 -7.5369010627366517 0 0 0 0 -39.348900361642336 -38.350714420037548 0 -38.350714420037548 -80.227630035689799 0 0 0 0 0.42323254679078559 -0.22963358273682388 0 -0.22963358273682388 -7.4325403721018208 0 0 0 0 -31.187404951659573 -55.739974743435596 0 -55.739974743435596 -48.649444057053188 0 0 0 0 -234.93991971285413 -64.83836635107582 0 -64.83836635107582 -121.15631988317909 0 0 0 0 -126.38981222735902 -236.72539567398417 0 -236.72539567398417 14.563201497610862 0 0 0 0 265.94912411615564 47.529828617409294 0 47.529828617409294 -205.31092695123516 0 0 0 0 72.81996076521682 -146.88144780515722 0 -146.88144780515722 168.29566739325537 0 0 0 0 -437.33806421274085 -343.67413233188927 0 -343.67413233188927 -118.78866324387491 0 0 0 0 -43.401227553986246 5.2379289404343581 0 5.2379289404343581 -17.738372043200798 0 0 0 0 -0.018797027986596715 -1.9924638350495485 0 -1.9924638350495485 -5.1188229122442408 0 0 0 0 -712.56301713463108 -185.48519746840611 0 -185.48519746840611 114.62907867026661 0 0 0 0 240.95107220472613 -14.345485040460062 0 -14.345485040460062 -222.15529376680206 0 0 0 0 -3.5473647794019598 -70.784214721254102 0 -70.784214721254102 35.45137748543948 0 0 0 0 -48.895658770690147 -4.6525189300664351 0 -4.6525189300664351 -3.6306029398765531 0 0 0 0 -13.634088450350873 12.724049751897837 0 12.724049751897837 12.856501188254697 0 0 0 0 -122.02491114350653 -60.088724360492051 0 -60.088724360492051 -5.9942409849973046 0 0 0 0 2.5789858082252088 -3.270097797379151 0 -3.270097797379151 -4.0389872971750975 0 0 0 0 473.01960646775296 43.733907996247581 0 43.733907996247581 -69.930439657837269 0 0 0 0 -135.15472596404993 -99.420486678904126 0 -99.420486678904126 -112.97460309420421 0 0 0 0 -22.764578133864688 -21.190177398410015 0 -21.190177398410015 -83.213843320714659 0 0 0 0 -4.5653236585479817 -76.773145921813921 0 -76.773145921813921 -36.078026813316683 0 0 0 0 114.13457874649339 -99.026690540595155 0 -99.026690540595155 -121.91028867029672 0 0 0 0 162.42614307311965 -3.7221162123969407 0 -3.7221162123969407 -41.304790693868199 0 0 0 0 286.85593134388751 -153.37477744312309 0 -153.37477744312309 51.020087085271371 0 0 0 0 269.96797657665456 185.86739354318706 0 185.86739354318706 137.13480269389675 0 0 0 0 155.69082044267589 -70.287670089515814 0 -70.287670089515814 -388.16772155273793 0 0 0 0 -58.203428494414538 47.1855626011602 0 47.1855626011602 -83.303454763537957 0 0 0 0 579.12992239098503 337.51562010063935 0 337.51562010063935 -366.74557609615294 0 0 0 0 -73.834309286952475 185.53863270958027 0 185.53863270958027 -399.22929193474556 0 0 0 0 -0.60055202100999061 -1.5588376197139411 0 -1.5588376197139411 -3.2314399566537872 0 0 0 0 522.04199159050313 216.92801277298713 0 216.92801277298713 -585.47211132907796 0 0 0 0 106.15305383078771 -138.39152079320229 0 -138.39152079320229 59.116799722862197 0 0 0 0 92.555803073704936 -21.803123418954783 0 -21.803123418954783 -201.86755648106919 0 0 0 0 126.59716433054348 -87.18184140978974 0 -87.18184140978974 -94.409115273585485 0 0 0 0 -27.134494718847236 -81.994171391568671 0 -81.994171391568671 -287.96259656386519 0 0 0 0 31.810015205360969 -138.67640677029704 0 -138.67640677029704 -301.48653171333717 0 0 0 0 -272.05983993825726 -276.74689672371642 0 -276.74689672371642 -294.76260072953301 0 0 0 0 14.351451280140054 -71.287078134289914 0 -71.287078134289914 -539.81785171295269 0 0 0 0 0.94207413675215124 -1.0367163623306652 0 -1.0367163623306652 -2.5512097486169267 0 0 0 0 -131.04938977171219 -8.6741575586856925 0 -8.6741575586856925 -1.7294488875340903 0 0 0 0 -83.439358017058368 222.01772759135656 0 222.01772759135656 -187.5478254954578 0 0 0 0 -55.078961483968442 41.627234547835542 0 41.627234547835542 -162.95795210776669 0 0 0 0 -38.508185213015395 -68.002229350950074 0 -68.002229350950074 -192.85333892800554 0 0 0 0 -68.199183980069847 -70.09904277438909 0 -70.09904277438909 -60.187501662818249 0 0 0 0 -54.400962321687473 -9.8265876786936133 0 -9.8265876786936133 -58.299910728739633 0 0 0 0 -28.89311889599071 48.255821518523589 0 48.255821518523589 -4.0919036790692189 0 0 0 0 -49.600225710685436 35.611636982652271 0 35.611636982652271 0.75460231021497748 0 0 0 0 -4.9280023942358184 44.595205107706533 0 44.595205107706533 -9.645235765587131 0 0 0 0 -0.066942214775011166 -4.7387987365742674 0 -4.7387987365742674 -9.9425048916808265 0 0 0 0 -10.957820898060348 36.565771523412309 0 36.565771523412309 -14.659830883931136 0 0 0 0 -11.931603774005225 54.350516243888706 0 54.350516243888706 16.901992769860954 0 0 0 0 38.507920735666175 -20.797469805616856 0 -20.797469805616856 -34.703176268871175 0 0 0 0 25.953741077247741 12.66483236325621 0 12.66483236325621 -7.7388781269837637 0 0 0 0 42.363434426874392 -35.472725278264988 0 -35.472725278264988 19.39085141320902 0 0 0 0 30.443900774807389 -1.6664433231308067 0 -1.6664433231308067 -26.868795825932466 0 0 0 0 45.00522659216972 -4.7156688528284576 0 -4.7156688528284576 -31.326059433115006 0 0 0 0 -2.0066138779195706 -3.880505523185974 0 -3.880505523185974 -6.7748507442902337 0 0 0 0 -51.360469683226029 -38.234774319538701 0 -38.234774319538701 -31.047187252057483 0 0 0 0 113.09904962364135 -60.000123927595268 0 -60.000123927595268 -14.581640365046042 0 0 0 0 97.595247156860069 15.797755393025 0 15.797755393025 -21.796946641319664 0 0 0 0 46.22188909865568 -6.7026407536027364 0 -6.7026407536027364 -19.417709588924481 0 0 0 0 -10.143701048976482 40.89777514610978 0 40.89777514610978 -18.05947328849652 0 0 0 0 51.316643588824064 33.189721798572918 0 33.189721798572918 -53.135643532921677 0 0 0 0 -36.316487353932189 41.334583242154622 0 41.334583242154622 -35.098139918904053 0 0 0 0 20.780375894899407 35.517993233010202 0 35.517993233010202 -64.0378021855322 0 0 0 0 63.851131086214309 22.535299281669722 0 22.535299281669722 -44.388175440912164 0 0 0 0 15.787579151907607 16.453745292178155 0 16.453745292178155 -30.288146408805915 0 0 0 0 40.529034178236088 15.926116004597134 0 15.926116004597134 -54.731978700569016 0 0 0 0 18.771356773200296 35.17142956716998 0 35.17142956716998 -45.006852360060293 0 0 0 0 6.5460238189898519 15.036123512833001 0 15.036123512833001 -52.202739621279761 0 0 0 0 6.6665121686119448 8.5860584987549515 0 8.5860584987549515 0.23603361929265776 0 0 0 0 11.720125735044235 49.039804372201615 0 49.039804372201615 189.12220062119377 0 0 0 0 -13.464247796668815 28.201428693329945 0 28.201428693329945 -40.901174687831372 0 0 0 0 -42.963913893372137 67.617770519122132 0 67.617770519122132 -257.34106158414215 0 0 0 0 2.0364665517081937 1.2861824480147703 0 1.2861824480147703 -4.1138293213612513 0 0 0 0 -19.490750523573524 19.269522236420016 0 19.269522236420016 11.507804776461853 0 0 0 0 -5.2012628021239937 5.3561886237424972 0 5.3561886237424972 0.80879250904073796 0 0 0 0 8.5014321098803531 7.3597574705555289 0 7.3597574705555289 2.0264552992958897 0 0 0 0 30.697819579664838 17.035152966874193 0 17.035152966874193 -261.45625232735983 0 0 0 0 -7.2338883728652945 56.842593463261437 0 56.842593463261437 -55.867725445150427 0 0 0 0 20.032842151490968 35.172291313258029 0 35.172291313258029 -244.48683647817597 0 0 0 0 23.897238319864528 -10.84839821242349 0 -10.84839821242349 -165.08676117947471 0 0 0 0 43.238212544488761 9.9339667137187462 0 9.9339667137187462 -219.01770179660525 0 0 0 0 80.977057513380515 -146.71974192839252 0 -146.71974192839252 -481.74369193387247 0 0 0 0 -2.1842357121323017 3.2144965943489581 0 3.2144965943489581 -4.360811246549062 0 0 0 0 133.33276925184259 65.182869918018696 0 65.182869918018696 -502.0879335300815 0 0 0 0 213.3082563600658 -303.71711732740368 0 -303.71711732740368 -304.22505489362084 0 0 0 0 -30.686370616896511 167.03485809233098 0 167.03485809233098 -100.83327679718241 0 0 0 0 -25.054318620674831 239.94866186563542 0 239.94866186563542 -270.92933964295662 0 0 0 0 -52.623164171114411 64.872494098586685 0 64.872494098586685 -152.06617914199887 0 0 0 0 55.393502927754071 65.95006736893265 0 65.95006736893265 -213.13245119936619 0 0 0 0 58.017653653335856 -32.05236793430231 0 -32.05236793430231 -53.735473359214666 0 0 0 0 89.780000473643668 -31.086449716509378 0 -31.086449716509378 -57.425922959340824 0 0 0 0 70.979750241429656 -35.747604186864919 0 -35.747604186864919 47.157600169433863 0 0 0 0 59.811979917130031 -101.90805962342665 0 -101.90805962342665 104.50000228791032 0 0 0 0 150.45574334236466 -68.451869390471984 0 -68.451869390471984 -107.96220207304577 0 0 0 0 64.974765760677656 -73.13600571059942 0 -73.13600571059942 -96.026230624549498 0 0 0 0 62.831766742103127 -307.38404448133224 0 -307.38404448133224 108.68705665858943 0 0 0 0 -32.30358478823905 -137.8521558095963 0 -137.8521558095963 264.69435801462168 0 0 0 0 27.542381118099001 -21.138304051299201 0 -21.138304051299201 -32.327809035672544 0 0 0 0 12.400411422210102 6.2858051689196515 0 6.2858051689196515 -1.7909149488621665 0 0 0 0 48.035909049265683 6.4360861189197749 0 6.4360861189197749 124.88950311757799 0 0 0 0 5.4834387675150538 -11.746003281841695 0 -11.746003281841695 -30.467318783852534 0 0 0 0 24.927841281020847 18.880610379357677 0 18.880610379357677 -62.372786757710855 0 0 0 0 -434.53580867806437 410.57293656277398 0 410.57293656277398 67.575231176913803 0 0 0 0 8.6625979405175713 24.514692219232529 0 24.514692219232529 -45.543055805919721 0 0 0 0 415.97503310828426 321.68907848593108 0 321.68907848593108 368.70103342480797 0 0 0 0 0.68329439433385719 1.2667686164170178 0 1.2667686164170178 -0.17657888352694928 0 0 0 0 67.741346364427727 140.00066903603147 0 140.00066903603147 274.54091069222704 0 0 0 0 231.07619253270832 5.4312251954252133 0 5.4312251954252133 -569.92381867480071 0 0 0 0 335.94162302562017 185.11453430014444 0 185.11453430014444 -380.8677241964142 0 0 0 0 53.164725036908266 7.1523208312119095 0 7.1523208312119095 -79.145858940355538 0 0 0 0 -100.89911118262239 -31.017495044241514 0 -31.017495044241514 -239.22667062815162 0 0 0 0 61.418304234528307 69.052250896051873 0 69.052250896051873 -184.79800324895768 0 0 0 0 -88.586861685556727 105.14096638095884 0 105.14096638095884 -222.14800741258659 0 0 0 0 -49.322681859911881 18.1628962022005 0 18.1628962022005 -171.12494188024721 0 0 0 0 -53.640561473939769 66.126368605858033 0 66.126368605858033 -173.52485734907532 0 0 0 0 -23.061273264362171 -8.5665956861557788 0 -8.5665956861557788 -242.27746335865231 0 0 0 0 -28.06057151161599 26.110432301680703 0 26.110432301680703 -184.39095577847911 0 0 0 0 1.6813570352273928 4.1480479392357665 0 4.1480479392357665 13.413149078714923 0 0 0 0 29.248081526455053 41.49484297683739 0 41.49484297683739 61.4927217008144 0 0 0 0 0.42511492246433136 56.96241019820809 0 56.96241019820809 -370.49956876518991 0 0 0 0 -0.67681615094445924 3.1633534423204779 0 3.1633534423204779 -0.53868088434342365 0 0 0 0 24.532081515203572 65.06093808305377 0 65.06093808305377 5.7200404972936667 0 0 0 0 6.4191850720052583 4.294524917224237 0 4.294524917224237 2.1514922703139661 0 0 0 0 -39.355346929797093 87.55336241683483 0 87.55336241683483 -66.299776715000917 0 0 0 0 -9.6972563661081281 41.637823751757651 0 41.637823751757651 -70.911995841292082 0 0 0 0 68.543987990779328 47.519442813260866 0 47.519442813260866 -67.059269420671626 0 0 0 0 186.66740767175747 -64.402144372172188 0 -64.402144372172188 -70.303029470280762 0 0 0 0 3.7333083224317858 1.9348279919957037 0 1.9348279919957037 -0.025822912725431024 0 0 0 0 -84.570889428585588 -269.04303998574323 0 -269.04303998574323 -368.67904508250831 0 0 0 0 207.59832685026299 161.79632460388711 0 161.79632460388711 -228.89191539504463 0 0 0 0 134.30711375890371 148.77486377420064 0 148.77486377420064 85.15817751159193 0 0 0 0 39.12923553028304 43.864356584266716 0 43.864356584266716 44.732643234852731 0 0 0 0 -516.55156266844301 -483.22526806519591 0 -483.22526806519591 -410.13345611496334 0 0 0 0 302.79366449538361 339.41882172014994 0 339.41882172014994 102.24423526409737 0 0 0 0 0.45917865259501922 0.76560752847852243 0 0.76560752847852243 -6.3844732591632152 0 0 0 0 -132.38327670563808 -267.2679406803436 0 -267.2679406803436 -767.51178508670637 0 0 0 0 -28.954479737860083 -125.32022315757422 0 -125.32022315757422 -79.66575125289819 0 0 0 0 -194.15494521653892 -96.961185153512815 0 -96.961185153512815 -11.671192638117645 0 0 0 0 -304.08679460923622 58.048692439795559 0 58.048692439795559 -134.18422583700158 0 0 0 0 -8.9788841618270752 -364.84440967993407 0 -364.84440967993407 13.07039651053492 0 0 0 0 129.6287361743523 25.463722821146803 0 25.463722821146803 35.641506755375303 0 0 0 0 0.85106454115678609 0.30777266099584466 0 0.30777266099584466 -0.19501769869292218 0 0 0 0 -45.504461923965891 101.06629703723956 0 101.06629703723956 -402.94244831246033 0 0 0 0 -118.63476751426663 -25.60784059096477 0 -25.60784059096477 -184.00873366587621 0 0 0 0 -57.72086068743846 60.995625667277636 0 60.995625667277636 -70.011371107946616 0 0 0 0 -58.26189545458849 67.487530185891728 0 67.487530185891728 -147.88922485101648 0 0 0 0 -9.6701473561995996 36.636914594964765 0 36.636914594964765 -136.35080608427415 0 0 0 0 -42.393720568656533 122.10415222612824 0 122.10415222612824 -322.70241518029798 0 0 0 0 18.028015747354154 86.447714305573754 0 86.447714305573754 -314.76993856050103 0 0 0 0 -10.933302033572659 -0.37313326261937618 0 -0.37313326261937618 -168.02994397601287 0 0 0 0 5.0636779875900295 79.002491585014468 0 79.002491585014468 -316.16545225793743 0 0 0 0 -88.048038240230653 27.51549712108681 0 27.51549712108681 -282.27143756563692 0 0 0 0 -9.5148983462547676 -8.0191284852504623 0 -8.0191284852504623 -386.12533706948307 0 0 0 0 -69.532942128146829 -113.90219510385941 0 -113.90219510385941 -256.46088961680289 0 0 0 0 -2.7216816479054842 -69.135652644572474 0 -69.135652644572474 -248.2286513572908 0 0 0 0 -409.76237034457665 -55.322054289028529 0 -55.322054289028529 -186.54474266007946 0 0 0 0 -138.72714267650201 90.423305454023648 0 90.423305454023648 -539.32105206080814 0 0 0 0 -94.135973417104083 2.4452067451675248 0 2.4452067451675248 -366.90708773463302 0 0 0 0 -78.318200191577944 -175.85333586376146 0 -175.85333586376146 -652.36531284378725 0 0 0 0 -66.254475066333214 -103.94677456966019 0 -103.94677456966019 -467.18956104056269 0 0 0 0 -205.14058140842485 -309.28924452454157 0 -309.28924452454157 -517.29357705907387 0 0 0 0 -360.38789346975011 -292.49440258142226 0 -292.49440258142226 -227.98530541572109 0 0 0 0 -195.33329446751523 -255.99724635748589 0 -255.99724635748589 -254.96774005627231 0 0 0 0 -130.87690749299213 -192.83226370528791 0 -192.83226370528791 -214.65233904442357 0 0 0 0 -214.95763545753994 -209.12225511917131 0 -209.12225511917131 -136.56666691502323 0 0 0 0 -123.95354026119685 -156.27965777248392 0 -156.27965777248392 -112.20372262273668 0 0 0 0 -198.08771276694847 -111.13234804643071 0 -111.13234804643071 -76.27792181096811 0 0 0 0 -102.58622516086962 -55.965965461589803 0 -55.965965461589803 -63.691944013055036 0 0 0 0 -192.24835533901751 -110.62012589418009 0 -110.62012589418009 -83.360858421438024 0 0 0 0 -166.33195557854401 3.2342236992144535 0 3.2342236992144535 -24.485851904086303 0 0 0 0 -34.587998081679643 -187.7184322559915 0 -187.7184322559915 -167.02649482419292 0 0 0 0 -50.934959271255835 -116.92235925300315 0 -116.92235925300315 -125.29257156106178 0 0 0 0 -131.38492259719953 -202.09148853667284 0 -202.09148853667284 -170.31413677152887 0 0 0 0 -54.103240589603345 -141.6710239159645 0 -141.6710239159645 -289.0360832525912 0 0 0 0 -90.394409344757804 -186.58367936202922 0 -186.58367936202922 -165.12298924966672 0 0 0 0 -123.54005177367026 -203.3979354870753 0 -203.3979354870753 -152.14619866718567 0 0 0 0 -145.12422954632825 -189.01000192587162 0 -189.01000192587162 -146.16088408127689 0 0 0 0 -87.113171708309181 -196.5847863840645 0 -196.5847863840645 -161.85999757549871 0 0 0 0 -90.949596278174468 -174.73817010169353 0 -174.73817010169353 -132.53980388576747 0 0 0 0 -83.573837588250498 -205.92593825862423 0 -205.92593825862423 -138.60280988401973 0 0 0 0 -31.51553658503849 -179.68878767187016 0 -179.68878767187016 -173.1626663433417 0 0 0 0 -60.218293959178709 -198.69518553237867 0 -198.69518553237867 -158.55285546156665 0 0 0 0 -33.077000168582515 -252.81653233920406 0 -252.81653233920406 -185.97148936684971 0 0 0 0 -70.073737172940298 -169.52832282627423 0 -169.52832282627423 -239.94625187915517 0 0 0 0 -120.39841742258693 -193.32256458154006 0 -193.32256458154006 -173.17567188410612 0 0 0 0 -113.5074787891599 -197.75923640079418 0 -197.75923640079418 -189.91285555134527 0 0 0 0 -117.85451792820277 -184.16881100022147 0 -184.16881100022147 -166.71092839502671 0 0 0 0 -100.53274579781259 -167.22515921261947 0 -167.22515921261947 -140.04121845177724 0 0 0 0 -111.36623920661896 -188.94073388382094 0 -188.94073388382094 -183.09481907574809 0 0 0 0 -72.789454713164787 -148.22205547371414 0 -148.22205547371414 -202.89475220389431 0 0 0 0 -71.067809044005116 -147.57701078407263 0 -147.57701078407263 -220.47101776559066 0 0 0 0 5.8906949873558725 8.2221576133470649 0 8.2221576133470649 -4.8413459466294047 0 0 0 0 -17.242428239690184 -50.553502842236412 0 -50.553502842236412 -218.75016826743376 0 0 0 0 -130.11453220137264 -146.74544025307841 0 -146.74544025307841 -278.39127307140734 0 0 0 0 41.304243916404175 -81.522958749999816 0 -81.522958749999816 -521.04980492602044 0 0 0 0 -142.23890199072957 -53.440028517065912 0 -53.440028517065912 -404.10765665857616 0 0 0 0 2.1402457767919918 -0.59401146922257908 0 -0.59401146922257908 -2.3846797685517345 0 0 0 0 -112.27489664443056 -205.37949240447779 0 -205.37949240447779 -290.36429284696351 0 0 0 0 4.6147396636690772 -1.1656239590943329 0 -1.1656239590943329 -2.8275607690965803 0 0 0 0 108.07704022561711 -202.69271948208188 0 -202.69271948208188 -605.78470123197621 0 0 0 0 -12.025482782990025 -108.20962556711129 0 -108.20962556711129 -635.30953935324578 0 0 0 0 -34.713325539065181 -238.7955851683073 0 -238.7955851683073 -266.15109344361736 0 0 0 0 -57.702568846572333 -135.92652145514148 0 -135.92652145514148 -397.32535266800551 0 0 0 0 -50.425593427840795 -43.167387441106257 0 -43.167387441106257 -96.19380425298732 0 0 0 0 -36.667440490454283 -16.997205238054448 0 -16.997205238054448 -92.795696677581873 0 0 0 0 -66.156831939483709 -25.937607143445348 0 -25.937607143445348 -60.759991627339332 0 0 0 0 -84.430032125867456 -55.194525369089206 0 -55.194525369089206 -85.331650318097672 0 0 0 0 -136.94014012505033 -82.530708725425029 0 -82.530708725425029 -73.513291299677803 0 0 0 0 -65.442364049695243 -62.555329948547296 0 -62.555329948547296 -114.92054024185927 0 0 0 0 -127.77574115872358 -144.12256699509408 0 -144.12256699509408 -127.44018911866442 0 0 0 0 -85.062999640043927 -116.91055556206993 0 -116.91055556206993 -111.97089502531162 0 0 0 0 -101.67875419121265 -155.86358305697286 0 -155.86358305697286 -167.23933747016417 0 0 0 0 -46.53647863394508 -116.56655196831707 0 -116.56655196831707 -164.80306168980405 0 0 0 0 -53.529130392861134 -92.981119165753626 0 -92.981119165753626 -148.28034026772002 0 0 0 0 9.3636836377522741 -21.09337138846422 0 -21.09337138846422 -151.60422128114442 0 0 0 0 -61.329967024037614 -99.872930923469539 0 -99.872930923469539 -154.36214202753763 0 0 0 0 -10.025058511340376 -76.717361514922231 0 -76.717361514922231 -254.36628348526574 0 0 0 0 -19.120877905536418 -28.438370652998856 0 -28.438370652998856 -91.416381044984973 0 0 0 0 7.2411080441357889 5.9027307863163259 0 5.9027307863163259 -19.710288993568899 0 0 0 0 -6.9011811917553132 24.537927935081825 0 24.537927935081825 -81.036090175213758 0 0 0 0 8.7146554940676406 18.802968832422984 0 18.802968832422984 -56.210655982628452 0 0 0 0 11.2705429192157 -14.889892526287213 0 -14.889892526287213 -120.5185882847727 0 0 0 0 -27.980738863129659 -42.444728907647004 0 -42.444728907647004 -121.34119722429023 0 0 0 0 12.500657518372293 7.3301342213517273 0 7.3301342213517273 -111.71919016206812 0 0 0 0 -33.280778517285739 -10.352397076394482 0 -10.352397076394482 -83.483183305856073 0 0 0 0 -4.576361791281581 -9.4767313175456493 0 -9.4767313175456493 -36.296276316022684 0 0 0 0 49.259218946204783 133.70504612542391 0 133.70504612542391 -245.05385259428294 0 0 0 0 5.2035236092659698 8.2236079394221662 0 8.2236079394221662 -48.959853866265362 0 0 0 0 9.4310440788754928 -0.52613673131329364 0 -0.52613673131329364 -28.888592571831424 0 0 0 0 4.1367739119841644 -10.025336056685774 0 -10.025336056685774 -42.396820559326443 0 0 0 0 2.2025362676017721 -5.7157273385164444 0 -5.7157273385164444 -43.514826145699772 0 0 0 0 22.547948532553391 -46.993065379479049 0 -46.993065379479049 -71.68202416672284 0 0 0 0 -26.512191304816952 -71.15162025558493 0 -71.15162025558493 5.0027915556165681 0 0 0 0 17.760205679721039 -15.636444687154228 0 -15.636444687154228 -68.238940925949592 0 0 0 0 8.3851726149146266 -9.5117930109767883 0 -9.5117930109767883 -13.66687986203749 0 0 0 0 2.2822718212740885 -3.6559370382660532 0 -3.6559370382660532 -2.998030863899487 0 0 0 0 -5.1504020011498142 -2.9713416735085048 0 -2.9713416735085048 -57.580016341435112 0 0 0 0 30.724375799210975 -113.77537647990903 0 -113.77537647990903 -80.008278065623017 0 0 0 0 2.8173850378240708 -8.9863597674201543 0 -8.9863597674201543 -37.817331844640563 0 0 0 0 5.6672105680357792 -7.2530841593906459 0 -7.2530841593906459 -14.790877957687044 0 0 0 0 7.7778722055045932 -8.9307932834235544 0 -8.9307932834235544 -33.565758154070409 0 0 0 0 10.706873691223791 -1.2149280215271574 0 -1.2149280215271574 -46.901137820647364 0 0 0 0 135.68758085384979 18.07178787673547 0 18.07178787673547 -21.378254601622757 0 0 0 0 176.3738712716779 -227.28154547094528 0 -227.28154547094528 153.40401395934168 0 0 0 0 149.42932585963558 -539.0120073034941 0 -539.0120073034941 162.94482559575044 0 0 0 0 58.483427210694913 -354.58363852509683 0 -354.58363852509683 520.35989157175572 0 0 0 0 338.14537809433074 -387.18488498593524 0 -387.18488498593524 -344.39120151296811 0 0 0 0 348.35036563860058 -323.32171603294319 0 -323.32171603294319 39.05269139741722 0 0 0 0 299.44102717346527 -155.91238709340178 0 -155.91238709340178 -247.44705620669993 0 0 0 0 482.5899412906258 -259.740698349171 0 -259.740698349171 -233.10439322770981 0 0 0 0 492.35759088360442 -19.678054258140037 0 -19.678054258140037 -19.307552136518098 0 0 0 0 621.20500897827503 40.229793675703149 0 40.229793675703149 -54.786785956443055 0 0 0 0 634.98579145016447 67.43787265773426 0 67.43787265773426 -239.14086844360463 0 0 0 0 351.25409532446793 -267.70310937507384 0 -267.70310937507384 -113.92173880709015 0 0 0 0 392.74782376077655 -63.811972343479283 0 -63.811972343479283 -242.58586621882205 0 0 0 0 217.09979500638565 417.44357325762758 0 417.44357325762758 -8.1326887039995199 0 0 0 0 16.985683802457061 -133.2723515788748 0 -133.2723515788748 -223.88693839791449 0 0 0 0 2.4165876307943659 -0.79308026753172101 0 -0.79308026753172101 -1.7898486327106014 0 0 0 0 -121.54756549722697 -91.410467687819619 0 -91.410467687819619 -91.077009381027892 0 0 0 0 -199.92833882519517 -311.52148963002765 0 -311.52148963002765 -148.59588282908771 0 0 0 0 -3.3729511247620394 -102.96876192169657 0 -102.96876192169657 17.150649850911577 0 0 0 0 191.26599893335151 -176.13775143695602 0 -176.13775143695602 -148.61118236969924 0 0 0 0 1.4639509628015028 17.427079656748337 0 17.427079656748337 -85.349061307629214 0 0 0 0 116.50510548954753 109.18328624444257 0 109.18328624444257 -46.059620029991493 0 0 0 0 286.98551912654239 38.702720415712974 0 38.702720415712974 -134.64873163522861 0 0 0 0 145.48289810510687 -13.43428460981886 0 -13.43428460981886 -148.45257988031517 0 0 0 0 4.3173130599472023 11.461165719384116 0 11.461165719384116 -87.207191424983819 0 0 0 0 85.325286670797141 -49.78042504327459 0 -49.78042504327459 -148.99160902040876 0 0 0 0 0.86834695459174327 -117.91745038036561 0 -117.91745038036561 -143.60153894066752 0 0 0 0 83.918009555963181 -46.357624565871447 0 -46.357624565871447 -156.49046893292689 0 0 0 0 -857.09181044205093 251.43874569081891 0 251.43874569081891 -1115.9697248235098 0 0 0 0 -300.27676500913833 -113.45094867420994 0 -113.45094867420994 -896.70999991408462 0 0 0 0 103.23679580227082 101.18469956254921 0 101.18469956254921 -1082.0149619843833 0 0 0 0 -55.414190503139793 -234.04843279729357 0 -234.04843279729357 -1002.0925200643396 0 0 0 0 -151.04564400006066 -16.140842331200474 0 -16.140842331200474 -1496.9911138922034 0 0 0 0 -8.946930640602563 2.999850540208115 0 2.999850540208115 -2.2545417823644911 0 0 0 0 -197.31461684792384 552.70824930392337 0 552.70824930392337 -766.81950928497372 0 0 0 0 206.47488447568412 -343.55442734136886 0 -343.55442734136886 -600.8851490352863 0 0 0 0 -179.11139668025817 -183.82440909219804 0 -183.82440909219804 -737.61761131615935 0 0 0 0 169.20583342402881 166.6876158927189 0 166.6876158927189 -417.10536996231531 0 0 0 0 -937.45287754024639 193.43260503323472 0 193.43260503323472 -602.43093905591013 0 0 0 0 -261.34437232107416 -388.0891711396298 0 -388.0891711396298 -914.14759051128203 0 0 0 0 -1154.0825569147994 -250.01244820150896 0 -250.01244820150896 -49.558279004118958 0 0 0 0 -260.27442706300405 -239.91323546843705 0 -239.91323546843705 -155.71588348405203 0 0 0 0 198.47683533508643 -347.1820562705725 0 -347.1820562705725 -349.41487155155482 0 0 0 0 -408.06524812015346 -264.3203041015513 0 -264.3203041015513 177.25085989679428 0 0 0 0 -263.85378761406764 -122.01136927719563 0 -122.01136927719563 -38.321038931417206 0 0 0 0 -380.14786112934996 -82.373177527092594 0 -82.373177527092594 38.863365304612671 0 0 0 0 131.8123635915249 -33.078367033380346 0 -33.078367033380346 -133.76633158242475 0 0 0 0 -3.0652486097723131 -6.1885515768132606 0 -6.1885515768132606 -12.600254638511046 0 0 0 0 46.689198328522664 303.34379835096661 0 303.34379835096661 -799.66089114514034 0 0 0 0 -1.6668541311804024 -2.26702575610312 0 -2.26702575610312 -4.8553777801288334 0 0 0 0 -108.88500799175222 9.8790125672603608 0 9.8790125672603608 -182.44156329840916 0 0 0 0 -124.71455657693616 191.59613174779361 0 191.59613174779361 -401.11674971722823 0 0 0 0 -46.215748846159613 -62.208903525039204 0 -62.208903525039204 -274.15099679269042 0 0 0 0 45.495971834594116 -109.71942510105146 0 -109.71942510105146 -201.68494557013128 0 0 0 0 -78.049032247440778 -11.291907319151505 0 -11.291907319151505 -37.325905628502369 0 0 0 0 -14.383177772473687 -39.823023875565923 0 -39.823023875565923 -42.539558757460327 0 0 0 0 21.717895464228036 -66.845389846268517 0 -66.845389846268517 24.956768965676019 0 0 0 0 -71.564546183026664 -12.214772358358459 0 -12.214772358358459 28.767412165514543 0 0 0 0 -27.889439176862822 -40.192598783318317 0 -40.192598783318317 55.525914792873664 0 0 0 0 -64.793551432585218 -90.572601906047566 0 -90.572601906047566 9.2365274900439545 0 0 0 0 22.707346776000122 -57.642145368477941 0 -57.642145368477941 -19.270864732578048 0 0 0 0 -2.3281439435869196 -9.8030794678062243 0 -9.8030794678062243 -17.425260816825016 0 0 0 0 -56.840680380068989 -87.817738857049335 0 -87.817738857049335 -25.21555929799797 0 0 0 0 20.080585600294739 -157.68764360488422 0 -157.68764360488422 -8.8108330906834453 0 0 0 0 -22.011374000101114 -97.861575890306995 0 -97.861575890306995 2.1809789812832605 0 0 0 0 59.818676288161441 -98.465451980417129 0 -98.465451980417129 -35.361627718171803 0 0 0 0 112.85975318193232 -45.317289937054738 0 -45.317289937054738 -17.792628319963114 0 0 0 0 75.707919682562533 -29.158126146900031 0 -29.158126146900031 29.433118662345805 0 0 0 0 75.909424933437549 -21.04461763031577 0 -21.04461763031577 3.8752717220268096 0 0 0 0 -7.9671509454529996 -12.542087611258466 0 -12.542087611258466 2.3651920177799184 0 0 0 0 -2.8799891250796406 -13.956123740960093 0 -13.956123740960093 -1.9910935568306058 0 0 0 0 12.255688908899174 -50.49517617620586 0 -50.49517617620586 37.833450918064045 0 0 0 0 -1.3126086321546051 -3.2993852746133996 0 -3.2993852746133996 -1.2598339327457815 0 0 0 0 -3.2720016893144637 -10.854866330321912 0 -10.854866330321912 -4.8954689841076089 0 0 0 0 -2.1415570672252215 -10.126820969861001 0 -10.126820969861001 -1.3330466716361116 0 0 0 0 -2.9938368191813658 -11.25592087436085 0 -11.25592087436085 2.9900650840659182 0 0 0 0 18.754076743383735 -37.260531288331549 0 -37.260531288331549 25.101574082087609 0 0 0 0 -20.728598555612507 -13.716842111301958 0 -13.716842111301958 8.9191186836105771 0 0 0 0 -0.0084767688239135719 -5.1074325760278754 0 -5.1074325760278754 -2.6108878765833765 0 0 0 0 -45.05430919851915 -428.80630559003475 0 -428.80630559003475 126.7070665790161 0 0 0 0 122.84146634915339 -308.90433664205375 0 -308.90433664205375 -437.06545924487727 0 0 0 0 114.54517125972905 -423.38500763267439 0 -423.38500763267439 -42.496424192395352 0 0 0 0 -177.02971939831878 -175.67495395514197 0 -175.67495395514197 -4.3772368563513737 0 0 0 0 -140.75433665024957 -338.12701571724392 0 -338.12701571724392 44.664257349890249 0 0 0 0 31.246183803559234 -223.85807911062875 0 -223.85807911062875 -156.14268886940408 0 0 0 0 19.394224685425797 -167.88939229739117 0 -167.88939229739117 -28.969197787213488 0 0 0 0 42.511551628507959 -342.20109930490798 0 -342.20109930490798 -133.88808941557363 0 0 0 0 1.8887293146824504 -220.13807454922608 0 -220.13807454922608 -135.63997052326886 0 0 0 0 -5.33168568661074 -143.40777317893298 0 -143.40777317893298 -133.47644681298254 0 0 0 0 15.319122898453656 -189.9616729907666 0 -189.9616729907666 -98.519592755044869 0 0 0 0 86.046962731165422 -156.06202991754253 0 -156.06202991754253 -124.87788888905379 0 0 0 0 110.6881267527333 -129.72448359968985 0 -129.72448359968985 -81.262306170690863 0 0 0 0 68.135425156444512 -128.5158409222413 0 -128.5158409222413 -40.175286856443563 0 0 0 0 207.24067731524315 -87.678947788082951 0 -87.678947788082951 -90.056023975310382 0 0 0 0 96.783845992609486 -127.18313369246607 0 -127.18313369246607 7.7885441241733133 0 0 0 0 17.874422255582544 -180.62139891445622 0 -180.62139891445622 -84.451103930714453 0 0 0 0 92.453279507342444 -102.00962923008728 0 -102.00962923008728 -137.32657894035219 0 0 0 0 -57.263815467317386 -47.110529149321337 0 -47.110529149321337 -23.812918758318119 0 0 0 0 1.7174813951774155 -6.3151395465763187 0 -6.3151395465763187 -1.7151789207822219 0 0 0 0 -55.824440868795364 -26.601610676196287 0 -26.601610676196287 1.9642901658697838 0 0 0 0 -31.024079506249564 -44.572838186613808 0 -44.572838186613808 -16.932154752881615 0 0 0 0 0.52356052255049668 -1.9421692865579772 0 -1.9421692865579772 1.007405690214199 0 0 0 0 188.35944005657529 -2.9138543680764997 0 -2.9138543680764997 -30.85993629873883 0 0 0 0 173.66679696013352 -67.707011702375894 0 -67.707011702375894 -58.645122465110035 0 0 0 0 107.58995317144399 -57.94290656533849 0 -57.94290656533849 -1.3387565114971949 0 0 0 0 169.20777673308135 -23.598129249595331 0 -23.598129249595331 47.360773917098413 0 0 0 0 -35.042395901342616 -67.166743428564587 0 -67.166743428564587 -12.773974988187547 0 0 0 0 9.7857657203229564 -6.0735776296032782 0 -6.0735776296032782 -11.158760883648938 0 0 0 0 138.14636156648294 -43.500964659691817 0 -43.500964659691817 -37.874869923474762 0 0 0 0 0.46600683126263565 -3.0356978450444032 0 -3.0356978450444032 -14.896529605015672 0 0 0 0 42.681672463098721 -32.755551960508456 0 -32.755551960508456 -32.845805033754004 0 0 0 0 13.281185987158096 -48.47948805453052 0 -48.47948805453052 -27.605574757293653 0 0 0 0 0.68267268922304036 -3.8823850823713002 0 -3.8823850823713002 -23.670703821877197 0 0 0 0 150.48802336254698 -41.90132587237531 0 -41.90132587237531 -88.167081343771315 0 0 0 0 -150.7921662747286 -158.70914620319468 0 -158.70914620319468 -42.644694618378708 0 0 0 0 -166.97802398348017 -174.75536486489 0 -174.75536486489 -56.142809980580751 0 0 0 0 -121.85980946254131 -35.759618823749406 0 -35.759618823749406 -6.8916856203723 0 0 0 0 -205.56371715077853 -107.30495649788281 0 -107.30495649788281 -26.617114813503576 0 0 0 0 1.8839661900826448 -5.1223868588628143 0 -5.1223868588628143 -9.7973331149346734 0 0 0 0 5.3439974388902556 -5.7606603902931965 0 -5.7606603902931965 -9.4296248195259977 0 0 0 0 -21.924628116026952 -4.2710808160045417 0 -4.2710808160045417 -20.875987786981568 0 0 0 0 1.2289003163828145 -2.2756382058767386 0 -2.2756382058767386 -7.8388868629543538 0 0 0 0 -66.204227880893995 -15.725583375144197 0 -15.725583375144197 -100.81517474392604 0 0 0 0 -44.079133650901326 32.222280365862389 0 32.222280365862389 -28.686508346967457 0 0 0 0 -0.75116981894831358 -2.1332582381594563 0 -2.1332582381594563 -1.2182860156842423 0 0 0 0 -2.4194830905816991 -4.2259951863027823 0 -4.2259951863027823 -4.7333211410214631 0 0 0 0 -31.714231786312098 86.284546268472695 0 86.284546268472695 -316.43946780818806 0 0 0 0 -350.44834596771398 27.151370995423349 0 27.151370995423349 13.757631667694113 0 0 0 0 230.58305769334129 -329.92916428114404 0 -329.92916428114404 -607.14950619305819 0 0 0 0 -316.79918609724257 -44.29425798255761 0 -44.29425798255761 -59.090440081214183 0 0 0 0 -102.44318957810572 -294.80631865647774 0 -294.80631865647774 -65.495059221193515 0 0 0 0 -205.07812906539516 73.75654928138465 0 73.75654928138465 -149.02881075013283 0 0 0 0 -100.16303285551953 123.28966963392304 0 123.28966963392304 -125.80691509370627 0 0 0 0 -3.155020042308494 0.5801318592440623 0 0.5801318592440623 0.21663356412021528 0 0 0 0 52.782760692876195 7.6698110638008075 0 7.6698110638008075 -173.52591805266275 0 0 0 0 -51.131817274444757 -23.423056593199362 0 -23.423056593199362 38.114068155067798 0 0 0 0 38.009923646261086 -39.46263484208248 0 -39.46263484208248 -35.256677035179337 0 0 0 0 7.9104014267784351 2.6112800397713727 0 2.6112800397713727 7.4676201910333475 0 0 0 0 -45.662633743734659 34.316139575959824 0 34.316139575959824 -8.2034869906574386 0 0 0 0 -1.1369996580909265 -1.7194888485226603 0 -1.7194888485226603 -3.7254242435006688 0 0 0 0 -3.3416400712706036 -23.595211323376134 0 -23.595211323376134 -11.626413586891431 0 0 0 0 -2.6011309677739884 -10.733347133692263 0 -10.733347133692263 1.6629606962132399 0 0 0 0 23.508025635874219 -27.256829402456788 0 -27.256829402456788 -16.432753536002565 0 0 0 0 -17.755835488753632 -8.7423132734802493 0 -8.7423132734802493 3.8370753711496945 0 0 0 0 -565.04837863405737 482.97455736520806 0 482.97455736520806 315.80110644277738 0 0 0 0 -186.41450048714552 -335.30396049737101 0 -335.30396049737101 -220.10099142702529 0 0 0 0 -3.1243825780702075 0.84952197436351184 0 0.84952197436351184 -3.9065121234783362 0 0 0 0 112.18068941350418 10.198637159171994 0 10.198637159171994 5.6922223775836756 0 0 0 0 -1.7512717751230062 -9.3294617897342391 0 -9.3294617897342391 -36.291232037824216 0 0 0 0 162.68180677607154 -26.463347053533653 0 -26.463347053533653 -84.375756302812079 0 0 0 0 7.34219939508057 13.378723346460902 0 13.378723346460902 -53.480218091535789 0 0 0 0 118.71244379722611 2.7081323018101102 0 2.7081323018101102 -65.506153706419354 0 0 0 0 61.675620307722852 80.21846400677714 0 80.21846400677714 -73.133374036966416 0 0 0 0 -19.897498445776819 47.219515668644817 0 47.219515668644817 -34.757708266180998 0 0 0 0 9.0329166620090149 47.537171535203925 0 47.537171535203925 -41.485832909405872 0 0 0 0 -22.447931791736437 51.475626980732159 0 51.475626980732159 -29.241556947643403 0 0 0 0 -52.56667942070635 37.20849375718899 0 37.20849375718899 -19.133023649497773 0 0 0 0 -120.54503195883217 56.783148890681332 0 56.783148890681332 -23.054940518635703 0 0 0 0 -144.30655534182881 113.6639589185088 0 113.6639589185088 -113.11559273330931 0 0 0 0 -101.32799971668896 -166.32823601038399 0 -166.32823601038399 -224.1706885187923 0 0 0 0 15.599126703016964 66.451003811624105 0 66.451003811624105 -131.5741717451674 0 0 0 0 24.835027407034602 28.583098444096777 0 28.583098444096777 -24.736670610262081 0 0 0 0 187.43736119871687 70.322323899888943 0 70.322323899888943 -122.51177807728891 0 0 0 0 297.8671881587577 -168.44687391963271 0 -168.44687391963271 -50.409152411309151 0 0 0 0 -104.67443687549564 45.771760193070804 0 45.771760193070804 -21.690333700204519 0 0 0 0 319.54437324043829 -74.031389022460644 0 -74.031389022460644 -93.740989206551603 0 0 0 0 243.6968534922654 -255.60960951702691 0 -255.60960951702691 -34.694882516749203 0 0 0 0 -1.2389104838421918 -8.9716472317009597 0 -8.9716472317009597 -35.850186836324553 0 0 0 0 -199.17959899491586 298.98940682429929 0 298.98940682429929 -195.50822754867841 0 0 0 0 300.23765993244507 -67.808959608836631 0 -67.808959608836631 -327.90058716003114 0 0 0 0 -0.59107721653569012 -6.8445960262561059 0 -6.8445960262561059 -30.094630764662043 0 0 0 0 -149.45876764753962 635.62789795524077 0 635.62789795524077 -963.68437366728904 0 0 0 0 -0.23308805615527417 -2.2730613060525755 0 -2.2730613060525755 -12.926640715225773 0 0 0 0 -123.50455487820523 -206.32466158476018 0 -206.32466158476018 -7.7569106371120142 0 0 0 0 -3.2391283434897105 -627.0563857192974 0 -627.0563857192974 -584.16763155766967 0 0 0 0 78.606021687935026 67.320309763123078 0 67.320309763123078 -104.5581469033059 0 0 0 0 -263.50661796425572 -30.213102727928344 0 -30.213102727928344 -211.84204998020141 0 0 0 0 -120.05296538858016 -301.74971805819956 0 -301.74971805819956 -553.82994215105282 0 0 0 0 180.4810459834265 -22.935252987751483 0 -22.935252987751483 -1391.7792932255397 0 0 0 0 132.01663404315337 -18.10352062255879 0 -18.10352062255879 -698.91915138399054 0 0 0 0 -298.11655101239876 366.45243986728383 0 366.45243986728383 -748.98751716565675 0 0 0 0 -552.74554987390616 128.80364991757597 0 128.80364991757597 -433.71959540215903 0 0 0 0 71.46098076263263 249.68200090331811 0 249.68200090331811 -1348.9238695855493 0 0 0 0 -343.76873614605586 -326.86332240333286 0 -326.86332240333286 -787.6956774711216 0 0 0 0 39.138430866636241 319.54667724371802 0 319.54667724371802 -935.26371376996394 0 0 0 0 -127.34348675849446 52.289450142379792 0 52.289450142379792 -601.74732641479568 0 0 0 0 11.890650485970014 5.5832139753256342 0 5.5832139753256342 -661.95232116828629 0 0 0 0 25.689980329128957 31.116746666521067 0 31.116746666521067 -616.20681736915139 0 0 0 0 22.290720563216951 144.73595469897555 0 144.73595469897555 -738.95423572590562 0 0 0 0 -60.20595407301326 169.23014158178376 0 169.23014158178376 -544.28326778982591 0 0 0 0 23.100614621720808 -80.655734125761228 0 -80.655734125761228 -456.30177690954588 0 0 0 0 -101.88111183843 -34.846342177996121 0 -34.846342177996121 -23.658970988015426 0 0 0 0 -0.041229040556554714 0.47682084586769502 0 0.47682084586769502 -1.6681376490705873 0 0 0 0 -66.409689706570887 218.94632457555781 0 218.94632457555781 -344.81599845238088 0 0 0 0 -75.461161143992058 61.862775082488952 0 61.862775082488952 -28.613699272551912 0 0 0 0 -28.482619343872955 119.6809723728129 0 119.6809723728129 -386.02653504724731 0 0 0 0 -98.069557893915089 78.582205646205693 0 78.582205646205693 -175.16886896698668 0 0 0 0 1.5035077956736416 87.399857682153197 0 87.399857682153197 -384.11550896626431 0 0 0 0 -125.40312602043605 -48.87323185123023 0 -48.87323185123023 -211.04138061301455 0 0 0 0 -106.03926324117833 -16.016525516188267 0 -16.016525516188267 -339.43407051030954 0 0 0 0 -64.895886712679612 96.440124804739753 0 96.440124804739753 -292.82231828285148 0 0 0 0 13.270317102700687 20.465834990674921 0 20.465834990674921 -598.99638753249383 0 0 0 0 7.0915749325889692 -1.7917559433335555 0 -1.7917559433335555 -591.92839842356625 0 0 0 0 80.040152405085919 -29.376013413280361 0 -29.376013413280361 -690.21248905615357 0 0 0 0 75.203868465879737 -45.634467251271417 0 -45.634467251271417 -709.99121891851792 0 0 0 0 45.564737711956127 -17.837036636356061 0 -17.837036636356061 -688.18614724082181 0 0 0 0 9.9766009643635698 -39.079380201910681 0 -39.079380201910681 -665.71222585279065 0 0 0 0 -23.360882830196317 -109.18065593211577 0 -109.18065593211577 -798.89860403852072 0 0 0 0 -7.2778601528930267 49.898216899244289 0 49.898216899244289 -717.65231348196539 0 0 0 0 -9.788901126586893 43.521892447413848 0 43.521892447413848 -733.60250734474516 0 0 0 0 16.328201299606519 -126.01732729719697 0 -126.01732729719697 -870.43757099488357 0 0 0 0 -8.3989925504083658 65.987328609304313 0 65.987328609304313 -272.0945245154544 0 0 0 0 -23.349883367136872 9.9295671027664696 0 9.9295671027664696 -4.9294693236795766 0 0 0 0 51.175824277369429 56.883603530808614 0 56.883603530808614 -487.21337097009018 0 0 0 0 -1.9115651247511778 0.00071107243275037035 0 0.00071107243275037035 -395.58125741951153 0 0 0 0 21.368000989579741 -57.269200244135391 0 -57.269200244135391 -540.31601260048774 0 0 0 0 46.095071374061376 -9.5526725813724624 0 -9.5526725813724624 -642.94744514032936 0 0 0 0 -36.436668430591169 14.628795449264601 0 14.628795449264601 -6.3743062182393047 0 0 0 0 -375.49980442498418 -188.96117016189964 0 -188.96117016189964 -115.84274309893226 0 0 0 0 92.064892809174125 -72.551101544479025 0 -72.551101544479025 -860.68160633107618 0 0 0 0 -49.118170121100782 18.320299402629232 0 18.320299402629232 -6.805362612754152 0 0 0 0 97.050341850540462 -28.970271532874904 0 -28.970271532874904 -535.92384379874784 0 0 0 0 172.34832835495035 -112.01895154756858 0 -112.01895154756858 -1010.1161185498786 0 0 0 0 -433.15252527459234 628.63190832605324 0 628.63190832605324 -686.43098681484298 0 0 0 0 -98.222958902997561 148.45130417597466 0 148.45130417597466 -285.21646282115762 0 0 0 0 -44.278199080045852 113.69246637062906 0 113.69246637062906 -325.53053530527541 0 0 0 0 -6.020604687386804 -16.319327573766394 0 -16.319327573766394 -43.669542635424776 0 0 0 0 -60.028712748793851 156.24370488007844 0 156.24370488007844 -295.66470864295115 0 0 0 0 53.198769287541381 173.96336742314998 0 173.96336742314998 -528.4594443458991 0 0 0 0 41.673721885913892 89.742759728907913 0 89.742759728907913 -340.1700270969086 0 0 0 0 61.149606165462501 109.74376888395273 0 109.74376888395273 -418.0585662864396 0 0 0 0 82.852359449057985 95.761127338355436 0 95.761127338355436 -455.19960679512042 0 0 0 0 64.155167565170359 82.11712402120429 0 82.11712402120429 -461.02384538602928 0 0 0 0 76.584807122774691 40.665048574152024 0 40.665048574152024 -601.06200102626099 0 0 0 0 87.685024035972674 82.050567079539178 0 82.050567079539178 -473.73746632184884 0 0 0 0 -519.65899542448733 -302.15699477561066 0 -302.15699477561066 -116.52955861809096 0 0 0 0 -320.26476768728173 -3.7750858879248881 0 -3.7750858879248881 -381.64464524164941 0 0 0 0 -34.502304982067528 -231.68191751967242 0 -231.68191751967242 -250.53326826326156 0 0 0 0 -292.81866460610297 122.44140977589359 0 122.44140977589359 146.72153116601112 0 0 0 0 -41.99778611097269 16.949106903866323 0 16.949106903866323 -6.8438419812617397 0 0 0 0 17.983900070201344 6.341041104256874 0 6.341041104256874 -835.42002471503292 0 0 0 0 -65.580851320749673 800.70346947688734 0 800.70346947688734 -3178.7644236324704 0 0 0 0 -164.78774489230523 -138.14134715418913 0 -138.14134715418913 -280.89833268665643 0 0 0 0 56.140020446152676 117.20508468367916 0 117.20508468367916 -608.01715192907795 0 0 0 0 -11.816869073093699 179.33286271785801 0 179.33286271785801 -270.26681135668696 0 0 0 0 20.825144993748836 -1878.9235002433197 0 -1878.9235002433197 -1315.4050750604583 0 0 0 0 -72.019084366944298 437.43944605623983 0 437.43944605623983 -2244.9163688715253 0 0 0 0 -2.3961373889861584 -5.8886796442693594 0 -5.8886796442693594 -16.604152857074098 0 0 0 0 -498.92990219412968 902.16451893437625 0 902.16451893437625 -1502.3098747759832 0 0 0 0 54.56846020417106 -706.72208611376482 0 -706.72208611376482 -295.89721618588374 0 0 0 0 531.48947110940207 -120.19403478611275 0 -120.19403478611275 -185.97344663916738 0 0 0 0 -155.58298727871443 -400.53101207083091 0 -400.53101207083091 123.44315456976619 0 0 0 0 326.4980399301603 171.37882794830512 0 171.37882794830512 -284.64850112956265 0 0 0 0 -77.778843226895788 -257.98752158210527 0 -257.98752158210527 -779.74282635565032 0 0 0 0 -103.07491640552871 -341.71275209370287 0 -341.71275209370287 -290.45308533339994 0 0 0 0 73.724523340503765 -728.24092604436282 0 -728.24092604436282 -782.74801912016119 0 0 0 0 58.645871007964161 -174.70619361306672 0 -174.70619361306672 -1040.3434224815319 0 0 0 0 26.61612691725054 -277.38801811078065 0 -277.38801811078065 -1216.0926892776115 0 0 0 0 57.275565051550075 89.808851485133346 0 89.808851485133346 -933.84262783692247 0 0 0 0 1.4095121444560093 2.4958734609758011 0 2.4958734609758011 -6.9221077154083162 0 0 0 0 -46.018247721133775 165.13085941701138 0 165.13085941701138 -529.39316668305946 0 0 0 0 -228.26569677257885 -824.66591626920126 0 -824.66591626920126 -184.55937253528828 0 0 0 0 -6.3447373133135123 -2.5151428011367898 0 -2.5151428011367898 -0.17329969754706553 0 0 0 0 -223.18530446056229 -255.1549652517715 0 -255.1549652517715 -912.48794440393976 0 0 0 0 -14.969716034385899 6.2421952051790583 0 6.2421952051790583 -3.5997371933887337 0 0 0 0 -163.15158079714934 -92.369028375513153 0 -92.369028375513153 -1351.2179780069855 0 0 0 0 -10.724876060995484 -26.993437444158189 0 -26.993437444158189 -72.634237976522854 0 0 0 0 9.251742936826119 1.2710575404743167 0 1.2710575404743167 -48.981704934201844 0 0 0 0 90.016320563571753 661.39240396818059 0 661.39240396818059 -136.59598713607261 0 0 0 0 7.9027728541486972 -2.0794550654034936 0 -2.0794550654034936 -4.4331762715227399 0 0 0 0 9.8359783977665103 -11.173957625530477 0 -11.173957625530477 -39.439484582995647 0 0 0 0 16.867944308707592 17.938689318256365 0 17.938689318256365 -69.689782461027789 0 0 0 0 -92.706089953800983 193.42698799908067 0 193.42698799908067 -48.972021877838415 0 0 0 0 -142.46322595962556 28.931409369255562 0 28.931409369255562 -24.922607881388103 0 0 0 0 11.51935881806877 -3.6159063143224444 0 -3.6159063143224444 -5.0189025672622165 0 0 0 0 124.66763883396561 -7.0807150638465828 0 -7.0807150638465828 -49.51473439111578 0 0 0 0 24.150872188061349 -0.051765982155018264 0 -0.051765982155018264 -14.967904623046905 0 0 0 0 17.608603024090826 0.05334748796394706 0 0.05334748796394706 -78.728592688166827 0 0 0 0 115.58426847075862 73.858033002459706 0 73.858033002459706 -121.88711269647683 0 0 0 0 42.358225254037961 56.320778936649731 0 56.320778936649731 -31.17072242570066 0 0 0 0 29.85239003061681 30.978390679374534 0 30.978390679374534 -33.922127184603553 0 0 0 0 30.5753256492643 45.890828460920602 0 45.890828460920602 -31.880120068649376 0 0 0 0 35.797886591529476 28.013170841553801 0 28.013170841553801 -61.313401426719793 0 0 0 0 32.898891926365451 38.526771034783451 0 38.526771034783451 -61.713275010104553 0 0 0 0 27.253974335946623 9.6726470729990979 0 9.6726470729990979 -81.516952146474068 0 0 0 0 19.521028638171355 30.934161082175535 0 30.934161082175535 -37.861879994527847 0 0 0 0 -4.813536915689383 59.607483565720031 0 59.607483565720031 -64.773960003200045 0 0 0 0 27.163583208753622 12.301939485357252 0 12.301939485357252 -89.005765238325694 0 0 0 0 19.019073555460636 -9.2981802024114586 0 -9.2981802024114586 -137.67941208807315 0 0 0 0 35.82530702263449 -2.5163213360985992 0 -2.5163213360985992 -89.844253082483192 0 0 0 0 34.069060719793924 48.566161335995275 0 48.566161335995275 -174.55759012455383 0 0 0 0 2.4243070508273377 -39.069916485175781 0 -39.069916485175781 -78.722566646187261 0 0 0 0 48.12173219080762 50.182289681967177 0 50.182289681967177 -330.45903184929193 0 0 0 0 33.358298687357774 14.48773581792102 0 14.48773581792102 -202.14388575929115 0 0 0 0 58.77092826012813 100.84028332574235 0 100.84028332574235 -336.26801434028857 0 0 0 0 32.884160448289549 88.022279285363766 0 88.022279285363766 -329.71068120025393 0 0 0 0 3.992395126611882 70.72434459955366 0 70.72434459955366 -183.36326328742143 0 0 0 0 69.618383339548018 29.513714895110752 0 29.513714895110752 -194.88967731934372 0 0 0 0 37.812577926430095 -19.691453305822506 0 -19.691453305822506 -137.15379230420695 0 0 0 0 -50.893703725957494 41.688075937838221 0 41.688075937838221 -85.007886209954449 0 0 0 0 98.348254333659497 -55.329763918834942 0 -55.329763918834942 -88.343683753744699 0 0 0 0 -2.0387142346559486 -24.56008019815863 0 -24.56008019815863 -65.363044223304485 0 0 0 0 34.497419671908162 6.5075383551817367 0 6.5075383551817367 -44.801781484961055 0 0 0 0 26.076069854492744 5.300047674059897 0 5.300047674059897 -49.854085867413232 0 0 0 0 38.247601835590103 52.513249033621832 0 52.513249033621832 -84.937803661094222 0 0 0 0 54.350105527755659 -58.228698615163012 0 -58.228698615163012 -48.611874458045349 0 0 0 0 144.88576687666136 11.08352273307537 0 11.08352273307537 -69.929094066137623 0 0 0 0 32.036838787538208 2.2338893786777732 0 2.2338893786777732 -43.818788312365825 0 0 0 0 88.577550351583341 3.2769381128564419 0 3.2769381128564419 -70.964091488898703 0 0 0 0 4.414228736740462 -1.0791458812676353 0 -1.0791458812676353 -19.994250854935807 0 0 0 0 82.899935597008152 -27.178567952883895 0 -27.178567952883895 -60.053329172784288 0 0 0 0 26.36911605307796 5.062943952412752 0 5.062943952412752 -52.731750000886677 0 0 0 0 82.644232496266341 5.6030371219130757 0 5.6030371219130757 -56.858350570648327 0 0 0 0 53.931884490802304 14.990057591112418 0 14.990057591112418 -21.139769905268622 0 0 0 0 32.422666238895573 14.518989998996773 0 14.518989998996773 -21.119950506420949 0 0 0 0 9.9493072970160483 37.371769542867696 0 37.371769542867696 -32.519492823208566 0 0 0 0 18.587789557991528 40.320811594505358 0 40.320811594505358 -62.989461625977128 0 0 0 0 40.001306324776465 31.53629243648902 0 31.53629243648902 -59.386883895469509 0 0 0 0 46.079482656573646 -17.471483764349614 0 -17.471483764349614 -22.797924225844326 0 0 0 0 8.0310736867833157 43.720598184218943 0 43.720598184218943 -53.418543081330427 0 0 0 0 6.2133271370965897 -1.3365343666070295 0 -1.3365343666070295 -0.42388020192744591 0 0 0 0 15.764244725876097 29.004927819682052 0 29.004927819682052 -66.522098861307313 0 0 0 0 33.907679306234968 7.0612923610024154 0 7.0612923610024154 -50.752323648786842 0 0 0 0 33.403632477425063 -0.22435812425007384 0 -0.22435812425007384 -15.42730866752845 0 0 0 0 64.656479839858321 11.38983640850438 0 11.38983640850438 -50.845617654213129 0 0 0 0 20.450539024703176 -39.468693541091852 0 -39.468693541091852 -18.810130234116514 0 0 0 0 35.677687296677959 14.716460226816707 0 14.716460226816707 -34.064319228164095 0 0 0 0 29.363365155967056 -5.7128943400868124 0 -5.7128943400868124 -13.980501716754688 0 0 0 0 -0.69927546859298673 -37.727372085319075 0 -37.727372085319075 18.738231002756947 0 0 0 0 30.456921734476168 13.558321165255165 0 13.558321165255165 -9.235561893623526 0 0 0 0 5.718381885962204 -1.3531980955424849 0 -1.3531980955424849 -4.4707139243433289 0 0 0 0 46.650864384623219 6.4060970178634307 0 6.4060970178634307 -27.909673736542572 0 0 0 0 11.455712994234545 0.29672686570120277 0 0.29672686570120277 -23.50699115480711 0 0 0 0 -1.2290354624329085 1.2472701877178842 0 1.2472701877178842 -1.1018227207191984 0 0 0 0 18.671265739648106 -7.5536936753351256 0 -7.5536936753351256 17.068133696986479 0 0 0 0 131.48739750783307 72.912567581199255 0 72.912567581199255 -17.62081484367809 0 0 0 0 -16.631942042508399 -50.498223073453119 0 -50.498223073453119 -27.857568899892613 0 0 0 0 0.79570865005371161 -38.748845207570412 0 -38.748845207570412 -173.56011527134069 0 0 0 0 35.746332443739334 8.9853961948524557 0 8.9853961948524557 -155.57626818949211 0 0 0 0 -40.659846010240926 -84.24400095015335 0 -84.24400095015335 -125.61404036507884 0 0 0 0 10.840875092817157 14.13710471713739 0 14.13710471713739 -141.25631665498076 0 0 0 0 39.636917006206204 -68.277195575323276 0 -68.277195575323276 -401.49364549000165 0 0 0 0 62.067805605574904 21.933959689380572 0 21.933959689380572 -362.28522024360063 0 0 0 0 45.142923930583493 78.864287668937322 0 78.864287668937322 -464.40243841744814 0 0 0 0 110.84218656120481 164.75544427378918 0 164.75544427378918 -657.13576646412548 0 0 0 0 -53.047869035963743 125.09756953547185 0 125.09756953547185 -854.72410327227044 0 0 0 0 57.150369528715373 59.768275355603691 0 59.768275355603691 -820.79916785772366 0 0 0 0 -52.729979646063612 93.33824163502868 0 93.33824163502868 -465.00822284094829 0 0 0 0 -1.038326401524365 0.90305987341123739 0 0.90305987341123739 -0.80801810922216077 0 0 0 0 -36.836298163787887 191.91081252239746 0 191.91081252239746 -723.61074264778097 0 0 0 0 -51.234663905023126 -196.77074692725182 0 -196.77074692725182 -707.62893512429059 0 0 0 0 79.009367882303678 303.32219534284491 0 303.32219534284491 8.9923086075868923 0 0 0 0 -165.12604178187991 -57.53822589795891 0 -57.53822589795891 81.464953392807274 0 0 0 0 -0.58043654475091899 0.7465276833218617 0 0.7465276833218617 0.28256873182984066 0 0 0 0 -194.94338881937435 -135.08571712467892 0 -135.08571712467892 -24.726613999024266 0 0 0 0 191.60574909999258 195.96663239977624 0 195.96663239977624 -190.57110616131831 0 0 0 0 98.294995152098636 -2.2965008892042533 0 -2.2965008892042533 -562.2529707081776 0 0 0 0 142.12593968098437 -26.081757822297732 0 -26.081757822297732 -29.271063679096187 0 0 0 0 -48.047056919296601 -44.740286329542386 0 -44.740286329542386 89.289411780388036 0 0 0 0 -0.1891668761994858 0.3124560196141335 0 0.3124560196141335 -0.17158396119826591 0 0 0 0 -78.962567149166489 -101.22987853344785 0 -101.22987853344785 -18.57466200844101 0 0 0 0 118.92963429950805 -53.386620542667515 0 -53.386620542667515 -60.38465852167792 0 0 0 0 20.139955671846678 2.6738067262331242 0 2.6738067262331242 -31.783181934082677 0 0 0 0 -2.2122227488266617 -33.380346153993742 0 -33.380346153993742 -30.693681237052715 0 0 0 0 -20.030221229456856 -24.108588420593151 0 -24.108588420593151 5.8908367274416378 0 0 0 0 -18.921191729705924 -29.846869129247352 0 -29.846869129247352 -3.4976399942370335 0 0 0 0 -114.95255399789312 27.339756058956482 0 27.339756058956482 26.765018059901195 0 0 0 0 -221.38081177878121 63.272840594665468 0 63.272840594665468 14.650276016400312 0 0 0 0 -271.55158553065348 -20.106694811211128 0 -20.106694811211128 -74.298546425627137 0 0 0 0 -193.03552007898179 -61.523541475327875 0 -61.523541475327875 -197.5409384065315 0 0 0 0 -48.573069182325902 -22.055688787344991 0 -22.055688787344991 -140.31952410861413 0 0 0 0 -141.95098403263069 21.587287487924186 0 21.587287487924186 -123.52781642205082 0 0 0 0 -166.05053225014672 -21.021887763397899 0 -21.021887763397899 22.27517148660263 0 0 0 0 -126.86002508017646 83.410767255782048 0 83.410767255782048 109.35430945926782 0 0 0 0 58.156829330878736 53.315501858562129 0 53.315501858562129 -54.162156886908633 0 0 0 0 -199.18464232259839 162.64790621350221 0 162.64790621350221 -100.60215736370446 0 0 0 0 0.20775681968734716 84.029431174617457 0 84.029431174617457 -58.350691589021153 0 0 0 0 88.106335525840166 208.05681330680386 0 208.05681330680386 -63.412680210767576 0 0 0 0 -241.68699048152121 25.146897267437453 0 25.146897267437453 -318.11324565455652 0 0 0 0 9.5305367567309531 93.410666411332841 0 93.410666411332841 -334.36036685575164 0 0 0 0 -199.82739052984471 235.445004338133 0 235.445004338133 -1114.1821695103936 0 0 0 0 368.16014292799014 -422.33933779559129 0 -422.33933779559129 -68.748177578898321 0 0 0 0 -116.04596289086385 69.511047509116906 0 69.511047509116906 -1230.1379327121904 0 0 0 0 251.70726037443319 -61.448827115569657 0 -61.448827115569657 -1187.1318380331977 0 0 0 0 -189.73251158575499 -60.194641861178752 0 -60.194641861178752 -383.89441012615134 0 0 0 0 -121.25357836914191 78.918560325113503 0 78.918560325113503 -102.91168601748632 0 0 0 0 -255.8157396782517 133.57596564339474 0 133.57596564339474 -344.38904054278464 0 0 0 0 -305.69292487422445 482.39730342674193 0 482.39730342674193 -1350.0253335623238 0 0 0 0 -315.28555717706047 -51.325728221660029 0 -51.325728221660029 -608.4598694041706 0 0 0 0 -17.965672144517043 159.28453944307239 0 159.28453944307239 -853.90043939230964 0 0 0 0 -296.08860844461788 122.60393693891092 0 122.60393693891092 -720.25651567615205 0 0 0 0 -43.45857780177721 351.27246941749763 0 351.27246941749763 -1180.9884299519326 0 0 0 0 72.599371017112844 150.49965294883077 0 150.49965294883077 -2542.120185942942 0 0 0 0 -4.0059626675782507 2.2777181559169293 0 2.2777181559169293 -1.632616993625005 0 0 0 0 -147.31231796715838 321.92245135698795 0 321.92245135698795 537.87235390717979 0 0 0 0 -264.86613403967158 355.9961464095868 0 355.9961464095868 -190.7468990856687 0 0 0 0 -193.60645253623147 552.53047926985346 0 552.53047926985346 -398.99427146519884 0 0 0 0 41.649824804282616 -32.656263110473446 0 -32.656263110473446 -1725.3844645793688 0 0 0 0 -46.162202244840046 59.969690410467138 0 59.969690410467138 -1814.6650875948399 0 0 0 0 192.36141580791491 -104.79459262635919 0 -104.79459262635919 -1976.3251767911279 0 0 0 0 -2.1829552948291853 2.7803000202510493 0 2.7803000202510493 0.14905823657079509 0 0 0 0 -100.080236350291 -88.64675665008582 0 -88.64675665008582 -1481.1944076162035 0 0 0 0 -100.10302118408435 -72.093445182872529 0 -72.093445182872529 -1424.4617902402242 0 0 0 0 -76.664773000716195 -38.886111864640043 0 -38.886111864640043 -1477.4868109280651 0 0 0 0 -71.648642481884963 -24.659308687230805 0 -24.659308687230805 -1455.307383691732 0 0 0 0 -107.66955689199858 -114.9543301726244 0 -114.9543301726244 -1307.8088269837535 0 0 0 0 9.4916317601828268 139.76613112111772 0 139.76613112111772 -1570.1572631039562 0 0 0 0 -11.93378007196964 9.3564269705369796 0 9.3564269705369796 -6.9314435876493405 0 0 0 0 85.306629114524185 169.93027161756618 0 169.93027161756618 137.45678744246652 0 0 0 0 136.26424715002486 175.08686303315335 0 175.08686303315335 -84.158686956008751 0 0 0 0 148.08074965488504 104.64255195568876 0 104.64255195568876 -55.742721471389814 0 0 0 0 -2.2122628977013039 10.758797242356948 0 10.758797242356948 -37.665897738286134 0 0 0 0 218.10728528121945 52.762808409388526 0 52.762808409388526 -21.33400053551668 0 0 0 0 194.86873556195769 127.89514343866904 0 127.89514343866904 -246.7044679548635 0 0 0 0 29.102574087914945 78.490608932243049 0 78.490608932243049 -80.878108652921469 0 0 0 0 309.9806888894982 85.446002906865033 0 85.446002906865033 -177.09611905648489 0 0 0 0 16.489052057012032 13.136407998319555 0 13.136407998319555 -114.58648381099192 0 0 0 0 0.89183321257236381 6.9898444792382701 0 6.9898444792382701 -47.892702013042879 0 0 0 0 280.5258972738684 27.235698676191532 0 27.235698676191532 -180.63307143511338 0 0 0 0 387.89729843217947 -131.19701712685946 0 -131.19701712685946 -5.3989557693275856 0 0 0 0 1.505367953498812 7.1342083048027121 0 7.1342083048027121 -22.088976122987532 0 0 0 0 36.681878698252035 187.98281238075197 0 187.98281238075197 -307.25350970993168 0 0 0 0 47.233318961093573 196.30619716595902 0 196.30619716595902 -348.79317016408459 0 0 0 0 -424.86535267529553 -337.77904660176318 0 -337.77904660176318 -268.62348670825668 0 0 0 0 0.89937122394513747 -0.11330833409340357 0 -0.11330833409340357 -1.1405840723778908 0 0 0 0 93.71272461000342 -86.681811139080764 0 -86.681811139080764 -526.30250459728995 0 0 0 0 59.769699735016843 184.58915830186015 0 184.58915830186015 -317.69305314941812 0 0 0 0 895.00119054410652 602.61439311008871 0 602.61439311008871 -280.49608802617149 0 0 0 0 -111.80016249459982 511.28283737547463 0 511.28283737547463 -397.90602997165388 0 0 0 0 126.80567699030921 146.22497275887417 0 146.22497275887417 -258.92027765532839 0 0 0 0 -196.93115380876839 285.05012987396913 0 285.05012987396913 -319.55721667278067 0 0 0 0 -313.88082530331263 333.75840605189842 0 333.75840605189842 -303.01335677885072 0 0 0 0 -224.976215281039 203.7568055456959 0 203.7568055456959 -312.59704507916103 0 0 0 0 -722.03227075225959 382.14761709227605 0 382.14761709227605 -196.62989982574436 0 0 0 0 -277.72319004289022 262.44449509389233 0 262.44449509389233 -164.38752895030484 0 0 0 0 9.1652499380106747 -11.935212387852516 0 -11.935212387852516 -302.4657817632833 0 0 0 0 -441.25937302473608 -34.039521825845441 0 -34.039521825845441 -52.841073892654094 0 0 0 0 22.74759121787838 83.238548673436526 0 83.238548673436526 -382.11853901766153 0 0 0 0 50.96431333287731 55.197615180887283 0 55.197615180887283 -406.411706268118 0 0 0 0 -202.01981772071827 91.531515388494881 0 91.531515388494881 -351.8570881717751 0 0 0 0 -75.159824721691166 146.17971884780127 0 146.17971884780127 -441.39539625485486 0 0 0 0 2.8817188039915891 100.86951215090812 0 100.86951215090812 -415.08884070226486 0 0 0 0 2.8781969403389667 100.4298681018663 0 100.4298681018663 -447.6287209961265 0 0 0 0 66.668179267570508 95.759635813619298 0 95.759635813619298 -463.03626250947127 0 0 0 0 44.529453847001605 84.658780143010517 0 84.658780143010517 -441.69623528236116 0 0 0 0 9.7798500927924579 74.939568652873277 0 74.939568652873277 -455.9176372303009 0 0 0 0 38.192016769566351 122.79479967671159 0 122.79479967671159 -505.89476292410109 0 0 0 0 12.236363846570121 108.59483517583953 0 108.59483517583953 -601.94388931587309 0 0 0 0 -108.00357713048402 250.70771563854942 0 250.70771563854942 -516.91095518078873 0 0 0 0 -105.74854470551588 237.05495249082014 0 237.05495249082014 -555.53567251777349 0 0 0 0 -92.818845796831795 142.3188483619324 0 142.3188483619324 -684.25792036797066 0 0 0 0 -67.493520710731218 243.4097770809858 0 243.4097770809858 -763.52530187590673 0 0 0 0 -53.678802194010757 303.68892937607779 0 303.68892937607779 -587.76930150118278 0 0 0 0 -97.26542069872346 272.60053205274016 0 272.60053205274016 -597.51926249517237 0 0 0 0 -138.31003726095682 342.89799170507104 0 342.89799170507104 -423.63161389010202 0 0 0 0 -128.76072504655531 351.98920676866146 0 351.98920676866146 -614.94564856197394 0 0 0 0 -77.788946785544866 194.34866477112109 0 194.34866477112109 -450.41133319577784 0 0 0 0 -195.90228783093778 252.85871648769535 0 252.85871648769535 -374.9715132016936 0 0 0 0 -9.3357563277265943 91.039464583047447 0 91.039464583047447 -1111.5165026586255 0 0 0 0 -58.542793116066953 -94.024253619107185 0 -94.024253619107185 -1032.7429777350626 0 0 0 0 -46.403132657363578 -0.84806446418679116 0 -0.84806446418679116 -1278.7345432773291 0 0 0 0 -65.724077585030614 -158.28506864007431 0 -158.28506864007431 -1420.7748116944131 0 0 0 0 0.10363153545167619 -0.37460038690154107 0 -0.37460038690154107 -0.68916602619222544 0 0 0 0 -201.91548008850737 -153.73159887833754 0 -153.73159887833754 189.41016477874132 0 0 0 0 0.096300237494831409 -20.53585521669811 0 -20.53585521669811 -1011.8821396053536 0 0 0 0 37.631661326045602 -80.371369881955616 0 -80.371369881955616 -1140.6139131159525 0 0 0 0 0.26774026565914666 1.3446868496655213 0 1.3446868496655213 -3.1640990264095414 0 0 0 0 -38.02484923199021 -86.82458041406062 0 -86.82458041406062 -826.84475255737198 0 0 0 0 -62.116047414306188 -132.28172430378618 0 -132.28172430378618 -841.31968409034016 0 0 0 0 -16.821394031757869 -64.020209378264553 0 -64.020209378264553 -1020.285329490056 0 0 0 0 -64.730797613990148 -140.06331269021757 0 -140.06331269021757 -998.79566027242981 0 0 0 0 -40.186426062704413 -50.50831733389532 0 -50.50831733389532 -924.96339056183933 0 0 0 0 -121.20652385982282 -92.812600520104752 0 -92.812600520104752 -710.26176688285705 0 0 0 0 -32.046858354078097 -178.06711375061241 0 -178.06711375061241 -942.13228215851996 0 0 0 0 144.47896393917449 -56.754325322843215 0 -56.754325322843215 -912.03851657735504 0 0 0 0 -82.655576271419989 -81.581442257589515 0 -81.581442257589515 -656.75412515833159 0 0 0 0 -0.47241437199971381 -0.55805842630670099 0 -0.55805842630670099 -1.0045173794237576 0 0 0 0 84.828515769089336 -408.82658671976969 0 -408.82658671976969 -898.84009921301913 0 0 0 0 131.26589655092823 -78.895439990767045 0 -78.895439990767045 -1707.5843286250893 0 0 0 0 -2.6707452750251659 -3.4703952569977616 0 -3.4703952569977616 -3.5277867320714877 0 0 0 0 74.316749716577249 -108.59108255797764 0 -108.59108255797764 -1424.0812537802121 0 0 0 0 -46.614787746309645 -45.084600078364019 0 -45.084600078364019 -1055.9678130010216 0 0 0 0 -72.757780123082398 -207.24714494093496 0 -207.24714494093496 -1208.4227112038498 0 0 0 0 89.329824854928631 -120.09586564318306 0 -120.09586564318306 1.6999825108796358 0 0 0 0 113.79759635893618 -17.464724190795096 0 -17.464724190795096 -20.113816204016928 0 0 0 0 243.21929958815934 -287.21689890709786 0 -287.21689890709786 -583.46717923536198 0 0 0 0 108.37454773507602 -210.95936274874111 0 -210.95936274874111 223.20445090085013 0 0 0 0 216.41608374021484 -219.1998743014301 0 -219.1998743014301 -41.941302757564699 0 0 0 0 218.82415239459621 -142.73393449594005 0 -142.73393449594005 -178.46341096929973 0 0 0 0 474.6016101502496 157.53553639991151 0 157.53553639991151 -135.31292876895122 0 0 0 0 314.42253403260065 -103.98780245412308 0 -103.98780245412308 -271.76172903743281 0 0 0 0 3.8470222193979975 1.8828558668982822 0 1.8828558668982822 -16.621059007777404 0 0 0 0 -117.67448765729682 -572.44718250045844 0 -572.44718250045844 -740.82822773111911 0 0 0 0 -171.8384822833147 323.93359792076808 0 323.93359792076808 -177.66644144915699 0 0 0 0 -561.86550105862909 -54.651002278682427 0 -54.651002278682427 -132.16994825279107 0 0 0 0 3.3939446226932279 2.3807956533292653 0 2.3807956533292653 -17.385087466447004 0 0 0 0 149.8191786939089 266.94527306117379 0 266.94527306117379 -223.1960996419657 0 0 0 0 -144.90197541966222 73.574652166469605 0 73.574652166469605 -104.15530037040298 0 0 0 0 149.38325995309535 -109.59112426866045 0 -109.59112426866045 4.3855101254885085 0 0 0 0 0.18276810926238443 -115.96560990555008 0 -115.96560990555008 -303.71618837449205 0 0 0 0 -294.87989284637393 -122.1906628047509 0 -122.1906628047509 180.85137659758038 0 0 0 0 -204.50063485131196 -448.57631288552147 0 -448.57631288552147 -787.24764189965208 0 0 0 0 194.03102709157659 -38.744086251936096 0 -38.744086251936096 -730.14069969572574 0 0 0 0 0.068803926087491446 -63.383673749642185 0 -63.383673749642185 -192.40885706435074 0 0 0 0 244.36181535719362 125.96011215106591 0 125.96011215106591 -251.75137151485251 0 0 0 0 0.34132880749023153 -0.0033137440928996398 0 -0.0033137440928996398 -9.7817731587525714 0 0 0 0 -581.41113429441805 -655.50104709952575 0 -655.50104709952575 -385.23004594430677 0 0 0 0 -7.5750031646458833 6.798514117646846 0 6.798514117646846 42.346642274293117 0 0 0 0 51.980780363868384 -68.834132008290908 0 -68.834132008290908 13.394387604599615 0 0 0 0 -0.0051906406213302753 -33.111057721063844 0 -33.111057721063844 2.8758469468084513 0 0 0 0 0.63470248197619861 2.2674910249590532 0 2.2674910249590532 -24.596246992676924 0 0 0 0 101.59767198149383 -13.812233325748821 0 -13.812233325748821 -26.099293386767386 0 0 0 0 17.481416741883699 2.1921264171542134 0 2.1921264171542134 -29.076472594300867 0 0 0 0 29.57031464514008 -10.686878692064056 0 -10.686878692064056 -23.05046801496519 0 0 0 0 21.372202639265893 -30.614887519650438 0 -30.614887519650438 -4.6826742389093852 0 0 0 0 -146.73123277426737 -53.097385524421043 0 -53.097385524421043 -64.987611765143811 0 0 0 0 -17.484757689212074 82.055803415187256 0 82.055803415187256 18.037353447238274 0 0 0 0 -66.522705842623964 189.72433780825668 0 189.72433780825668 22.624949942975945 0 0 0 0 14.524103324602784 -0.64153631923909415 0 -0.64153631923909415 -23.076467821723782 0 0 0 0 125.03762542575842 151.83972635592363 0 151.83972635592363 -6.5177484973537503 0 0 0 0 -0.12811840274067143 7.27522972024639 0 7.27522972024639 -31.372488844546979 0 0 0 0 -92.172546628123428 -191.25340278698422 0 -191.25340278698422 -149.51281869127706 0 0 0 0 188.80182217381508 -5.434300834482201 0 -5.434300834482201 -403.62047474221617 0 0 0 0 -150.9646290441965 150.4507272005394 0 150.4507272005394 -295.84030750975217 0 0 0 0 50.818945422224715 -169.74566600394974 0 -169.74566600394974 -904.94217124964052 0 0 0 0 1.9468949000728717 0.1944742275466993 0 0.1944742275466993 -7.3263437904157627 0 0 0 0 -581.96340621263062 -750.12860870923032 0 -750.12860870923032 -589.63009244261775 0 0 0 0 -358.58176606777977 -332.37777187680331 0 -332.37777187680331 -92.690759470136982 0 0 0 0 -268.44380656459612 -355.85598195592684 0 -355.85598195592684 -363.59369292182964 0 0 0 0 86.951292489325738 -239.28320314362099 0 -239.28320314362099 -463.52170902329817 0 0 0 0 475.06438247422466 439.08698552681017 0 439.08698552681017 130.31403414958913 0 0 0 0 134.1764590934049 190.66669184147759 0 190.66669184147759 -296.65095693081889 0 0 0 0 23.96646229801263 40.455024636621602 0 40.455024636621602 -444.83990432786231 0 0 0 0 -112.72318403872532 153.6538960184007 0 153.6538960184007 -388.8111095602726 0 0 0 0 151.34963595334102 174.14125270852128 0 174.14125270852128 -499.73228384761023 0 0 0 0 389.91696001963919 131.95318228516044 0 131.95318228516044 -504.00331772706704 0 0 0 0 207.12970507469709 73.560879725895575 0 73.560879725895575 -475.68949538991001 0 0 0 0 200.79450086792713 90.582557730907865 0 90.582557730907865 -471.64391143387184 0 0 0 0 -145.71816457234809 -118.25692091021119 0 -118.25692091021119 -207.33897359138427 0 0 0 0 154.16139533426394 -34.539290151478781 0 -34.539290151478781 -289.54057428622036 0 0 0 0 -197.65985081373765 199.09842657472473 0 199.09842657472473 -114.33031453508738 0 0 0 0 -110.41726284251854 127.45099141204264 0 127.45099141204264 -80.50818600540515 0 0 0 0 20.098509833534877 -21.04855456342284 0 -21.04855456342284 22.866636833801749 0 0 0 0 -15.083993848066459 12.99209621375536 0 12.99209621375536 4.2689506397810959 0 0 0 0 -1.7908033344865073 -0.76176691668170804 0 -0.76176691668170804 3.3812698530369119 0 0 0 0 -119.15323050533834 -83.250210968726606 0 -83.250210968726606 140.33307489470462 0 0 0 0 39.610162058492506 19.475743685699854 0 19.475743685699854 -115.09294154386589 0 0 0 0 3.7578976230928447 6.3968957943579881 0 6.3968957943579881 -15.819977724547243 0 0 0 0 -12.898148641253101 -4.2217459396724735 0 -4.2217459396724735 4.2257859634701163 0 0 0 0 -6.4664713933369224 1.2468269238954122 0 1.2468269238954122 -2.3573347353513157 0 0 0 0 -1.8406054286394067 28.467443447219921 0 28.467443447219921 -7.0402860134199727 0 0 0 0 -15.864618152525509 -6.510056216364319 0 -6.510056216364319 55.44229545359849 0 0 0 0 -15.577509134909178 -6.1323935831387644 0 -6.1323935831387644 35.122117877617711 0 0 0 0 -3.8759039708656928 59.540499618393369 0 59.540499618393369 -37.228096839331556 0 0 0 0 -14.643746172405784 14.92603270957342 0 14.92603270957342 -13.355652718635667 0 0 0 0 -18.927524117048961 13.910931646692916 0 13.910931646692916 -6.6660485385218635 0 0 0 0 -0.88656240077343718 1.7308891832553144 0 1.7308891832553144 -0.61829695656613382 0 0 0 0 -14.805467703594331 -58.639401033258764 0 -58.639401033258764 266.87030401773518 0 0 0 0 28.4531790588685 -69.299244886533415 0 -69.299244886533415 86.457575245760381 0 0 0 0 36.29624204103493 -47.759278387500672 0 -47.759278387500672 12.303808465221664 0 0 0 0 -26.089558973851126 -9.2069410065596458 0 -9.2069410065596458 73.400050373689737 0 0 0 0 8.8522558726854186 -25.928098842559848 0 -25.928098842559848 2.4276320455246605 0 0 0 0 11.787947532736325 -29.971916439280903 0 -29.971916439280903 -5.1397298989322735 0 0 0 0 -12.861655576066823 -6.3927364366754773 0 -6.3927364366754773 -20.468121150894149 0 0 0 0 -118.66686930491551 143.43605448821836 0 143.43605448821836 -381.50470624890841 0 0 0 0 2.4741106559081345 -5.1668175067970878 0 -5.1668175067970878 -30.038367571338313 0 0 0 0 -1.5412242749228433 0.31401305399954538 0 0.31401305399954538 -0.19656854863372075 0 0 0 0 -120.71693193402461 51.796505363643519 0 51.796505363643519 -47.956264493754134 0 0 0 0 42.406594981356648 -15.741665387919056 0 -15.741665387919056 -39.402094350225525 0 0 0 0 -3.096470299019451 -0.25838626989073532 0 -0.25838626989073532 -0.097536171896841495 0 0 0 0 -0.29501098890341382 -3.1357674774826592 0 -3.1357674774826592 -4.4989301638124743 0 0 0 0 -0.31175318120585871 -5.2315810289073852 0 -5.2315810289073852 3.8988401785372844 0 0 0 0 -68.926141765071407 -85.870183822456227 0 -85.870183822456227 -525.23134560381004 0 0 0 0 -31.53425606991641 10.335008425929118 0 10.335008425929118 -607.33041938412498 0 0 0 0 -74.429686062977936 162.67525545739664 0 162.67525545739664 -451.9872955896717 0 0 0 0 -394.59284363395636 -17.700000559147156 0 -17.700000559147156 -496.60651844984386 0 0 0 0 -83.8293429731591 208.13654561147814 0 208.13654561147814 -673.16713317879476 0 0 0 0 -168.79015005894871 -225.85948865522369 0 -225.85948865522369 -882.35113265135442 0 0 0 0 77.231403926165513 56.506558365057572 0 56.506558365057572 -1203.4688842523028 0 0 0 0 36.699861668654648 -571.2725443265299 0 -571.2725443265299 45.094303695259441 0 0 0 0 -97.035675276981237 443.22736863217506 0 443.22736863217506 -948.01458006787288 0 0 0 0 -0.66147524629282906 -2.7249324768192622 0 -2.7249324768192622 -6.6618733631208329 0 0 0 0 -192.50050259960381 273.88818806406925 0 273.88818806406925 -790.43190601081733 0 0 0 0 -446.11375326330517 3.1511226557668124 0 3.1511226557668124 101.72724030481231 0 0 0 0 -83.445451582319492 -287.04352490526071 0 -287.04352490526071 -624.60878281923169 0 0 0 0 76.633995651310215 -201.99629595998704 0 -201.99629595998704 -314.37732895372415 0 0 0 0 -9.9336773934014673 -132.0976194492323 0 -132.0976194492323 -298.33787540660705 0 0 0 0 250.33825767401413 -55.413339113423717 0 -55.413339113423717 -258.38500929922884 0 0 0 0 112.2977846149106 -209.22221167552198 0 -209.22221167552198 -250.02205794091333 0 0 0 0 105.19038834672892 -81.916928271279176 0 -81.916928271279176 -570.0778111940599 0 0 0 0 77.3304462899182 -94.634232917658665 0 -94.634232917658665 -287.28375331495772 0 0 0 0 356.47382587907941 -305.55464981322802 0 -305.55464981322802 -705.41545188306191 0 0 0 0 426.48526744053925 -109.01988503296434 0 -109.01988503296434 -1126.9982987972107 0 0 0 0 262.32676702619574 -233.46921397501137 0 -233.46921397501137 -759.80384041019352 0 0 0 0 255.11512807530835 -214.2324770276864 0 -214.2324770276864 -677.77241996672092 0 0 0 0 233.47591661206798 -133.04072052524134 0 -133.04072052524134 -542.4127989235385 0 0 0 0 209.8930439215535 -196.63842319454852 0 -196.63842319454852 -667.27151057291485 0 0 0 0 0.4160637158154592 -0.41478827299808785 0 -0.41478827299808785 -12.239624342308218 0 0 0 0 555.50693643671502 -529.03731794393389 0 -529.03731794393389 -510.37304075997963 0 0 0 0 -371.68460778614735 653.72502790024737 0 653.72502790024737 -540.05546825041529 0 0 0 0 457.04474002027018 -339.54382323419304 0 -339.54382323419304 -734.00908441861975 0 0 0 0 46.715107528312728 631.44826158203796 0 631.44826158203796 -848.23437538703456 0 0 0 0 123.74772064909666 -385.47282311265008 0 -385.47282311265008 20.245773031609133 0 0 0 0 9.7735520213636846 21.558892489199934 0 21.558892489199934 34.111282115773975 0 0 0 0 62.01182188162602 201.13570519584755 0 201.13570519584755 -756.22801455067747 0 0 0 0 80.490677582283752 592.68552325191922 0 592.68552325191922 -833.5200537549681 0 0 0 0 0.16044958601656401 -2.4080436722527452 0 -2.4080436722527452 -7.3051037966716876 0 0 0 0 345.51006543277026 -579.74032981856726 0 -579.74032981856726 -250.74426961312565 0 0 0 0 67.82533222373695 87.121893244227977 0 87.121893244227977 -1327.3511318507262 0 0 0 0 83.55505850426232 583.13902366313778 0 583.13902366313778 -1079.1785269981046 0 0 0 0 300.00684985894623 -440.07643788791029 0 -440.07643788791029 -643.5751614960318 0 0 0 0 76.052517328389513 -221.71274617389281 0 -221.71274617389281 -751.05263345706044 0 0 0 0 0.81960172496128436 -0.089382296352567892 0 -0.089382296352567892 -6.4830791483922781 0 0 0 0 280.29587669489774 -364.74320877673017 0 -364.74320877673017 -749.49936047643132 0 0 0 0 190.27971912108796 -393.70982020891461 0 -393.70982020891461 -576.08665820678289 0 0 0 0 163.80767965584209 -321.66331447408083 0 -321.66331447408083 -639.08976595927379 0 0 0 0 12.371164610123742 -112.68706118667615 0 -112.68706118667615 -628.21467957987716 0 0 0 0 210.96919067748377 -469.16317708601127 0 -469.16317708601127 -462.10814977032715 0 0 0 0 -156.87126884457757 -297.61501844853046 0 -297.61501844853046 -614.27241692537791 0 0 0 0 0.69026668334998753 1.1261358653467965 0 1.1261358653467965 -2.6473296102857375 0 0 0 0 -226.93697441633776 -166.72487439465476 0 -166.72487439465476 -598.00590572008514 0 0 0 0 -162.14459465819857 -248.77223943387207 0 -248.77223943387207 -715.70518714681384 0 0 0 0 -172.77083630897141 -345.99479969029198 0 -345.99479969029198 -1022.6732956151536 0 0 0 0 -119.27061990346238 -203.14131341982284 0 -203.14131341982284 -792.5876958136505 0 0 0 0 -58.433748036645738 -167.42955066122522 0 -167.42955066122522 -571.81543149522622 0 0 0 0 -78.40384378464114 -130.88107621189556 0 -130.88107621189556 -638.58231078094104 0 0 0 0 -154.79437338209391 -181.62536408220694 0 -181.62536408220694 -620.52668121349416 0 0 0 0 -23.106154040568072 -74.085081502184039 0 -74.085081502184039 -616.82740646627644 0 0 0 0 -94.246354124290974 -58.718482157564722 0 -58.718482157564722 -547.61758059669228 0 0 0 0 -13.048784610411531 -19.106621137812908 0 -19.106621137812908 -591.10182367906236 0 0 0 0 -86.02475021491523 -78.864372937889129 0 -78.864372937889129 -762.94762290132348 0 0 0 0 -79.911278060305449 -33.703456085087964 0 -33.703456085087964 -679.70754926537847 0 0 0 0 48.264545874875694 -194.03543337735755 0 -194.03543337735755 -400.1829786429571 0 0 0 0 -22.315853010487444 -96.696383481146768 0 -96.696383481146768 -413.17398859548848 0 0 0 0 74.843740768832959 -192.13465136401646 0 -192.13465136401646 -534.75452137505636 0 0 0 0 -1.6980870648258133 28.620332177175442 0 28.620332177175442 -477.58452534721073 0 0 0 0 43.3738676153082 -41.307582912348153 0 -41.307582912348153 -370.87050304817967 0 0 0 0 40.525299580257524 157.13117418512411 0 157.13117418512411 -421.2014140359388 0 0 0 0 124.37240561745193 111.60888460832211 0 111.60888460832211 -430.17978489780216 0 0 0 0 2.0309063519625639 132.43005813939141 0 132.43005813939141 -430.97760970314266 0 0 0 0 64.167658642574679 143.14078578355839 0 143.14078578355839 -524.32650681055384 0 0 0 0 65.06696583065559 167.87137897554567 0 167.87137897554567 -419.18120565848949 0 0 0 0 -78.184139717406197 28.31412177036691 0 28.31412177036691 -652.03294035243744 0 0 0 0 -54.860466859661756 85.902232898821239 0 85.902232898821239 -514.3229794771978 0 0 0 0 1.9270288327990777 115.62983617878197 0 115.62983617878197 -584.95370255222952 0 0 0 0 -30.066227163794792 146.95708552172437 0 146.95708552172437 -523.82604361446283 0 0 0 0 -86.211713125189817 110.71621035411954 0 110.71621035411954 -586.41011645032268 0 0 0 0 -32.938376915991398 127.79247199713427 0 127.79247199713427 -609.98958748050791 0 0 0 0 -51.400949598149055 169.56531277613249 0 169.56531277613249 -571.92958358756732 0 0 0 0 -16.577049371592693 175.3443213743667 0 175.3443213743667 -595.37960089113039 0 0 0 0 -14.008652714778464 194.11511268457252 0 194.11511268457252 -540.59175282975775 0 0 0 0 14.101672176760985 192.20269480616844 0 192.20269480616844 -551.69725901924539 0 0 0 0 12.91279117258091 188.40197191799962 0 188.40197191799962 -558.65023032692261 0 0 0 0 9.4624587221314869 208.57615289534442 0 208.57615289534442 -561.48652265539567 0 0 0 0 -13.568876254465067 203.79158867550723 0 203.79158867550723 -551.91519761185918 0 0 0 0 -34.058207379845044 212.42194472086703 0 212.42194472086703 -564.02225920103956 0 0 0 0 -45.95111216685018 190.29872251943016 0 190.29872251943016 -562.80909322970547 0 0 0 0 79.851017119724929 203.38362419896293 0 203.38362419896293 -541.94298806320876 0 0 0 0 82.179501442511111 167.05028273592666 0 167.05028273592666 -501.8568061311089 0 0 0 0 36.644655805077491 197.96928901619685 0 197.96928901619685 -508.36003018609335 0 0 0 0 21.502715895857818 178.18607371720282 0 178.18607371720282 -534.19945809460478 0 0 0 0 23.651322910573072 204.84914554766146 0 204.84914554766146 -536.39510336672811 0 0 0 0 49.025691316931443 187.62795490751159 0 187.62795490751159 -545.59910143172601 0 0 0 0 37.661085291817926 203.14602734019718 0 203.14602734019718 -548.89552488343907 0 0 0 0 30.973798458980127 194.35111409507954 0 194.35111409507954 -560.15288088799571 0 0 0 0 69.478979768050522 199.32661932479095 0 199.32661932479095 -570.45257665318786 0 0 0 0 67.562112095555676 184.87774269449437 0 184.87774269449437 -567.6969891438639 0 0 0 0 118.42237928481836 206.338814616538 0 206.338814616538 -586.88299678584735 0 0 0 0 86.140164255361924 216.67979584561544 0 216.67979584561544 -532.40349275925837 0 0 0 0 106.06614737998007 185.72812214814621 0 185.72812214814621 -482.30960453828447 0 0 0 0 167.54957874473746 208.7114319936818 0 208.7114319936818 -657.5771991123911 0 0 0 0 143.58773766728521 104.26559797750951 0 104.26559797750951 -446.40339196339482 0 0 0 0 148.82983592760593 188.41845501757052 0 188.41845501757052 -503.05460904636129 0 0 0 0 112.36253769512132 183.53772127809498 0 183.53772127809498 -145.74638420453994 0 0 0 0 228.15191432620304 189.1603617911569 0 189.1603617911569 -365.07391635174281 0 0 0 0 253.55728290902721 -93.670254019383719 0 -93.670254019383719 -134.05437526063179 0 0 0 0 -0.16528940966136219 -5.3757464193939342 0 -5.3757464193939342 -13.791671532632677 0 0 0 0 -69.096013467587909 320.83804367466655 0 320.83804367466655 -420.36825767854316 0 0 0 0 143.65046731974417 130.71888273272634 0 130.71888273272634 -794.38220329478645 0 0 0 0 77.013215501089803 89.588754805052304 0 89.588754805052304 -721.02116253635904 0 0 0 0 92.384277549243961 65.991550271028245 0 65.991550271028245 -668.65519063175452 0 0 0 0 86.535375983734411 20.819679899810581 0 20.819679899810581 -805.7950301723904 0 0 0 0 105.90966895121255 179.73126903070806 0 179.73126903070806 -617.79289074803819 0 0 0 0 94.70125202178474 161.94698193599834 0 161.94698193599834 -611.51844250383147 0 0 0 0 99.569560966230711 81.985780486284057 0 81.985780486284057 -692.29450893575267 0 0 0 0 127.21517048922396 111.76420749285899 0 111.76420749285899 -660.82640779360372 0 0 0 0 79.030593855746929 61.218069460979677 0 61.218069460979677 -663.92203783031437 0 0 0 0 67.097454148504767 87.064786320799612 0 87.064786320799612 -648.9969017784897 0 0 0 0 59.310630633278379 143.28951036617946 0 143.28951036617946 -619.65909671224654 0 0 0 0 71.16236773619039 95.411860448035441 0 95.411860448035441 -636.5834647672018 0 0 0 0 48.6171202661194 129.26934258841356 0 129.26934258841356 -610.57532547629671 0 0 0 0 14.030093944496912 59.28388584266213 0 59.28388584266213 -578.73557049437659 0 0 0 0 -10.075212534905178 1.4730901698581391 0 1.4730901698581391 0.51433425764352592 0 0 0 0 -15.028370573954817 -44.002164513367461 0 -44.002164513367461 -561.66566747687466 0 0 0 0 14.003403518935556 77.451094818774436 0 77.451094818774436 -612.15190567881655 0 0 0 0 4.2885032410868007 22.870828226194135 0 22.870828226194135 -624.20882895615978 0 0 0 0 47.856000935038537 75.997270292180474 0 75.997270292180474 -624.27291863963183 0 0 0 0 60.609373649830104 62.160724798348383 0 62.160724798348383 -632.20199570246041 0 0 0 0 -87.423299483117717 12.690783703197667 0 12.690783703197667 -329.99314136218891 0 0 0 0 3.962637764988358 -65.085932795824192 0 -65.085932795824192 -679.0390965366314 0 0 0 0 26.511793409837992 24.519043769025302 0 24.519043769025302 -673.26231323089451 0 0 0 0 5.7563037451736818 -14.002205687054811 0 -14.002205687054811 -603.08546315332933 0 0 0 0 -4.6525967515863158 7.0061772508051945 0 7.0061772508051945 -638.08114533747721 0 0 0 0 95.144806591029919 80.444334551619249 0 80.444334551619249 -676.4381315978826 0 0 0 0 -1.7828645938453676 0.86267995046632961 0 0.86267995046632961 -0.50671224432801409 0 0 0 0 150.46466504619934 -33.701510051541845 0 -33.701510051541845 -174.55372962490947 0 0 0 0 -51.763197869299461 31.100202549248934 0 31.100202549248934 7.6255086812743684 0 0 0 0 -5.5995388580785441 -1.5212831896502337 0 -1.5212831896502337 0.46621504929257185 0 0 0 0 -193.23832609642568 187.31090644130745 0 187.31090644130745 -60.485225648400956 0 0 0 0 -2.1129739647652563 0.45433762790139554 0 0.45433762790139554 -13.719329332525376 0 0 0 0 -1.0547522174566097 -11.198569425730966 0 -11.198569425730966 -16.911441491538426 0 0 0 0 -53.037289978217586 5.4502433842571918 0 5.4502433842571918 61.227160468617512 0 0 0 0 -12.383990999520506 -24.733811576217704 0 -24.733811576217704 -23.550373298925479 0 0 0 0 -21.613085271484465 -6.9606876772195392 0 -6.9606876772195392 -6.2776559593039565 0 0 0 0 -13.844657596563138 12.941032349706802 0 12.941032349706802 -4.6457147683249786 0 0 0 0 -26.474093453816522 -7.5539776795121725 0 -7.5539776795121725 -2.6042647692047467 0 0 0 0 0.13159444774589352 0.03259933447624519 0 0.03259933447624519 -2.2477139147081004 0 0 0 0 -26.121529367041223 -13.87204069954015 0 -13.87204069954015 -6.2589536441082601 0 0 0 0 -67.021043008161229 16.466063883179061 0 16.466063883179061 13.500636680284515 0 0 0 0 -36.972606102845134 1.6593681060548988 0 1.6593681060548988 -13.36403159218753 0 0 0 0 -16.260047119505998 10.634506020483968 0 10.634506020483968 -4.2171995256503578 0 0 0 0 -14.231294444999321 9.8229928769142134 0 9.8229928769142134 -6.1023326084250584 0 0 0 0 -16.448368975131416 11.882386697914626 0 11.882386697914626 -5.7724199669391965 0 0 0 0 0.40735249360722037 -0.56790641613770276 0 -0.56790641613770276 -15.200032044645923 0 0 0 0 -14.334645984042936 10.647743863910364 0 10.647743863910364 -16.738037971794256 0 0 0 0 3.1576371316595462 2.9220274437048843 0 2.9220274437048843 -8.0207058627910612 0 0 0 0 3.4499644633678712 1.9763053901815084 0 1.9763053901815084 -9.9007018505899396 0 0 0 0 -1.7159114889009288 14.957162357022753 0 14.957162357022753 -9.6713304927761783 0 0 0 0 9.8671219697634456 10.177367907581356 0 10.177367907581356 -27.945404575279099 0 0 0 0 -15.846316831157765 13.691992768050113 0 13.691992768050113 -12.68845749522734 0 0 0 0 -13.443907319774553 16.319910888345476 0 16.319910888345476 -17.516947091979091 0 0 0 0 -14.884023606935557 10.671255711838057 0 10.671255711838057 -20.147521623046487 0 0 0 0 -0.17789827431194638 1.0473231394824865 0 1.0473231394824865 -1.0988354327129173 0 0 0 0 164.13284573728515 0.12827820972597692 0 0.12827820972597692 -595.57668213185389 0 0 0 0 -88.446110769876213 234.76668313355185 0 234.76668313355185 -695.76634279868449 0 0 0 0 -28.600664038443938 148.6272596866911 0 148.6272596866911 -520.65585841255961 0 0 0 0 -4.4900607247836888 127.53078981130966 0 127.53078981130966 -574.8150342998706 0 0 0 0 -6.1215978432610427 113.31075880637763 0 113.31075880637763 -476.59666340739932 0 0 0 0 -14.463598696092959 147.61153605727304 0 147.61153605727304 -517.38967502742889 0 0 0 0 -31.522921748700355 110.57938162583741 0 110.57938162583741 -439.23713401675923 0 0 0 0 -36.053071177924721 148.17968057730468 0 148.17968057730468 -446.29843283218361 0 0 0 0 5.5735124080847527 129.84172357225907 0 129.84172357225907 -587.68249683512477 0 0 0 0 -8.7263302657535586 4.0353641965454585 0 4.0353641965454585 -0.35667622999348936 0 0 0 0 -30.99967333425252 138.25206087776314 0 138.25206087776314 -588.11702848161804 0 0 0 0 -7.2161451016127103 132.11767617666919 0 132.11767617666919 -589.87886828195406 0 0 0 0 -1.3618908608293623 120.81148242554991 0 120.81148242554991 -598.74995484479587 0 0 0 0 41.446699124800034 127.40277424133092 0 127.40277424133092 -604.13462647375127 0 0 0 0 64.662738004762105 166.58687014814495 0 166.58687014814495 -587.92699956525757 0 0 0 0 17.499099541094438 143.4652272547246 0 143.4652272547246 -596.25160345957556 0 0 0 0 -14.202217995224601 163.18459499190794 0 163.18459499190794 -564.96229515880987 0 0 0 0 20.859840307268314 156.07146277689026 0 156.07146277689026 -569.49709078084561 0 0 0 0 21.169438286518016 183.83526476021507 0 183.83526476021507 -558.06444855261361 0 0 0 0 43.965171140914208 188.2909802534632 0 188.2909802534632 -573.86660963251779 0 0 0 0 24.805008031321449 182.12754181937271 0 182.12754181937271 -573.17771645124594 0 0 0 0 16.381553551667821 201.87437218171544 0 201.87437218171544 -560.36299968921867 0 0 0 0 -39.426135899400833 196.33720356026606 0 196.33720356026606 -502.34486010107139 0 0 0 0 -44.21881571356721 168.07921234473542 0 168.07921234473542 -479.87166722328402 0 0 0 0 -26.174027936429411 168.4998273976671 0 168.4998273976671 -495.14954701542229 0 0 0 0 -29.936734385439195 175.25570604566019 0 175.25570604566019 -505.25928173871944 0 0 0 0 -9.8833578948178911 174.80785661877599 0 174.80785661877599 -534.79007061816083 0 0 0 0 -17.798672060079753 180.20442135062331 0 180.20442135062331 -525.28783495811513 0 0 0 0 -14.796672856611622 197.06479127841885 0 197.06479127841885 -532.37331733653991 0 0 0 0 -9.8948531249925509 196.81383718238794 0 196.81383718238794 -556.34354919404723 0 0 0 0 8.6009691274030047 197.1496812005571 0 197.1496812005571 -556.5411839937733 0 0 0 0 -13.786756132602932 197.08565129571957 0 197.08565129571957 -554.54968636203557 0 0 0 0 -49.667334223372109 217.57004194861656 0 217.57004194861656 -546.09324329101946 0 0 0 0 -25.810624963175542 211.70126704845461 0 211.70126704845461 -551.32464296734543 0 0 0 0 -73.692822997870735 192.29986193524019 0 192.29986193524019 -467.04492858271988 0 0 0 0 -187.56225681328215 194.57913914561504 0 194.57913914561504 -483.36406639881898 0 0 0 0 -69.056211302049633 199.38178551822784 0 199.38178551822784 -531.21436565018666 0 0 0 0 -136.08030917413271 145.2994659182441 0 145.2994659182441 -442.82045086813741 0 0 0 0 -23.602581830844883 162.15273286482989 0 162.15273286482989 -441.29370586994628 0 0 0 0 -47.620541348333859 150.75014937657579 0 150.75014937657579 -458.79726391518489 0 0 0 0 -53.67682637939771 123.53223112645264 0 123.53223112645264 -429.39785942274466 0 0 0 0 -105.41258879681391 71.452076629775547 0 71.452076629775547 -452.40839933860116 0 0 0 0 -0.27312255372078242 -0.3108279732690491 0 -0.3108279732690491 -2.000993142974437 0 0 0 0 -69.916766013705455 132.11144198349211 0 132.11144198349211 -173.41970107136876 0 0 0 0 -98.436440562622465 -0.93983572706929408 0 -0.93983572706929408 69.16862857468368 0 0 0 0 -0.010685355060559232 0.21026429750175168 0 0.21026429750175168 -2.344682122575378 0 0 0 0 -99.263408878856353 179.91764630334364 0 179.91764630334364 -379.47517253874685 0 0 0 0 -21.536975626066578 43.339859500454622 0 43.339859500454622 -61.715081205933529 0 0 0 0 -72.092350144376724 88.866845364587789 0 88.866845364587789 -345.13123545136477 0 0 0 0 -85.099028987194288 40.540763331955532 0 40.540763331955532 31.824199398863129 0 0 0 0 -16.209729061602047 15.371202104110125 0 15.371202104110125 -0.89347412878123578 0 0 0 0 -1.1446220580787667 0.62123652432273957 0 0.62123652432273957 -12.936223727661854 0 0 0 0 -105.49985685114086 6.0623129087189227 0 6.0623129087189227 20.673562811010925 0 0 0 0 -103.14303893944566 1.4729551992932102 0 1.4729551992932102 11.266761527076596 0 0 0 0 -12.49782792185033 -43.043718170672946 0 -43.043718170672946 30.73876304634905 0 0 0 0 -0.76714280421761494 -1.7651207116496153 0 -1.7651207116496153 -3.2944253464677047 0 0 0 0 -110.11460957907576 -1.3615071214453565 0 -1.3615071214453565 15.299714916560333 0 0 0 0 -104.31506945442015 14.416078692067458 0 14.416078692067458 4.8231402923411224 0 0 0 0 -17.46834905076048 6.1577097683712054 0 6.1577097683712054 7.380494739729329 0 0 0 0 183.62110842541051 -84.616558384297605 0 -84.616558384297605 -18.555691601563012 0 0 0 0 -32.232426631049748 -53.086173785755818 0 -53.086173785755818 22.077531627379358 0 0 0 0 -80.502865755547873 -11.288989464490442 0 -11.288989464490442 30.364082417785539 0 0 0 0 -67.768585185169286 -0.21901525199064054 0 -0.21901525199064054 28.151677067177843 0 0 0 0 -75.551357586060249 25.728513711750566 0 25.728513711750566 2.1495103846755228 0 0 0 0 -99.450117985168163 14.621890295318735 0 14.621890295318735 42.48800752545867 0 0 0 0 42.398220142841865 -111.4770974434141 0 -111.4770974434141 51.073023274468142 0 0 0 0 -97.855099438522984 -64.202356080375466 0 -64.202356080375466 74.742917004357878 0 0 0 0 28.553209507040151 6.0119019803860283 0 6.0119019803860283 -29.126052840627381 0 0 0 0 -286.75562493139 33.198893963122828 0 33.198893963122828 -10.482004937683087 0 0 0 0 -77.111178456139669 14.503931492050469 0 14.503931492050469 -18.924670558728394 0 0 0 0 -143.28838591573867 -144.32974783159443 0 -144.32974783159443 -154.71003687575285 0 0 0 0 -88.622621541991634 201.04978991003009 0 201.04978991003009 -422.56170464763818 0 0 0 0 -40.451546616906398 216.20387298857713 0 216.20387298857713 -902.22781207603111 0 0 0 0 -288.67789610280124 466.32151376570255 0 466.32151376570255 -797.98156386377741 0 0 0 0 -241.58329716239973 72.20690813762485 0 72.20690813762485 -526.24976268866158 0 0 0 0 -325.90490082288545 261.58184010690275 0 261.58184010690275 -590.85634851377108 0 0 0 0 -50.1082952772299 219.36464002572211 0 219.36464002572211 -665.10910131635319 0 0 0 0 -147.04525789466334 254.99042685330642 0 254.99042685330642 -558.82068784347575 0 0 0 0 -65.429265529487566 126.6365322151396 0 126.6365322151396 -664.94824646886627 0 0 0 0 -75.755008175623971 121.76265816317391 0 121.76265816317391 -651.43385285539262 0 0 0 0 -59.800395304825088 102.53553030355579 0 102.53553030355579 -722.37634193633858 0 0 0 0 -46.979845539282678 21.455348555384262 0 21.455348555384262 -770.60428138225689 0 0 0 0 -41.335799641857193 93.173694423490815 0 93.173694423490815 -978.55353323037707 0 0 0 0 -148.21553139324396 -82.397223816515179 0 -82.397223816515179 -841.81277435358788 0 0 0 0 -88.979709625097712 -57.829940192081267 0 -57.829940192081267 -890.9464429087966 0 0 0 0 -124.48293715637465 -77.693262547145423 0 -77.693262547145423 -700.09555254167572 0 0 0 0 139.8462100218585 118.28903870382055 0 118.28903870382055 24.643353935014602 0 0 0 0 -8.3981081592394471 10.482646430826989 0 10.482646430826989 -8.7748833698043143 0 0 0 0 -80.268145665750126 -243.97225871713454 0 -243.97225871713454 -954.21013184540061 0 0 0 0 185.8497377971853 109.55425150710107 0 109.55425150710107 -83.058804715343285 0 0 0 0 194.83563411662271 121.87090407828146 0 121.87090407828146 -146.46011702651231 0 0 0 0 -73.570546101647324 473.5296659762389 0 473.5296659762389 -540.27244121317199 0 0 0 0 0.57123315706019184 -38.529782534711558 0 -38.529782534711558 -1849.8612240900184 0 0 0 0 -3.4040818577303815 3.116119878632901 0 3.116119878632901 -2.7752152846252471 0 0 0 0 -62.143021260639898 375.28038481302428 0 375.28038481302428 284.09472607434873 0 0 0 0 -954.78259999343982 132.80096624874568 0 132.80096624874568 5.8659519901430031 0 0 0 0 -317.43264211176904 -25.321824202505468 0 -25.321824202505468 -219.00272503045562 0 0 0 0 -52.016052852145094 159.18481309568415 0 159.18481309568415 -96.920222278633446 0 0 0 0 -34.178036153334176 89.055481213085386 0 89.055481213085386 -99.638195922525483 0 0 0 0 448.67255731646947 -182.44515946153842 0 -182.44515946153842 -54.743035017752845 0 0 0 0 6.3353237780357308 -4.9858984817953456 0 -4.9858984817953456 -24.392783630163507 0 0 0 0 150.70127204406981 38.969225529897813 0 38.969225529897813 -15.984184509561601 0 0 0 0 174.92201402553746 16.337841622313135 0 16.337841622313135 -168.98700899816686 0 0 0 0 -68.35827452326771 126.02398136899683 0 126.02398136899683 -176.45262145913148 0 0 0 0 383.8049914128128 179.41535687744909 0 179.41535687744909 -410.70871479539346 0 0 0 0 3.8758283947149224 -9.1439244222117111 0 -9.1439244222117111 -26.665873349611331 0 0 0 0 -0.59968764377257155 -11.848775267426625 0 -11.848775267426625 -25.760319688585241 0 0 0 0 -155.04680419714592 132.54440804731712 0 132.54440804731712 -274.08487563756353 0 0 0 0 -163.15949333930666 210.53008192203561 0 210.53008192203561 -273.03090002737008 0 0 0 0 -118.75741834799601 131.24199874282931 0 131.24199874282931 -175.63313813892819 0 0 0 0 -58.145444812583719 60.689770824512379 0 60.689770824512379 -450.56244272297772 0 0 0 0 -76.554176463499061 -46.489612947982096 0 -46.489612947982096 -1040.4733736319613 0 0 0 0 -2.9946855438568321 -6.6423117344342586 0 -6.6423117344342586 -10.454974285164155 0 0 0 0 -284.25259371250377 389.47712385060004 0 389.47712385060004 -430.39672291768511 0 0 0 0 -309.68388180445845 581.57014625509692 0 581.57014625509692 -1628.6600312991577 0 0 0 0 657.79137777258666 347.8210679788881 0 347.8210679788881 -1180.7972290741818 0 0 0 0 883.75189421757295 -623.48823687190452 0 -623.48823687190452 151.57210083500468 0 0 0 0 -1179.1075427272349 -516.0074766837497 0 -516.0074766837497 1056.2498182626005 0 0 0 0 -1151.7065914805494 59.205074012232217 0 59.205074012232217 -983.97181671819635 0 0 0 0 93.234637498668235 -1942.7358556391773 0 -1942.7358556391773 66.716783042458701 0 0 0 0 -912.24910991664092 -1291.7989667848124 0 -1291.7989667848124 -498.24285573263478 0 0 0 0 -95.34513331596736 -535.03349113147851 0 -535.03349113147851 -2124.201425190844 0 0 0 0 -151.00525904056531 -237.10706508613293 0 -237.10706508613293 -595.42489362278138 0 0 0 0 -286.35993134474734 -354.065012404757 0 -354.065012404757 -647.18672433678148 0 0 0 0 -713.03685962403506 -174.51812822195097 0 -174.51812822195097 343.44967508955597 0 0 0 0 -0.38314940958200872 1.2015208029850868 0 1.2015208029850868 -0.61573836346727262 0 0 0 0 -6.7684696474466364 -24.521067807232612 0 -24.521067807232612 -76.177126789363683 0 0 0 0 -14.781837659183566 26.769801604375971 0 26.769801604375971 -172.66390904346554 0 0 0 0 -345.15902850340331 -117.32047575155411 0 -117.32047575155411 -103.84723355885217 0 0 0 0 -246.5160229590274 24.394658962410176 0 24.394658962410176 -97.015328972789575 0 0 0 0 -126.02395069288741 -93.569059985351487 0 -93.569059985351487 -125.91970969514114 0 0 0 0 -123.43744300343587 60.890859948627622 0 60.890859948627622 -113.94998733422835 0 0 0 0 -2.7401623006060305 -23.77349103492196 0 -23.77349103492196 -83.408906043303432 0 0 0 0 -83.939682040263051 -165.598861561386 0 -165.598861561386 -195.91916842516366 0 0 0 0 -66.996679040606978 -142.98229385662125 0 -142.98229385662125 -167.3719166450901 0 0 0 0 -127.40313436724335 -67.849217092218169 0 -67.849217092218169 -83.75025809489307 0 0 0 0 -139.52269709193479 -153.05200009594773 0 -153.05200009594773 -149.79178723838413 0 0 0 0 -171.52237169584942 -233.7431289964934 0 -233.7431289964934 -271.39122465826222 0 0 0 0 -131.71789706467916 -176.96460099603428 0 -176.96460099603428 -195.69649794414624 0 0 0 0 -80.115904509342727 -226.75929526620166 0 -226.75929526620166 -252.7693288212613 0 0 0 0 -104.54640041743494 -241.62888349273908 0 -241.62888349273908 -322.55716828425648 0 0 0 0 -257.55374971196579 -252.02357463730368 0 -252.02357463730368 -369.85720130142727 0 0 0 0 -158.19508954110188 -165.74952328166182 0 -165.74952328166182 -298.9313874532636 0 0 0 0 -61.049272105420073 80.503419477141506 0 80.503419477141506 -475.96051750973857 0 0 0 0 -62.304935661154559 -183.34814988416838 0 -183.34814988416838 -586.3771813608364 0 0 0 0 -32.812612565777272 -88.999377853768237 0 -88.999377853768237 -371.92208758737979 0 0 0 0 -30.524949478796771 -119.79775890323072 0 -119.79775890323072 -277.88427060108188 0 0 0 0 -22.257591755210797 -92.432052578114963 0 -92.432052578114963 -188.41927549041429 0 0 0 0 10.20211413301422 -81.478326020711393 0 -81.478326020711393 -224.87639603977004 0 0 0 0 18.19674803694943 -202.35667609826123 0 -202.35667609826123 -250.59365705337041 0 0 0 0 -26.958450805491225 -196.33915456661953 0 -196.33915456661953 -235.99738343233184 0 0 0 0 -27.834083287765679 -189.32476960514032 0 -189.32476960514032 -288.0282755336375 0 0 0 0 21.923115179318785 -198.98361869551695 0 -198.98361869551695 -280.60515663880506 0 0 0 0 20.868434591473488 -210.84195044953594 0 -210.84195044953594 -262.31313883903567 0 0 0 0 24.387316388322233 -170.56393721127097 0 -170.56393721127097 -301.90875658994628 0 0 0 0 23.941868577719106 -172.41897766180045 0 -172.41897766180045 -247.33891726945149 0 0 0 0 -68.266106755940655 -177.04638075830371 0 -177.04638075830371 -227.53324535097636 0 0 0 0 -17.542707208516731 -197.10820449060702 0 -197.10820449060702 -260.98445577991515 0 0 0 0 -18.216543694790744 -191.41166559187332 0 -191.41166559187332 -232.65636070736946 0 0 0 0 44.340098706505614 -253.4881793890454 0 -253.4881793890454 -540.56904166280583 0 0 0 0 -197.57326630920716 -335.64942129696283 0 -335.64942129696283 -246.1245954928745 0 0 0 0 49.468423850421459 -193.74480688448239 0 -193.74480688448239 -285.90896655789402 0 0 0 0 52.564860533241927 -193.84761357306525 0 -193.84761357306525 -310.91008072849945 0 0 0 0 25.771793775564674 -255.4335536968938 0 -255.4335536968938 -301.96210171714756 0 0 0 0 20.128556709011718 -233.86224977362508 0 -233.86224977362508 -211.27825420888257 0 0 0 0 -38.392942578196198 -145.44768636340086 0 -145.44768636340086 -73.124227541338769 0 0 0 0 33.167933096496881 -132.28420475834355 0 -132.28420475834355 -117.0640780711401 0 0 0 0 57.53587600144715 -47.213213473131418 0 -47.213213473131418 -9.5698811729598674 0 0 0 0 96.139031393196092 -191.23873883443594 0 -191.23873883443594 -165.40851140864106 0 0 0 0 30.266063643303653 -155.12423305156562 0 -155.12423305156562 -180.56168019813049 0 0 0 0 9.1212003969862963 -66.922070327393158 0 -66.922070327393158 -60.080135679098021 0 0 0 0 143.91843741705338 -147.37212329897011 0 -147.37212329897011 -28.72637595784181 0 0 0 0 19.142416842684725 -66.855443237687723 0 -66.855443237687723 16.783526468180298 0 0 0 0 303.44701462941441 33.46397498373517 0 33.46397498373517 -89.692587965837447 0 0 0 0 1.9713629931727059 -3.5775767762460049 0 -3.5775767762460049 -1.2622717635923664 0 0 0 0 156.51228175027154 -100.84590423214468 0 -100.84590423214468 12.959388077520998 0 0 0 0 259.86699570729411 -18.688895835864969 0 -18.688895835864969 -58.353667809598846 0 0 0 0 -39.317748106209365 7.2449320491432445 0 7.2449320491432445 -47.770456009930058 0 0 0 0 143.89483596700666 -22.669905971160915 0 -22.669905971160915 -128.1316215122788 0 0 0 0 -51.339164898359741 168.1290729869288 0 168.1290729869288 -160.56900428794324 0 0 0 0 22.967991992597945 41.899332337667147 0 41.899332337667147 -103.52749370670062 0 0 0 0 -25.770795958673716 79.083117836013116 0 79.083117836013116 27.216529218538199 0 0 0 0 -45.278340984132228 115.56106069272937 0 115.56106069272937 -209.45012070647135 0 0 0 0 -35.851270904738158 4.4437861990554666 0 4.4437861990554666 -93.168434864557639 0 0 0 0 -40.167826161939956 35.853312197912601 0 35.853312197912601 -321.56611177794912 0 0 0 0 -58.864433588225864 69.420523958976332 0 69.420523958976332 -234.21532934874995 0 0 0 0 -46.399630235978748 130.31552464501146 0 130.31552464501146 -164.7661589026975 0 0 0 0 -47.706782143403871 147.27495414131772 0 147.27495414131772 -290.74241038212858 0 0 0 0 -22.236256969392116 52.22935162842623 0 52.22935162842623 -53.457538553440827 0 0 0 0 -57.225207752367851 187.41920708333328 0 187.41920708333328 -221.21300390891702 0 0 0 0 -69.712996472751115 150.58606609576418 0 150.58606609576418 -172.14018095466599 0 0 0 0 -60.253132042387733 106.53855949757417 0 106.53855949757417 -142.84812826704001 0 0 0 0 -24.927658703465113 154.79224898268149 0 154.79224898268149 -255.48130114531887 0 0 0 0 -4.8352095462382749 9.5260445214189531 0 9.5260445214189531 -146.77092237261968 0 0 0 0 -24.050979276339149 49.434622455886711 0 49.434622455886711 -126.24252598034582 0 0 0 0 -16.037519171038184 191.48085374153743 0 191.48085374153743 -445.72547319445584 0 0 0 0 -7.7174541793392564 145.88638559543324 0 145.88638559543324 -251.64953671871626 0 0 0 0 13.328521916095269 -19.913069272210123 0 -19.913069272210123 -262.77128145970346 0 0 0 0 26.294728381338246 -4.0121419994102325 0 -4.0121419994102325 -414.62683536647819 0 0 0 0 21.163805464007282 78.788766149638832 0 78.788766149638832 -713.56543854682241 0 0 0 0 -0.78847171250740189 -0.12161641842365611 0 -0.12161641842365611 -0.38928236957674756 0 0 0 0 -746.73601759735084 226.30905157074449 0 226.30905157074449 -541.84518315999958 0 0 0 0 -223.57204617325351 335.00190716979705 0 335.00190716979705 -476.71155259879015 0 0 0 0 33.355896750289048 256.63005931801308 0 256.63005931801308 -679.88662208137612 0 0 0 0 -306.73431568990418 16.09889178971207 0 16.09889178971207 -234.44763774918829 0 0 0 0 -31.054536846716474 -4.0742139690701151 0 -4.0742139690701151 -246.15638284647139 0 0 0 0 24.321364418037774 96.278901562094688 0 96.278901562094688 -88.252667317778105 0 0 0 0 -63.907292355082518 201.95841983555511 0 201.95841983555511 -275.2759562180654 0 0 0 0 -190.15965822225189 150.86317498719291 0 150.86317498719291 -124.39095591501791 0 0 0 0 -137.62878234253185 176.92573993820406 0 176.92573993820406 -277.26550202585349 0 0 0 0 810.27080065880023 -43.196508505502607 0 -43.196508505502607 -166.86535688778531 0 0 0 0 355.36292175381686 -59.621360324097623 0 -59.621360324097623 6.4611212999443524 0 0 0 0 343.57525111070709 21.472416550190246 0 21.472416550190246 -296.11536863011497 0 0 0 0 1.5054757562418146 -1.0496489316431266 0 -1.0496489316431266 -29.967757688510233 0 0 0 0 21.642951086637915 -18.635590961577009 0 -18.635590961577009 30.528262613981497 0 0 0 0 14.725287751636159 58.712785096039852 0 58.712785096039852 -91.136192524769285 0 0 0 0 297.35694795532891 -61.984632238851191 0 -61.984632238851191 35.185070643179643 0 0 0 0 255.05815688903766 -236.24680340246323 0 -236.24680340246323 -401.66277928633644 0 0 0 0 155.08888249501069 32.301003688211495 0 32.301003688211495 -125.80227788187403 0 0 0 0 134.5316632003387 -62.59380240272003 0 -62.59380240272003 -383.25353026011726 0 0 0 0 63.666703614286007 106.25998417317169 0 106.25998417317169 -203.26736661046743 0 0 0 0 337.87660119038674 36.231051261354878 0 36.231051261354878 -182.99166194930876 0 0 0 0 160.80726710380623 104.85472462893813 0 104.85472462893813 -94.859249550347158 0 0 0 0 309.51229059750654 61.423124484211257 0 61.423124484211257 -118.54216189010185 0 0 0 0 144.39339547528488 56.387503014876529 0 56.387503014876529 -174.56219491083175 0 0 0 0 126.84288354702016 133.42172011715593 0 133.42172011715593 -122.45533410267672 0 0 0 0 -111.65517972451789 202.79744762806877 0 202.79744762806877 -41.8334838369301 0 0 0 0 156.9435296820518 136.88211944260183 0 136.88211944260183 -143.65496397051902 0 0 0 0 138.64110455678838 120.09609126747091 0 120.09609126747091 -71.748335957865493 0 0 0 0 285.31373182612901 19.370773727820051 0 19.370773727820051 -83.384463472495554 0 0 0 0 318.0458934676426 65.046854058411554 0 65.046854058411554 -88.78841764201934 0 0 0 0 295.75684402513843 114.36626195979625 0 114.36626195979625 -98.49457698545848 0 0 0 0 313.36469319876505 81.981294187295134 0 81.981294187295134 -8.837369772429156 0 0 0 0 446.15521842151747 101.346433437011 0 101.346433437011 -105.21549334793235 0 0 0 0 1.3377873918444658 -1.7860195618934824 0 -1.7860195618934824 -37.161955294981908 0 0 0 0 264.45424531485469 -145.80933361278585 0 -145.80933361278585 -48.901565575339191 0 0 0 0 136.63760144930359 -145.97213994863773 0 -145.97213994863773 33.797424620395759 0 0 0 0 571.54344252201008 -62.603926596890233 0 -62.603926596890233 -62.036924021274899 0 0 0 0 332.81668192800976 52.435410940121074 0 52.435410940121074 -78.077879353280878 0 0 0 0 1.6229666206337185 0.564424642620029 0 0.564424642620029 -41.230920555396835 0 0 0 0 249.92162633208363 91.718742746910721 0 91.718742746910721 -35.076400418245612 0 0 0 0 253.23685193798337 94.082194004073244 0 94.082194004073244 -37.343675355354208 0 0 0 0 249.04152175928721 89.947478772606701 0 89.947478772606701 -37.631923012206244 0 0 0 0 1.4630112045112442 7.4099165978452959 0 7.4099165978452959 -36.224334146490548 0 0 0 0 0.39438090832598127 2.684114148488824 0 2.684114148488824 -0.24771899969195488 0 0 0 0 251.92123552651583 92.24504008977965 0 92.24504008977965 -39.60438908393553 0 0 0 0 -7.1289676623210312 56.680292221275522 0 56.680292221275522 6.0236083065537969 0 0 0 0 -87.25480794848454 -217.9812963285367 0 -217.9812963285367 -77.079141769227135 0 0 0 0 330.51667797820323 157.50597278882196 0 157.50597278882196 11.921988180860353 0 0 0 0 1.4226793227598769 7.4980292593668949 0 7.4980292593668949 -29.435491374145641 0 0 0 0 350.55499114416466 121.17408461810555 0 121.17408461810555 41.729578106293047 0 0 0 0 -459.01682905798839 -260.99299382974641 0 -260.99299382974641 -8.169518256552692 0 0 0 0 6.0343377922201853 99.81708825491296 0 99.81708825491296 -415.71994303326937 0 0 0 0 -382.11858489664019 -670.13580286529032 0 -670.13580286529032 -752.81978661184621 0 0 0 0 -147.41619223691896 18.343376812462338 0 18.343376812462338 -460.29500527997152 0 0 0 0 29.054774726246734 104.4600701710533 0 104.4600701710533 -11.362473085573583 0 0 0 0 117.73855833052878 24.251755696095643 0 24.251755696095643 -45.604012367984978 0 0 0 0 0.81873737747773845 0.73016946896039769 0 0.73016946896039769 -0.12001859190579012 0 0 0 0 637.18670034641366 54.648505622757511 0 54.648505622757511 -25.212744370543078 0 0 0 0 468.79060455773424 226.35382733487131 0 226.35382733487131 61.573715314676519 0 0 0 0 333.60282916974796 6.4255097433988908 0 6.4255097433988908 -20.348452834776253 0 0 0 0 103.17762980697148 13.81820998362673 0 13.81820998362673 -30.622622876169771 0 0 0 0 178.51565085758017 20.469480309970095 0 20.469480309970095 -30.140618000856193 0 0 0 0 1.0622546879034371 1.4181697648752163 0 1.4181697648752163 -0.27335653299562068 0 0 0 0 270.25884473808532 72.641631307493299 0 72.641631307493299 -77.046482263111102 0 0 0 0 157.36858258798964 77.396519775360503 0 77.396519775360503 -27.068456508761301 0 0 0 0 102.48816105591243 50.902865443749761 0 50.902865443749761 -66.059351381110901 0 0 0 0 0.40418775398650553 0.53150052849248652 0 0.53150052849248652 -0.083579256483176323 0 0 0 0 92.694426650486321 17.420433053914167 0 17.420433053914167 29.51549343321858 0 0 0 0 93.366000337107266 21.856420337302552 0 21.856420337302552 6.8365341119279037 0 0 0 0 -10.697557600857124 30.267986397653658 0 30.267986397653658 -30.502713618298003 0 0 0 0 71.528198828226834 38.550012506962958 0 38.550012506962958 23.606707859737071 0 0 0 0 0.045397113975258252 0.35003146349421854 0 0.35003146349421854 -0.38230074253957014 0 0 0 0 97.718481778028163 32.974594196845828 0 32.974594196845828 -16.54409707011655 0 0 0 0 73.465365259545123 29.169491004360395 0 29.169491004360395 -11.782983198034344 0 0 0 0 73.516815978991133 33.018778393758112 0 33.018778393758112 12.210477631142567 0 0 0 0 100.38194410082349 44.768795706280798 0 44.768795706280798 18.320312192690835 0 0 0 0 95.761915955527428 19.464736634305154 0 19.464736634305154 -27.301528618452721 0 0 0 0 -2.3893344290988239 62.226353010955791 0 62.226353010955791 -65.405727336070413 0 0 0 0 91.780715019770994 50.994200502040712 0 50.994200502040712 -76.184405384919955 0 0 0 0 101.28867168614613 6.2767228534066817 0 6.2767228534066817 -46.81614330735465 0 0 0 0 115.26915998125915 16.034095533606887 0 16.034095533606887 -69.678178422167548 0 0 0 0 -22.710598586414861 90.766939040644502 0 90.766939040644502 -129.96425355094107 0 0 0 0 -23.893741686416845 88.084202103986172 0 88.084202103986172 -117.46275269639591 0 0 0 0 107.42194426745283 -3.7479760750993592 0 -3.7479760750993592 -7.9799437482724898 0 0 0 0 -93.869275731517149 104.40292900874556 0 104.40292900874556 -83.100699703994906 0 0 0 0 0.11840146642706517 0.15521043561873427 0 0.15521043561873427 -0.32607486850312739 0 0 0 0 -33.06987900298914 41.837363158323569 0 41.837363158323569 -19.837522027533851 0 0 0 0 -33.241822669800783 58.740883863552881 0 58.740883863552881 -64.365610782377189 0 0 0 0 0.011733441174636774 65.010116915400431 0 65.010116915400431 -101.57740752178506 0 0 0 0 -9.366697741389977e-05 0.42770619729344617 0 0.42770619729344617 -0.80841837065963773 0 0 0 0 -6.8455857494975163 23.432677526499901 0 23.432677526499901 -75.695598790556687 0 0 0 0 -0.033437299013586469 0.1377351083907854 0 0.1377351083907854 -0.29500603593677965 0 0 0 0 1.1228790592416686 8.2147537985219969 0 8.2147537985219969 -54.444376624283905 0 0 0 0 0.061905015311500611 0.38018938560989568 0 0.38018938560989568 -0.69235210637634736 0 0 0 0 31.718205258013114 11.907653187176038 0 11.907653187176038 1.186881636880571 0 0 0 0 33.898420755875463 10.453889967917348 0 10.453889967917348 -10.018397165425995 0 0 0 0 -0.19736512904562664 0.10862229151495484 0 0.10862229151495484 -0.12624633636556837 0 0 0 0 21.274966043455208 26.375374299524992 0 26.375374299524992 20.828931750511401 0 0 0 0 -1.2359339862929346 0.78894092865812127 0 0.78894092865812127 0.44036115554627031 0 0 0 0 -0.98936709163224634 0.55608895596378716 0 0.55608895596378716 -0.74606121278702631 0 0 0 0 -0.31612078791500331 0.69596473599942499 0 0.69596473599942499 -0.70884629921303599 0 0 0 0 0.023772609380211539 0.11180039810069786 0 0.11180039810069786 -0.63511365073927095 0 0 0 0 -0.21743252722196352 0.39189148046716582 0 0.39189148046716582 -0.78037617097652401 0 0 0 0 -0.00021318004370497732 0.16244119097973453 0 0.16244119097973453 -0.68863827335007954 0 0 0 0 -2.0990036031891748 0.059248010831652209 0 0.059248010831652209 0.53946221270598471 0 0 0 0 -32.819694590099658 115.1632853444662 0 115.1632853444662 -400.70245089649688 0 0 0 0 -4.8271064681949493e-05 0.16221921164833475 0 0.16221921164833475 -0.68893859549280023 0 0 0 0 -0.69919344764071667 1.125292716507829 0 1.125292716507829 -2.0316444185118598 0 0 0 0 0.134440768942302 0.061045986309686384 0 0.061045986309686384 -0.54309002212082191 0 0 0 0 -0.081433107436778743 -0.016117959774277324 0 -0.016117959774277324 -0.3757154848834432 0 0 0 0 -101.7341589299847 101.06149200504296 0 101.06149200504296 -80.968418541462597 0 0 0 0 -0.12242664985022905 0.038719640946361267 0 0.038719640946361267 -0.39612343266955463 0 0 0 0 -43.993354291730441 -6.4255770949675934 0 -6.4255770949675934 -7.9386376334005035 0 0 0 0 13.734421807628451 -14.41303054414675 0 -14.41303054414675 -28.365814776392654 0 0 0 0 -63.568896879827264 49.653082951335819 0 49.653082951335819 -24.573940961412518 0 0 0 0 38.126101522464715 63.978347317414773 0 63.978347317414773 -122.12981665192638 0 0 0 0 393.56268032894639 45.452946963319846 0 45.452946963319846 -93.062446968091535 0 0 0 0 25.00163372657812 107.55887031459861 0 107.55887031459861 -62.142466804092692 0 0 0 0 34.029111139140696 112.15819574504712 0 112.15819574504712 -179.55200602373952 0 0 0 0 87.736016916935569 55.685680318609229 0 55.685680318609229 -125.24096228565759 0 0 0 0 -50.124203331565013 36.68637713874341 0 36.68637713874341 -127.48913612648357 0 0 0 0 -4.5866142706243664 112.72307116641605 0 112.72307116641605 -286.43935877677723 0 0 0 0 -70.842924845269692 -17.565732579283576 0 -17.565732579283576 -331.78455535802641 0 0 0 0 17.228038111846644 56.444381068806251 0 56.444381068806251 -430.68509502353845 0 0 0 0 1.7220840001406259 6.6334569913778978 0 6.6334569913778978 -228.22869092579458 0 0 0 0 49.612739221761103 2.0150019283246365 0 2.0150019283246365 -426.03686528200342 0 0 0 0 64.379994726636028 -42.029891398829932 0 -42.029891398829932 -664.28221771592871 0 0 0 0 9.749703492028857 -55.300964642541658 0 -55.300964642541658 -712.44601113116414 0 0 0 0 -77.414315533111932 -67.84186648360992 0 -67.84186648360992 -474.33753955439897 0 0 0 0 -109.48734654433613 -75.752536798427172 0 -75.752536798427172 -571.52758494252339 0 0 0 0 -0.73436679705872621 12.158078460888646 0 12.158078460888646 -557.8642197957397 0 0 0 0 -18.348045210063571 -33.462978500050667 0 -33.462978500050667 -750.50090583654674 0 0 0 0 -17.72474686486607 -114.58652346503368 0 -114.58652346503368 -816.08305339112485 0 0 0 0 -0.24131953598459377 4.92682415332456 0 4.92682415332456 -645.02770699853136 0 0 0 0 -75.816494185702467 -63.299495480725454 0 -63.299495480725454 -472.27885942094144 0 0 0 0 -30.971853683557924 71.477110265623196 0 71.477110265623196 -529.4133919249507 0 0 0 0 0.16480394622182881 220.32359406943579 0 220.32359406943579 -711.80231602312415 0 0 0 0 73.478799078375459 191.5247362492446 0 191.5247362492446 -467.93754424382132 0 0 0 0 -94.570375173257958 166.4942648656106 0 166.4942648656106 -198.30992688497099 0 0 0 0 29.430285248434075 480.74180506034463 0 480.74180506034463 -331.69038923471817 0 0 0 0 -552.09463622009514 344.63519173222267 0 344.63519173222267 -373.54185225471883 0 0 0 0 -0.85871615469083329 -1.0056281675688297 0 -1.0056281675688297 -4.3538973596763242 0 0 0 0 -611.13033376207659 628.05849469890063 0 628.05849469890063 -692.10964505134325 0 0 0 0 -185.55152789288167 -25.087202831633476 0 -25.087202831633476 -569.48007909200533 0 0 0 0 -262.527135145714 92.638023175200942 0 92.638023175200942 -529.50368885268836 0 0 0 0 -432.01384593506134 241.72749040488998 0 241.72749040488998 -811.10423417153106 0 0 0 0 -371.58662980258509 41.154537488997448 0 41.154537488997448 -239.46244941046461 0 0 0 0 -377.58738676574308 -119.28740068078696 0 -119.28740068078696 -603.78937377806869 0 0 0 0 -111.02858375795432 267.85704796096161 0 267.85704796096161 -669.87305919408391 0 0 0 0 -0.11351788607468019 146.0004615733742 0 146.0004615733742 -536.60580159730307 0 0 0 0 -45.908112388626392 212.74145720031083 0 212.74145720031083 -477.51272838352816 0 0 0 0 -75.1991242160978 128.43274898988784 0 128.43274898988784 -321.51487714698305 0 0 0 0 -19.253843858510493 150.72340743829045 0 150.72340743829045 -312.82790032369667 0 0 0 0 0.0035734714152272917 113.14843874805592 0 113.14843874805592 -320.14850451734674 0 0 0 0 -66.413336309551255 162.03534769856924 0 162.03534769856924 -218.49385750017609 0 0 0 0 -53.259632103444432 102.20457816581984 0 102.20457816581984 -105.09156112735218 0 0 0 0 15.280098794829712 73.678339724014222 0 73.678339724014222 -120.02490719304478 0 0 0 0 -0.087360790466323474 81.248733552069496 0 81.248733552069496 -144.15871677212999 0 0 0 0 0.057893742506308854 98.974589738500072 0 98.974589738500072 -190.2917787684928 0 0 0 0 81.876702005218519 44.801941270254247 0 44.801941270254247 -110.75534950185101 0 0 0 0 81.862073913628819 54.540480570438376 0 54.540480570438376 -50.870682025517453 0 0 0 0 116.30425811365166 118.79901103615703 0 118.79901103615703 -42.192897792119766 0 0 0 0 150.65684129129556 40.187153177656 0 40.187153177656 -73.504089096968528 0 0 0 0 8.0824681047308786 95.327720476001559 0 95.327720476001559 -89.44564414045999 0 0 0 0 -45.386508556349582 103.25972659117906 0 103.25972659117906 -159.31224472497343 0 0 0 0 23.178675189950326 96.863389661066321 0 96.863389661066321 -188.46396925495355 0 0 0 0 79.334478613840531 55.643331717103138 0 55.643331717103138 -149.67686178549775 0 0 0 0 149.34244910080395 122.3529818782481 0 122.3529818782481 -195.62612512293344 0 0 0 0 -16.473866023643353 91.397431538302044 0 91.397431538302044 -186.56538868618372 0 0 0 0 121.42942784272444 -25.459302799987199 0 -25.459302799987199 -255.66804896034591 0 0 0 0 26.022435391243803 116.92716911788375 0 116.92716911788375 -354.84947223737254 0 0 0 0 -121.12806349963247 86.137037497624988 0 86.137037497624988 -361.1765864161498 0 0 0 0 -53.298523947192933 169.76103970501208 0 169.76103970501208 -506.06770698613582 0 0 0 0 87.076545530275695 177.84081050062741 0 177.84081050062741 -394.02343506208854 0 0 0 0 66.397036622898398 2.0427312005522253 0 2.0427312005522253 -718.54191746946162 0 0 0 0 0.021912780328148473 1.571724830688737 0 1.571724830688737 -5.7707463718149938 0 0 0 0 71.006636870613818 206.32956382245175 0 206.32956382245175 179.28700397352804 0 0 0 0 -689.49123341816721 -1001.2809903475718 0 -1001.2809903475718 -859.6286822103757 0 0 0 0 -86.754807416774696 -627.15152453989867 0 -627.15152453989867 -673.55649762914982 0 0 0 0 -616.79180058883219 -400.15146713862487 0 -400.15146713862487 -489.16282838932239 0 0 0 0 68.460547979953162 -541.93350166911841 0 -541.93350166911841 -651.5618579488364 0 0 0 0 134.43201631380765 -254.22504408164605 0 -254.22504408164605 -583.04809321588255 0 0 0 0 119.15680777534094 -56.220350573294127 0 -56.220350573294127 -1278.8920683892939 0 0 0 0 1.1868507775619221 4.4228845792218721 0 4.4228845792218721 -13.852388653939244 0 0 0 0 -18.781834142631396 -499.33570183430129 0 -499.33570183430129 -718.50614148494788 0 0 0 0 -134.57862758886642 -361.12493961613654 0 -361.12493961613654 -746.39921637989755 0 0 0 0 15.377800982354984 -499.0601468217501 0 -499.0601468217501 -726.55935671885345 0 0 0 0 -285.96351469261032 -616.75835568571347 0 -616.75835568571347 -3.8960056536016054 0 0 0 0 372.06957710227033 -150.12920175896579 0 -150.12920175896579 -790.09576820194343 0 0 0 0 306.89945434142692 43.850544031251047 0 43.850544031251047 -283.3215882712102 0 0 0 0 163.28746619710489 69.373630601148761 0 69.373630601148761 -277.03610197288799 0 0 0 0 279.4980723435765 202.78768498156569 0 202.78768498156569 -140.19718223484233 0 0 0 0 173.13057007059041 87.371696572605288 0 87.371696572605288 -94.609415803435695 0 0 0 0 388.65280814398898 151.58299122833705 0 151.58299122833705 -88.05452802254149 0 0 0 0 284.26697988184998 181.14904200124147 0 181.14904200124147 -56.36422895337455 0 0 0 0 734.95127172452328 246.0230883095719 0 246.0230883095719 -429.97700978725334 0 0 0 0 -862.29916964312861 -793.04065607138546 0 -793.04065607138546 -328.40020135889063 0 0 0 0 1.2934586547920859 0.88047211206041709 0 0.88047211206041709 -8.3339709565469491 0 0 0 0 771.55967654802066 508.85893691035426 0 508.85893691035426 -109.70818603105727 0 0 0 0 448.92475011761383 337.19880553024996 0 337.19880553024996 217.17203857944696 0 0 0 0 597.14249930326571 205.62592396869513 0 205.62592396869513 42.826197483853321 0 0 0 0 462.16488934110129 67.862596825707442 0 67.862596825707442 107.13720121156075 0 0 0 0 323.38944605434511 184.03017155643465 0 184.03017155643465 9.928630893202353 0 0 0 0 143.1009913699005 63.304305493916218 0 63.304305493916218 34.179575656948145 0 0 0 0 282.25666363802083 201.28817734173936 0 201.28817734173936 12.266146165959071 0 0 0 0 77.51466123615819 101.46812765023788 0 101.46812765023788 -35.053501648522797 0 0 0 0 0.58477196424751376 1.2040741096161867 0 1.2040741096161867 -4.9493130053115806 0 0 0 0 -103.01937852190349 -185.39421425328328 0 -185.39421425328328 6.5073270888606203 0 0 0 0 2.6357444224193136 3.8042375554119445 0 3.8042375554119445 -21.912380302288 0 0 0 0 -223.23476239725119 -325.54595378798331 0 -325.54595378798331 -539.96620760874794 0 0 0 0 1.105829505012375 4.1801088167731706 0 4.1801088167731706 -12.242575330810837 0 0 0 0 -405.07566977741953 -457.20787686192489 0 -457.20787686192489 -461.44905411038053 0 0 0 0 -18.4755632621941 232.60452287232329 0 232.60452287232329 -232.90475559831248 0 0 0 0 -22.994531094010426 -449.43856014764606 0 -449.43856014764606 -610.36549339431804 0 0 0 0 -417.69365730235904 -66.520454782003071 0 -66.520454782003071 -108.05408893761341 0 0 0 0 -337.3026954247498 138.99159024455003 0 138.99159024455003 -625.84301266164402 0 0 0 0 -337.2380407330611 -386.7958792046993 0 -386.7958792046993 -693.83941269599018 0 0 0 0 19.919515439832395 -260.95407165976098 0 -260.95407165976098 -378.74128186635789 0 0 0 0 -270.82247152507261 -191.62226164797903 0 -191.62226164797903 -376.72822607189619 0 0 0 0 54.561706812618922 -242.20764872809377 0 -242.20764872809377 -744.05972927669063 0 0 0 0 -143.30141320268967 64.228693364915671 0 64.228693364915671 -393.81260733936688 0 0 0 0 -29.628949391659717 -132.04282714986039 0 -132.04282714986039 -661.8822919811937 0 0 0 0 -32.420757089563267 33.245995404031419 0 33.245995404031419 -578.35423227620777 0 0 0 0 6.062961114938016 4.4471921891786934 0 4.4471921891786934 0.56950554783404073 0 0 0 0 -41.731656495510833 153.82898780288815 0 153.82898780288815 -975.61394143876896 0 0 0 0 -98.859653297434306 -292.54169436467782 0 -292.54169436467782 -1019.527246419806 0 0 0 0 -331.12103303280674 -88.898884242837084 0 -88.898884242837084 -843.69652960725944 0 0 0 0 -979.30840170233114 -687.36796352441888 0 -687.36796352441888 -1395.4893963689101 0 0 0 0 -936.51023958559836 304.34422683619005 0 304.34422683619005 -1204.0526264791843 0 0 0 0 41.498656869112892 -102.65115867755958 0 -102.65115867755958 -2256.9269907021662 0 0 0 0 1.2901683090905021 1.0000384713590122 0 1.0000384713590122 -2.467749924684 0 0 0 0 22.97623787687553 1550.9203642013599 0 1550.9203642013599 -1399.174736543675 0 0 0 0 -911.8669821901326 -2135.4799745935452 0 -2135.4799745935452 -2037.8642465738812 0 0 0 0 175.75024254183882 288.25777901057154 0 288.25777901057154 -2335.4890874671983 0 0 0 0 -97.025337732460684 107.27643572582747 0 107.27643572582747 -984.23042319351225 0 0 0 0 -519.16091255032006 681.01268967971555 0 681.01268967971555 -295.13391171420517 0 0 0 0 31.874463705210928 126.08629981554259 0 126.08629981554259 -582.78223707329016 0 0 0 0 27.676992910508488 -322.5348643719044 0 -322.5348643719044 -781.89018779800972 0 0 0 0 11.447788828081229 -498.04152484000224 0 -498.04152484000224 -705.71963026741287 0 0 0 0 86.565989399426144 -490.30408049920516 0 -490.30408049920516 -770.09998379144236 0 0 0 0 57.057418667342972 -500.5449029970041 0 -500.5449029970041 -737.44481440039817 0 0 0 0 8.766208055012612 -452.55235096509568 0 -452.55235096509568 -966.88206126974546 0 0 0 0 56.167208831207063 -424.32070407125866 0 -424.32070407125866 -950.06781518284697 0 0 0 0 -68.131371890164473 -594.14550705676083 0 -594.14550705676083 -722.74374204088235 0 0 0 0 -44.425686602214228 -167.73202201726235 0 -167.73202201726235 -1114.1609907784441 0 0 0 0 -404.6265808415028 -220.79098856751807 0 -220.79098856751807 -736.49637161841383 0 0 0 0 -67.402210949328946 -266.24188469338696 0 -266.24188469338696 -1364.2160102743073 0 0 0 0 -101.7789186528189 -541.94883660733467 0 -541.94883660733467 -426.14823432738194 0 0 0 0 -225.4071858928146 -970.72475203790236 0 -970.72475203790236 -1123.0130788732058 0 0 0 0 -588.35729295282908 -818.13648089507478 0 -818.13648089507478 95.195943584898487 0 0 0 0 -47.988430377046825 -45.373196038475726 0 -45.373196038475726 -152.18295696144924 0 0 0 0 -347.65413097588862 -186.21070113321184 0 -186.21070113321184 191.00399463910435 0 0 0 0 -190.91114156213689 -457.75979922476108 0 -457.75979922476108 -485.32270815968513 0 0 0 0 234.4509006308399 -163.55930150182394 0 -163.55930150182394 -405.44162829295965 0 0 0 0 181.92451904096799 -372.86748127621104 0 -372.86748127621104 -560.77135541284224 0 0 0 0 39.160878389030358 -470.88284799109533 0 -470.88284799109533 -529.59524489566684 0 0 0 0 -109.91702338882715 -357.71673276400543 0 -357.71673276400543 -362.99468642324791 0 0 0 0 75.623796400223 -404.99523930820578 0 -404.99523930820578 -601.37312337354524 0 0 0 0 184.63826456637253 -401.67976986130816 0 -401.67976986130816 -631.23340200518942 0 0 0 0 112.06953203528974 -464.3280817445193 0 -464.3280817445193 -724.24084759202378 0 0 0 0 119.73456871941198 -344.19919274747372 0 -344.19919274747372 -467.57716635530232 0 0 0 0 74.311187744071049 -538.01377259474248 0 -538.01377259474248 -680.80442098472849 0 0 0 0 404.3342384997427 -385.17995996482932 0 -385.17995996482932 -511.71647005909472 0 0 0 0 469.93608313787195 -132.75248856106919 0 -132.75248856106919 -496.80391676089494 0 0 0 0 3.1639676412127442 -4.6910447013287957 0 -4.6910447013287957 -14.606575458313102 0 0 0 0 164.2822866922985 -409.95876170399424 0 -409.95876170399424 -119.17627290388918 0 0 0 0 38.475966938110034 16.033548250878084 0 16.033548250878084 -46.479098230047384 0 0 0 0 9.6891425477130042 -14.039773744545528 0 -14.039773744545528 29.782752060404164 0 0 0 0 26.246969530646041 72.624909114078037 0 72.624909114078037 -145.55357629626815 0 0 0 0 -94.565259619848462 182.59196128386247 0 182.59196128386247 -88.72826129400346 0 0 0 0 -6.4557582057449281 54.116605650700876 0 54.116605650700876 43.945304082677467 0 0 0 0 155.97373519799771 7.5881954957076232 0 7.5881954957076232 -206.47835832500277 0 0 0 0 84.302136208034256 105.80876306859136 0 105.80876306859136 -267.59494862933934 0 0 0 0 117.34785303263703 37.770726787173771 0 37.770726787173771 -139.01662776499143 0 0 0 0 141.58620218490199 33.387472061735025 0 33.387472061735025 -232.49558521069412 0 0 0 0 3.4507000418985818 1.6634476846063535 0 1.6634476846063535 -3.6382859078132128 0 0 0 0 148.91130915917176 -248.97950943319756 0 -248.97950943319756 175.44113027308049 0 0 0 0 7.7281341413840892 -7.6916180032603734 0 -7.6916180032603734 -36.013299961738085 0 0 0 0 248.97453801036534 80.444796074203623 0 80.444796074203623 -217.23644200058698 0 0 0 0 -81.601056125113189 -309.51176441353346 0 -309.51176441353346 221.03256163893093 0 0 0 0 2.2732102785749859 -1.6428499248503954 0 -1.6428499248503954 -15.940071374452202 0 0 0 0 854.25091484463064 300.57543260915372 0 300.57543260915372 -241.83765569352545 0 0 0 0 302.74384570282382 272.7454716201828 0 272.7454716201828 119.39515702474091 0 0 0 0 25.841058664021332 -217.15976838221104 0 -217.15976838221104 -104.57459259001189 0 0 0 0 604.1589781169755 -38.455322804713433 0 -38.455322804713433 -267.13554985306109 0 0 0 0 -118.35778789245668 -23.180061787978048 0 -23.180061787978048 -362.50741407232272 0 0 0 0 -469.95637210320331 -68.689872446482696 0 -68.689872446482696 -310.6392033514785 0 0 0 0 -130.57705871561012 -350.75790864609007 0 -350.75790864609007 -1067.1244218912434 0 0 0 0 -208.63329087520003 53.765621903898136 0 53.765621903898136 -359.93870748370318 0 0 0 0 -40.342752193510776 -87.559116600656125 0 -87.559116600656125 -280.75371380626166 0 0 0 0 14.134317133756468 174.96643973617392 0 174.96643973617392 183.23655536910519 0 0 0 0 612.93269707107982 323.64445721133598 0 323.64445721133598 -196.1166481960754 0 0 0 0 -9.0184362974841292 63.88157740380484 0 63.88157740380484 95.220160273878719 0 0 0 0 -276.46466778077456 374.8622955294959 0 374.8622955294959 -533.77343605023634 0 0 0 0 -293.17923950643939 365.05328036753417 0 365.05328036753417 14.522304870621156 0 0 0 0 -394.85567673628236 617.3597649362564 0 617.3597649362564 -386.73693216619358 0 0 0 0 -0.53580086194622034 1.5293487064236224 0 1.5293487064236224 -4.7164251777804509 0 0 0 0 -143.87058554486237 585.8176451908439 0 585.8176451908439 -508.68945372887538 0 0 0 0 -305.37980772607534 529.22172536954167 0 529.22172536954167 -184.49399660438576 0 0 0 0 -243.71181464587963 -164.10526219550957 0 -164.10526219550957 -215.24430769347964 0 0 0 0 4.8808902058084414 81.573028736576816 0 81.573028736576816 -76.243368579523121 0 0 0 0 34.233801906721254 -178.04962081668691 0 -178.04962081668691 -13.509692556137452 0 0 0 0 0.5457405605033383 1.1556195840364545 0 1.1556195840364545 -12.034296832569709 0 0 0 0 -220.78635954706493 -28.901014048024081 0 -28.901014048024081 48.267250646029424 0 0 0 0 -38.174362236314082 27.217608383362858 0 27.217608383362858 -54.944001904834295 0 0 0 0 77.185575382949764 39.533312825191388 0 39.533312825191388 -47.061823769712646 0 0 0 0 278.84898516922874 -113.80242349773471 0 -113.80242349773471 -49.290010274904489 0 0 0 0 1.5060041865347722 -4.3534934682873008 0 -4.3534934682873008 -25.974959465338287 0 0 0 0 -0.43224431181829459 49.530778450443904 0 49.530778450443904 -3.7806582042976515 0 0 0 0 73.161615888466258 0.47296022631053347 0 0.47296022631053347 -1.9552372633675077 0 0 0 0 -79.664473925656921 22.097926351252681 0 22.097926351252681 -5.933850370500295 0 0 0 0 2.7498548046677151 0.83546700433262799 0 0.83546700433262799 -3.6748662524500162 0 0 0 0 -61.751319175922504 92.820258219149764 0 92.820258219149764 -53.553403967307531 0 0 0 0 -30.471053485000084 -82.728040394647905 0 -82.728040394647905 -148.12948607662111 0 0 0 0 6.45092797662533 13.172987564520042 0 13.172987564520042 -49.08415840399735 0 0 0 0 78.163787605496054 -5.9989811260275019 0 -5.9989811260275019 16.412439005085616 0 0 0 0 37.916541546683447 109.59482042788295 0 109.59482042788295 -210.96601170943177 0 0 0 0 14.06136784311278 16.216247352388464 0 16.216247352388464 3.311875829118577 0 0 0 0 -18.250352923894525 26.926874976968975 0 26.926874976968975 -17.484528687040438 0 0 0 0 -74.510015598540122 90.1351330170437 0 90.1351330170437 -100.64735522327101 0 0 0 0 -126.67485492013657 149.6366559002272 0 149.6366559002272 -111.85783715919479 0 0 0 0 -80.044066533894238 189.63978842017241 0 189.63978842017241 -187.40834332597842 0 0 0 0 131.41457662131234 -149.06408209631627 0 -149.06408209631627 97.240304249891778 0 0 0 0 0.22794109826577547 0.27334134245873543 0 0.27334134245873543 0.20392297362542422 0 0 0 0 159.83337457075072 -19.817422750683818 0 -19.817422750683818 -60.09749403418391 0 0 0 0 63.448921513203373 -40.34414799542435 0 -40.34414799542435 -50.515777888998855 0 0 0 0 67.56971152026037 44.909505335596805 0 44.909505335596805 -86.42560258845333 0 0 0 0 64.504989503322321 -110.62137914111463 0 -110.62137914111463 27.012386025468004 0 0 0 0 81.301838736698755 8.3919622463581618 0 8.3919622463581618 9.9328695060321479 0 0 0 0 2.0276000595613812 0.51662430301445283 0 0.51662430301445283 -0.73292358200217222 0 0 0 0 39.220328488477207 42.26213952236867 0 42.26213952236867 -0.46527689920912962 0 0 0 0 -32.440942568154924 129.68316363832128 0 129.68316363832128 -166.90080320298148 0 0 0 0 12.820632163323074 14.561595397660511 0 14.561595397660511 7.5459104423491112 0 0 0 0 -32.680131293826491 37.173990410648912 0 37.173990410648912 -65.944075689891179 0 0 0 0 -41.625504933235533 95.561386688644689 0 95.561386688644689 -92.600800731248455 0 0 0 0 5.5517138292964319 52.663320246989315 0 52.663320246989315 -160.52152376396407 0 0 0 0 -4.0485400609420594 -64.634033484246174 0 -64.634033484246174 -177.09381301925714 0 0 0 0 2.1853604034135987 0.79796747057664419 0 0.79796747057664419 -2.7971231425190695 0 0 0 0 -82.276502282159299 132.83647435459352 0 132.83647435459352 -121.40335990583844 0 0 0 0 37.723991855688837 -56.787334853979701 0 -56.787334853979701 -82.938288317411207 0 0 0 0 8.2717862938834514 70.709546798352676 0 70.709546798352676 -80.700129484505396 0 0 0 0 3.5761491399179617 1.2396273993630587 0 1.2396273993630587 -0.40899400600301306 0 0 0 0 80.450656552533161 36.05314730987584 0 36.05314730987584 -263.48841266559612 0 0 0 0 54.202782763932191 -34.613226260324154 0 -34.613226260324154 -300.79305798537098 0 0 0 0 105.59838328982232 -48.719404358034808 0 -48.719404358034808 -419.8083966917693 0 0 0 0 85.511655419255533 0.12396057322257548 0 0.12396057322257548 -337.4537165583024 0 0 0 0 37.20324551029114 165.11250150964315 0 165.11250150964315 -349.27500922697072 0 0 0 0 114.97978798186887 -41.164377549343044 0 -41.164377549343044 -555.37205362986424 0 0 0 0 120.4104183962404 3.5738366080258857 0 3.5738366080258857 -343.94363972864448 0 0 0 0 83.342181247039662 -31.725297943194164 0 -31.725297943194164 -547.1795714043692 0 0 0 0 79.815379142853999 -60.954507130751153 0 -60.954507130751153 -774.81163612926321 0 0 0 0 37.746230409880809 -228.87712059546902 0 -228.87712059546902 -521.06198117621534 0 0 0 0 -17.626595790701231 -249.74392002531386 0 -249.74392002531386 -348.28799489321682 0 0 0 0 61.825282224444891 -157.95829931060871 0 -157.95829931060871 -436.89007363290148 0 0 0 0 55.570029204535899 -151.27421938518364 0 -151.27421938518364 -343.31852983722638 0 0 0 0 27.505403755286352 -135.37110001865221 0 -135.37110001865221 -320.74692083062109 0 0 0 0 11.205712650590158 -144.00954887436455 0 -144.00954887436455 -279.40523078125261 0 0 0 0 5.2981287465197511 -155.33209495250776 0 -155.33209495250776 -300.94839170952037 0 0 0 0 -1.2604975998240207 -161.01085477647939 0 -161.01085477647939 -204.81788197196147 0 0 0 0 63.155116905348677 -35.643068865734676 0 -35.643068865734676 -353.42474028938523 0 0 0 0 -3.1609490840182843 -132.61243449872291 0 -132.61243449872291 -200.39439667266561 0 0 0 0 -5.5556231904679407 -154.07764235329159 0 -154.07764235329159 -258.44972669272829 0 0 0 0 32.153254187425773 -124.97803180082701 0 -124.97803180082701 -298.61136221578636 0 0 0 0 13.140759703382173 -121.53249933966254 0 -121.53249933966254 -218.94664918921626 0 0 0 0 33.849004108324607 -47.086839626110304 0 -47.086839626110304 -267.09809578466775 0 0 0 0 -6.4710504887416391 -91.954793827939284 0 -91.954793827939284 -279.77473323588129 0 0 0 0 -4.884271412393673 -36.834356530554942 0 -36.834356530554942 -115.22902560167131 0 0 0 0 -0.65491676318364256 0.92160981234250983 0 0.92160981234250983 0.57154399451303561 0 0 0 0 25.829613484481797 -66.163217412158701 0 -66.163217412158701 -166.49102267814305 0 0 0 0 -10.503098804141246 50.332956746671698 0 50.332956746671698 -76.46589396296622 0 0 0 0 55.105785611813189 49.628057704678213 0 49.628057704678213 -218.58136852127791 0 0 0 0 4.5893767795996609 14.1246586962734 0 14.1246586962734 -96.804511846843525 0 0 0 0 -1.1716098316783246 54.497000617950107 0 54.497000617950107 -95.264787658503337 0 0 0 0 3.2453202718183265 7.3150501157903438 0 7.3150501157903438 -91.874351192212245 0 0 0 0 57.968838326552032 15.087996058638964 0 15.087996058638964 -131.87426141628021 0 0 0 0 0.66476514873976189 -7.1317689437010721 0 -7.1317689437010721 -13.163695765814197 0 0 0 0 103.8786362641199 263.17861852467649 0 263.17861852467649 -230.6276548444439 0 0 0 0 39.511099689513912 -240.20646722875063 0 -240.20646722875063 -178.4657972290006 0 0 0 0 1.5270365776950712 11.902734653773223 0 11.902734653773223 -107.74858312727156 0 0 0 0 -9.2302169663648783 -69.927280422889453 0 -69.927280422889453 -183.35021049470379 0 0 0 0 -1.6273785796592257 0.023689100865951218 0 0.023689100865951218 -11.386051651526969 0 0 0 0 -53.022144155394926 -53.237777640446438 0 -53.237777640446438 -123.02011877839686 0 0 0 0 3.3210821405758217 8.902951480443889 0 8.902951480443889 -87.836526838712558 0 0 0 0 23.961343973262046 -35.035008870523598 0 -35.035008870523598 -136.11357741713255 0 0 0 0 -47.122885870041159 -44.670294210767679 0 -44.670294210767679 -117.82812801649561 0 0 0 0 -4.927375069139921 15.342334845242142 0 15.342334845242142 5.6146242347081738 0 0 0 0 -66.966117413878237 -90.947577971521241 0 -90.947577971521241 -110.78123133588088 0 0 0 0 -74.116722666503847 -82.988811826522578 0 -82.988811826522578 -119.32688206348394 0 0 0 0 -20.278747447972364 -23.884333985914054 0 -23.884333985914054 -100.54547218002699 0 0 0 0 -73.486314121781561 -130.90937127204597 0 -130.90937127204597 -178.45517535562249 0 0 0 0 -54.902716689960016 -117.47989214292465 0 -117.47989214292465 -169.59286844241433 0 0 0 0 -107.09242425577031 26.475514821970137 0 26.475514821970137 -29.79135506064631 0 0 0 0 -0.58590271982177455 39.752907552588567 0 39.752907552588567 -51.488097698762431 0 0 0 0 5.7201759272528818 35.662580585658347 0 35.662580585658347 -47.300958300949688 0 0 0 0 -20.195143738028491 25.735725128139165 0 25.735725128139165 -47.790685588908673 0 0 0 0 -73.539662739520281 -31.181822569411452 0 -31.181822569411452 -80.854037992563462 0 0 0 0 5.0767850473163207 -0.025923862654963159 0 -0.025923862654963159 -101.59688945271773 0 0 0 0 19.228716777729232 17.870775826189856 0 17.870775826189856 -105.00289986385178 0 0 0 0 14.923646651520812 8.3011893943767063 0 8.3011893943767063 -121.62896081688086 0 0 0 0 23.264054430842862 42.374035008469946 0 42.374035008469946 -145.22261029195579 0 0 0 0 16.45405773747234 -0.89938054919548449 0 -0.89938054919548449 -212.79278161843104 0 0 0 0 -2.4945557114701842 73.109658863973891 0 73.109658863973891 -148.74927272359855 0 0 0 0 -25.496088987358462 54.962969059952229 0 54.962969059952229 -63.083162343202275 0 0 0 0 10.996839462814023 37.234840484223241 0 37.234840484223241 -80.043753176149039 0 0 0 0 24.522534061232136 33.556203270694823 0 33.556203270694823 -95.676268093935505 0 0 0 0 -4.0728200505550376 58.748308404323325 0 58.748308404323325 -88.727200699497189 0 0 0 0 12.142125960622508 48.57007441136011 0 48.57007441136011 -92.321277200411714 0 0 0 0 10.06647050231004 32.278359843288854 0 32.278359843288854 -60.984363489722455 0 0 0 0 34.53356645556056 28.592263409575025 0 28.592263409575025 -66.726722911342222 0 0 0 0 25.966817478850999 12.130746622657171 0 12.130746622657171 -54.633438808104984 0 0 0 0 11.846461055421514 7.8320466971345013 0 7.8320466971345013 -50.156863614161921 0 0 0 0 3.5933039147907948 42.076686204118232 0 42.076686204118232 -69.651810152819962 0 0 0 0 36.518663539937734 17.567723478972766 0 17.567723478972766 -63.036424185658689 0 0 0 0 -0.79383097191021457 9.2025348409532164 0 9.2025348409532164 -44.772963502759865 0 0 0 0 3.706272667144539 5.7799952486167925 0 5.7799952486167925 -57.366768084808825 0 0 0 0 7.6024759326492131 40.226239193569199 0 40.226239193569199 -16.365330879736575 0 0 0 0 8.1385165052288357 34.492791627264523 0 34.492791627264523 -78.007245842534758 0 0 0 0 26.917920409420731 6.1382640711090062 0 6.1382640711090062 -53.736883755984309 0 0 0 0 -2.8633685812344538 17.810019026997907 0 17.810019026997907 -38.709397073329455 0 0 0 0 30.360805134070119 2.1292927073527608 0 2.1292927073527608 -66.598007866869011 0 0 0 0 23.791797918819839 -6.0741600597184515 0 -6.0741600597184515 -59.758473721012706 0 0 0 0 9.4087361077847618 11.468482945932919 0 11.468482945932919 -62.905252829496021 0 0 0 0 13.170125208099762 17.659409477386362 0 17.659409477386362 -57.990790931064112 0 0 0 0 0.072671597741849725 4.9134782985450034 0 4.9134782985450034 -56.382318370581288 0 0 0 0 -1.5622783355206593 7.2780246072543378 0 7.2780246072543378 -54.296466727784718 0 0 0 0 4.7275236742818105 -6.4555310353439523 0 -6.4555310353439523 -32.091406254081903 0 0 0 0 63.521614205305013 -1.0070130842868821 0 -1.0070130842868821 -116.54229742986718 0 0 0 0 -6.0218023909113754 -38.042096018243683 0 -38.042096018243683 -75.097644539717294 0 0 0 0 14.523038418122269 -8.5227232195502438 0 -8.5227232195502438 -40.26074693978444 0 0 0 0 40.952721501861106 -1.0797839191945968 0 -1.0797839191945968 -66.574258354783524 0 0 0 0 19.493476592671414 8.5247153186865035 0 8.5247153186865035 -79.474350325814157 0 0 0 0 5.3102609608582743 6.3091877727024723 0 6.3091877727024723 -22.922694166711423 0 0 0 0 -7.3520234929665094 48.03968973713927 0 48.03968973713927 -5.6419860165733553 0 0 0 0 28.782320237113254 -27.159339574383921 0 -27.159339574383921 -31.744209326941927 0 0 0 0 84.53916877949996 -50.486790846960503 0 -50.486790846960503 -23.801377378827965 0 0 0 0 54.624646158082669 10.504510689283052 0 10.504510689283052 -66.047719217098347 0 0 0 0 96.413507909644068 -14.285249965188996 0 -14.285249965188996 -64.097665686145774 0 0 0 0 77.96346366162129 14.059208678891991 0 14.059208678891991 -72.729307662528299 0 0 0 0 150.42509547580721 -0.06086527284787735 0 -0.06086527284787735 -71.878384467733213 0 0 0 0 67.392213879687915 39.580779493095179 0 39.580779493095179 -79.740457773294111 0 0 0 0 63.701301387791318 19.294362300934154 0 19.294362300934154 -66.737179016370646 0 0 0 0 39.6354650597616 31.388815377116771 0 31.388815377116771 -70.44531582338459 0 0 0 0 21.462301693185282 35.78099994477634 0 35.78099994477634 -69.83547897128301 0 0 0 0 63.885500639429665 0.96741490465865354 0 0.96741490465865354 -68.932759431645536 0 0 0 0 58.176832286466379 16.662978180444043 0 16.662978180444043 -129.06246894397373 0 0 0 0 95.595182249422123 44.60682082740459 0 44.60682082740459 -111.2942331568629 0 0 0 0 62.996027623773358 92.497264261311329 0 92.497264261311329 -34.03011155470449 0 0 0 0 61.833535371172275 74.864645911220578 0 74.864645911220578 -138.26000190991908 0 0 0 0 53.739126047785703 27.479561049745826 0 27.479561049745826 -71.055735542979164 0 0 0 0 70.7029564469874 1.9940533814424271 0 1.9940533814424271 -151.89842513624535 0 0 0 0 62.509947450258778 5.0988359179445979 0 5.0988359179445979 -120.52942741487641 0 0 0 0 79.940713669087472 36.176982481071718 0 36.176982481071718 -114.72368333950726 0 0 0 0 40.037704915500058 50.58709739781898 0 50.58709739781898 -90.664836173407821 0 0 0 0 57.833523640915246 8.3050288754338908 0 8.3050288754338908 -96.427122672357655 0 0 0 0 83.161057150791748 36.348164035634909 0 36.348164035634909 -63.296673946279043 0 0 0 0 247.00865802667522 86.117761242005145 0 86.117761242005145 -152.29497108301439 0 0 0 0 142.70312531154286 -21.067093866411597 0 -21.067093866411597 -70.385299490802936 0 0 0 0 -70.139396759388546 163.65905612135248 0 163.65905612135248 -71.990232242249476 0 0 0 0 -338.67863369884435 -179.59196374631574 0 -179.59196374631574 -115.24829933457659 0 0 0 0 110.28751675132025 233.9036603240329 0 233.9036603240329 -192.27409402696503 0 0 0 0 0.61538217034253773 1.2965505671529485 0 1.2965505671529485 -0.13086679503282284 0 0 0 0 224.95840685321446 178.4616713546784 0 178.4616713546784 -369.43563567611272 0 0 0 0 -14.876515756836397 -199.95691995288507 0 -199.95691995288507 -446.82950161020563 0 0 0 0 -2.8022398823846162 0.85316426901445652 0 0.85316426901445652 -0.59561347380443408 0 0 0 0 -50.516638940574921 81.839944349139842 0 81.839944349139842 14.617941033851821 0 0 0 0 88.43448144513809 77.338242949967025 0 77.338242949967025 -156.50200477953331 0 0 0 0 72.368773290145754 52.895000586726383 0 52.895000586726383 -130.20557684755477 0 0 0 0 3.3153407695393993 6.0810533119942782 0 6.0810533119942782 -94.320094785703816 0 0 0 0 26.098292837931922 -8.7277932272772887 0 -8.7277932272772887 -99.84617513664125 0 0 0 0 -48.27875270605216 0.48642282286255067 0 0.48642282286255067 -52.98844429190649 0 0 0 0 -0.8971180885803095 15.190009185397724 0 15.190009185397724 -91.15445167775087 0 0 0 0 71.254354270867452 -39.892095586021242 0 -39.892095586021242 -165.14905501193425 0 0 0 0 -0.62585632239740985 -0.73842313664238191 0 -0.73842313664238191 -21.765464776894888 0 0 0 0 3.3378839491973915 10.549870157753205 0 10.549870157753205 -62.416292695365115 0 0 0 0 33.713524327862615 26.123068624423468 0 26.123068624423468 -63.630906529686399 0 0 0 0 52.026898587328105 25.013015442584219 0 25.013015442584219 -64.074554908504069 0 0 0 0 18.360263593099717 47.585881811093714 0 47.585881811093714 -79.016213836981478 0 0 0 0 31.521742913006165 15.526620505275787 0 15.526620505275787 -4.2440685866286003 0 0 0 0 39.084221646528022 -0.51667589461612806 0 -0.51667589461612806 -86.101523839708534 0 0 0 0 43.476119831705319 11.18030135070876 0 11.18030135070876 -93.294710864283843 0 0 0 0 20.320067409812168 14.228010082659239 0 14.228010082659239 -39.567602175287902 0 0 0 0 17.350758918137217 13.055353071478748 0 13.055353071478748 -70.650434712417336 0 0 0 0 -1.6393711236570381 11.686287836498568 0 11.686287836498568 -46.53876775364094 0 0 0 0 7.4137596361269971 4.0603319092551828 0 4.0603319092551828 -68.569745655731822 0 0 0 0 3.1353409807413897 -6.6257950112865345 0 -6.6257950112865345 -34.04419357489985 0 0 0 0 20.406931158509934 -9.5478049915309384 0 -9.5478049915309384 -30.789539314355352 0 0 0 0 3.4739068346806214 -1.8704694257165215 0 -1.8704694257165215 -43.108073312064818 0 0 0 0 23.754148570307734 8.3254417719836056 0 8.3254417719836056 -67.721140257966908 0 0 0 0 31.098490508668647 -2.8307278608481283 0 -2.8307278608481283 -75.652434400541097 0 0 0 0 21.167536027277038 -4.1387255794561497 0 -4.1387255794561497 -75.632163464895712 0 0 0 0 42.002806758778206 -10.691609954044907 0 -10.691609954044907 -107.25513224511815 0 0 0 0 34.783930637880303 -23.284850859450671 0 -23.284850859450671 -78.402779325868323 0 0 0 0 48.375913159614811 -7.5320846883705599 0 -7.5320846883705599 -106.87197044753702 0 0 0 0 55.226389998398076 -15.193943961405239 0 -15.193943961405239 -113.9069970087512 0 0 0 0 -0.86284388469255191 -39.366574841247711 0 -39.366574841247711 -58.400394641161256 0 0 0 0 30.128561685078466 -39.063012281814736 0 -39.063012281814736 -121.16728361908008 0 0 0 0 11.721218975234706 -34.825700453478021 0 -34.825700453478021 -57.820704675137677 0 0 0 0 22.169146267260885 -15.447179915463494 0 -15.447179915463494 -70.138508133248251 0 0 0 0 6.6698159593065736 -17.435806137963915 0 -17.435806137963915 -15.795467302536821 0 0 0 0 -168.7356413262099 -246.65362190008091 0 -246.65362190008091 36.151538771206106 0 0 0 0 7.1145915403837989 -35.831205420614424 0 -35.831205420614424 -22.957290225782344 0 0 0 0 131.16693862739174 18.309989087607391 0 18.309989087607391 -95.469798684745911 0 0 0 0 143.42342790885743 34.75309017098698 0 34.75309017098698 -285.76358706099927 0 0 0 0 163.86008196994752 40.712412782950196 0 40.712412782950196 -2481.9483192148182 0 0 0 0 67.902657345145386 193.09935006823071 0 193.09935006823071 -122.88898520957446 0 0 0 0 -0.54858835035035658 2.6932603361060359 0 2.6932603361060359 -3.0501417757325626 0 0 0 0 55.688445586957755 -350.0078388723341 0 -350.0078388723341 -2501.0390478797658 0 0 0 0 25.602005925120068 134.6852207134325 0 134.6852207134325 120.75689049848006 0 0 0 0 38.579920769508362 49.7966626257803 0 49.7966626257803 -98.322776195105689 0 0 0 0 -65.310407938737157 17.168945561023065 0 17.168945561023065 -13.54122168451795 0 0 0 0 338.72012290344418 491.89495711802556 0 491.89495711802556 -2491.6939241351756 0 0 0 0 -0.15668984209679976 -0.1913769881013252 0 -0.1913769881013252 -3.9806147991373422 0 0 0 0 -0.55681066291382475 -0.9034572962665095 0 -0.9034572962665095 -6.6769249520015137 0 0 0 0 -73.454776085053055 244.50443002934662 0 244.50443002934662 -2447.5137367137304 0 0 0 0 -56.859911823372173 147.60332939068758 0 147.60332939068758 -46.127982031277497 0 0 0 0 -223.72689625369546 -381.92095851602062 0 -381.92095851602062 -340.90244694627836 0 0 0 0 -22.565041633288104 -5.0657518710740987 0 -5.0657518710740987 -45.771681272199203 0 0 0 0 -2.9356593423437971 20.790958635381685 0 20.790958635381685 -61.008682211300766 0 0 0 0 -0.41316027874536554 -5.0468120713043056 0 -5.0468120713043056 -14.7848774483071 0 0 0 0 -37.905668445441265 24.357718766471407 0 24.357718766471407 -38.167837964305363 0 0 0 0 47.802439305437872 43.391203859311645 0 43.391203859311645 55.838164293138107 0 0 0 0 22.349128384374261 -12.127822107890552 0 -12.127822107890552 -69.7470739567907 0 0 0 0 9.0362174723555562 -12.588794138998963 0 -12.588794138998963 -22.865203877436699 0 0 0 0 -8.593750887968838 7.1294497981471068 0 7.1294497981471068 -45.983013806504459 0 0 0 0 -1.6357225927731351 9.2119283541730113 0 9.2119283541730113 -42.199842302479979 0 0 0 0 49.374550823340542 31.366573766514193 0 31.366573766514193 -97.375182168172614 0 0 0 0 -1.161298422291094 13.838702630871971 0 13.838702630871971 -49.524342665402912 0 0 0 0 70.617220571203063 848.14014980021602 0 848.14014980021602 -2496.2615498322739 0 0 0 0 -9.3749925097658888 -16.073114876355248 0 -16.073114876355248 -56.047269411683374 0 0 0 0 8.8586908277734437 -27.528689214406768 0 -27.528689214406768 -150.22142195578635 0 0 0 0 -78.106470578546578 80.9586695120488 0 80.9586695120488 -93.042375627466754 0 0 0 0 -4.9048183682347526 16.394937523400287 0 16.394937523400287 -43.410955619581586 0 0 0 0 -15.371827724322429 61.448029487717577 0 61.448029487717577 -56.214687876835342 0 0 0 0 -27.542434064537701 16.894861139673594 0 16.894861139673594 -50.142547734452819 0 0 0 0 -2.5792441699759325 4.7539749858863587 0 4.7539749858863587 -11.641570024828511 0 0 0 0 -581.0737045698686 396.33836172808151 0 396.33836172808151 -512.72911952147115 0 0 0 0 -874.36594349933785 843.97651757802305 0 843.97651757802305 -635.10011701195617 0 0 0 0 -5.9904384483626441 5.3461473501323127 0 5.3461473501323127 -0.25386732531069356 0 0 0 0 -2039.3998978886762 1296.3421439776685 0 1296.3421439776685 -605.56226002757307 0 0 0 0 -4.1731575810676871 5.145286997646032 0 5.145286997646032 -12.175617674245842 0 0 0 0 -356.34534953204724 -442.88876234204145 0 -442.88876234204145 -629.89500505652904 0 0 0 0 -701.03899620496804 1512.1154357102641 0 1512.1154357102641 -1810.7256856462336 0 0 0 0 -366.51549259452713 714.78108061461535 0 714.78108061461535 -1483.6866422599451 0 0 0 0 -704.80286945422608 999.07300415229111 0 999.07300415229111 -1013.6627467671642 0 0 0 0 -328.80292451947577 561.0618655538583 0 561.0618655538583 -967.76432804846263 0 0 0 0 -339.21123187856318 374.64817433550706 0 374.64817433550706 -562.27435292331938 0 0 0 0 -456.68597210362833 625.06842381018305 0 625.06842381018305 -965.7097574638392 0 0 0 0 -610.79868775581622 430.3573162108114 0 430.3573162108114 -380.76581761242142 0 0 0 0 -518.78950499059158 555.95828241212439 0 555.95828241212439 -582.66889938990062 0 0 0 0 -814.05075929229588 611.21231513926614 0 611.21231513926614 -347.83531451024464 0 0 0 0 -582.16824862170643 708.05799783459224 0 708.05799783459224 -904.6667949110597 0 0 0 0 -43.836131722133587 115.90676452052867 0 115.90676452052867 -224.75363360739721 0 0 0 0 -582.28470492786278 582.58161335354453 0 582.58161335354453 -537.9306760341351 0 0 0 0 -2.5892089887936116 1.1637081601918027 0 1.1637081601918027 4.4423078043181476 0 0 0 0 -114.35355334670294 -101.30331908455992 0 -101.30331908455992 -236.07228795230913 0 0 0 0 -490.12719315185416 575.57138469160054 0 575.57138469160054 -560.56542616934166 0 0 0 0 -587.46795096265851 565.4315512271296 0 565.4315512271296 -456.40680641778454 0 0 0 0 -590.77140455330266 553.23084773791197 0 553.23084773791197 -464.49482625388191 0 0 0 0 -0.9850734735867972 1.8318474556218689 0 1.8318474556218689 2.1511928699323732 0 0 0 0 -575.47750885736377 564.29016190386756 0 564.29016190386756 -461.09148916215054 0 0 0 0 -569.58290543597991 573.76952619591975 0 573.76952619591975 -458.88273347583345 0 0 0 0 -21.844086741921672 122.52154409159243 0 122.52154409159243 -445.63863139938621 0 0 0 0 -28.871712314366654 183.79331133417099 0 183.79331133417099 -185.96003175865917 0 0 0 0 74.010354680211321 -233.55103511203924 0 -233.55103511203924 -343.12063714994474 0 0 0 0 243.66859750737058 269.0070392378766 0 269.0070392378766 -484.30464744388883 0 0 0 0 -140.26264636434979 197.18977570345328 0 197.18977570345328 211.84871013696829 0 0 0 0 -474.08253754599446 -168.58540969846945 0 -168.58540969846945 -78.121269982475496 0 0 0 0 -71.814159065119384 151.8572231550279 0 151.8572231550279 359.05208907472843 0 0 0 0 -10.430577032964266 73.330800447096408 0 73.330800447096408 -36.839256832914543 0 0 0 0 -283.72748746666093 460.70543637173978 0 460.70543637173978 -39.012947131835972 0 0 0 0 1.2473356111440213 -3.4086363966127493 0 -3.4086363966127493 -6.4745216383222157 0 0 0 0 -89.553561669619739 558.67518992677924 0 558.67518992677924 393.75666752185498 0 0 0 0 -3.2426001999815526 44.013271789677674 0 44.013271789677674 -114.45262992782227 0 0 0 0 2.5311457074661758 14.772623853156006 0 14.772623853156006 -26.51439054156387 0 0 0 0 384.53850175536263 44.540326866816031 0 44.540326866816031 -194.66793463812792 0 0 0 0 2.1914559516196732 2.3994469365325131 0 2.3994469365325131 -51.026940071693389 0 0 0 0 4.5569331596830125 4.7754677018237999 0 4.7754677018237999 -49.486084431002382 0 0 0 0 8.1741804236161464 -11.199334461338793 0 -11.199334461338793 -22.495182458112851 0 0 0 0 5.9766200346034566 19.746260237767274 0 19.746260237767274 -36.938946416092222 0 0 0 0 -1.1642738985187595 14.62427192774183 0 14.62427192774183 -31.58622136253112 0 0 0 0 3.163641218606366 12.059204119915265 0 12.059204119915265 -26.758949996775939 0 0 0 0 111.84851746506297 52.192114068340743 0 52.192114068340743 -37.086838054732652 0 0 0 0 126.24599137241148 -43.110476616006054 0 -43.110476616006054 -70.494516431848751 0 0 0 0 363.82913576158126 311.16543983560405 0 311.16543983560405 3.07983745225647 0 0 0 0 97.235267471243787 -36.966391863534227 0 -36.966391863534227 -50.778827972573708 0 0 0 0 -130.0685006638796 -6.0425073729929863 0 -6.0425073729929863 -90.369961374064587 0 0 0 0 41.98797102738537 -64.368816622152508 0 -64.368816622152508 -70.956255218145088 0 0 0 0 -23.339451628688721 108.25608992478374 0 108.25608992478374 -74.281946170798619 0 0 0 0 3.5279311361154604 10.74010384366661 0 10.74010384366661 -5.9633861241052841 0 0 0 0 56.211503760716369 2.265607969413395 0 2.265607969413395 -53.18102841126165 0 0 0 0 20.417499248986246 42.005762088199845 0 42.005762088199845 -147.78818134787434 0 0 0 0 29.736360219301908 66.736311165568623 0 66.736311165568623 -134.07137295902066 0 0 0 0 24.638081242237945 24.020477041100094 0 24.020477041100094 -124.94167275452855 0 0 0 0 4.1000593078802012 73.925272065640456 0 73.925272065640456 -180.33095434057759 0 0 0 0 28.95762720877886 -13.184208525210124 0 -13.184208525210124 -222.03003591568267 0 0 0 0 11.588394362803456 -120.91595651591342 0 -120.91595651591342 -237.55811802054814 0 0 0 0 211.73604768750874 -37.012295136442845 0 -37.012295136442845 -154.2052300273499 0 0 0 0 73.566223252064674 24.030132345715174 0 24.030132345715174 60.967460676503833 0 0 0 0 328.34729138589114 -43.208572922827443 0 -43.208572922827443 -218.24535487468529 0 0 0 0 -0.5134680259111577 -3.8625794298780392 0 -3.8625794298780392 -19.565913248762911 0 0 0 0 -10.982998598631639 259.90352570267714 0 259.90352570267714 -253.81609397588181 0 0 0 0 -63.950687225834429 248.51179090213373 0 248.51179090213373 -76.606836342274619 0 0 0 0 -0.071812823705045048 -1.0598077968060871 0 -1.0598077968060871 -7.7969606327668828 0 0 0 0 -26.997619372965119 -193.25307818512556 0 -193.25307818512556 -95.193962404438935 0 0 0 0 -331.31633688709218 290.57394944500629 0 290.57394944500629 -478.05724255624227 0 0 0 0 -71.380442857693993 383.8774030998502 0 383.8774030998502 -498.44333633566202 0 0 0 0 -35.145563363836004 230.87961066518255 0 230.87961066518255 -190.54629510315135 0 0 0 0 35.931309026708306 29.795230216324853 0 29.795230216324853 -591.0125628070964 0 0 0 0 -368.37631985943625 407.4243726571367 0 407.4243726571367 -437.46287826205298 0 0 0 0 -414.18551472003509 177.73787701287074 0 177.73787701287074 -709.45579134102081 0 0 0 0 -591.59539869742684 241.46410271564673 0 241.46410271564673 -404.2388618124678 0 0 0 0 -822.42364564909872 1613.893236159658 0 1613.893236159658 422.78910707731848 0 0 0 0 -320.44096077584544 448.5957364218466 0 448.5957364218466 -546.05120527170948 0 0 0 0 -307.1275768144435 367.617421900919 0 367.617421900919 -372.70833922144084 0 0 0 0 -1426.3886620278406 824.38435587120694 0 824.38435587120694 -484.85490694977489 0 0 0 0 -802.44213614074249 747.06022159699046 0 747.06022159699046 -875.38845344141009 0 0 0 0 1.4342449014573155 1.0844732769009084 0 1.0844732769009084 -4.0597470730446048 0 0 0 0 -407.22329624006062 295.60856418568437 0 295.60856418568437 -389.42982469111666 0 0 0 0 -0.019146902908169228 -1.3410764410694327 0 -1.3410764410694327 -7.4482051404134779 0 0 0 0 -436.83866003925243 188.93633762969694 0 188.93633762969694 -430.50189741882969 0 0 0 0 -683.62967820878782 474.27226779344528 0 474.27226779344528 -237.78787713628844 0 0 0 0 -279.76037761945554 145.52847858100358 0 145.52847858100358 -496.86179501773586 0 0 0 0 -439.62906434459001 858.60882919789583 0 858.60882919789583 -867.19547256256919 0 0 0 0 286.30962835395076 98.06944686089264 0 98.06944686089264 -388.87216113044997 0 0 0 0 -727.36329823119604 322.9986549649384 0 322.9986549649384 318.05505131176324 0 0 0 0 273.62801485715408 -91.861353251948458 0 -91.861353251948458 -111.90904799982673 0 0 0 0 -282.49966847936525 220.31243851794352 0 220.31243851794352 29.536757276247954 0 0 0 0 -232.62358836591625 217.74179207544512 0 217.74179207544512 -126.31888372509638 0 0 0 0 -336.17355163574007 547.20191613513089 0 547.20191613513089 -409.83755755107268 0 0 0 0 -396.33898044055957 528.58923066540228 0 528.58923066540228 -407.89656287714024 0 0 0 0 -371.66420635324232 621.36720921356391 0 621.36720921356391 -516.69377910385811 0 0 0 0 0.37162414872943073 0.96394154546760547 0 0.96394154546760547 -0.42363265985852649 0 0 0 0 -336.73078653004012 555.66110333600955 0 555.66110333600955 -523.9003056126021 0 0 0 0 -542.86214567902266 501.37121382252371 0 501.37121382252371 -432.51018999783992 0 0 0 0 -361.20960410415398 473.13031175005017 0 473.13031175005017 -506.79140158019436 0 0 0 0 -364.18303893311628 493.387168528654 0 493.387168528654 -369.6805487530728 0 0 0 0 21.769631966391216 246.45643386772463 0 246.45643386772463 -426.47105199576617 0 0 0 0 -230.03880635979476 334.63033795036426 0 334.63033795036426 -292.17334024161391 0 0 0 0 -100.11637433160008 403.88507943227523 0 403.88507943227523 -501.84170618082135 0 0 0 0 -329.48189693120287 406.47884577848163 0 406.47884577848163 -465.59480379756496 0 0 0 0 330.50434067082699 -124.39786781636212 0 -124.39786781636212 -939.52746072010268 0 0 0 0 38.425505136775996 432.51453173485424 0 432.51453173485424 -1647.8103418410392 0 0 0 0 0.96847477324593001 -292.19376134041522 0 -292.19376134041522 297.82666973333835 0 0 0 0 3.9871135046029003 -3.9755061441513817 0 -3.9755061441513817 -4.4730755763820085 0 0 0 0 273.66390720044376 280.45658693597443 0 280.45658693597443 -3041.3961456826946 0 0 0 0 193.76669014451213 201.91682435732218 0 201.91682435732218 -1682.9645103580438 0 0 0 0 -115.12243696920595 433.76501495302728 0 433.76501495302728 -2501.7993331349717 0 0 0 0 10.116097864889475 -8.316982939913288 0 -8.316982939913288 -11.353336140784194 0 0 0 0 -61.416631940342199 390.0029348945227 0 390.0029348945227 -2489.3985573285463 0 0 0 0 187.28039662517176 -85.168438183700346 0 -85.168438183700346 -84.50524823228443 0 0 0 0 86.792339537801467 -127.30185056620303 0 -127.30185056620303 62.284966792707564 0 0 0 0 120.25922642834371 20.033269952364208 0 20.033269952364208 -189.37297075595416 0 0 0 0 -46.861468427803345 186.25355977216577 0 186.25355977216577 -279.06034034557524 0 0 0 0 -125.11339101184103 122.2607125244358 0 122.2607125244358 -88.552165498258546 0 0 0 0 -66.160183523034704 27.229386086835575 0 27.229386086835575 23.01740590857662 0 0 0 0 112.12913099777271 263.16271181293087 0 263.16271181293087 -2497.9258140754118 0 0 0 0 3.2631928113205504 2.8301596886012703 0 2.8301596886012703 -25.376509136287495 0 0 0 0 -0.5075113114053238 9.2238691218699387 0 9.2238691218699387 -16.538692335998348 0 0 0 0 2.7128719947972773 -1.2190945020923607 0 -1.2190945020923607 -4.4445579236349317 0 0 0 0 6.1817033215601214 9.9783272874446993 0 9.9783272874446993 -37.350901659359806 0 0 0 0 2.8837531717483871 4.9755918115574369 0 4.9755918115574369 -29.286366458384123 0 0 0 0 6.1417718149697293 2.7512502836398198 0 2.7512502836398198 -32.183148885669652 0 0 0 0 0.74156665531961607 9.2887856995148468 0 9.2887856995148468 -28.408713304626872 0 0 0 0 3.3459276810122232 4.2057440248995448 0 4.2057440248995448 -11.442897653344048 0 0 0 0 -66.221788357630729 360.67634951022046 0 360.67634951022046 -2258.884985745739 0 0 0 0 -85.903627659534251 355.98400910379223 0 355.98400910379223 -2046.4423602624302 0 0 0 0 -0.41270898574357157 84.136851330657009 0 84.136851330657009 -1707.9663956441218 0 0 0 0 2.1654569343974188 -6.5429150601010662 0 -6.5429150601010662 -4.7042312007718934 0 0 0 0 0.16708520379916081 8.2127450027473969 0 8.2127450027473969 -25.562042764671787 0 0 0 0 -3.6909935650567149 0.65340510560054099 0 0.65340510560054099 -26.762747221542668 0 0 0 0 -1.5342514518669945 9.1578636392876689 0 9.1578636392876689 -11.404574019800151 0 0 0 0 0.046097175650336865 125.76558659742828 0 125.76558659742828 168.89459808631364 0 0 0 0 56.980429470043106 54.59241444424697 0 54.59241444424697 49.050211600613693 0 0 0 0 0.069503093335672381 161.5478543057252 0 161.5478543057252 -58.47340051469655 0 0 0 0 -0.65525483169737209 8.6559059910020721 0 8.6559059910020721 -12.4103382354225 0 0 0 0 40.220747973364603 170.54945109969594 0 170.54945109969594 170.80431285389932 0 0 0 0 4.5355083695583289 9.7949052900003153 0 9.7949052900003153 -16.558314772544463 0 0 0 0 0.36090915582965538 6.250746371086441 0 6.250746371086441 -22.06455071845275 0 0 0 0 1.1759007341770484 6.7126427538059943 0 6.7126427538059943 -13.790923433894932 0 0 0 0 7.2042636270649609 8.3104011579125654 0 8.3104011579125654 -18.963697925122688 0 0 0 0 8.7877489869129022 12.576923596963752 0 12.576923596963752 -11.144830054672639 0 0 0 0 102.36434496149992 222.49143167394959 0 222.49143167394959 96.966609937415342 0 0 0 0 2.9755238799682262 7.3955740427982164 0 7.3955740427982164 -14.842601514948399 0 0 0 0 -0.43123307349738005 9.5525805878378343 0 9.5525805878378343 -11.729604968171827 0 0 0 0 120.89844476840915 26.084364182825084 0 26.084364182825084 -70.745687627430016 0 0 0 0 62.953370523204285 70.947694462316576 0 70.947694462316576 -88.715806892669207 0 0 0 0 143.53091985019989 35.577086570756364 0 35.577086570756364 -438.14758598405751 0 0 0 0 0.46234063853822516 3.8000936492435811 0 3.8000936492435811 -11.312964724657149 0 0 0 0 134.26291615289597 -176.72865326214014 0 -176.72865326214014 -464.15233355772216 0 0 0 0 -30.028322042692253 -23.736085146418191 0 -23.736085146418191 56.461984376121109 0 0 0 0 271.23841263415329 107.13782840828935 0 107.13782840828935 -1182.6931463379296 0 0 0 0 -1.4786544333888179 -3.0481660951151071 0 -3.0481660951151071 -10.202161390517375 0 0 0 0 -94.542160241750935 774.67851702509142 0 774.67851702509142 -1023.6769676635449 0 0 0 0 -991.62889267908122 -197.06135389972769 0 -197.06135389972769 -1513.5523621723405 0 0 0 0 145.65930568643955 225.49136162506147 0 225.49136162506147 -647.2413716299925 0 0 0 0 169.93559403258109 110.31350309921254 0 110.31350309921254 -421.67572441738957 0 0 0 0 54.800928314586542 158.95969731091827 0 158.95969731091827 -330.62061913884827 0 0 0 0 -0.071164986052155446 195.65416844393258 0 195.65416844393258 -326.19253210999887 0 0 0 0 60.533913822303838 63.511967512671617 0 63.511967512671617 -223.17005971708568 0 0 0 0 106.25755944265572 130.9330257968868 0 130.9330257968868 -358.50183827328874 0 0 0 0 20.120896534086569 27.296484872671954 0 27.296484872671954 -111.93354140777524 0 0 0 0 -4.1793564858610992 42.477128995332436 0 42.477128995332436 -38.810430505132132 0 0 0 0 -22.548591942115422 51.647006270632119 0 51.647006270632119 -40.352808089717655 0 0 0 0 5.6090874819070109 16.111615562692577 0 16.111615562692577 -76.973463101890957 0 0 0 0 14.404432766872787 46.666677533359689 0 46.666677533359689 -114.40501657222921 0 0 0 0 -18.602189136410914 -7.4155339186145284 0 -7.4155339186145284 -82.645196939094603 0 0 0 0 -1.9243316334448082 -9.5620192434871569 0 -9.5620192434871569 -120.19978245719176 0 0 0 0 2.0258043762594298 20.454768817493459 0 20.454768817493459 -114.42957650939411 0 0 0 0 -38.416451000177403 -43.170300654025141 0 -43.170300654025141 -130.11646703261022 0 0 0 0 6.2009397315405295 9.9715249192599913 0 9.9715249192599913 -92.979078253497619 0 0 0 0 -71.961984631368978 120.07669255868041 0 120.07669255868041 -24.339861530225789 0 0 0 0 -12.732975424218239 63.58296072234225 0 63.58296072234225 -67.616763638448901 0 0 0 0 -1.8298352776453486 41.13530080218473 0 41.13530080218473 -36.566309801616654 0 0 0 0 -3.4894388239472267 12.931303299563218 0 12.931303299563218 8.4091014426512984 0 0 0 0 -101.36155696334572 84.246291248863599 0 84.246291248863599 -38.891649815312576 0 0 0 0 12.881889803936474 -24.0566728460376 0 -24.0566728460376 -121.16382701583279 0 0 0 0 44.96154925498422 11.301644996873165 0 11.301644996873165 -178.39272193640682 0 0 0 0 15.820570632546932 13.427680399382552 0 13.427680399382552 -129.00075461695815 0 0 0 0 -12.187041467345352 61.114153153230291 0 61.114153153230291 -151.08578034024777 0 0 0 0 -5.9660112129920151 53.322175540169155 0 53.322175540169155 -150.82766813803391 0 0 0 0 -39.873671786388968 31.965139923268907 0 31.965139923268907 -132.98450986382522 0 0 0 0 -6.4745540394057119 46.117190483171591 0 46.117190483171591 -43.620743207479251 0 0 0 0 17.674978434456833 -21.60570332692906 0 -21.60570332692906 -33.634433708241005 0 0 0 0 13.40655315227923 -6.7375627238952802 0 -6.7375627238952802 -8.943578365211124 0 0 0 0 -31.235019697292955 62.928682808940152 0 62.928682808940152 -148.81779672214418 0 0 0 0 -23.289922630813919 63.12533469719223 0 63.12533469719223 -158.85560809513595 0 0 0 0 -2.1968744627395314 -1.7007179382878936 0 -1.7007179382878936 -1.7649437475172394 0 0 0 0 27.573946373136323 -46.64249193728017 0 -46.64249193728017 -12.720992233486413 0 0 0 0 9.3101744646204807 -28.791469071938899 0 -28.791469071938899 -24.548542572001885 0 0 0 0 0.29739900755180315 62.475822304730173 0 62.475822304730173 -205.23544560577056 0 0 0 0 1.3485839503031798 -18.952615041295388 0 -18.952615041295388 78.66484762945538 0 0 0 0 7.0033711317706775 24.006974513356909 0 24.006974513356909 -198.24510995044102 0 0 0 0 -12.086961639253559 26.021313715962606 0 26.021313715962606 -120.01276502807377 0 0 0 0 -3.5769870770905072 48.032432180334581 0 48.032432180334581 -167.46344315122406 0 0 0 0 -8.1573181782569009 13.236542959697545 0 13.236542959697545 -143.73801785818796 0 0 0 0 2.4139923802893009 17.626821911879233 0 17.626821911879233 -162.9156589184422 0 0 0 0 -44.740836307901191 23.76038106177657 0 23.76038106177657 -161.29758234624842 0 0 0 0 -40.127623885382945 53.555692907328194 0 53.555692907328194 -165.26641512952483 0 0 0 0 -9.1068754230072955 2.7358195360247919 0 2.7358195360247919 -188.04621255707752 0 0 0 0 9.5242264959783824 20.544681657216643 0 20.544681657216643 -187.40628278134318 0 0 0 0 19.433073285126284 17.532796858993606 0 17.532796858993606 -172.78844412044236 0 0 0 0 -2.5908699260626236 12.745510553477288 0 12.745510553477288 -172.70553964602004 0 0 0 0 12.99490759983928 5.8539057606521965 0 5.8539057606521965 -170.93902188917127 0 0 0 0 -2.0471054986505806 11.356028982454518 0 11.356028982454518 -170.10401348239975 0 0 0 0 10.911916385814038 -17.295148199580581 0 -17.295148199580581 -184.28273069029092 0 0 0 0 21.923636879493756 -3.4291523746837811 0 -3.4291523746837811 -196.62278366294777 0 0 0 0 24.051683454239537 5.8795127637713449 0 5.8795127637713449 -178.63900502932484 0 0 0 0 20.512645036304548 9.2837045780215703 0 9.2837045780215703 -170.83793968527607 0 0 0 0 26.724033577841965 11.124445153702254 0 11.124445153702254 -179.84749556029419 0 0 0 0 18.428092935966561 33.929974419648715 0 33.929974419648715 -163.4634143761923 0 0 0 0 18.823939587596215 12.252517431968954 0 12.252517431968954 -142.59464742995988 0 0 0 0 22.858168726108943 34.810598751959333 0 34.810598751959333 -135.40422843036322 0 0 0 0 26.087796487734749 22.241573463348686 0 22.241573463348686 -158.17533385142451 0 0 0 0 -50.392709649456265 -94.185015495171683 0 -94.185015495171683 -206.4559171722758 0 0 0 0 14.485420145031185 -20.437668043756275 0 -20.437668043756275 -369.41919396647063 0 0 0 0 14.642136729697086 -15.080053482193762 0 -15.080053482193762 -196.23105031639443 0 0 0 0 1.578535500083035 -40.19679940084643 0 -40.19679940084643 -208.86453885967148 0 0 0 0 25.745179156521431 1.5014108986747488 0 1.5014108986747488 -236.96806104626376 0 0 0 0 -8.9254480962463276 69.813066881546547 0 69.813066881546547 -182.75035388113974 0 0 0 0 -66.895246846302143 115.559147724387 0 115.559147724387 -274.41504435398019 0 0 0 0 -11.055317283668955 44.597952509253446 0 44.597952509253446 -198.5618403611079 0 0 0 0 -65.898236356115831 97.143344234700635 0 97.143344234700635 -135.23850970789863 0 0 0 0 -39.064483571885035 40.108479135103153 0 40.108479135103153 -37.72708169827456 0 0 0 0 4.6016622010026822 45.414649321751313 0 45.414649321751313 -157.55757660227027 0 0 0 0 -25.188292475392245 73.402412979728979 0 73.402412979728979 -101.21489820968782 0 0 0 0 -14.202155551537999 41.500142038585182 0 41.500142038585182 -40.752794099253151 0 0 0 0 5.0194363225180716 7.3593403872690146 0 7.3593403872690146 -21.560847758473855 0 0 0 0 116.81146555920009 100.66581005855824 0 100.66581005855824 -246.32932203695964 0 0 0 0 33.253502033133827 51.662373800591922 0 51.662373800591922 -89.296540546358642 0 0 0 0 12.294914009654804 33.669683074480417 0 33.669683074480417 -90.520523963205051 0 0 0 0 0.36006198306154147 48.278628304245558 0 48.278628304245558 -97.071510963596666 0 0 0 0 -24.45255724968797 50.261729954834664 0 50.261729954834664 -13.690345348963092 0 0 0 0 18.417332851483252 27.440615795268059 0 27.440615795268059 -89.359703572932631 0 0 0 0 6.4449578314768132 72.120994385461927 0 72.120994385461927 -16.364377052345844 0 0 0 0 1.7441840539635494 40.096564241013866 0 40.096564241013866 -38.387790157416347 0 0 0 0 2.0063048013878131 28.777049365005951 0 28.777049365005951 -103.99474030911733 0 0 0 0 -3.0895139669888811 4.3188696685553429 0 4.3188696685553429 -21.091289913461509 0 0 0 0 -12.525427957754772 -9.0288595388838644 0 -9.0288595388838644 -94.965580018154469 0 0 0 0 -3.0322933926781843 42.465403580517886 0 42.465403580517886 -101.00919909726144 0 0 0 0 6.4570050518762212 36.885376555568733 0 36.885376555568733 -34.287136664882311 0 0 0 0 -4.5233160826574021 79.23997243967824 0 79.23997243967824 -2.9076254842530034 0 0 0 0 -2.442255630397085 39.562736062448494 0 39.562736062448494 -101.30287801143186 0 0 0 0 0.89357292615985351 1.9174875466718788 0 1.9174875466718788 -4.1898605224455636 0 0 0 0 -8.6776178916576239 26.321865810312854 0 26.321865810312854 -0.96004625332723492 0 0 0 0 -15.864829539707443 14.189527254737186 0 14.189527254737186 6.695069887842692 0 0 0 0 -7.5951353218038093 17.628308269759145 0 17.628308269759145 -29.01844032230656 0 0 0 0 -5.4313378132856656 21.631977416411928 0 21.631977416411928 -43.493081500269909 0 0 0 0 5.0708390835471047 19.4689516231022 0 19.4689516231022 -1.1072496373515222 0 0 0 0 13.432221082853175 -10.479053316823411 0 -10.479053316823411 -98.374121079832548 0 0 0 0 -1.1604838077458117 31.917203195895258 0 31.917203195895258 16.384664927612228 0 0 0 0 -2.4067292051308868 42.276267297921095 0 42.276267297921095 44.192986937381193 0 0 0 0 -5.5802755516670004 68.266619009111309 0 68.266619009111309 -88.062109375481668 0 0 0 0 -13.303017215288492 58.719844007860956 0 58.719844007860956 -71.423978235654431 0 0 0 0 -9.69868186186822 31.519360564963609 0 31.519360564963609 62.981024088077831 0 0 0 0 -8.0598426295674042 57.548364686995576 0 57.548364686995576 9.0030899454143949 0 0 0 0 -0.39395643269381253 11.986544649698772 0 11.986544649698772 -28.59224897090462 0 0 0 0 5.410412868881358 31.55947393365043 0 31.55947393365043 -43.820969481673799 0 0 0 0 -1.8644412355404487 29.708712469115419 0 29.708712469115419 -6.203645671235825 0 0 0 0 -44.485036037956888 76.485261395828275 0 76.485261395828275 -25.901930027452181 0 0 0 0 9.2385330873129838 12.518591162718332 0 12.518591162718332 -24.540791786875687 0 0 0 0 -7.3027394786749937 44.50264785480249 0 44.50264785480249 -100.30558122292405 0 0 0 0 -20.7968426296502 57.631880245848151 0 57.631880245848151 -71.141781102676759 0 0 0 0 1.763756042982898 29.98851113194695 0 29.98851113194695 -0.29927329842948325 0 0 0 0 -1.8865796677240869 -0.028628564524318278 0 -0.028628564524318278 4.5547534373370802 0 0 0 0 20.403349132700896 27.232995476248107 0 27.232995476248107 55.744860552260434 0 0 0 0 -9.0962645360310148 30.939246764457014 0 30.939246764457014 -11.479046274391631 0 0 0 0 -76.114850787641444 120.26467574496746 0 120.26467574496746 50.614161446144863 0 0 0 0 15.772500521482016 -14.888656512554917 0 -14.888656512554917 -42.590241545276513 0 0 0 0 -44.307550886527451 28.618556305989841 0 28.618556305989841 -49.997390889264352 0 0 0 0 -13.848553534464372 100.48603067116528 0 100.48603067116528 -35.361088132556688 0 0 0 0 21.917342682013441 157.17952459768458 0 157.17952459768458 56.048037189871138 0 0 0 0 -54.017115433944426 82.173436679005533 0 82.173436679005533 -13.977408908140205 0 0 0 0 48.52876448387417 58.104810579523928 0 58.104810579523928 -48.206436488868349 0 0 0 0 -29.594379216481229 25.671688182555954 0 25.671688182555954 -0.27404785167163936 0 0 0 0 -11.564305503001208 -5.8109202610366992 0 -5.8109202610366992 16.094705385017733 0 0 0 0 -16.343473336154602 35.534081049612723 0 35.534081049612723 -17.570459893297084 0 0 0 0 -4.0288303107017782 24.593065724750886 0 24.593065724750886 -10.353066300442151 0 0 0 0 -96.448169479909438 50.105356612102696 0 50.105356612102696 50.072992875237105 0 0 0 0 -54.690839799946353 65.855976633175032 0 65.855976633175032 14.95379822695395 0 0 0 0 -87.659368759251976 -19.98422224437013 0 -19.98422224437013 19.398348290505965 0 0 0 0 -10.982654626995554 -1.889139413178782 0 -1.889139413178782 13.049435797263868 0 0 0 0 4.1820189637739986 -20.151511289775954 0 -20.151511289775954 -2.3244066496645246 0 0 0 0 1.0516496140672675 -2.0203143800500207 0 -2.0203143800500207 -1.6943389021136852 0 0 0 0 33.911966231603344 -19.844325989866775 0 -19.844325989866775 -7.2310602462057432 0 0 0 0 5.5198664907385364 9.7166651022998849 0 9.7166651022998849 -38.485817963650334 0 0 0 0 -3.1049249856445158 15.196912372708539 0 15.196912372708539 -33.813333497664644 0 0 0 0 0.60480612809965351 6.1845886432320185 0 6.1845886432320185 -25.715756672976568 0 0 0 0 1.5872082074953497 0.91792483274774384 0 0.91792483274774384 -3.935857984698039 0 0 0 0 0.9580553870770725 0.35941874534317009 0 0.35941874534317009 0.60267828349787322 0 0 0 0 -0.51952770012607452 9.3222211972762175 0 9.3222211972762175 -6.1555933274943726 0 0 0 0 -3.0584686511969039 15.396170223710214 0 15.396170223710214 -38.329184507698301 0 0 0 0 7.7955249586364062 13.964983390016187 0 13.964983390016187 -54.682292168710774 0 0 0 0 4.5316254190655627 16.448517680936675 0 16.448517680936675 -45.824251776091842 0 0 0 0 4.1174372323001673 10.421432108651317 0 10.421432108651317 -8.1542277810834847 0 0 0 0 -0.64197341899097227 22.407603121663804 0 22.407603121663804 -9.3889178338969188 0 0 0 0 -0.38108244582031148 24.307414374259679 0 24.307414374259679 -49.668923619558882 0 0 0 0 -19.57036013626589 22.98577836498589 0 22.98577836498589 -58.577214552556597 0 0 0 0 20.984725173226707 52.402327039439115 0 52.402327039439115 -65.468722374444042 0 0 0 0 26.523469519001083 41.970991690901428 0 41.970991690901428 -84.146907091500907 0 0 0 0 37.042445604125987 36.074468408825851 0 36.074468408825851 -99.960336241965706 0 0 0 0 8.5321874064547956 15.402588738905251 0 15.402588738905251 -61.207388277143764 0 0 0 0 -0.55849111401961515 19.0605108311637 0 19.0605108311637 -42.617407495874602 0 0 0 0 1.2406184133401439 26.308245272178283 0 26.308245272178283 -26.141479864342728 0 0 0 0 2.4540691641360284 20.721003451543382 0 20.721003451543382 -19.194160634875864 0 0 0 0 2.1887064754736123 1.7987024828571236 0 1.7987024828571236 -6.6936973289200203 0 0 0 0 35.669420813832403 -9.609622318563197 0 -9.609622318563197 -42.6804441547647 0 0 0 0 87.581615939985568 -11.118870650007011 0 -11.118870650007011 -88.696902985303495 0 0 0 0 17.092690502980076 35.70053165018544 0 35.70053165018544 -13.242968877460953 0 0 0 0 0.07127372386557207 8.2274065505533827 0 8.2274065505533827 -29.605744290253355 0 0 0 0 7.5454269508095422 14.908379704411345 0 14.908379704411345 -45.86783591859421 0 0 0 0 6.062601721855799 11.896155267915674 0 11.896155267915674 -41.659017441095784 0 0 0 0 18.000289682014682 -6.2220334104076755 0 -6.2220334104076755 -21.471699842339149 0 0 0 0 10.174267475574561 -6.5585970420929414 0 -6.5585970420929414 -14.424495011486506 0 0 0 0 9.0825725843710643 6.1968274437749642 0 6.1968274437749642 -37.416909288225725 0 0 0 0 15.370449096050834 -34.91266323591617 0 -34.91266323591617 -104.57933493611927 0 0 0 0 23.09569621022456 -0.11637635457736906 0 -0.11637635457736906 -39.484577028379135 0 0 0 0 10.470527830571882 9.5948168036375137 0 9.5948168036375137 -46.119880721192885 0 0 0 0 14.948279597477335 -5.6232099826069017 0 -5.6232099826069017 -11.807345772945709 0 0 0 0 55.157422925042511 19.702011921624944 0 19.702011921624944 -36.899616938375402 0 0 0 0 2.6842658542202287 2.9798374392703693 0 2.9798374392703693 -9.1118231423691611 0 0 0 0 -102.60573087359023 -194.72728927321077 0 -194.72728927321077 -98.206655499117915 0 0 0 0 86.000580462031394 31.914814099018258 0 31.914814099018258 -96.040667410336027 0 0 0 0 -2.0576086406364782 1.2756003108354292 0 1.2756003108354292 -0.62192664998579517 0 0 0 0 -25.105939949143476 77.284321742346947 0 77.284321742346947 9.9163444092955615 0 0 0 0 1.1580454891267209 24.032948448661955 0 24.032948448661955 -27.895970527453755 0 0 0 0 28.409174195379819 -3.745812001721788 0 -3.745812001721788 -2.9277356053567019 0 0 0 0 4.8837145983847563 26.37553844602462 0 26.37553844602462 -57.965281973331003 0 0 0 0 4.7732683900028405 33.456419682253909 0 33.456419682253909 -48.655924485883588 0 0 0 0 35.96729693535849 34.69574888893294 0 34.69574888893294 -73.729314920336037 0 0 0 0 12.084650543777244 51.576312673329085 0 51.576312673329085 -85.545116110570234 0 0 0 0 45.890467054503802 50.447345893890088 0 50.447345893890088 -124.90276203381654 0 0 0 0 29.942848803800786 55.034304710531615 0 55.034304710531615 -85.317871233964979 0 0 0 0 25.848805511746264 78.065009650332286 0 78.065009650332286 -173.5372160398183 0 0 0 0 -21.614100578220132 104.02780584458924 0 104.02780584458924 -67.099801113666672 0 0 0 0 6.8934393258741693 -0.90292022743687994 0 -0.90292022743687994 -183.72233802156552 0 0 0 0 38.167953678988283 44.373768551617104 0 44.373768551617104 -119.03168918623123 0 0 0 0 60.573131169355861 24.632878447529947 0 24.632878447529947 -119.65051738766488 0 0 0 0 63.175330429686483 28.069087867921553 0 28.069087867921553 -122.26458267226553 0 0 0 0 55.183566092131855 18.723407300361941 0 18.723407300361941 -75.271095258482092 0 0 0 0 -11.498435181486229 48.219214478976937 0 48.219214478976937 -50.147322114702547 0 0 0 0 -3.4020880894290713 23.161257226456655 0 23.161257226456655 -65.38526264543907 0 0 0 0 -34.233586759501122 19.293997831176966 0 19.293997831176966 -86.3659418875759 0 0 0 0 -73.991346477143452 80.184862950571187 0 80.184862950571187 -59.614765337850258 0 0 0 0 -4.5323069933615443 86.768127420789824 0 86.768127420789824 -101.07882056481321 0 0 0 0 -13.849916694581225 51.3785356624212 0 51.3785356624212 -46.021260894802253 0 0 0 0 -19.576412482239448 77.834366828938073 0 77.834366828938073 -62.675722503699944 0 0 0 0 25.284155628828557 82.664509718495538 0 82.664509718495538 -93.478156164524989 0 0 0 0 2.6344067568506944 76.199397279724508 0 76.199397279724508 -96.239972448413027 0 0 0 0 9.2998354387866584 90.559565651017692 0 90.559565651017692 -79.298112868636963 0 0 0 0 59.640081227888913 56.710946657425666 0 56.710946657425666 -94.264794754074501 0 0 0 0 29.418294797016642 99.213028611520713 0 99.213028611520713 -145.96010692958953 0 0 0 0 -7.8746519459750743 92.146540436475334 0 92.146540436475334 -95.545630186495146 0 0 0 0 45.361199423437711 118.28414945524855 0 118.28414945524855 -243.32448201439547 0 0 0 0 115.92349370707325 34.358281509699736 0 34.358281509699736 -155.14769447692197 0 0 0 0 -138.37453904550193 12.062126003118465 0 12.062126003118465 -86.793357019873156 0 0 0 0 -126.78853808735857 134.12449449278211 0 134.12449449278211 -119.3363271010785 0 0 0 0 11.3391819626641 11.237847815976238 0 11.237847815976238 -82.994070733842818 0 0 0 0 30.583666388507936 20.673378208059148 0 20.673378208059148 -99.604782951839297 0 0 0 0 18.425637470458923 17.862242449436962 0 17.862242449436962 -78.938810551162533 0 0 0 0 13.268801571695214 35.519116065265905 0 35.519116065265905 -38.562766408720357 0 0 0 0 17.713416331155855 22.388637265932857 0 22.388637265932857 -74.045418006979162 0 0 0 0 30.092325138669935 21.901666706580727 0 21.901666706580727 -94.308395565662067 0 0 0 0 42.459568205443418 31.060829921538243 0 31.060829921538243 -87.619973744605886 0 0 0 0 41.955638772391296 32.926707006950437 0 32.926707006950437 -92.550512402936874 0 0 0 0 34.604203166148011 45.850662318332979 0 45.850662318332979 -75.54519660369624 0 0 0 0 50.877144068117218 37.897538409004483 0 37.897538409004483 -98.740810286855776 0 0 0 0 52.463200703297829 28.522500597571707 0 28.522500597571707 -102.60949454120782 0 0 0 0 71.572746301493623 17.925343663486274 0 17.925343663486274 -100.99706070044931 0 0 0 0 39.246955480602367 24.396955102074571 0 24.396955102074571 -80.050418272436218 0 0 0 0 43.002938700790992 13.218394141889803 0 13.218394141889803 -47.145352967294457 0 0 0 0 47.500219656942022 19.791445522077993 0 19.791445522077993 -88.906914293915179 0 0 0 0 57.378361525729233 27.726916673687811 0 27.726916673687811 -106.80104890637631 0 0 0 0 39.866612119780939 28.796939974963607 0 28.796939974963607 -98.705057188239152 0 0 0 0 35.216986749942748 29.999176483674091 0 29.999176483674091 -91.161298937640822 0 0 0 0 35.217981393114997 29.77165229156526 0 29.77165229156526 -85.311094833090465 0 0 0 0 29.537771850733407 28.347340339481889 0 28.347340339481889 -88.680214268297277 0 0 0 0 19.981013720520309 15.858071591444968 0 15.858071591444968 -100.84817483789084 0 0 0 0 29.770535004454473 31.661779194862902 0 31.661779194862902 -110.34489297204709 0 0 0 0 17.305228103483159 40.965647128079581 0 40.965647128079581 -64.991109969701029 0 0 0 0 17.686711495003237 40.173648490037522 0 40.173648490037522 -64.637493042620918 0 0 0 0 20.603990323055001 40.170062581090406 0 40.170062581090406 -76.837427060199843 0 0 0 0 19.66969176309567 36.860517891105701 0 36.860517891105701 -76.408116765021987 0 0 0 0 18.456539667812081 42.130868931777513 0 42.130868931777513 -73.465919867361663 0 0 0 0 23.778892583912313 33.204538851439793 0 33.204538851439793 -60.050985901820241 0 0 0 0 23.03024918310507 36.740798968166928 0 36.740798968166928 -73.758899175223632 0 0 0 0 18.229335462933022 35.814565446706183 0 35.814565446706183 -64.693767559576372 0 0 0 0 51.700851810710788 40.818137765301799 0 40.818137765301799 -76.048230365293421 0 0 0 0 28.511738509755332 37.864735158209442 0 37.864735158209442 -66.577524411324703 0 0 0 0 30.711906882136361 30.99725718245827 0 30.99725718245827 -58.245080816686823 0 0 0 0 41.918703600407412 34.820025622413596 0 34.820025622413596 -65.856671902296512 0 0 0 0 45.264935278145856 15.352076352785843 0 15.352076352785843 5.8257002482860116 0 0 0 0 79.081863300391888 81.817323019709875 0 81.817323019709875 -51.832342495965349 0 0 0 0 49.925547180602223 35.275751890159881 0 35.275751890159881 -88.137682722939644 0 0 0 0 92.306303392296059 29.165824818901456 0 29.165824818901456 -114.99893287345185 0 0 0 0 57.044613244881077 13.147478356286229 0 13.147478356286229 -101.07181120949826 0 0 0 0 56.467310591888065 10.73676643015915 0 10.73676643015915 -109.04788180164905 0 0 0 0 54.747352779603943 7.0648176656468422 0 7.0648176656468422 -114.35160915603501 0 0 0 0 61.546835226006891 5.2933138632658938 0 5.2933138632658938 -110.21427566846251 0 0 0 0 60.095574394535561 10.348943786339078 0 10.348943786339078 -119.87591801130475 0 0 0 0 60.958237526502216 -2.5915667684239452 0 -2.5915667684239452 -106.26327230037714 0 0 0 0 48.505845467858762 5.1563773162124562 0 5.1563773162124562 -101.44089923978026 0 0 0 0 29.694358575238169 -6.9472793742534122 0 -6.9472793742534122 -96.360346871253569 0 0 0 0 48.396407473630532 -7.7679325315402821 0 -7.7679325315402821 -98.584485872816003 0 0 0 0 12.751781247561865 14.058410585191268 0 14.058410585191268 -83.607158509032161 0 0 0 0 27.571771171980515 16.450380504798886 0 16.450380504798886 -84.413621310792223 0 0 0 0 36.47914144937144 21.929962346770481 0 21.929962346770481 -85.472494358502445 0 0 0 0 29.273266438170651 25.307467162143439 0 25.307467162143439 -86.532930345663772 0 0 0 0 6.6506878860338929 28.438129902602668 0 28.438129902602668 -73.586674490978112 0 0 0 0 31.204426156355524 37.15726082820288 0 37.15726082820288 -71.267343998362776 0 0 0 0 15.026604244129089 34.063166405308948 0 34.063166405308948 -74.17262006121382 0 0 0 0 0.87459311026964315 5.4707808175280661 0 5.4707808175280661 -88.5214340576822 0 0 0 0 -15.637659738506159 32.446844371119369 0 32.446844371119369 -72.929091611781587 0 0 0 0 9.190672120205079 35.09736299450924 0 35.09736299450924 -92.40605354422587 0 0 0 0 26.015041169853703 47.451186058144231 0 47.451186058144231 -73.625057854024817 0 0 0 0 5.512855276114351 36.01584506285144 0 36.01584506285144 -69.693814708881291 0 0 0 0 7.1922718570709776 41.585275713421652 0 41.585275713421652 -67.04797338697972 0 0 0 0 22.579559983868648 40.748276383845223 0 40.748276383845223 -67.542663982239901 0 0 0 0 6.7150711802651131 68.581323827515007 0 68.581323827515007 -30.544708400964737 0 0 0 0 7.2298066556129754 35.782612006982845 0 35.782612006982845 -41.23995932390244 0 0 0 0 11.835647794996703 62.413989649545329 0 62.413989649545329 -36.162978980690241 0 0 0 0 -12.008012556001631 21.478347273055988 0 21.478347273055988 -105.84627748644925 0 0 0 0 51.735470440811696 35.425627642777272 0 35.425627642777272 -101.8645104750201 0 0 0 0 19.40797263317836 -6.5019600917030402 0 -6.5019600917030402 -77.029959625985612 0 0 0 0 1.4284192114046288 30.804253050623096 0 30.804253050623096 -66.628538504637817 0 0 0 0 46.55686938957615 15.247507432213752 0 15.247507432213752 -165.18023066070464 0 0 0 0 33.006432273210521 53.712358968099579 0 53.712358968099579 -40.111994247243274 0 0 0 0 6.265992308323348 54.740666906054685 0 54.740666906054685 -19.172123003088927 0 0 0 0 2.1116582783785836 2.2590633398417168 0 2.2590633398417168 -7.6721204692994647 0 0 0 0 -11.394721247041787 7.654215189248994 0 7.654215189248994 19.187000179892138 0 0 0 0 65.394083330410012 80.776430883674038 0 80.776430883674038 -91.646566453455307 0 0 0 0 -6.9303997258239178 65.585572380128724 0 65.585572380128724 -27.69169069912823 0 0 0 0 22.069093017530577 59.662426613438583 0 59.662426613438583 -22.547648694733653 0 0 0 0 119.69709659599721 107.67295470098907 0 107.67295470098907 -2.138669586252945 0 0 0 0 26.376676902639815 48.285561503358622 0 48.285561503358622 -45.369904147693887 0 0 0 0 -9.6054841686371901 51.948667135437063 0 51.948667135437063 -35.020913018015563 0 0 0 0 -36.254845247210142 33.695043449051809 0 33.695043449051809 -30.031915522486088 0 0 0 0 -15.871481292890167 58.228444373813545 0 58.228444373813545 -40.846838285986451 0 0 0 0 -19.225407059137751 33.246142789394071 0 33.246142789394071 -31.674643511996692 0 0 0 0 -23.784266734433913 23.999885197386902 0 23.999885197386902 -33.894926102846512 0 0 0 0 -8.7983978319464313 25.41600557561469 0 25.41600557561469 -36.657919007371675 0 0 0 0 -5.246333465175212 40.393772640769384 0 40.393772640769384 14.94761462049064 0 0 0 0 114.86460200789929 -0.98427387470655958 0 -0.98427387470655958 -69.128031679474589 0 0 0 0 72.414627649250974 66.920345095684752 0 66.920345095684752 -40.190760285175202 0 0 0 0 -10.512473601727606 -42.870922678910574 0 -42.870922678910574 -15.472200363547017 0 0 0 0 0.77938219008026266 0.46120952217304989 0 0.46120952217304989 1.0825261091248919 0 0 0 0 128.97902817885335 52.542172513523838 0 52.542172513523838 -140.37016900671733 0 0 0 0 62.910205333616886 -6.7017645696323598 0 -6.7017645696323598 -148.68685872519018 0 0 0 0 42.184742440467289 36.51289978980094 0 36.51289978980094 -180.76912355586683 0 0 0 0 4.2141584689859757 4.9516351496380935 0 4.9516351496380935 -22.391450705254758 0 0 0 0 18.186533051376159 4.255775563964562 0 4.255775563964562 -102.15315015003216 0 0 0 0 1.5493502495924778 1.8657957661209821 0 1.8657957661209821 -24.275118794075201 0 0 0 0 15.524797177649184 29.654614096402305 0 29.654614096402305 -85.166907307552052 0 0 0 0 16.716081594917455 2.1621995461900951 0 2.1621995461900951 -100.92569690269374 0 0 0 0 14.201843034922604 -7.0723450450495875 0 -7.0723450450495875 -113.40384909417116 0 0 0 0 54.362567867509142 8.0496829112744308 0 8.0496829112744308 -107.71171310591126 0 0 0 0 19.118469163794771 9.645227984237863 0 9.645227984237863 -98.196721553358657 0 0 0 0 56.324294844731412 25.659649359011382 0 25.659649359011382 -91.348269522481132 0 0 0 0 32.259488581598816 64.60783868422368 0 64.60783868422368 -106.7177540060416 0 0 0 0 43.102606219510562 12.336477656921907 0 12.336477656921907 -109.00900782638199 0 0 0 0 33.211358991289671 53.633816166933457 0 53.633816166933457 -130.01359622963741 0 0 0 0 9.2186185581213067 44.479936107274625 0 44.479936107274625 -152.38696975379412 0 0 0 0 9.090720241296367 42.219914455052333 0 42.219914455052333 -117.45787126447152 0 0 0 0 14.358817778229149 21.073971089960253 0 21.073971089960253 -18.966835743416066 0 0 0 0 1.9708260699912898 26.475327627881825 0 26.475327627881825 -85.886806189921117 0 0 0 0 10.525308053906883 43.251241441030515 0 43.251241441030515 -113.47174429780171 0 0 0 0 1.950652721487466 28.452994699150512 0 28.452994699150512 -59.514366518541237 0 0 0 0 8.7167265297070529 5.3093060059736743 0 5.3093060059736743 -33.012190838585525 0 0 0 0 10.065655904856612 27.841983286203686 0 27.841983286203686 -99.121745689006275 0 0 0 0 -1.9326790821248991 -0.24262641309167421 0 -0.24262641309167421 -6.8109005580950814 0 0 0 0 12.607239878894688 -2.9917269979860066 0 -2.9917269979860066 -24.850937434345724 0 0 0 0 6.6498336069559407 18.255716172939046 0 18.255716172939046 -26.144113650748075 0 0 0 0 -13.061198744986541 46.81084588918452 0 46.81084588918452 -133.94541188875348 0 0 0 0 -9.2294479647998742 68.589301476389664 0 68.589301476389664 -145.36227244785005 0 0 0 0 -24.020521182374068 58.684967175737142 0 58.684967175737142 -146.11760829806485 0 0 0 0 -2.5161686043484224 44.926700388995187 0 44.926700388995187 -156.5297224146417 0 0 0 0 -16.143389494967778 56.420857746701017 0 56.420857746701017 -166.21050008873851 0 0 0 0 12.019688521424541 29.327933525134597 0 29.327933525134597 -161.48123430068119 0 0 0 0 6.9842308029697051 40.057487401779895 0 40.057487401779895 -182.86836884052281 0 0 0 0 -1.8854067039787878 47.034990130561852 0 47.034990130561852 -151.64229330999456 0 0 0 0 -6.0981629375728517 43.137126668875908 0 43.137126668875908 -182.84441137495227 0 0 0 0 14.998216511461578 10.020079488765191 0 10.020079488765191 -220.95119385429166 0 0 0 0 7.5582733022492903 6.4965351338865958 0 6.4965351338865958 -209.57071229106828 0 0 0 0 66.81162103866518 21.37651191433531 0 21.37651191433531 -181.61121712599737 0 0 0 0 3.120069210278416 17.88477140261034 0 17.88477140261034 -154.60886314666618 0 0 0 0 38.451129503991979 28.80541739648088 0 28.80541739648088 -159.58662849455015 0 0 0 0 22.310553014367997 39.879771878783316 0 39.879771878783316 -166.6908352889763 0 0 0 0 33.350985672685283 57.767158267324703 0 57.767158267324703 -116.43563085428468 0 0 0 0 32.822277107648461 -12.742202456156186 0 -12.742202456156186 -170.11828283782421 0 0 0 0 14.41918157905627 17.209869489915057 0 17.209869489915057 -87.800667915081689 0 0 0 0 7.5765198330401784 16.790585101445089 0 16.790585101445089 -9.7829760391473286 0 0 0 0 -2.633326713462858 -23.213863399687895 0 -23.213863399687895 -94.586902974643934 0 0 0 0 90.042118435821976 -0.25321822307660113 0 -0.25321822307660113 -173.56856332700752 0 0 0 0 73.775847144683439 -108.16902562968426 0 -108.16902562968426 -199.70131027347816 0 0 0 0 61.439443093297086 16.960032202891995 0 16.960032202891995 -155.92046621829809 0 0 0 0 116.53496925671425 -25.009791579416003 0 -25.009791579416003 -133.12457331652263 0 0 0 0 365.09743214285481 4.4196621856629008 0 4.4196621856629008 -164.56025021308005 0 0 0 0 -7.3834365591775111 -24.826718362884861 0 -24.826718362884861 -81.273590004153192 0 0 0 0 -31.628003357614261 -23.004119776564039 0 -23.004119776564039 -44.220539618165276 0 0 0 0 31.029890270544314 -21.545476230690383 0 -21.545476230690383 -47.55742608716173 0 0 0 0 -56.853775232070802 -108.97472110247361 0 -108.97472110247361 -163.39392603401211 0 0 0 0 70.637461791076021 146.69544772483982 0 146.69544772483982 118.95265246304371 0 0 0 0 -38.528917242454554 -93.219759777587797 0 -93.219759777587797 -201.72406968213954 0 0 0 0 -76.210694042079922 -136.1813051969707 0 -136.1813051969707 -206.77817894616078 0 0 0 0 15.052040917268187 -178.14037341513711 0 -178.14037341513711 -398.45415029802234 0 0 0 0 6.6701875524024672 -62.6352780361388 0 -62.6352780361388 -326.98082888090312 0 0 0 0 -11.845240352860401 -42.420278925512605 0 -42.420278925512605 -184.85569494496622 0 0 0 0 -40.971527170306217 -27.285142059703958 0 -27.285142059703958 -85.862000105132211 0 0 0 0 70.590644748838713 41.445986208404804 0 41.445986208404804 -156.49995395276119 0 0 0 0 -10.712900399561477 -68.405778626491838 0 -68.405778626491838 -238.53212038821061 0 0 0 0 23.520205776292983 15.793355655410778 0 15.793355655410778 -154.17757303079816 0 0 0 0 21.951402614560635 30.10847922792118 0 30.10847922792118 -174.9853265527272 0 0 0 0 23.796740156089982 40.820932420203462 0 40.820932420203462 -126.94619794570281 0 0 0 0 -42.715658322912212 -8.9105214206502978 0 -8.9105214206502978 -97.321400148743123 0 0 0 0 -48.792097144496324 55.636503069434184 0 55.636503069434184 -99.461376029152234 0 0 0 0 9.4411916172184647 -10.465791897386225 0 -10.465791897386225 -163.44063121439285 0 0 0 0 0.31014132439349851 47.197159485059274 0 47.197159485059274 -344.31030523136724 0 0 0 0 -3.0840029687580781 5.8694942496113072 0 5.8694942496113072 -137.67050894918339 0 0 0 0 -189.17271088938082 -5.4172833459015237 0 -5.4172833459015237 -136.31929454823603 0 0 0 0 46.934422426836761 -63.328213964749011 0 -63.328213964749011 -274.40108057390171 0 0 0 0 8.7821198721814255 9.1536298868377344 0 9.1536298868377344 -92.210744632686328 0 0 0 0 3.7649002489019381 -15.745908890719875 0 -15.745908890719875 -99.877808625271427 0 0 0 0 -29.470775945212836 -17.585922088162988 0 -17.585922088162988 -89.706523794360692 0 0 0 0 80.982012829553696 -38.763384000871156 0 -38.763384000871156 -102.08565541033386 0 0 0 0 94.902019971016045 10.886741408073249 0 10.886741408073249 -121.5602182773946 0 0 0 0 247.60511324829486 63.734296655213257 0 63.734296655213257 -75.755309077083439 0 0 0 0 182.32999310047853 -43.965395361199626 0 -43.965395361199626 -108.45065845566478 0 0 0 0 3.7731614770472959 -10.405621251710492 0 -10.405621251710492 -18.571824409729977 0 0 0 0 122.96564713665816 -66.897796073431891 0 -66.897796073431891 -178.09944428964445 0 0 0 0 117.05735936604697 -71.901209540184936 0 -71.901209540184936 -171.57756745191728 0 0 0 0 77.069307604660139 -11.65388918345343 0 -11.65388918345343 -189.05754243632236 0 0 0 0 50.475489372168227 22.825639988670446 0 22.825639988670446 -155.45907183167674 0 0 0 0 53.428925408252404 57.253176843314918 0 57.253176843314918 -260.11933215341196 0 0 0 0 113.19030769671372 202.66821846797939 0 202.66821846797939 -20.202275901952817 0 0 0 0 -0.11146338212303131 0.57332870158128202 0 0.57332870158128202 -2.8668723989925837 0 0 0 0 -152.88054253781186 -181.105516799832 0 -181.105516799832 -222.68667998419187 0 0 0 0 -44.140950834062323 -46.93590001479788 0 -46.93590001479788 -57.385629829243953 0 0 0 0 -43.421674723448632 -79.304432373894088 0 -79.304432373894088 -101.14243875676402 0 0 0 0 -0.62330940948027092 -42.981378511867661 0 -42.981378511867661 -83.591758983144246 0 0 0 0 38.569316778326311 -51.752751846609499 0 -51.752751846609499 -194.13449733529706 0 0 0 0 -5.7325118239131143 -25.048094739102453 0 -25.048094739102453 -2.4727847332123929 0 0 0 0 -9.4272390994489399 -9.7486855464221662 0 -9.7486855464221662 -14.233717476716265 0 0 0 0 -37.608499283763535 -37.222666570678484 0 -37.222666570678484 -37.100809977046083 0 0 0 0 -34.804056234935501 -38.142380590641551 0 -38.142380590641551 -55.318359831072939 0 0 0 0 0.21606868913714689 1.1477434004596345 0 1.1477434004596345 -6.7452250896884607 0 0 0 0 1.0298381990109713 -4.1776784723821923 0 -4.1776784723821923 -8.8919821647521786 0 0 0 0 117.74289189362142 -193.97669136006152 0 -193.97669136006152 -123.72811353455199 0 0 0 0 329.71418633428948 182.10402965866365 0 182.10402965866365 -190.58535449764167 0 0 0 0 -120.9222514085875 25.048719146438089 0 25.048719146438089 41.876570360059759 0 0 0 0 -77.465407837199848 -81.273572808652261 0 -81.273572808652261 -114.61810833857817 0 0 0 0 -6.2850371780759815 30.226118340349785 0 30.226118340349785 -197.3453462615953 0 0 0 0 -91.125235644593559 165.7728960062127 0 165.7728960062127 -99.001676713316556 0 0 0 0 -185.11795259216476 -22.086735471316842 0 -22.086735471316842 -16.174061148369219 0 0 0 0 -2.9590983660213732 -1.7466955178099965 0 -1.7466955178099965 -0.89310295413672947 0 0 0 0 -0.70434137528036245 -2.8437369613000172 0 -2.8437369613000172 -5.6995476030023724 0 0 0 0 -42.442460136818241 -262.66745954991529 0 -262.66745954991529 400.07833891600785 0 0 0 0 -31.30491628273402 289.70766398174874 0 289.70766398174874 -2499.2266514342482 0 0 0 0 -24.484751439416737 206.56614955289388 0 206.56614955289388 -1953.1656724574459 0 0 0 0 -0.57507518613780118 -8.5799410752646992 0 -8.5799410752646992 -10.989593417981517 0 0 0 0 176.43637270955023 -130.23168284788699 0 -130.23168284788699 -147.82212165899909 0 0 0 0 123.83942836628125 -191.09249588254579 0 -191.09249588254579 110.95679628766084 0 0 0 0 318.46894899183741 -60.447787623120348 0 -60.447787623120348 -104.54340513216448 0 0 0 0 2.8858923459843027 -4.7774872901536583 0 -4.7774872901536583 -20.737758475301234 0 0 0 0 -0.14976108088364085 -0.52648304062528695 0 -0.52648304062528695 -8.3412703423218293 0 0 0 0 82.181499768241892 -810.29604039125115 0 -810.29604039125115 -2497.1079855681269 0 0 0 0 -2.7222983127801887 3.586687535334125 0 3.586687535334125 -0.0063076472249719018 0 0 0 0 1.5976143326729797 -1.077379040677064 0 -1.077379040677064 -29.412760431934387 0 0 0 0 -1.8187991030105779 6.8975633597763704 0 6.8975633597763704 -7.3257327745352079 0 0 0 0 -58.691611192650342 362.17146539389068 0 362.17146539389068 -2271.0572026960926 0 0 0 0 55.816789648574769 -350.7501535179008 0 -350.7501535179008 -2496.7784540137545 0 0 0 0 58.643293122996965 16.950570657612843 0 16.950570657612843 -50.971626563168684 0 0 0 0 -13.664784221893669 -6.9663557878920983 0 -6.9663557878920983 -52.161539201246342 0 0 0 0 5.7659011320718738 -16.839559342138408 0 -16.839559342138408 -21.651534521317416 0 0 0 0 74.366123961164305 -25.740780648044165 0 -25.740780648044165 -48.78026381249947 0 0 0 0 -207.63397400645954 -127.81963077851469 0 -127.81963077851469 785.64297826941379 0 0 0 0 -126.65922945290185 144.57759570555027 0 144.57759570555027 601.8038112854847 0 0 0 0 45.128140727814753 -66.525075032354152 0 -66.525075032354152 -423.81236498233102 0 0 0 0 -8.3162891604675053 -2.5692661572686726 0 -2.5692661572686726 -0.59074900357846882 0 0 0 0 -124.33505007626627 -482.46436569358502 0 -482.46436569358502 -459.59042203399122 0 0 0 0 111.38011728048969 -119.81313403549507 0 -119.81313403549507 -861.57823521471346 0 0 0 0 582.90047813188357 -298.73570487062898 0 -298.73570487062898 -987.25695434894442 0 0 0 0 -209.36090636431254 -297.01998181118279 0 -297.01998181118279 136.1699762562703 0 0 0 0 -5.4817361911349964 -20.946368620442147 0 -20.946368620442147 -66.488649939896504 0 0 0 0 66.223745648844215 -55.774436630914352 0 -55.774436630914352 -128.30864716781434 0 0 0 0 -18.228355758865973 2.1855142220811103 0 2.1855142220811103 -41.681661104277737 0 0 0 0 -76.405370416098776 -107.20939819136402 0 -107.20939819136402 438.96026367456579 0 0 0 0 21.9248116733811 7.4796940849646489 0 7.4796940849646489 -69.20895501492123 0 0 0 0 -101.1878264201423 -104.07193253098785 0 -104.07193253098785 447.81815518030635 0 0 0 0 -9.9181567505157204 -17.577306169132243 0 -17.577306169132243 -42.228498731007818 0 0 0 0 -6.0208940469385865 -4.3445862821806216 0 -4.3445862821806216 -8.5937469804631093 0 0 0 0 -125.39520048595716 168.28726853045191 0 168.28726853045191 -86.090777300714763 0 0 0 0 -185.97901569158381 -153.49628333258624 0 -153.49628333258624 -409.73584140086314 0 0 0 0 -5.7127943460977946 -403.16896108631045 0 -403.16896108631045 -611.62112187551065 0 0 0 0 216.70844658117389 -124.81614201254979 0 -124.81614201254979 -2494.5058281929123 0 0 0 0 62.848691897062992 219.20774074121437 0 219.20774074121437 -598.2900734837167 0 0 0 0 -92.465468420187435 873.20524427274813 0 873.20524427274813 -2494.5195924261243 0 0 0 0 -5.1582288939439973 -2.144899921922427 0 -2.144899921922427 -6.6388109895551253 0 0 0 0 -402.2719176247698 -366.81128683732459 0 -366.81128683732459 -346.83823530530208 0 0 0 0 350.52479480066762 333.28839441533455 0 333.28839441533455 -2493.282611177834 0 0 0 0 -17.874945227402581 -12.550976870129489 0 -12.550976870129489 -15.261560217211709 0 0 0 0 -20.168852111269189 -88.97296322691227 0 -88.97296322691227 -6.4246775265182805 0 0 0 0 -94.213515073440249 94.467464765185468 0 94.467464765185468 -125.72154857611531 0 0 0 0 -21.949957829880979 -242.3805892897343 0 -242.3805892897343 -265.97425167047186 0 0 0 0 148.02973983955073 83.683843862854701 0 83.683843862854701 -73.366048095143924 0 0 0 0 -1574.3977255021111 -286.84425568910228 0 -286.84425568910228 94.500778623671977 0 0 0 0 -9.1660072314282406 -4.3469679857573311 0 -4.3469679857573311 -4.2507243096527461 0 0 0 0 -414.11586437246518 -1866.3852864614073 0 -1866.3852864614073 -2495.0770264657731 0 0 0 0 -171.97676489801668 -1260.5468019172563 0 -1260.5468019172563 -1558.4663756973659 0 0 0 0 633.89917548152357 -97.285667972106239 0 -97.285667972106239 -1401.3630600102274 0 0 0 0 -610.43821862259824 -729.08719338132357 0 -729.08719338132357 -1888.9915863208134 0 0 0 0 -135.52861993011959 -737.94607597159484 0 -737.94607597159484 -2499.2137370453429 0 0 0 0 -72.977955687103261 -1186.8096022104939 0 -1186.8096022104939 -2500.9087588131097 0 0 0 0 -666.57709676469915 -1287.4603895819264 0 -1287.4603895819264 -2175.8126439173657 0 0 0 0 -8.6754966232362225 -5.2799837795301752 0 -5.2799837795301752 -3.322697315280573 0 0 0 0 -37.767340953321707 -986.04811338595573 0 -986.04811338595573 -2513.1049312979526 0 0 0 0 -288.42747984649151 -744.11971191567886 0 -744.11971191567886 -2020.3299544150675 0 0 0 0 -753.21337576442556 -954.22935518624934 0 -954.22935518624934 -874.37870953274114 0 0 0 0 -498.2335694783784 -317.74589110546981 0 -317.74589110546981 479.32190590058326 0 0 0 0 -125.64582603104972 -199.14716579201115 0 -199.14716579201115 -668.51963680390372 0 0 0 0 -110.52764911765053 -68.908048704179237 0 -68.908048704179237 -378.44642715802161 0 0 0 0 -345.74791764685119 -254.32365319509131 0 -254.32365319509131 -318.22565586673738 0 0 0 0 -16.014954116295279 -9.3408026390181682 0 -9.3408026390181682 -3.7456826860909285 0 0 0 0 -667.23572212500324 -760.31573252969429 0 -760.31573252969429 517.74629368717797 0 0 0 0 202.5778201582068 -168.92050149074709 0 -168.92050149074709 -424.38974728003541 0 0 0 0 137.90442773051154 -11.492689649252497 0 -11.492689649252497 -417.37736045094289 0 0 0 0 84.801317330681741 -211.00475928853962 0 -211.00475928853962 -77.43666952973274 0 0 0 0 81.665776238036415 -99.526161948839103 0 -99.526161948839103 -309.8184513624949 0 0 0 0 84.893626090854724 -63.199128123271187 0 -63.199128123271187 -381.28677380166118 0 0 0 0 32.443013946165593 20.64175523604149 0 20.64175523604149 -372.15572994558806 0 0 0 0 38.037568029615613 -11.091000455524238 0 -11.091000455524238 -254.95681905482593 0 0 0 0 14.535718806750992 34.449781721809245 0 34.449781721809245 -288.58999694523658 0 0 0 0 16.51071216471837 50.232134811119778 0 50.232134811119778 -417.97740002444698 0 0 0 0 63.454189947234681 -51.176012947387107 0 -51.176012947387107 -381.1147086266634 0 0 0 0 65.211834728155509 -58.294295749509928 0 -58.294295749509928 -538.24695839837477 0 0 0 0 -131.32892265066221 -49.414761459871443 0 -49.414761459871443 -496.37485557227319 0 0 0 0 -183.16689874183709 -203.62453262362706 0 -203.62453262362706 -718.93966648745629 0 0 0 0 -107.7168232086392 55.838626777402595 0 55.838626777402595 -395.43019441312833 0 0 0 0 -63.318477713339803 58.730086570450112 0 58.730086570450112 -657.48597068898243 0 0 0 0 -22.936840257241784 -4.7588437114341673 0 -4.7588437114341673 -588.06018230164 0 0 0 0 -28.450108820487003 40.71502295614971 0 40.71502295614971 -400.35121505622016 0 0 0 0 -42.945628759302849 95.428566990621619 0 95.428566990621619 -282.27765227436856 0 0 0 0 -24.132669803575027 41.980288403539447 0 41.980288403539447 -393.2752296018424 0 0 0 0 -23.566715502489387 61.62474949810445 0 61.62474949810445 -264.56086915997082 0 0 0 0 -79.785587883071358 -15.520322668176769 0 -15.520322668176769 -339.97380790606542 0 0 0 0 -86.835380936304318 75.701593791701782 0 75.701593791701782 -292.91655199825522 0 0 0 0 6.8676537920799916 -76.590858537913732 0 -76.590858537913732 195.31293822920998 0 0 0 0 -79.821537803079309 -12.960749949868813 0 -12.960749949868813 -248.43572486144535 0 0 0 0 38.69877759985684 103.10830603559259 0 103.10830603559259 -294.70598565664488 0 0 0 0 -2.7491858280829735 -1.485361399219518 0 -1.485361399219518 -0.73446135697764436 0 0 0 0 -52.184415634796096 51.907518192958491 0 51.907518192958491 -128.47829493055372 0 0 0 0 -55.949408393491012 113.33826609230232 0 113.33826609230232 -136.86693638565725 0 0 0 0 18.184556602087468 -74.875098078710607 0 -74.875098078710607 72.309856204434283 0 0 0 0 -30.036694049077141 101.88779671014893 0 101.88779671014893 -229.89610622170187 0 0 0 0 -13.409619397239112 55.34334437362304 0 55.34334437362304 -177.71645015066201 0 0 0 0 -34.64460745051656 65.863176992988485 0 65.863176992988485 -172.26488665648779 0 0 0 0 -15.935876766205183 76.467400203968481 0 76.467400203968481 -218.23916837218644 0 0 0 0 -16.467348650607676 82.886937316843103 0 82.886937316843103 -166.0546649319092 0 0 0 0 -27.490815204795581 66.604512944712155 0 66.604512944712155 -177.49855480030669 0 0 0 0 -17.749647326476406 70.458785316975536 0 70.458785316975536 -198.07188455689379 0 0 0 0 -19.199115914967479 53.700034755491515 0 53.700034755491515 -162.5955251511289 0 0 0 0 -1.5763968771352665 45.68972957012727 0 45.68972957012727 -212.58253186509785 0 0 0 0 -0.27911226745118256 43.14340103494186 0 43.14340103494186 -230.42980858442183 0 0 0 0 13.407008857517667 10.036885323498751 0 10.036885323498751 -264.99890855919705 0 0 0 0 2.6789671101928434 60.702888540306247 0 60.702888540306247 -299.25035725246715 0 0 0 0 -22.284612992583789 83.479356011933646 0 83.479356011933646 -217.49885953851134 0 0 0 0 142.27870975853386 41.704955625821526 0 41.704955625821526 -170.04534380086727 0 0 0 0 -3.2957029248418444 -2.7844497580739622 0 -2.7844497580739622 -26.575996124200806 0 0 0 0 96.012173140968571 -73.243983301302251 0 -73.243983301302251 -54.169178530453792 0 0 0 0 45.469482981566898 57.494910395008446 0 57.494910395008446 -561.50736757988216 0 0 0 0 -25.360647749981123 -36.142380158489807 0 -36.142380158489807 -28.794339630199193 0 0 0 0 -23.439537354655499 -42.987747411174155 0 -42.987747411174155 -159.10827722804606 0 0 0 0 -2.1296870404646224 -7.5250334581109293 0 -7.5250334581109293 -14.815660146170892 0 0 0 0 -29.974810008684017 -56.894116037010463 0 -56.894116037010463 -104.3873986735307 0 0 0 0 -20.762593192994757 -66.331442437979831 0 -66.331442437979831 -139.00458431308653 0 0 0 0 -9.37974476293628 -37.89442965424206 0 -37.89442965424206 -32.676112569650414 0 0 0 0 4.6954500985980303 -24.782048187013061 0 -24.782048187013061 -141.00670136448753 0 0 0 0 -11.327270930245504 -8.586240908200125 0 -8.586240908200125 -110.48643354719025 0 0 0 0 1.4170901760189736 -0.13306625819495821 0 -0.13306625819495821 -132.2982413966638 0 0 0 0 -60.204609926785906 -7.3140333548419676 0 -7.3140333548419676 204.71560994344344 0 0 0 0 -1.6806577310424524 -0.28423708753531418 0 -0.28423708753531418 -0.00044757001426209975 0 0 0 0 -0.34933128592700236 -33.82474496011762 0 -33.82474496011762 -28.433903803114291 0 0 0 0 6.0606572260739995 17.176702200815271 0 17.176702200815271 -190.67179871263943 0 0 0 0 -176.47445940396938 14.113721916356155 0 14.113721916356155 -251.31860225682732 0 0 0 0 -184.40565475770336 48.067635005646281 0 48.067635005646281 -289.52554936043077 0 0 0 0 -95.875741714525816 -96.645446403694194 0 -96.645446403694194 -91.983174980589695 0 0 0 0 -114.73036238810164 44.604568621063777 0 44.604568621063777 -405.47870411420263 0 0 0 0 70.942759099401655 -115.8300118056367 0 -115.8300118056367 -380.14955215627492 0 0 0 0 43.844953024735673 -130.57048441342124 0 -130.57048441342124 -58.096585118651831 0 0 0 0 -50.700991377556704 126.80073750668774 0 126.80073750668774 101.2532731761477 0 0 0 0 -97.342862351050883 -602.83231489386515 0 -602.83231489386515 -1884.0184474294151 0 0 0 0 -72.540115020127018 229.3159572220037 0 229.3159572220037 -369.12056467190126 0 0 0 0 -0.91585654811467743 2.2554718534207634 0 2.2554718534207634 -4.0281144614823177 0 0 0 0 -23.020562473044151 97.658764186123207 0 97.658764186123207 -980.19553010226377 0 0 0 0 -128.20337636510521 60.997668566745517 0 60.997668566745517 -403.33134562419491 0 0 0 0 -371.46172175882378 -467.94166576836585 0 -467.94166576836585 -1014.3029014158446 0 0 0 0 -165.70714715462213 -214.63872882414626 0 -214.63872882414626 -719.39844916512084 0 0 0 0 -445.22947573232193 -298.49398710152258 0 -298.49398710152258 -1182.9038137928017 0 0 0 0 -41.168400278035278 -276.69901392992534 0 -276.69901392992534 -1365.6542787730457 0 0 0 0 133.59016883939711 -429.98307064435727 0 -429.98307064435727 -1334.2823433130086 0 0 0 0 -120.72494776988302 -580.68313910127358 0 -580.68313910127358 -1309.6622294275003 0 0 0 0 -16.018964699176422 -77.099129859705272 0 -77.099129859705272 -841.96624743019424 0 0 0 0 30.10882755801731 -370.24343261352033 0 -370.24343261352033 -1073.6191002067198 0 0 0 0 404.08052228489532 -381.32204236187169 0 -381.32204236187169 -1434.0329710987044 0 0 0 0 540.53853578952658 -330.58586608091537 0 -330.58586608091537 -1722.7947212286404 0 0 0 0 409.70530894479219 -414.52903648070247 0 -414.52903648070247 -1741.2948391615482 0 0 0 0 405.06173473732451 -653.233310224143 0 -653.233310224143 -1353.5120086874979 0 0 0 0 275.18499525835387 -626.57895206399894 0 -626.57895206399894 -1126.0690963291406 0 0 0 0 225.22482505527796 -503.12918845418193 0 -503.12918845418193 -1231.1887107657196 0 0 0 0 252.39131632892639 -555.82926228984297 0 -555.82926228984297 -1266.6992434992608 0 0 0 0 -21.805576631561053 -451.75616708885309 0 -451.75616708885309 -1129.2402403116821 0 0 0 0 143.35463455263482 -307.84365146665596 0 -307.84365146665596 -947.64968383787004 0 0 0 0 224.83123869234282 -526.02522485943723 0 -526.02522485943723 -1135.8584504529833 0 0 0 0 348.03780581590127 -373.78122849501574 0 -373.78122849501574 -872.0210956075681 0 0 0 0 249.1163205108254 -339.98622840168485 0 -339.98622840168485 -874.65926255705597 0 0 0 0 -297.17430233720376 -669.35965132917966 0 -669.35965132917966 -1141.3418569983501 0 0 0 0 -528.39504045650176 -626.96327816257894 0 -626.96327816257894 -846.26456175432759 0 0 0 0 -235.81987567817768 -486.20457997599226 0 -486.20457997599226 -1029.7863825217612 0 0 0 0 -271.4157765827959 -558.39362164506315 0 -558.39362164506315 -1061.4087102600167 0 0 0 0 -66.963251245990733 -582.55910464330236 0 -582.55910464330236 -1139.354914751696 0 0 0 0 -201.32024893944106 -563.79137858183549 0 -563.79137858183549 -1130.8490540854846 0 0 0 0 -207.36445727918917 -592.3237375600886 0 -592.3237375600886 -1166.3040297437872 0 0 0 0 -303.01779068047853 -852.93146989384559 0 -852.93146989384559 -1546.3022874582257 0 0 0 0 90.381322233499873 -523.29482128791574 0 -523.29482128791574 -1450.9936802775997 0 0 0 0 156.55411300594153 -183.10548325835521 0 -183.10548325835521 -1422.6440174330287 0 0 0 0 532.50682677882662 -127.92240580088128 0 -127.92240580088128 -2498.9444047001389 0 0 0 0 103.90545436131193 -424.03358956443049 0 -424.03358956443049 -1837.0584086606032 0 0 0 0 105.9379981887209 -406.24457629393783 0 -406.24457629393783 -2046.8356181007161 0 0 0 0 614.31168224950306 -32.54505218504346 0 -32.54505218504346 -715.41432559719851 0 0 0 0 427.51000806819968 -3.9698159790096526 0 -3.9698159790096526 -625.74147298090702 0 0 0 0 376.36782858107676 -310.33486902014977 0 -310.33486902014977 -1141.8656120022661 0 0 0 0 297.86740512270524 -184.23852001898672 0 -184.23852001898672 -1653.690121790738 0 0 0 0 453.49938411740288 149.06834546045184 0 149.06834546045184 -939.96109711342319 0 0 0 0 658.3981481037838 258.24708065256686 0 258.24708065256686 -1551.375215074876 0 0 0 0 663.30658397433115 267.83313380971049 0 267.83313380971049 -1662.8930522986489 0 0 0 0 1116.8865981907202 1272.5545575199487 0 1272.5545575199487 -2500.3648725602725 0 0 0 0 772.76044621114863 333.56666660517681 0 333.56666660517681 -1509.884159347886 0 0 0 0 1055.3920660535014 919.74372886448168 0 919.74372886448168 -386.2551948472983 0 0 0 0 520.26308483176683 429.79704572485298 0 429.79704572485298 -3485.3067875691845 0 0 0 0 313.50866254997572 962.88592552379464 0 962.88592552379464 1332.6688464427939 0 0 0 0 4.6441918159501778 4.2729003267177106 0 4.2729003267177106 -1.8661868739615712 0 0 0 0 39.588505473388587 193.6203647286377 0 193.6203647286377 -2498.0809603350758 0 0 0 0 218.70300949342629 244.8383081642628 0 244.8383081642628 161.92717841066678 0 0 0 0 230.09164454818438 303.64554947881106 0 303.64554947881106 243.05461201910202 0 0 0 0 354.5114596571475 232.78300120996028 0 232.78300120996028 38.037336687802167 0 0 0 0 288.0753210872299 238.26245314263679 0 238.26245314263679 38.42654444464074 0 0 0 0 629.0984482469911 452.39241969744972 0 452.39241969744972 -42.826897547925455 0 0 0 0 374.0862075222044 74.207150358139984 0 74.207150358139984 -458.27042229425251 0 0 0 0 472.78016064239 211.4944167773819 0 211.4944167773819 -11.015989139586793 0 0 0 0 -180.59453580913669 102.49708299129685 0 102.49708299129685 138.75710668480156 0 0 0 0 3.3284276329938436 1.8461517063764301 0 1.8461517063764301 -11.394393747559159 0 0 0 0 348.63493230630775 164.46624572790097 0 164.46624572790097 146.77079141694048 0 0 0 0 291.73341158399307 196.73635859479782 0 196.73635859479782 193.45336122116498 0 0 0 0 -397.05891032044002 864.33839807658615 0 864.33839807658615 -1737.753625111714 0 0 0 0 13.224015485591426 10.659136940777273 0 10.659136940777273 -5.0044604696070722 0 0 0 0 10.746186443021585 5.8218110407632002 0 5.8218110407632002 -4.2010988902298081 0 0 0 0 20.740425017506666 5.7683217234655544 0 5.7683217234655544 -10.718943658688959 0 0 0 0 89.957611109927441 -936.44291671379017 0 -936.44291671379017 -2495.7025273620939 0 0 0 0 4.4132722862815825 85.988769386180138 0 85.988769386180138 -1196.1609572437446 0 0 0 0 33.760277745277563 -29.157132102807054 0 -29.157132102807054 -143.19652695785791 0 0 0 0 -35.635937233023924 667.55191344796276 0 667.55191344796276 -2497.0192315405434 0 0 0 0 2.397088711655043 -1.2177164195495722 0 -1.2177164195495722 -5.0286108215566756 0 0 0 0 -2.2925074640834282 -15.100998055902892 0 -15.100998055902892 -48.93612397934703 0 0 0 0 51.942007446559728 -333.57060726864256 0 -333.57060726864256 561.80916398597765 0 0 0 0 -13.28965156809384 -26.281299293565304 0 -26.281299293565304 -26.165816332923811 0 0 0 0 -7.9869411358829323 -23.119554908459349 0 -23.119554908459349 -35.612980959688556 0 0 0 0 310.13393225474465 -322.90672718167116 0 -322.90672718167116 438.49927135556209 0 0 0 0 55.811786268313881 -92.570401023540626 0 -92.570401023540626 -89.706506477679909 0 0 0 0 3.8319194039360056 -5.3880392963365544 0 -5.3880392963365544 -20.395314098976879 0 0 0 0 -13.905189608804225 -36.523711100044032 0 -36.523711100044032 -74.975413611504493 0 0 0 0 303.87903969823856 51.377965528006143 0 51.377965528006143 -90.080547428235491 0 0 0 0 103.614554143448 332.54075248520223 0 332.54075248520223 -270.28903229328807 0 0 0 0 249.58578507384664 -572.36002289622684 0 -572.36002289622684 -238.86703039505483 0 0 0 0 531.01541006867092 -784.2264047719982 0 -784.2264047719982 398.37116665766371 0 0 0 0 -233.15390203702918 -329.88987525481571 0 -329.88987525481571 -62.649202589911511 0 0 0 0 14.787830669706636 -492.26289640037976 0 -492.26289640037976 401.95779799333468 0 0 0 0 -103.07421982806295 -135.42467515558712 0 -135.42467515558712 127.90410057987901 0 0 0 0 -54.742249643883042 -640.34849311392099 0 -640.34849311392099 705.19664080639996 0 0 0 0 -162.94400929734911 39.666190250671207 0 39.666190250671207 264.81099331617952 0 0 0 0 74.486964350167 108.30353135902351 0 108.30353135902351 -975.58994823472312 0 0 0 0 -1203.5379738832189 -353.53483433484871 0 -353.53483433484871 -1093.0450378234932 0 0 0 0 -291.91692410387759 278.41779242813027 0 278.41779242813027 -137.93283764259195 0 0 0 0 -8.0826039440221855 -26.174901290328659 0 -26.174901290328659 -67.246369793827853 0 0 0 0 1249.2576639292984 -1192.3573822667222 0 -1192.3573822667222 -713.98285842606492 0 0 0 0 -323.49209784775985 375.46621191893541 0 375.46621191893541 1329.6796568044811 0 0 0 0 -76.049617811366261 -544.94237996964284 0 -544.94237996964284 -360.19601846988502 0 0 0 0 -57.22922850195755 -687.46662393772067 0 -687.46662393772067 -895.2624886932872 0 0 0 0 -0.9229081064138086 -2.8357214339312957 0 -2.8357214339312957 -3.0924263161339844 0 0 0 0 -39.961085632280628 -784.50673806752638 0 -784.50673806752638 -1198.110072569476 0 0 0 0 172.72806844090655 -442.73885711378938 0 -442.73885711378938 -713.4019679133263 0 0 0 0 219.16946054397431 -697.41420458650316 0 -697.41420458650316 -1203.7424416102638 0 0 0 0 128.77080606079744 -434.02666378155504 0 -434.02666378155504 -711.42439198009765 0 0 0 0 315.7428572230632 -52.395195757177731 0 -52.395195757177731 -316.27941685484507 0 0 0 0 396.82150216854734 293.94611446327826 0 293.94611446327826 -64.566286189854338 0 0 0 0 58.9665074933705 -83.972682333865976 0 -83.972682333865976 163.23504773127712 0 0 0 0 -1317.9366086866985 -614.98288829317789 0 -614.98288829317789 -274.35320748247614 0 0 0 0 -692.60924193006861 -43.578031838927018 0 -43.578031838927018 193.31583212457917 0 0 0 0 -3016.2278841114098 -1788.2315316009353 0 -1788.2315316009353 -2123.0093335961792 0 0 0 0 -9.6495461733345369 -6.445375163455644 0 -6.445375163455644 -3.1615633222558657 0 0 0 0 -1516.2856479908555 -1740.9625487460062 0 -1740.9625487460062 -4702.4444544051748 0 0 0 0 -1227.5427399453392 -328.65596004814506 0 -328.65596004814506 2124.5156346510739 0 0 0 0 -2177.855953857289 -1543.2407410221749 0 -1543.2407410221749 589.00228637570763 0 0 0 0 -84.805299125715464 -678.61565953689205 0 -678.61565953689205 1599.3543118003072 0 0 0 0 -136.42953980917747 274.12342191099742 0 274.12342191099742 -2503.6543723049836 0 0 0 0 -308.01252727580049 -474.75762652970297 0 -474.75762652970297 -13.699045127556019 0 0 0 0 270.74154391937736 -624.58104215679941 0 -624.58104215679941 653.78943213973253 0 0 0 0 -3.9859029182462109 -3.2056684547387704 0 -3.2056684547387704 519.71361938547238 0 0 0 0 888.80141981719953 -501.70568816400009 0 -501.70568816400009 540.64721105426361 0 0 0 0 461.46385523687422 -322.80177796338103 0 -322.80177796338103 70.169561455701114 0 0 0 0 160.6967068146779 -350.16988301587298 0 -350.16988301587298 434.63549972148758 0 0 0 0 140.26799201088579 -169.13847605346746 0 -169.13847605346746 830.84866802611214 0 0 0 0 75.739476043439936 -137.55596112159765 0 -137.55596112159765 1104.8208629910769 0 0 0 0 317.25889313219159 -516.4570148666171 0 -516.4570148666171 1411.4864446511056 0 0 0 0 181.8579802989112 -101.01013055132444 0 -101.01013055132444 -2124.3437900939207 0 0 0 0 -20.482135309022969 -18.540194913590724 0 -18.540194913590724 -7.7452536695335361 0 0 0 0 79.353240583266597 -453.07449309783988 0 -453.07449309783988 1701.1746722175885 0 0 0 0 -0.39063242802898301 -4.4982954593688547 0 -4.4982954593688547 -6.7713705559513038 0 0 0 0 -7.0179948006728674 -9.6183218580919956 0 -9.6183218580919956 -11.065079526138149 0 0 0 0 -11.681122748607777 -8.9091632477393432 0 -8.9091632477393432 -52.500863111300532 0 0 0 0 -485.2166944015853 -796.1697833165847 0 -796.1697833165847 -1299.4497503618977 0 0 0 0 273.08864418871843 -50.830895404187686 0 -50.830895404187686 -2494.8097932364067 0 0 0 0 -9.9240524301751876 -18.504972514569932 0 -18.504972514569932 -3.2283583634382271 0 0 0 0 -77.680966104582694 -321.38042747744839 0 -321.38042747744839 992.65875925041109 0 0 0 0 119.74155765591149 -303.77598701891293 0 -303.77598701891293 489.53250295995531 0 0 0 0 -189.20082986632769 -210.4701922643435 0 -210.4701922643435 481.69203151082547 0 0 0 0 139.24679887110688 -259.53010445625478 0 -259.53010445625478 -114.78182552403086 0 0 0 0 -355.78112831032843 222.82719571883445 0 222.82719571883445 -235.86292277540633 0 0 0 0 181.24378661970104 -96.866752268409073 0 -96.866752268409073 -1146.8820659613211 0 0 0 0 165.89708730598113 152.83543397361063 0 152.83543397361063 -1150.9656958583073 0 0 0 0 -15.250085627694716 -336.08989807127 0 -336.08989807127 434.65595524452385 0 0 0 0 42.920804520552338 37.638273385648063 0 37.638273385648063 18.66362742061574 0 0 0 0 -163.21295740326332 110.00084121762848 0 110.00084121762848 -243.33099802396464 0 0 0 0 -57.448834220043864 -78.40393329327344 0 -78.40393329327344 -585.09045311290811 0 0 0 0 293.16302820997407 -241.79759422993448 0 -241.79759422993448 -578.22486085253695 0 0 0 0 -1.7791430258611172 73.902837139070925 0 73.902837139070925 -1022.520826487038 0 0 0 0 -236.47703593200012 -179.22301852456673 0 -179.22301852456673 -1399.8782576975318 0 0 0 0 -233.8438839557457 -109.15226528912535 0 -109.15226528912535 -1150.8549237244806 0 0 0 0 -454.53244527184142 -190.73132430232363 0 -190.73132430232363 -533.99606523299735 0 0 0 0 -462.03428756115903 -135.22309325978995 0 -135.22309325978995 -824.63659684360027 0 0 0 0 -118.85644549758399 -56.720920656331145 0 -56.720920656331145 -1506.4842558643832 0 0 0 0 -80.639699480591844 -36.893362802633419 0 -36.893362802633419 -1508.3781320151193 0 0 0 0 -156.59550993413052 -142.33120748311785 0 -142.33120748311785 -1464.3423385570131 0 0 0 0 -195.01325875931775 -35.70285679178096 0 -35.70285679178096 -1351.3338310594445 0 0 0 0 78.687184307227483 -151.72770787202802 0 -151.72770787202802 -1504.8195158276721 0 0 0 0 78.422557960893755 15.444786227784789 0 15.444786227784789 -1365.1511912663591 0 0 0 0 -27.188249866892875 -177.22595742950216 0 -177.22595742950216 -1397.4087949447239 0 0 0 0 79.889285817794189 -152.25945377880998 0 -152.25945377880998 -1504.5868524989401 0 0 0 0 146.57768316689953 -304.47128318061641 0 -304.47128318061641 -1384.4478172520758 0 0 0 0 265.50164823898513 -533.20666403226278 0 -533.20666403226278 -2339.8121635319221 0 0 0 0 -151.87703307488027 568.58855543499158 0 568.58855543499158 -2065.0046978901428 0 0 0 0 -164.42407639587645 -202.6885509419908 0 -202.6885509419908 -641.83656356905703 0 0 0 0 -210.59529700688358 30.391585677349667 0 30.391585677349667 -667.92463067038625 0 0 0 0 -3.4269226978194638 312.8537487743979 0 312.8537487743979 -894.76383987499685 0 0 0 0 -291.8560477421106 275.62072251165864 0 275.62072251165864 -1194.4109147462805 0 0 0 0 26.66076034089474 226.15369204551644 0 226.15369204551644 -1447.0394410636072 0 0 0 0 -3.2670942793155753 1.4836971822185845 0 1.4836971822185845 -1.3219992514940699 0 0 0 0 -171.68945838732921 -314.01442632077249 0 -314.01442632077249 -1284.2692093880578 0 0 0 0 -90.522994160206508 -31.767295612073212 0 -31.767295612073212 -1027.7068880730767 0 0 0 0 -75.690006027695063 -7.7429324618733517 0 -7.7429324618733517 -1459.1989717467804 0 0 0 0 -99.070141177479854 -59.00891198876343 0 -59.00891198876343 -1533.4698629926061 0 0 0 0 -344.55344103812786 258.43580306887816 0 258.43580306887816 -305.31445271951088 0 0 0 0 117.95974972103477 20.471149067629995 0 20.471149067629995 -1140.7524215958983 0 0 0 0 164.690256299662 267.8385706593981 0 267.8385706593981 -1474.372375625423 0 0 0 0 61.531955328408003 -9.9144066562366788 0 -9.9144066562366788 -1958.5673276125672 0 0 0 0 -126.22874400510045 799.75987004566559 0 799.75987004566559 -1089.1397287781401 0 0 0 0 -207.05200434620224 26.105325070959907 0 26.105325070959907 1.6848638621886494 0 0 0 0 -1.0282785163525912 4.6544205513159405 0 4.6544205513159405 -3.4999157576958453 0 0 0 0 22.757816683219971 -409.64618801703909 0 -409.64618801703909 -1551.2479459890674 0 0 0 0 -168.94887877293604 236.32746008827962 0 236.32746008827962 -1753.6389946154668 0 0 0 0 -227.0502622184531 3.567649548749614 0 3.567649548749614 -1499.4499206445325 0 0 0 0 -115.45415741916247 18.923923900805676 0 18.923923900805676 -1562.27168409562 0 0 0 0 -741.53801953288166 -115.89073550252942 0 -115.89073550252942 -1591.0841617456026 0 0 0 0 -28.862509577243884 -35.512929212215212 0 -35.512929212215212 -26.302735756317944 0 0 0 0 -3303.9574368575331 -791.82976027219956 0 -791.82976027219956 -1995.2815901935824 0 0 0 0 190.19543275227079 -418.79600381438649 0 -418.79600381438649 293.16461087529024 0 0 0 0 947.04484586092758 2452.3409404630338 0 2452.3409404630338 -4540.1744533541969 0 0 0 0 469.05341506528566 -365.52610344260393 0 -365.52610344260393 -45.631819564201578 0 0 0 0 688.8175945360681 512.87578813388018 0 512.87578813388018 -1478.2787419993133 0 0 0 0 832.0351298072037 431.92953688142916 0 431.92953688142916 -3142.8445667718906 0 0 0 0 434.08362592428966 -1167.1433992595666 0 -1167.1433992595666 -3204.1272106107194 0 0 0 0 670.0510784374892 -439.40658734157569 0 -439.40658734157569 -2040.1876198267373 0 0 0 0 366.26497761957307 -812.36957466763943 0 -812.36957466763943 -2000.0171308129247 0 0 0 0 139.36540510811415 2532.9999616019068 0 2532.9999616019068 -3984.5999106713934 0 0 0 0 -2.6348305340994527 -8.2647816056928765 0 -8.2647816056928765 -30.603435615781706 0 0 0 0 -735.60871121651144 -1298.276804001307 0 -1298.276804001307 -3003.9878830170637 0 0 0 0 75.882374114548838 -556.40051657838706 0 -556.40051657838706 -1484.2331439939198 0 0 0 0 -920.14218013047503 -1391.9737398134112 0 -1391.9737398134112 -1690.6332967627986 0 0 0 0 -12.302433714220621 -16.674067748737475 0 -16.674067748737475 -15.750135825013096 0 0 0 0 1432.8587114217871 1608.9143569725338 0 1608.9143569725338 -5738.3499303143253 0 0 0 0 157.87712381675465 1980.3242966344715 0 1980.3242966344715 -3758.7132074104156 0 0 0 0 996.96392593382234 1778.8883798502493 0 1778.8883798502493 -4093.3674901828535 0 0 0 0 279.90559628458095 -750.29951059851646 0 -750.29951059851646 -4670.3675377178406 0 0 0 0 -5.9729075458453735 -1076.2961316620367 0 -1076.2961316620367 -1181.6172521272456 0 0 0 0 -23.721774971317132 -1038.8641862610577 0 -1038.8641862610577 715.29875795044063 0 0 0 0 238.70857813551265 -19.843051262010704 0 -19.843051262010704 25.743786873270437 0 0 0 0 512.76463298903127 -195.30784155053334 0 -195.30784155053334 -141.94133193220478 0 0 0 0 221.68657692637407 75.997758707608227 0 75.997758707608227 -511.31230466432316 0 0 0 0 287.40881953497046 -33.511927398336411 0 -33.511927398336411 -198.04932599486347 0 0 0 0 219.80003253883896 -61.116648617098292 0 -61.116648617098292 -202.67253928039281 0 0 0 0 93.314109440489119 -220.89901187026953 0 -220.89901187026953 -761.04162820497004 0 0 0 0 -2.1308575671246217 162.57792168934247 0 162.57792168934247 -676.7617201362018 0 0 0 0 76.560604452499319 -173.59786917753081 0 -173.59786917753081 -83.076571051635256 0 0 0 0 165.06016652238577 15.780443352205111 0 15.780443352205111 -573.59592974521001 0 0 0 0 158.35739977080175 210.53936829844133 0 210.53936829844133 -611.08718015503337 0 0 0 0 195.35986318447522 147.42550653034959 0 147.42550653034959 -511.41558169084601 0 0 0 0 133.49764023663192 128.14240600833909 0 128.14240600833909 -484.58110514931832 0 0 0 0 138.49026113451873 -109.41789345093639 0 -109.41789345093639 -258.52258030064695 0 0 0 0 194.3974298024059 -51.485018233441224 0 -51.485018233441224 -209.69713483373562 0 0 0 0 269.13537228782479 -257.59011270818519 0 -257.59011270818519 36.634352180688438 0 0 0 0 101.6301282596587 -166.16105090740166 0 -166.16105090740166 132.67716981652484 0 0 0 0 102.66111422434005 -88.47339979879871 0 -88.47339979879871 -194.80615782728091 0 0 0 0 149.11444796162959 164.79388300657774 0 164.79388300657774 -9.1937207769342422 0 0 0 0 -0.87109410682372967 0.87908326344338406 0 0.87908326344338406 1.4096989683652552 0 0 0 0 -50.57075257252199 -152.91591136519938 0 -152.91591136519938 -642.17705222214136 0 0 0 0 1.5457655403439503 -0.51469590358622952 0 -0.51469590358622952 -5.2697536418818487 0 0 0 0 178.48687773187021 233.65522700726933 0 233.65522700726933 -885.28671281729112 0 0 0 0 -202.53195186537687 436.13054249132074 0 436.13054249132074 -481.88145012393943 0 0 0 0 325.64547641014542 -262.45728600447364 0 -262.45728600447364 4.9154267560406879 0 0 0 0 8.2997474369240081 132.61298618501678 0 132.61298618501678 7.8287436934224388 0 0 0 0 -232.46509147517736 284.71592905122998 0 284.71592905122998 -426.95481806156022 0 0 0 0 -113.6911083330665 51.498243089178686 0 51.498243089178686 -174.06913797454763 0 0 0 0 1.997443187741144 -3.1843738528677363 0 -3.1843738528677363 -6.8958952624187546 0 0 0 0 -64.473235546366368 58.169881759751149 0 58.169881759751149 -173.40911261898509 0 0 0 0 231.05364585340158 -163.46714691429224 0 -163.46714691429224 -72.196233023052628 0 0 0 0 191.06666483540607 107.38738656952592 0 107.38738656952592 -124.88380109746504 0 0 0 0 43.412021760721473 -1.9458866905024479 0 -1.9458866905024479 -203.50829080877884 0 0 0 0 -82.748060918334431 69.223067831510889 0 69.223067831510889 -34.218927221743797 0 0 0 0 51.286351700370687 209.00416734684222 0 209.00416734684222 -341.74269385050138 0 0 0 0 -38.834928946211903 14.426419768099095 0 14.426419768099095 -36.905806052320258 0 0 0 0 11.075816206584221 19.197015717799694 0 19.197015717799694 18.351924760931865 0 0 0 0 -2.9038843343068947 23.682302486373374 0 23.682302486373374 -159.53531060781097 0 0 0 0 46.927297343831924 65.156103539915421 0 65.156103539915421 -127.21497622726019 0 0 0 0 -123.88887513827649 27.406464411928027 0 27.406464411928027 53.956034937814366 0 0 0 0 -19.252970552668558 24.16823082902738 0 24.16823082902738 -35.509582183599377 0 0 0 0 -5.2356501403974107 20.491371001675361 0 20.491371001675361 -0.11897429490272771 0 0 0 0 -3.0110190030817852 14.28289397710447 0 14.28289397710447 -1.5589381973756122 0 0 0 0 -33.189748489760973 34.256894555779581 0 34.256894555779581 -24.599265028900845 0 0 0 0 -31.632184915707739 46.608501234555661 0 46.608501234555661 -41.901296060760615 0 0 0 0 -5.7187519863411325 -0.28173772745503811 0 -0.28173772745503811 -56.424802348858066 0 0 0 0 -37.508931290596578 18.933774212874141 0 18.933774212874141 -33.84775531856576 0 0 0 0 -9.7473991517922514 42.465177923173542 0 42.465177923173542 -44.18251289473119 0 0 0 0 -1.3420640643269293 1.0412732957452775 0 1.0412732957452775 2.7164803271673392 0 0 0 0 -59.481222971146281 81.251529464054329 0 81.251529464054329 -17.463100315559132 0 0 0 0 -5.1665694714758468 6.3412636773358511 0 6.3412636773358511 7.7625463123997207 0 0 0 0 36.244380469047201 36.086171145201661 0 36.086171145201661 -154.43883752249531 0 0 0 0 -28.229896825679589 101.56135568767786 0 101.56135568767786 -130.4459952573834 0 0 0 0 13.877043258590675 11.674675201247737 0 11.674675201247737 -89.277185504659428 0 0 0 0 -19.569939376052844 63.091968019427441 0 63.091968019427441 -59.13450832284434 0 0 0 0 -50.215534788161676 81.081895293485104 0 81.081895293485104 -70.17953358907107 0 0 0 0 -43.60664646184614 57.432927671168727 0 57.432927671168727 -104.21472924190493 0 0 0 0 -4.7922381273464625 17.926917875966929 0 17.926917875966929 -0.55064599629534072 0 0 0 0 26.996583800980716 73.88594311453744 0 73.88594311453744 -106.67817590626964 0 0 0 0 29.619486215030292 110.11232885661957 0 110.11232885661957 -66.95884812033546 0 0 0 0 -46.1945088464131 66.102852667263505 0 66.102852667263505 -43.630414615778136 0 0 0 0 -40.113228082266914 67.248807350590141 0 67.248807350590141 -58.958058575241012 0 0 0 0 -79.192908854506868 99.141995093301375 0 99.141995093301375 -50.800507515239588 0 0 0 0 15.598492697860319 22.873922196698093 0 22.873922196698093 18.623620419064384 0 0 0 0 -57.5465826866116 66.087497767797686 0 66.087497767797686 -20.385639670389537 0 0 0 0 -2.8478763742405135 220.17359520835271 0 220.17359520835271 -263.44357712633246 0 0 0 0 -70.39763818010087 56.019456036647171 0 56.019456036647171 -20.563676184650831 0 0 0 0 -60.465324599192826 35.198172443683688 0 35.198172443683688 22.959683342731296 0 0 0 0 -95.485166577658674 170.58959637792213 0 170.58959637792213 -138.69448347526486 0 0 0 0 -98.092017058679403 165.39152440031694 0 165.39152440031694 -124.30658713307275 0 0 0 0 55.860425078524713 72.514724727998328 0 72.514724727998328 -179.45906871782245 0 0 0 0 200.17314948152512 82.649392695808729 0 82.649392695808729 -473.58341565393494 0 0 0 0 -15.868392570810556 201.60934890831504 0 201.60934890831504 -410.43278502736212 0 0 0 0 6.0452325548731096 220.77065462940118 0 220.77065462940118 -416.38524561232771 0 0 0 0 -373.00458755523323 398.60914418494758 0 398.60914418494758 -176.1106383875449 0 0 0 0 -23.920009329418463 94.263243097102531 0 94.263243097102531 -141.40373129866271 0 0 0 0 -177.09972463404665 111.26047987345009 0 111.26047987345009 222.20696320289471 0 0 0 0 41.517399418934474 14.541486494981655 0 14.541486494981655 -19.544572338119906 0 0 0 0 64.034123261949048 119.51414799414124 0 119.51414799414124 -322.21566942808522 0 0 0 0 -90.744490821480667 50.455686062628047 0 50.455686062628047 -29.134842021627264 0 0 0 0 21.121870829758127 25.059793862200589 0 25.059793862200589 20.744129365123303 0 0 0 0 209.5876305348728 -117.46994791350517 0 -117.46994791350517 -288.96266013748914 0 0 0 0 -157.96997582442418 230.0703395209357 0 230.0703395209357 -152.4141386045776 0 0 0 0 17.602704437661899 49.284320263108839 0 49.284320263108839 -77.437076080113911 0 0 0 0 -5.065433778163424 50.939699429087341 0 50.939699429087341 -344.60544029195262 0 0 0 0 44.742996401037317 29.606978997253464 0 29.606978997253464 -54.251076256159649 0 0 0 0 16.388154791465013 59.084774657868365 0 59.084774657868365 -10.236682956354343 0 0 0 0 7.1816548364149639 3.2952352668507956 0 3.2952352668507956 -10.02070941850252 0 0 0 0 8.3453966551779075 15.681033602565577 0 15.681033602565577 -17.507710535541115 0 0 0 0 5.1223048075153201 12.771345409775677 0 12.771345409775677 7.1498021134975716 0 0 0 0 7.3353676368814735 13.037952491761899 0 13.037952491761899 -24.426945784419729 0 0 0 0 0.26114571167095413 1.3402969125173172 0 1.3402969125173172 6.9117895198233654 0 0 0 0 21.19678486073974 26.099313270971763 0 26.099313270971763 11.554960534051631 0 0 0 0 39.652735571171434 69.303237018300933 0 69.303237018300933 21.369504398194294 0 0 0 0 -7.0104485746302956 6.3880307272441783 0 6.3880307272441783 1.7312649774322768 0 0 0 0 5.9416228580143979 21.371842028789615 0 21.371842028789615 -77.295735119336129 0 0 0 0 -33.42332734774476 51.333628171442342 0 51.333628171442342 -99.343203343090863 0 0 0 0 25.806912164972402 1.4115951192288776 0 1.4115951192288776 -131.68410012558707 0 0 0 0 12.602572207558325 -3.5633189699383365 0 -3.5633189699383365 -76.76166162005029 0 0 0 0 22.394067670715003 26.32254798006943 0 26.32254798006943 -83.148296676448808 0 0 0 0 14.79073464211433 -4.5071575726769879 0 -4.5071575726769879 -78.274605237467767 0 0 0 0 13.094484134240474 9.1048815942849615 0 9.1048815942849615 -46.462671039600536 0 0 0 0 30.983240593977825 16.48481478515896 0 16.48481478515896 -59.580342627639766 0 0 0 0 20.053822221763539 2.4396227560882835 0 2.4396227560882835 -69.217855023860466 0 0 0 0 19.127328006082735 26.987084270076593 0 26.987084270076593 -42.074802559483942 0 0 0 0 12.68750910611673 0.56809707176265789 0 0.56809707176265789 0.54717953086264304 0 0 0 0 782.0051784754005 64.759732456259371 0 64.759732456259371 86.307295479559798 0 0 0 0 16.573810641331363 -8.6393563884021205 0 -8.6393563884021205 -82.916827910379652 0 0 0 0 534.77371542372657 346.51424287089321 0 346.51424287089321 -73.164166784448753 0 0 0 0 -256.6067068433249 792.12340157095059 0 792.12340157095059 372.54567628266886 0 0 0 0 7.1652859356966019 -7.7693627785083663 0 -7.7693627785083663 -54.175439124501281 0 0 0 0 13.657212373309449 -14.858381015719715 0 -14.858381015719715 -72.707420003745028 0 0 0 0 -107.51408871389685 19.869370198257457 0 19.869370198257457 107.79170367416191 0 0 0 0 27.029227921659867 78.40122642828419 0 78.40122642828419 174.45234357367008 0 0 0 0 -77.937608496481857 -37.577753641581694 0 -37.577753641581694 167.27172571140909 0 0 0 0 -161.57022271771302 53.054688009504389 0 53.054688009504389 157.92127251744569 0 0 0 0 -179.60611647878568 -2.9559256615521008 0 -2.9559256615521008 234.65433964181102 0 0 0 0 218.83937961910283 66.015219145707306 0 66.015219145707306 -152.18524977849847 0 0 0 0 477.52142449375697 -71.244672423828888 0 -71.244672423828888 -19.059714149829233 0 0 0 0 1.9387724508752111 2.5904524616574998 0 2.5904524616574998 4.5933637181573559 0 0 0 0 135.56808835707488 -37.928961109364536 0 -37.928961109364536 37.293502891118806 0 0 0 0 61.845719306627871 131.76656041034221 0 131.76656041034221 51.861351941995963 0 0 0 0 201.96440840310879 94.647554774584933 0 94.647554774584933 -8.849910213957628 0 0 0 0 87.082218121707228 131.35855502824779 0 131.35855502824779 51.792510752882663 0 0 0 0 -39.757771528480959 208.93769632274962 0 208.93769632274962 -135.64808818028359 0 0 0 0 19.149888888057294 25.076337010598831 0 25.076337010598831 20.024813678643639 0 0 0 0 -142.47907258227224 246.14806729361771 0 246.14806729361771 389.68529440379643 0 0 0 0 105.33904295212801 -45.212729907188987 0 -45.212729907188987 25.62423639926601 0 0 0 0 -60.180915331684929 -24.177144659497571 0 -24.177144659497571 25.441863746954368 0 0 0 0 -55.276024441902962 -5.8033284606935922 0 -5.8033284606935922 -7.1426555302114139 0 0 0 0 77.085102462663372 228.78978387290772 0 228.78978387290772 322.50815790816091 0 0 0 0 4.3704507021291832 0.55366894666245514 0 0.55366894666245514 0.095590690448654314 0 0 0 0 -10.492047048046231 -21.49947582574805 0 -21.49947582574805 -29.564536831658188 0 0 0 0 270.56817945966293 142.52076389884314 0 142.52076389884314 38.175371870740491 0 0 0 0 153.22404820335112 168.27804845463652 0 168.27804845463652 49.942133757518604 0 0 0 0 -40.191922335588515 61.942610803700518 0 61.942610803700518 54.946708207970005 0 0 0 0 33.634503485432106 -15.843983694901908 0 -15.843983694901908 -19.233339948782486 0 0 0 0 1.139785013746879 0.80137279939006234 0 0.80137279939006234 0.25788645667905463 0 0 0 0 5.3054382169939345 18.841701327954979 0 18.841701327954979 -28.119819513154198 0 0 0 0 0.18526652770040641 -11.51543108255828 0 -11.51543108255828 -100.55607315843554 0 0 0 0 2.7001056970812338 2.0036042765905258 0 2.0036042765905258 -2.5121238195064741 0 0 0 0 31.137672957546243 -83.06029705699757 0 -83.06029705699757 -49.075018239029305 0 0 0 0 -2.0831659886504874 15.991649510746564 0 15.991649510746564 -11.106045252729805 0 0 0 0 -4.197643972196424 24.915784817362677 0 24.915784817362677 -2.5466371982983222 0 0 0 0 2.1837762112036216 110.16773426429063 0 110.16773426429063 -102.71625110840978 0 0 0 0 4.4461881478526948 14.435334897910252 0 14.435334897910252 -49.327333634297247 0 0 0 0 10.37004932330804 23.394068041097412 0 23.394068041097412 -10.514335929812091 0 0 0 0 5.681061540167093 26.686518829315901 0 26.686518829315901 -32.11515979869182 0 0 0 0 7.537815057530679 27.369686807127437 0 27.369686807127437 -2.0463642324255034 0 0 0 0 -6.4434080076061946 72.911739555449458 0 72.911739555449458 16.659648395537602 0 0 0 0 -18.79302223477081 24.94510685636655 0 24.94510685636655 -7.7280465727837111 0 0 0 0 16.540631060417972 38.02869201204247 0 38.02869201204247 -0.26862508929850648 0 0 0 0 34.857360159578093 53.075141998097024 0 53.075141998097024 22.286888610672577 0 0 0 0 -6.036806589642886 28.915278465817551 0 28.915278465817551 2.6830648233544707 0 0 0 0 2.869411249200323 16.542882088773716 0 16.542882088773716 7.8761412912122601 0 0 0 0 -6.4536840865289378 36.468789609084979 0 36.468789609084979 -2.8984702028556057 0 0 0 0 -5.1883410092683562 28.57494330355803 0 28.57494330355803 -5.8861096269392874 0 0 0 0 90.981887302349605 53.754278271337171 0 53.754278271337171 -32.521776450150355 0 0 0 0 65.547504894891972 48.025708476257023 0 48.025708476257023 -21.927964040368352 0 0 0 0 11.578896005910718 10.81843323765035 0 10.81843323765035 1.3299860651570512 0 0 0 0 34.134133633925558 9.3978642559577565 0 9.3978642559577565 -26.562741889334575 0 0 0 0 38.847699851873585 -7.8547688156822915 0 -7.8547688156822915 -41.217872120450011 0 0 0 0 31.965006492796419 -5.8912476447303561 0 -5.8912476447303561 -11.574670297537523 0 0 0 0 33.895775323901944 18.70491782780573 0 18.70491782780573 7.5325091087797773 0 0 0 0 47.260887188935158 90.491654172070866 0 90.491654172070866 -150.7807503828235 0 0 0 0 34.288297560923361 26.138437216458797 0 26.138437216458797 -4.9523902492447327 0 0 0 0 16.529129274575098 214.66477486842723 0 214.66477486842723 -67.883564887830289 0 0 0 0 0.089770217535260599 50.28618733941039 0 50.28618733941039 82.098260893596034 0 0 0 0 -62.458709949063632 10.151924295196295 0 10.151924295196295 263.0253360492926 0 0 0 0 -112.76820074197167 272.75932995029234 0 272.75932995029234 215.32265824112346 0 0 0 0 26.269780515303864 102.96164020022979 0 102.96164020022979 -106.24142787260394 0 0 0 0 309.49146080103947 -249.21357854683345 0 -249.21357854683345 -239.41269355118948 0 0 0 0 56.215620825588303 32.979193259586282 0 32.979193259586282 -44.730961240572924 0 0 0 0 95.886908725294461 406.30175842444203 0 406.30175842444203 155.88928734421188 0 0 0 0 4.1276789648913592 -3.1937528630832475 0 -3.1937528630832475 -8.6839536179818708 0 0 0 0 40.996603841584829 21.197083129007055 0 21.197083129007055 -5.4470969195228829 0 0 0 0 25.331000102709368 86.711213698050415 0 86.711213698050415 -17.130196672327656 0 0 0 0 125.58848570075133 104.60953273367068 0 104.60953273367068 -108.92571303914542 0 0 0 0 162.59989962546388 141.44020083631949 0 141.44020083631949 -8.8713265517949367 0 0 0 0 -26.193960273720215 27.87951536635768 0 27.87951536635768 -18.668253325774742 0 0 0 0 89.75404998900558 109.64998890545098 0 109.64998890545098 17.895034676493196 0 0 0 0 252.4711304970092 -299.86683219088593 0 -299.86683219088593 -210.29165933132572 0 0 0 0 -4.3910296983993575 9.725536169839792 0 9.725536169839792 -2.4843982934375912 0 0 0 0 -20.563661297643648 21.638403147041117 0 21.638403147041117 -17.996918972035928 0 0 0 0 118.96748562766516 205.44513839353749 0 205.44513839353749 72.979369125866697 0 0 0 0 -23.577506940306879 21.22026497523094 0 21.22026497523094 -17.239611858604775 0 0 0 0 54.564387388723844 107.59652047477311 0 107.59652047477311 99.669722404530148 0 0 0 0 72.507396018756481 148.97658224695897 0 148.97658224695897 -26.550778287596586 0 0 0 0 -12.559471167167885 34.255543177787331 0 34.255543177787331 -10.441438955502235 0 0 0 0 -22.771396906335667 38.036692338270768 0 38.036692338270768 -7.4608700411799873 0 0 0 0 -3.8014498793540294 17.393028364708769 0 17.393028364708769 0.71216895716543505 0 0 0 0 -16.169026682536241 42.948022806527661 0 42.948022806527661 -14.451148893330952 0 0 0 0 -10.790150801077743 39.157733066624587 0 39.157733066624587 -14.625576088503294 0 0 0 0 -17.345070002075317 41.428210732513435 0 41.428210732513435 -19.258613282569058 0 0 0 0 -21.29023368617397 22.578373809735265 0 22.578373809735265 -13.474703322918078 0 0 0 0 -33.304452323372516 71.641736330316235 0 71.641736330316235 149.95871908123081 0 0 0 0 -7.3917288789738995 7.1134945473767033 0 7.1134945473767033 9.3305610431168731 0 0 0 0 -10.553787787943747 31.260192764686508 0 31.260192764686508 23.212536918865226 0 0 0 0 4.0784166758635365 28.715656494983705 0 28.715656494983705 -6.4687175380531698 0 0 0 0 -7.9846587676498135 25.293568381879062 0 25.293568381879062 -10.069891166780195 0 0 0 0 -1.396158071663292 14.30940468620058 0 14.30940468620058 -8.9810672959324869 0 0 0 0 -9.9493923471036396 29.71343682249244 0 29.71343682249244 8.9040495319859474 0 0 0 0 0.27111773306454801 10.230194336630234 0 10.230194336630234 -3.5160303461717959 0 0 0 0 10.051627566012552 3.2272517332083908 0 3.2272517332083908 -17.503262488239585 0 0 0 0 -2.4570368827926359 28.992146894073812 0 28.992146894073812 -25.478470760848722 0 0 0 0 -4.2988736092374324 17.659601627756842 0 17.659601627756842 -27.557216732962843 0 0 0 0 6.9007483246359698 33.504002981517715 0 33.504002981517715 7.0687327664472832 0 0 0 0 4.5461198460643573 41.310072067601595 0 41.310072067601595 16.905809202062756 0 0 0 0 -9.6513590398469891 17.799905726351071 0 17.799905726351071 -7.5578052595256633 0 0 0 0 1.0648900565692827 32.820481992714463 0 32.820481992714463 -5.2717787575806767 0 0 0 0 -3.9456746092063781 27.370006207259649 0 27.370006207259649 -20.610461370219809 0 0 0 0 1.0837241504923441 30.513255633046356 0 30.513255633046356 -36.974785147831426 0 0 0 0 1.3697031881201838 16.659006494788628 0 16.659006494788628 -46.348726987191185 0 0 0 0 -0.89946061842420022 23.271219639591436 0 23.271219639591436 -38.439931994625113 0 0 0 0 4.2489286565396469 24.070205871408689 0 24.070205871408689 -58.617058420080866 0 0 0 0 7.9593667227054539 29.296018998086765 0 29.296018998086765 -67.970623775712738 0 0 0 0 2.0887176670812551 26.835505760109299 0 26.835505760109299 -46.611129381319188 0 0 0 0 -1.7031724125399705 14.485326666270339 0 14.485326666270339 -53.489141825997422 0 0 0 0 28.078931008229119 9.6642941854743185 0 9.6642941854743185 -138.75127902978056 0 0 0 0 34.409610259046531 39.926191395834394 0 39.926191395834394 -56.225810359485195 0 0 0 0 7.4342710153259759 49.232150640795226 0 49.232150640795226 -4.4154156637468986 0 0 0 0 3.638762063360673 24.915548789141212 0 24.915548789141212 -45.922163772011118 0 0 0 0 7.1761086540886936 46.138821663743784 0 46.138821663743784 6.939752642691019 0 0 0 0 -7.9418502630528121 26.194791529242998 0 26.194791529242998 -25.333947695898694 0 0 0 0 -8.6998196147173985 54.302118772597169 0 54.302118772597169 35.526872010690568 0 0 0 0 -2.6371061731611007 29.942859301283988 0 29.942859301283988 13.898501533595663 0 0 0 0 2.8115791841655664 25.699742602531842 0 25.699742602531842 -123.46462578508545 0 0 0 0 0.32434834124933332 55.768632412478382 0 55.768632412478382 23.436950073569278 0 0 0 0 14.700328302523303 101.69884602829006 0 101.69884602829006 -61.395414372856976 0 0 0 0 -16.383964436106453 33.412108740388248 0 33.412108740388248 10.0796777368123 0 0 0 0 -3.334019119801269 45.004434828345893 0 45.004434828345893 -9.874108012160832 0 0 0 0 -36.129662521067985 77.419563591622136 0 77.419563591622136 -72.234222599618079 0 0 0 0 -8.66888760259355 29.934329575568611 0 29.934329575568611 7.9866479157522283 0 0 0 0 -2.2242354705629039 -3.4287097123812202 0 -3.4287097123812202 13.992136507055072 0 0 0 0 -12.863935560299881 18.772447055703772 0 18.772447055703772 6.0284231017990439 0 0 0 0 -14.669219609735137 28.478110297421836 0 28.478110297421836 6.4364075372695879 0 0 0 0 -7.7233983552150676 29.105332037215703 0 29.105332037215703 -14.58396268166598 0 0 0 0 -6.1540013526355324 16.332259561938372 0 16.332259561938372 29.830153564563261 0 0 0 0 -9.0318400304076114 19.512553085958636 0 19.512553085958636 16.275093548606602 0 0 0 0 -13.479279748215122 17.297355570470447 0 17.297355570470447 -4.1181378041741468 0 0 0 0 2.7612524224345618 16.906475857458307 0 16.906475857458307 -12.118434354497035 0 0 0 0 11.833730229650584 31.948877270152934 0 31.948877270152934 -1.7503759590167647 0 0 0 0 -0.44887443142351913 22.449662248520099 0 22.449662248520099 0.47082905637034855 0 0 0 0 -6.9103879002580513 35.983198425013143 0 35.983198425013143 2.5138952052875538 0 0 0 0 -2.0096315538994531 29.668175709381558 0 29.668175709381558 5.2699307282746304 0 0 0 0 -99.222469360106516 -124.94942494710631 0 -124.94942494710631 -228.02320832968053 0 0 0 0 -5.9013087950979752 73.414746146150719 0 73.414746146150719 -265.00254651262412 0 0 0 0 8.7489154152040101 -161.092929743676 0 -161.092929743676 -542.53704884617946 0 0 0 0 -84.905638672112218 157.49730964012269 0 157.49730964012269 -375.67105610438193 0 0 0 0 -69.102456341169727 -28.061107284192985 0 -28.061107284192985 -65.763865914825146 0 0 0 0 -2.3546585340590127 -24.221235532166247 0 -24.221235532166247 -25.8991619921253 0 0 0 0 -6.7056923748459667 10.260264366674164 0 10.260264366674164 -119.96474433834373 0 0 0 0 -9.2428205607639029 -3.5631499122355308 0 -3.5631499122355308 -59.656427639702088 0 0 0 0 52.106501158998071 129.5633615388615 0 129.5633615388615 -22.339571650799599 0 0 0 0 15.945796016545637 25.048687727826731 0 25.048687727826731 -53.946314378033925 0 0 0 0 -51.636770873843261 -0.62670756997249555 0 -0.62670756997249555 -30.810281982943707 0 0 0 0 7.0017914418548131 -8.7025291284643345 0 -8.7025291284643345 -109.44814862363273 0 0 0 0 48.77707144463534 19.588538097475976 0 19.588538097475976 -94.693035815340409 0 0 0 0 12.536433462296165 28.752869593333145 0 28.752869593333145 -55.173526801246155 0 0 0 0 -33.181582547837479 -25.766832396038808 0 -25.766832396038808 -120.87057814223294 0 0 0 0 92.799232609680075 76.158672956022201 0 76.158672956022201 -128.31241485083592 0 0 0 0 -8.1545158207554778 -92.931801063799867 0 -92.931801063799867 -240.63214842791422 0 0 0 0 -6.9004582393903764 5.781204300621674 0 5.781204300621674 -2.7092982057633321 0 0 0 0 -5.399010400971747 -6.8146675161206076 0 -6.8146675161206076 -216.13819996538587 0 0 0 0 35.350283724892051 -35.046222418459365 0 -35.046222418459365 -169.79253086002609 0 0 0 0 -60.686544250892894 -44.087598335450821 0 -44.087598335450821 -129.32750415880946 0 0 0 0 4.4055211301711097 -30.206660010868291 0 -30.206660010868291 -126.47936654073601 0 0 0 0 -10.251245712706092 6.4996429540952789 0 6.4996429540952789 -19.977082599641506 0 0 0 0 57.51625858931402 91.195467001438374 0 91.195467001438374 28.86629865467421 0 0 0 0 37.068898812433872 27.16326848263634 0 27.16326848263634 -0.21654716961347731 0 0 0 0 62.851059646710155 22.727547302095161 0 22.727547302095161 20.582300462305284 0 0 0 0 -2.2212353322681544 1.61370046816279 0 1.61370046816279 -1.6536505331401514 0 0 0 0 171.08130202698567 170.91591242218237 0 170.91591242218237 130.8584411666634 0 0 0 0 93.859958635785915 -150.83067525595129 0 -150.83067525595129 -207.72854195633715 0 0 0 0 9.4544114961840933 65.342305690168359 0 65.342305690168359 -9.607089873185032 0 0 0 0 8.1986646267986529 14.041799955215133 0 14.041799955215133 -79.054937680472406 0 0 0 0 357.26158376116291 101.46152034871739 0 101.46152034871739 81.684793184918817 0 0 0 0 225.32353014131513 73.280851872388666 0 73.280851872388666 111.72174986149935 0 0 0 0 290.66482727703442 35.254325932089159 0 35.254325932089159 150.40459709237621 0 0 0 0 247.2435578957211 96.932893011574379 0 96.932893011574379 113.02317406978182 0 0 0 0 170.62196998200307 180.69383689260576 0 180.69383689260576 94.696344434914863 0 0 0 0 185.42306931940766 124.7520006614659 0 124.7520006614659 290.81237268877339 0 0 0 0 137.82348687931517 192.05291563085848 0 192.05291563085848 30.655839740661577 0 0 0 0 86.572307487880607 100.80342508270678 0 100.80342508270678 114.22686693241667 0 0 0 0 151.77285495018805 103.45815961885091 0 103.45815961885091 98.358148374372831 0 0 0 0 150.05287138101266 86.495544193154274 0 86.495544193154274 225.68503443584632 0 0 0 0 124.98391346017888 67.214421326130832 0 67.214421326130832 128.0639767478101 0 0 0 0 105.82369575539269 129.3103590863584 0 129.3103590863584 104.99933121499635 0 0 0 0 52.35985852219892 93.260100886157488 0 93.260100886157488 99.782493045457159 0 0 0 0 -13.641389153392083 107.27777745431922 0 107.27777745431922 113.92506442524063 0 0 0 0 -6.0924744604835723 127.44335055553859 0 127.44335055553859 17.992601150943301 0 0 0 0 56.923558829308604 126.53922914794748 0 126.53922914794748 125.60072547574237 0 0 0 0 -5.9982431781390915 139.59502566141055 0 139.59502566141055 47.807832305661577 0 0 0 0 58.22851498797354 118.37384415574707 0 118.37384415574707 32.067267127069499 0 0 0 0 93.292045833547945 168.86675801544243 0 168.86675801544243 42.297113557106059 0 0 0 0 89.045172545105743 198.47587444344117 0 198.47587444344117 -114.21695542478938 0 0 0 0 50.036743551696418 159.79221054686059 0 159.79221054686059 -150.05204673714616 0 0 0 0 11.102890818229753 133.39354247025994 0 133.39354247025994 -130.43435010550638 0 0 0 0 -6.3031517381368758 162.74289775384841 0 162.74289775384841 -139.29966367312227 0 0 0 0 59.373330315058411 152.54867879358426 0 152.54867879358426 -335.96414511436888 0 0 0 0 117.31699049577219 327.09682045454792 0 327.09682045454792 -420.85303677199681 0 0 0 0 211.18970505123616 124.62035095225974 0 124.62035095225974 -423.77832712724194 0 0 0 0 101.16277821729454 336.92273619995922 0 336.92273619995922 -278.45349730634598 0 0 0 0 284.0891430959673 288.7799622546645 0 288.7799622546645 -302.01095656073994 0 0 0 0 6.3347333882974803 10.463117366264232 0 10.463117366264232 -95.34171597689334 0 0 0 0 268.8554693228325 326.39504051195149 0 326.39504051195149 -127.14169461166739 0 0 0 0 -2.3168476728757366 4.4300832543016151 0 4.4300832543016151 -3.8717527421958664 0 0 0 0 358.49728026450612 -176.32676083942079 0 -176.32676083942079 -635.2190148032787 0 0 0 0 141.67807743294225 291.73966989451492 0 291.73966989451492 -311.81087789055891 0 0 0 0 256.62250515100095 317.8377368545332 0 317.8377368545332 11.221312294414474 0 0 0 0 -384.10090785579177 -102.34366471833107 0 -102.34366471833107 55.668170267503456 0 0 0 0 161.43286608842755 149.5562810624524 0 149.5562810624524 95.304091839931061 0 0 0 0 8.3797711059633002 91.243448531879039 0 91.243448531879039 45.846095107222368 0 0 0 0 4.5754081925515493 151.79762462976851 0 151.79762462976851 55.58688673599579 0 0 0 0 -26.469451712400769 98.010140995536858 0 98.010140995536858 -0.81792016162967229 0 0 0 0 -25.507196076338005 150.40481037415248 0 150.40481037415248 21.684602520144836 0 0 0 0 -9.6240110059925428 104.9901785710266 0 104.9901785710266 93.383589380362537 0 0 0 0 -42.071219123905394 107.99811090410276 0 107.99811090410276 98.581304105828167 0 0 0 0 -46.601384446650627 125.73751246259417 0 125.73751246259417 17.943061024879171 0 0 0 0 -10.603044435641095 152.74256308205804 0 152.74256308205804 -182.53348056506184 0 0 0 0 10.283125046587884 1.5103873231339549 0 1.5103873231339549 -471.36436068588409 0 0 0 0 -24.911623606121793 93.652952810209172 0 93.652952810209172 -165.44412471369014 0 0 0 0 -75.080945990419423 24.657120092300829 0 24.657120092300829 -156.85672164035356 0 0 0 0 -5.9573253769967778 143.04962158268722 0 143.04962158268722 -50.938476614128376 0 0 0 0 2.3787274651040207 53.275212252659003 0 53.275212252659003 -118.04783021982621 0 0 0 0 38.638079438820569 110.90447711844081 0 110.90447711844081 -111.02526633477692 0 0 0 0 21.576764968420321 66.327987949883322 0 66.327987949883322 38.85627462981796 0 0 0 0 0.58000496818391412 4.1622896180418794 0 4.1622896180418794 3.5667654879976078 0 0 0 0 36.336846578915342 26.584290597212327 0 26.584290597212327 13.700673989271932 0 0 0 0 24.362608723095946 31.280270265050376 0 31.280270265050376 -248.24378431144214 0 0 0 0 -12.78575439130509 22.845533933973911 0 22.845533933973911 -129.30055597803027 0 0 0 0 55.008535872539142 8.1901860153412827 0 8.1901860153412827 -6.1442171775684074 0 0 0 0 24.971597212563211 4.3712075765413374 0 4.3712075765413374 88.95216226179673 0 0 0 0 13.61344536664069 50.721605872454347 0 50.721605872454347 7.4882291224857909 0 0 0 0 41.207494159092676 58.5208225339058 0 58.5208225339058 -21.367815921824619 0 0 0 0 28.888992582571767 26.970882725097944 0 26.970882725097944 18.09338750825432 0 0 0 0 9.4775982998003201 47.624329690335344 0 47.624329690335344 20.016516604689969 0 0 0 0 14.152892357882138 48.816658180608101 0 48.816658180608101 -7.0655912388988327 0 0 0 0 48.462595282024722 68.188290151467299 0 68.188290151467299 -14.028065350312318 0 0 0 0 56.527973266638696 88.916462618911055 0 88.916462618911055 30.77008389198636 0 0 0 0 -483.89893670688252 273.10118419646824 0 273.10118419646824 300.57575432003568 0 0 0 0 -189.7464838992255 -4.1165985201632793 0 -4.1165985201632793 301.0856181799245 0 0 0 0 -0.87418238401493653 -1.4119327391333418 0 -1.4119327391333418 0.080280799647354684 0 0 0 0 172.20660826919993 106.65202510048675 0 106.65202510048675 -716.13903493805174 0 0 0 0 315.72590338512964 152.95332480200977 0 152.95332480200977 -456.10716262503593 0 0 0 0 29.426910203292209 253.34111666079662 0 253.34111666079662 206.56059569954482 0 0 0 0 -11.824115392275417 26.371328442174672 0 26.371328442174672 129.76646796719206 0 0 0 0 -27.393939552668598 52.515071105356583 0 52.515071105356583 87.367484181186228 0 0 0 0 -350.4132173133803 -213.29562525157166 0 -213.29562525157166 -115.76490361977767 0 0 0 0 155.48022371563911 82.181975994255652 0 82.181975994255652 -44.963887461131208 0 0 0 0 104.13707195223105 13.329654922915154 0 13.329654922915154 47.243216720512009 0 0 0 0 18.436733015427308 97.796466216651879 0 97.796466216651879 102.60546319944405 0 0 0 0 14.441794510545151 69.04033398407887 0 69.04033398407887 -4.6407470045212449 0 0 0 0 2.2468245404990128 10.182567215099871 0 10.182567215099871 10.924332253059115 0 0 0 0 20.833912775851786 32.004853914791937 0 32.004853914791937 -30.555818672018738 0 0 0 0 154.75417960005592 51.673297967154781 0 51.673297967154781 -113.33935253851087 0 0 0 0 129.98747165879922 361.40938832048045 0 361.40938832048045 97.81696306755606 0 0 0 0 141.16450811454752 -111.82603944844413 0 -111.82603944844413 -97.692246201368107 0 0 0 0 8.724091416986365 15.55653314648049 0 15.55653314648049 -91.160335903980993 0 0 0 0 -7.8317637009715781 -101.15306678268189 0 -101.15306678268189 -138.41900634524791 0 0 0 0 -0.54551070980602034 0.26679332524616939 0 0.26679332524616939 0.43148738447804647 0 0 0 0 89.931834045688447 -18.029835425177225 0 -18.029835425177225 -91.274781346824966 0 0 0 0 -54.450642988419986 28.636708730294231 0 28.636708730294231 -11.598807590955403 0 0 0 0 8.2162808153155691 1.54087962389994 0 1.54087962389994 -22.203307915716337 0 0 0 0 92.438167794238325 -38.239236959641858 0 -38.239236959641858 -40.624321690309444 0 0 0 0 23.804532115509573 26.32775669284274 0 26.32775669284274 -20.682900216103008 0 0 0 0 4.9020041935019734 22.030977770206718 0 22.030977770206718 -24.966777417500367 0 0 0 0 17.41978786629079 32.78893829408662 0 32.78893829408662 -42.894242879498051 0 0 0 0 27.309185517254161 35.160355968384906 0 35.160355968384906 0.73198081381906377 0 0 0 0 26.844139007199374 28.975604021723484 0 28.975604021723484 -25.406775079751242 0 0 0 0 27.202801964423657 31.800552760854771 0 31.800552760854771 -19.706951327119896 0 0 0 0 17.244614640590726 32.183571224192747 0 32.183571224192747 -18.895841209450737 0 0 0 0 17.165623075224019 7.7011212217105722 0 7.7011212217105722 -28.476321013292534 0 0 0 0 24.427265873676333 26.908728662010617 0 26.908728662010617 -23.850563581836468 0 0 0 0 18.013767221841356 11.94010001424018 0 11.94010001424018 -24.305060566518062 0 0 0 0 21.524147957133437 27.193049358051212 0 27.193049358051212 -17.220665148975968 0 0 0 0 19.926929721347108 19.967405934979979 0 19.967405934979979 -26.176917555952969 0 0 0 0 11.315841784316415 23.495123299682731 0 23.495123299682731 2.351255146721499 0 0 0 0 81.612074715761992 37.695481336912053 0 37.695481336912053 -54.528978447226109 0 0 0 0 -1.2133983789267688 9.007892300046688 0 9.007892300046688 7.593030755466458 0 0 0 0 75.919230321014766 90.383017367588764 0 90.383017367588764 -40.08585768667399 0 0 0 0 25.386930185658279 16.800446299489508 0 16.800446299489508 -41.119799569323717 0 0 0 0 91.955994433496016 76.963320839418884 0 76.963320839418884 -61.907540189509746 0 0 0 0 22.611321137204357 18.322286779536633 0 18.322286779536633 -20.793510577710862 0 0 0 0 93.269266671126388 68.354756016662577 0 68.354756016662577 -23.257249452042743 0 0 0 0 12.018678903941236 21.334422138075752 0 21.334422138075752 9.4115618079258638 0 0 0 0 31.698583438740322 26.317906309823243 0 26.317906309823243 -19.256035136199777 0 0 0 0 49.032079833709759 38.219110451738743 0 38.219110451738743 18.344567236104922 0 0 0 0 -72.189045778910895 61.253054910783248 0 61.253054910783248 10.408619652531343 0 0 0 0 66.944840801306782 33.548403019180114 0 33.548403019180114 -103.26429164530418 0 0 0 0 3.8210059101235601 6.1088203031005719 0 6.1088203031005719 4.8780427553037953 0 0 0 0 -40.386159510894686 164.69684001950918 0 164.69684001950918 172.33169183324208 0 0 0 0 -120.93533369219949 14.158816584895249 0 14.158816584895249 51.631936440486243 0 0 0 0 14.053517763981972 69.404736337300619 0 69.404736337300619 30.531013698682727 0 0 0 0 -19.386484341576534 16.545117404461507 0 16.545117404461507 16.378058562964725 0 0 0 0 -56.631850156754808 -10.128377802651812 0 -10.128377802651812 17.606329827594323 0 0 0 0 -42.518710826640017 62.469482378510293 0 62.469482378510293 77.459670474239829 0 0 0 0 54.285456779987271 23.473043794367186 0 23.473043794367186 -21.26608902433145 0 0 0 0 -5.7671447344912394 31.153127841771493 0 31.153127841771493 23.94172965341204 0 0 0 0 12.70514883413307 37.001154761819635 0 37.001154761819635 25.758764974192673 0 0 0 0 15.405765601691201 40.795274544834683 0 40.795274544834683 6.6212194709805772 0 0 0 0 -0.87709534944360712 36.279025046222159 0 36.279025046222159 17.915441226938128 0 0 0 0 2.3593098808695423 20.952502433464375 0 20.952502433464375 -7.3275131454285898 0 0 0 0 0.8387423905848912 7.4377565227346363 0 7.4377565227346363 -4.6797821238611377 0 0 0 0 12.729903594575205 11.992732707529747 0 11.992732707529747 -25.739862438498669 0 0 0 0 9.988898692407064 19.072308144546483 0 19.072308144546483 -14.370379226124555 0 0 0 0 23.389876523586281 25.951091080616607 0 25.951091080616607 -18.313924584972483 0 0 0 0 13.157754485799842 14.554747673094425 0 14.554747673094425 -18.230855043206248 0 0 0 0 14.487531464467111 25.414648715122894 0 25.414648715122894 -39.609385805255442 0 0 0 0 17.915089819269319 16.791606830532785 0 16.791606830532785 -29.810110969253898 0 0 0 0 16.942403686405214 20.858100123386976 0 20.858100123386976 -31.691921974081197 0 0 0 0 21.952239688893087 21.914833937087678 0 21.914833937087678 -46.64053638898622 0 0 0 0 5.5930906088322274 11.872406809813763 0 11.872406809813763 -33.636124676150068 0 0 0 0 23.65187120340488 18.527948376653512 0 18.527948376653512 -40.877875849939301 0 0 0 0 26.805440837070364 22.640238266802044 0 22.640238266802044 -20.672377858945765 0 0 0 0 22.651089352009649 10.582645200448042 0 10.582645200448042 -52.549553167802515 0 0 0 0 6.3158448081456102 10.107106703619966 0 10.107106703619966 -16.711058037089231 0 0 0 0 15.615562724161334 -0.14727792999753575 0 -0.14727792999753575 -7.9991851117666206 0 0 0 0 29.59250459843679 13.124492065666345 0 13.124492065666345 -61.170615298758776 0 0 0 0 -42.639024552458068 -60.982946115145751 0 -60.982946115145751 -110.56614353574992 0 0 0 0 -54.417489163928281 4.1032711262535031 0 4.1032711262535031 33.196463069260062 0 0 0 0 -449.75724135346707 -7.0260285180581832 0 -7.0260285180581832 163.17515151715997 0 0 0 0 -194.03769622465006 -106.95552060274713 0 -106.95552060274713 -14.821000007974362 0 0 0 0 38.919980772104282 3.5217694075217878 0 3.5217694075217878 -53.051687258044694 0 0 0 0 51.621938710728273 54.19723669441737 0 54.19723669441737 -37.647134987329991 0 0 0 0 5.3559687643247722 12.0304829134608 0 12.0304829134608 -23.531827257344951 0 0 0 0 19.710612182763725 27.042140781599301 0 27.042140781599301 -14.453940086466901 0 0 0 0 18.364341555210103 22.042802693118574 0 22.042802693118574 -9.7570893350239203 0 0 0 0 4.127425478835903 2.80460138082708 0 2.80460138082708 -28.431969230572577 0 0 0 0 19.831099417848463 12.041880219527229 0 12.041880219527229 -43.27235777284659 0 0 0 0 15.415977647822274 12.331767733247034 0 12.331767733247034 -22.349668740651396 0 0 0 0 24.111161963121958 22.303232436410326 0 22.303232436410326 -36.87906447849673 0 0 0 0 8.3618391059887589 4.7234808737621137 0 4.7234808737621137 -26.955690447183215 0 0 0 0 -1.6715688758013414 0.39244270630643285 0 0.39244270630643285 -9.6261788638590371 0 0 0 0 6.3149799892730698 -9.5933739706488268 0 -9.5933739706488268 -49.223518159822561 0 0 0 0 -285.07403788619922 12.254755980047776 0 12.254755980047776 -20.788100705890429 0 0 0 0 -3.1344944758084239 -7.3920799665138475 0 -7.3920799665138475 -36.029137394922145 0 0 0 0 0.82382199036976544 5.9913339631139024 0 5.9913339631139024 -46.479540436092066 0 0 0 0 -2.2208275507891813 -1.2730526042287238 0 -1.2730526042287238 -49.720591701696321 0 0 0 0 -3.9908656937101519 2.892142258807354 0 2.892142258807354 -5.7071748940040479 0 0 0 0 6.759875740872654 7.4603396950183267 0 7.4603396950183267 -23.908829165705534 0 0 0 0 4.4295957292695896 13.563433645492026 0 13.563433645492026 -6.2843948970608352 0 0 0 0 -120.61295808113027 104.35195982875666 0 104.35195982875666 -89.935671400919091 0 0 0 0 1.1490269984424231 -24.399850374320522 0 -24.399850374320522 -141.88043728154662 0 0 0 0 -237.31616854857202 -160.67815082922607 0 -160.67815082922607 -260.46968050674332 0 0 0 0 -81.210800347872464 21.221742100802658 0 21.221742100802658 -92.063339132138935 0 0 0 0 -101.9743863206412 -157.51813681914246 0 -157.51813681914246 -332.99080172316462 0 0 0 0 -23.435783703387642 3.1759454040002311 0 3.1759454040002311 -104.72945092476584 0 0 0 0 86.302470579865258 48.813698390200443 0 48.813698390200443 -173.62911072402494 0 0 0 0 128.10883837374604 26.742682086020068 0 26.742682086020068 -121.99329544273496 0 0 0 0 230.28243839546667 -47.13556283115031 0 -47.13556283115031 -133.23359827766035 0 0 0 0 -0.25073490557733624 -10.284274864938094 0 -10.284274864938094 -41.992488475026704 0 0 0 0 8.7462929419193642 -2.8269511804146532 0 -2.8269511804146532 -40.760744031649665 0 0 0 0 87.461268924538672 37.995342331523716 0 37.995342331523716 -113.46697196767491 0 0 0 0 127.45999752131138 15.884004723004182 0 15.884004723004182 -60.200385296408058 0 0 0 0 74.422137844165263 -0.36348873522365466 0 -0.36348873522365466 42.720254400250269 0 0 0 0 200.96739864328811 -15.714718287548749 0 -15.714718287548749 -174.88014404689602 0 0 0 0 105.70150292568542 125.4609983659866 0 125.4609983659866 -148.88937590632122 0 0 0 0 222.3490264759248 17.448481750590872 0 17.448481750590872 -155.19410726115166 0 0 0 0 485.27216220892569 -299.65911112168396 0 -299.65911112168396 124.21822435900685 0 0 0 0 306.53462884718965 265.04876875277114 0 265.04876875277114 -121.65662701294059 0 0 0 0 278.17806113354345 156.09740081887867 0 156.09740081887867 92.371892586876129 0 0 0 0 0.43355640534412743 -1.6442817835139891 0 -1.6442817835139891 -5.1324823992103195 0 0 0 0 -695.85175788033757 -345.31274526172274 0 -345.31274526172274 87.708196449511888 0 0 0 0 -472.48427244229788 -1.1896383416933531 0 -1.1896383416933531 389.20776853353163 0 0 0 0 -0.68098699674737873 108.87660735511599 0 108.87660735511599 -151.00051367475317 0 0 0 0 1.0836730740684288 84.950765162371681 0 84.950765162371681 -128.21667892526602 0 0 0 0 -241.00803515371626 -181.13939146362827 0 -181.13939146362827 -192.96182323464018 0 0 0 0 -596.05479269825901 -749.03777149525922 0 -749.03777149525922 -627.33886825591253 0 0 0 0 -257.14100192613523 -443.30934337562212 0 -443.30934337562212 -723.07354534311889 0 0 0 0 -213.73107331227038 -449.7701599539032 0 -449.7701599539032 -722.35694068950761 0 0 0 0 -335.13681006543402 -297.50593959741309 0 -297.50593959741309 -263.36064701134455 0 0 0 0 -126.33903421436071 -458.30579669245344 0 -458.30579669245344 -882.53285849598979 0 0 0 0 -83.759994228203936 -461.10806377510744 0 -461.10806377510744 -882.99757455920189 0 0 0 0 -101.85246734568523 -531.43685923565135 0 -531.43685923565135 -1156.5516145748552 0 0 0 0 -32.822729056291109 -268.40687504516973 0 -268.40687504516973 -651.25761490234436 0 0 0 0 -162.6352435307017 -299.46743587587844 0 -299.46743587587844 -464.35196249887667 0 0 0 0 -225.73952678621072 -151.35637680347645 0 -151.35637680347645 -219.37671654671431 0 0 0 0 -25.25958134695702 -190.90246775210107 0 -190.90246775210107 -488.9976265367518 0 0 0 0 -208.82168013300475 -323.4533923125091 0 -323.4533923125091 -475.58633537209971 0 0 0 0 -4.2352014349023985 -7.6693398202012304 0 -7.6693398202012304 -7.6602629438134988 0 0 0 0 121.7941893622592 -35.993651115575631 0 -35.993651115575631 -245.48649837044741 0 0 0 0 -165.46726635386949 -95.565795340240584 0 -95.565795340240584 -87.664171683656605 0 0 0 0 23.857248913534477 -9.0223293099952571 0 -9.0223293099952571 -362.10237432618123 0 0 0 0 -9.2246202629253276 -12.999625233242114 0 -12.999625233242114 -88.943411955684951 0 0 0 0 -5.5122223386318865 -9.0854677493862255 0 -9.0854677493862255 -91.757470351396478 0 0 0 0 36.589480919112248 80.302189137270034 0 80.302189137270034 26.918426279327832 0 0 0 0 21.643384716343473 24.349675271933407 0 24.349675271933407 -45.258257503437918 0 0 0 0 32.983519346662433 97.932487835918437 0 97.932487835918437 16.613082796169692 0 0 0 0 30.85747646308937 82.287074500458402 0 82.287074500458402 50.972400052283774 0 0 0 0 44.959718570707082 59.368947808412486 0 59.368947808412486 57.409934987263114 0 0 0 0 1.5842141630416791 -19.179023830691222 0 -19.179023830691222 -100.59409518143002 0 0 0 0 7.3808748685673891 -4.0742853767114866 0 -4.0742853767114866 -91.254978467899491 0 0 0 0 -5.0685470463548832 -5.3379570577016864 0 -5.3379570577016864 0.62189441930638178 0 0 0 0 -98.671147384202186 -196.05000929435118 0 -196.05000929435118 -515.19265692167392 0 0 0 0 0.86003673605978292 -14.045673922395508 0 -14.045673922395508 -88.25383706514549 0 0 0 0 28.027617260341067 -187.44188592360905 0 -187.44188592360905 -656.65193427235499 0 0 0 0 -74.815764665382574 -401.10432201947697 0 -401.10432201947697 -956.38328062771325 0 0 0 0 22.485668803864229 -159.71175602510993 0 -159.71175602510993 -911.68306506117733 0 0 0 0 25.51679808984133 -357.41732810133908 0 -357.41732810133908 -1037.6510867263569 0 0 0 0 -94.815711721000071 -380.75427556685827 0 -380.75427556685827 -697.68072729737287 0 0 0 0 -60.527067371535452 -459.96706845268636 0 -459.96706845268636 -1048.0937404953677 0 0 0 0 -16.807268446068164 -519.43902184336912 0 -519.43902184336912 -1270.783416573322 0 0 0 0 36.040353900344087 -505.0595236695051 0 -505.0595236695051 -1576.702025665938 0 0 0 0 -33.039737911913051 -475.91750517054243 0 -475.91750517054243 -1425.5465275141905 0 0 0 0 17.184233856126355 -405.9604854434474 0 -405.9604854434474 -1588.6854910956208 0 0 0 0 -37.673296626441697 -578.04338767264198 0 -578.04338767264198 -1355.3269289057735 0 0 0 0 7.4340847548767215 -485.05100561204927 0 -485.05100561204927 -1295.5441486284399 0 0 0 0 17.071839061605488 -507.00777059318352 0 -507.00777059318352 -1586.0230518908611 0 0 0 0 -323.57707689247991 -666.15887776201998 0 -666.15887776201998 -957.65281916728782 0 0 0 0 -166.88481256337991 -764.65519792563282 0 -764.65519792563282 -1267.8136527717361 0 0 0 0 -258.49863321425619 -561.52761094933248 0 -561.52761094933248 -1104.9190165674809 0 0 0 0 -22.495789034459449 -513.60766627191151 0 -513.60766627191151 -1939.1241435955235 0 0 0 0 -63.142367193704729 -526.36234597204384 0 -526.36234597204384 -1588.351998647282 0 0 0 0 -22.027525709984502 -283.48699503172975 0 -283.48699503172975 -1706.780493617056 0 0 0 0 -1.6007706327002325 -338.8624283079298 0 -338.8624283079298 -1835.2094401779141 0 0 0 0 -164.4126344430631 -370.59964282183046 0 -370.59964282183046 -1689.5206926900173 0 0 0 0 -447.03320351188449 -143.23431191661439 0 -143.23431191661439 -1848.3348091477255 0 0 0 0 -285.65827321138329 -477.9173146004814 0 -477.9173146004814 -1697.7877972399433 0 0 0 0 -111.01414639326536 -460.36436939965279 0 -460.36436939965279 -1585.6213008599298 0 0 0 0 -7.7609412413534073 -392.62536361133243 0 -392.62536361133243 -1684.2021742573279 0 0 0 0 10.662211195297957 -432.80688355693201 0 -432.80688355693201 -1628.1995188973888 0 0 0 0 -87.351928253295227 76.446887955502461 0 76.446887955502461 -1632.2678238559529 0 0 0 0 196.52656076948369 -28.352358697455202 0 -28.352358697455202 -1622.0235457968297 0 0 0 0 61.291227162523683 11.485509791105869 0 11.485509791105869 -1630.0552181817948 0 0 0 0 180.78600389445455 78.273485319135943 0 78.273485319135943 -1454.6992770969591 0 0 0 0 -259.73054663374205 40.141423722729087 0 40.141423722729087 -132.64749289610154 0 0 0 0 -50.743462042092688 -383.788601866916 0 -383.788601866916 -678.34953780123033 0 0 0 0 73.766919677535157 -180.77296093439554 0 -180.77296093439554 -1279.3054207977766 0 0 0 0 311.51323974967409 266.6709131495536 0 266.6709131495536 -1070.0687558460959 0 0 0 0 201.72316474536365 54.772767188920625 0 54.772767188920625 -1600.2207782727164 0 0 0 0 17.491248052342598 -302.48567706340873 0 -302.48567706340873 -1884.9140386947511 0 0 0 0 -960.26979722391297 -845.83563098147351 0 -845.83563098147351 -1876.9920268486385 0 0 0 0 30.575931812488534 -535.04403697824728 0 -535.04403697824728 -2377.4997913262923 0 0 0 0 -1041.2265223378454 -747.5396126131418 0 -747.5396126131418 -524.0944961965215 0 0 0 0 -140.06211916487882 558.0496464595908 0 558.0496464595908 -1494.2912707880423 0 0 0 0 -2.7717809502276847 -5.606962125429277 0 -5.606962125429277 -15.60324537819389 0 0 0 0 -371.43606894267305 -1261.0501216846496 0 -1261.0501216846496 -1839.0010066426839 0 0 0 0 -352.46315060121697 -102.15146220070528 0 -102.15146220070528 -2418.3427374315506 0 0 0 0 -1199.5854600307803 -189.8254791817526 0 -189.8254791817526 -1769.5968821169845 0 0 0 0 -412.82504937195625 -412.18127159807023 0 -412.18127159807023 -1708.6179053393789 0 0 0 0 -640.43297547068642 -578.2726353171638 0 -578.2726353171638 -1560.9947403849847 0 0 0 0 -722.39366258354698 -550.19270873034111 0 -550.19270873034111 -1549.6021525348187 0 0 0 0 -324.68718129265244 -577.04003470866519 0 -577.04003470866519 -1772.5790101151433 0 0 0 0 -329.37096423556875 -380.83768593874009 0 -380.83768593874009 -1631.5269762123717 0 0 0 0 -312.22122882662234 -362.3005183837322 0 -362.3005183837322 -1614.7825885437051 0 0 0 0 -566.07113700481364 -410.41304496310295 0 -410.41304496310295 -1352.2195594786863 0 0 0 0 -353.78156015031232 -195.50240126801327 0 -195.50240126801327 -1492.0912872679837 0 0 0 0 -114.34594853434987 -45.159900792763437 0 -45.159900792763437 -1632.7370593065862 0 0 0 0 -1073.2831586456186 -943.98173327514087 0 -943.98173327514087 -945.76913561433139 0 0 0 0 -719.29810701527549 -295.38038317782048 0 -295.38038317782048 -904.62376645125914 0 0 0 0 -680.72932412067519 -383.28299585225386 0 -383.28299585225386 -1226.7478498718738 0 0 0 0 -1037.9793577890241 -737.62287102284608 0 -737.62287102284608 -1443.5356014716417 0 0 0 0 -4.1094720121172923 -1.1600285004314728 0 -1.1600285004314728 -2.1720330775007533 0 0 0 0 -601.72952121140588 -516.17309732915237 0 -516.17309732915237 -706.60923686771912 0 0 0 0 -534.12071742287344 -913.86889397242794 0 -913.86889397242794 -2113.6299539379361 0 0 0 0 -322.35224957075349 -342.34407725117626 0 -342.34407725117626 -1421.7420728361067 0 0 0 0 -181.56711337813863 -560.78087685597347 0 -560.78087685597347 -1774.6250048345773 0 0 0 0 -31.639358045606841 -700.80343016853658 0 -700.80343016853658 -1963.5516551092296 0 0 0 0 -111.20717038024887 -978.01982432326895 0 -978.01982432326895 -1927.6898308418786 0 0 0 0 -229.9576196607519 -1245.3881725552278 0 -1245.3881725552278 -2499.4451850197893 0 0 0 0 -948.25039849218524 -1039.8607726378978 0 -1039.8607726378978 -1497.3704400216266 0 0 0 0 -771.2251434301736 -1272.2081326639454 0 -1272.2081326639454 -1491.6564406280136 0 0 0 0 -854.1248944335498 -1559.4087907903086 0 -1559.4087907903086 -2235.3591249009332 0 0 0 0 -1222.7925541838165 -1873.4563935767219 0 -1873.4563935767219 -2499.3931769220449 0 0 0 0 -1541.9466096371625 -2192.128769877354 0 -2192.128769877354 -2028.7244428656286 0 0 0 0 -1105.7868343603516 -932.20437638715612 0 -932.20437638715612 -817.24864798688941 0 0 0 0 -1305.6114376062228 -1611.2658174459702 0 -1611.2658174459702 -777.66494724711083 0 0 0 0 -259.96850206901627 -622.3383303075334 0 -622.3383303075334 -2178.7062458428882 0 0 0 0 -74.957700151511546 -424.02185732848557 0 -424.02185732848557 -2028.530409347939 0 0 0 0 -27.266659000618162 -573.40527648842362 0 -573.40527648842362 -2008.6440710818097 0 0 0 0 -3.0100307286847729 -0.84904489657547799 0 -0.84904489657547799 -2.8018049440558315 0 0 0 0 -146.19615048975311 -254.57269319375609 0 -254.57269319375609 -1340.1398100608931 0 0 0 0 -7.3055920583391334 -2.3881287630079484 0 -2.3881287630079484 -2.6979795325681692 0 0 0 0 -138.10263263230314 -714.24727088123291 0 -714.24727088123291 -1675.4756376266855 0 0 0 0 -100.35035595401501 -629.88012588115726 0 -629.88012588115726 -2171.4468295290208 0 0 0 0 -142.32953147197858 -718.5087766775232 0 -718.5087766775232 -2352.6526735159755 0 0 0 0 -23.011668112918599 -825.11190579669528 0 -825.11190579669528 -2127.9515859073217 0 0 0 0 20.072734176753862 -901.06446145598966 0 -901.06446145598966 -2499.8694623870815 0 0 0 0 -61.419165817217213 -689.60194152579425 0 -689.60194152579425 -2499.74601827675 0 0 0 0 1.5549511265104528 -547.34506626039729 0 -547.34506626039729 -2190.116548913411 0 0 0 0 61.594011935153262 -523.86769206648205 0 -523.86769206648205 -2499.6856504159332 0 0 0 0 235.95261960413762 -349.38733026057707 0 -349.38733026057707 -2500.1815139816645 0 0 0 0 121.12047467884585 -395.32207279646718 0 -395.32207279646718 -2224.4167781977958 0 0 0 0 129.70410199154028 -385.53156164952452 0 -385.53156164952452 -2218.7835650559937 0 0 0 0 -19.734373874053702 -535.86185754065082 0 -535.86185754065082 -2027.2033728018087 0 0 0 0 59.163582560396264 -519.15416688730329 0 -519.15416688730329 -1821.4150418803729 0 0 0 0 68.472848960408498 -470.5257383373937 0 -470.5257383373937 -1979.0592621155774 0 0 0 0 82.741273800892429 -385.22228245202677 0 -385.22228245202677 -1760.7228477091703 0 0 0 0 121.98560401010116 -394.15527539715731 0 -394.15527539715731 -2014.5974177517182 0 0 0 0 289.36112694687017 -190.86489400706705 0 -190.86489400706705 -2174.3178346661407 0 0 0 0 120.58727607796702 -386.89514251674268 0 -386.89514251674268 -2008.2603885560857 0 0 0 0 324.10265160720348 -146.55880459032869 0 -146.55880459032869 -2499.0654890724363 0 0 0 0 507.88518853903912 312.72218604309455 0 312.72218604309455 -2500.6304070400392 0 0 0 0 596.22329419572236 721.89963844356498 0 721.89963844356498 -1496.9685319997661 0 0 0 0 146.15838559626565 7.4061615366463229 0 7.4061615366463229 -1838.0440244774945 0 0 0 0 390.80955605964732 88.10752648406833 0 88.10752648406833 -1811.6710344157764 0 0 0 0 156.88607120322308 -1505.7659939047694 0 -1505.7659939047694 -2391.5744411459891 0 0 0 0 140.4267748745871 1388.1646135261617 0 1388.1646135261617 -1367.6113484173075 0 0 0 0 0.4858428904592289 -0.034614510285137845 0 -0.034614510285137845 -16.690855170182772 0 0 0 0 697.32722655884288 1034.0965252256246 0 1034.0965252256246 -2495.1312073826161 0 0 0 0 293.55105340246871 447.27278215955084 0 447.27278215955084 -1560.8099181908192 0 0 0 0 257.42713080375773 150.75482872704015 0 150.75482872704015 208.71891059439804 0 0 0 0 1526.4381620778545 -91.506995124898822 0 -91.506995124898822 -710.02698671889812 0 0 0 0 1.8066762120969257 -2.0542666226999233 0 -2.0542666226999233 -34.821861041665585 0 0 0 0 117.67416904851117 -583.78965888192374 0 -583.78965888192374 -1127.3605091775244 0 0 0 0 193.64097400904069 31.061809364350665 0 31.061809364350665 0.80650531035644235 0 0 0 0 63.2873300172065 -434.56978796685871 0 -434.56978796685871 -1414.3286517967936 0 0 0 0 138.55241840907013 71.374116270941158 0 71.374116270941158 -813.06595378760539 0 0 0 0 88.199999015588105 -617.09027309443627 0 -617.09027309443627 -1067.3923034481559 0 0 0 0 106.86788018445191 -629.10269852430247 0 -629.10269852430247 -1695.3391799890524 0 0 0 0 177.06167469723039 -585.5345826385219 0 -585.5345826385219 -1797.0453359105231 0 0 0 0 248.06690255655133 -545.1616038763168 0 -545.1616038763168 -1788.445841736564 0 0 0 0 269.48549216237046 -431.66023116891847 0 -431.66023116891847 -2145.4277902627764 0 0 0 0 187.93860590952761 -575.14159224242758 0 -575.14159224242758 -1796.090470049865 0 0 0 0 447.94964458640231 -1064.9326030398024 0 -1064.9326030398024 -2367.5876439951389 0 0 0 0 47.298788553456234 -113.12382773235367 0 -113.12382773235367 -2596.5209111120712 0 0 0 0 -135.97682392517208 -1406.9384312693983 0 -1406.9384312693983 -820.53016584172838 0 0 0 0 0.61313119745747102 -1.7457383538391591 0 -1.7457383538391591 -18.170582751810088 0 0 0 0 -503.08849543668771 -221.20034218593719 0 -221.20034218593719 -1913.7832656668543 0 0 0 0 -146.94000968912235 -317.3348384974779 0 -317.3348384974779 -1887.907376023315 0 0 0 0 -102.54188945973851 -153.78843663346379 0 -153.78843663346379 -1903.4424624927706 0 0 0 0 -78.696732629182407 -327.92363803347689 0 -327.92363803347689 -1752.0689541034226 0 0 0 0 -207.87346128383228 -264.13464773393571 0 -264.13464773393571 -1782.8397446028539 0 0 0 0 -277.78518069698475 -334.07654004508368 0 -334.07654004508368 -1749.2432484032688 0 0 0 0 173.77143264841243 -412.96167860304922 0 -412.96167860304922 -1912.9410237372558 0 0 0 0 70.72196569158848 -335.42164265392603 0 -335.42164265392603 -1619.3750054610791 0 0 0 0 17.742110535296888 -218.98314427828882 0 -218.98314427828882 -1868.2304503508385 0 0 0 0 180.38436571092188 -461.58566311784307 0 -461.58566311784307 -1729.9320267711046 0 0 0 0 173.34137174535078 -421.70262712130716 0 -421.70262712130716 -1619.4296478807773 0 0 0 0 138.35606833548934 -431.78580397578662 0 -431.78580397578662 -1581.6960095421091 0 0 0 0 90.176960878592354 -490.41677207289831 0 -490.41677207289831 -1581.8886339508517 0 0 0 0 188.77098448445167 -374.87346347264975 0 -374.87346347264975 -1540.2612539395759 0 0 0 0 3.4723290454577409 -489.28546398895924 0 -489.28546398895924 -1433.4966207754223 0 0 0 0 37.072326519102205 -418.98449232679923 0 -418.98449232679923 -1410.965390068779 0 0 0 0 75.449854703064204 -508.62458753106148 0 -508.62458753106148 -1636.2179231509544 0 0 0 0 106.32961618816 -413.30495003029137 0 -413.30495003029137 -1501.7907385085527 0 0 0 0 17.817914129678684 -500.14802299352959 0 -500.14802299352959 -1636.6804849222171 0 0 0 0 33.370968579095717 -538.02213064713851 0 -538.02213064713851 -1772.9119132219894 0 0 0 0 -48.095755047340816 -518.57453739618722 0 -518.57453739618722 -1769.3028500846449 0 0 0 0 129.33737189669546 -542.25610617969505 0 -542.25610617969505 -1734.127638786633 0 0 0 0 73.810403593605201 -497.95762916961939 0 -497.95762916961939 -1797.3875509918871 0 0 0 0 173.14543978210747 -571.97143258498681 0 -571.97143258498681 -1785.6431050126703 0 0 0 0 132.07498421864955 -582.79453163649305 0 -582.79453163649305 -1739.8612220785376 0 0 0 0 191.1260127636339 -560.05743344663188 0 -560.05743344663188 -1784.6918479147062 0 0 0 0 135.82639477535588 -561.33176703533991 0 -561.33176703533991 -1783.867877947614 0 0 0 0 95.207366090481571 -53.480182435903771 0 -53.480182435903771 -2078.116537954651 0 0 0 0 134.33169707992835 -346.04274762437126 0 -346.04274762437126 -2496.1666222683343 0 0 0 0 15.156189725094606 -169.85662490295726 0 -169.85662490295726 -2245.2604843056688 0 0 0 0 35.908328650578568 -425.76328701593229 0 -425.76328701593229 -2144.8660543013029 0 0 0 0 -1.5410423055041207 -103.0768511553797 0 -103.0768511553797 -1815.1110131263704 0 0 0 0 -43.848470764007686 21.669877487765916 0 21.669877487765916 -1900.211563689822 0 0 0 0 -245.05813683736514 48.121866938858147 0 48.121866938858147 -1897.3150145271429 0 0 0 0 111.72825157235303 120.17010645602932 0 120.17010645602932 -1888.8716022782864 0 0 0 0 1.2782940614538945 0.041261844535583236 0 0.041261844535583236 -6.1152746856233193 0 0 0 0 410.94525888610923 735.62673064588671 0 735.62673064588671 -667.10755189621841 0 0 0 0 -201.26881977416789 -562.9360443489777 0 -562.9360443489777 -534.93275388881011 0 0 0 0 -323.82065446403203 -157.02208202369729 0 -157.02208202369729 -1177.7901055633411 0 0 0 0 -123.818210428566 -570.24224889956895 0 -570.24224889956895 -1692.2178754841007 0 0 0 0 192.27184092910912 -947.97802846402919 0 -947.97802846402919 -2501.4590272877831 0 0 0 0 -4.6898648817864057 -533.74310167660769 0 -533.74310167660769 -1745.7540272405822 0 0 0 0 236.63549682753384 -587.68830758284457 0 -587.68830758284457 -1289.747880146479 0 0 0 0 -198.35583749048931 -870.89583340132594 0 -870.89583340132594 -1262.8234204616892 0 0 0 0 -830.3342125303094 -1761.6999845202226 0 -1761.6999845202226 -2496.37413095682 0 0 0 0 2.7317360240310311 -3.509627936013473 0 -3.509627936013473 -7.3561203514348392 0 0 0 0 346.25669660222354 -678.47373601898107 0 -678.47373601898107 -287.06735555300111 0 0 0 0 -726.56787484926258 -308.67488822419546 0 -308.67488822419546 37.502708190064368 0 0 0 0 672.72668711664687 -347.69745690060051 0 -347.69745690060051 -344.81937475749874 0 0 0 0 3.8900252087031739 -1.6464078847156713 0 -1.6464078847156713 -11.200108672615954 0 0 0 0 -648.85843241731186 -713.69892042042738 0 -713.69892042042738 -1661.9023037530205 0 0 0 0 -556.22241274712383 -152.4557391151975 0 -152.4557391151975 -72.435366446854459 0 0 0 0 350.07251660157317 324.70011341273857 0 324.70011341273857 -2602.6394477761496 0 0 0 0 686.76061011885645 1134.7457065143446 0 1134.7457065143446 -1357.7254853182458 0 0 0 0 152.20858081198691 512.89438158479788 0 512.89438158479788 -2022.493209183318 0 0 0 0 64.074936452521968 34.642412567344536 0 34.642412567344536 -1706.6699455444905 0 0 0 0 -340.04384407478449 -507.06390865039612 0 -507.06390865039612 -2017.9330735415715 0 0 0 0 49.554451701415019 -162.92809942383246 0 -162.92809942383246 -2686.8204831935327 0 0 0 0 -238.97223060174832 -460.39280603898078 0 -460.39280603898078 -1714.1944818730481 0 0 0 0 -196.50512184645243 -384.10142707611976 0 -384.10142707611976 -1536.7489702694875 0 0 0 0 -203.32169816372186 -335.02359470246665 0 -335.02359470246665 -1864.2223066860133 0 0 0 0 -170.14919365266417 -231.55320803194627 0 -231.55320803194627 -1122.1112979108511 0 0 0 0 -172.80128238239388 -187.30527405806788 0 -187.30527405806788 -1797.013194266372 0 0 0 0 -154.48796591493323 -484.04948104791765 0 -484.04948104791765 -1333.9016852666573 0 0 0 0 -154.38734132103454 -493.98825863649472 0 -493.98825863649472 -1702.5015162556338 0 0 0 0 -64.655079198437136 -431.41628635616144 0 -431.41628635616144 -1338.0029434024727 0 0 0 0 -128.88654326072574 -365.53515841931357 0 -365.53515841931357 -283.88369655198767 0 0 0 0 -113.72394547087046 -360.87714557179061 0 -360.87714557179061 -1438.3639160229723 0 0 0 0 147.84065054257206 531.55308178262203 0 531.55308178262203 -2060.3612618724219 0 0 0 0 254.75962637720289 959.22116266174089 0 959.22116266174089 -447.49447851423611 0 0 0 0 -30.257761669808133 270.07965078195048 0 270.07965078195048 -2058.9963180333871 0 0 0 0 -113.31648356348074 395.95975395155983 0 395.95975395155983 -1162.6520806984217 0 0 0 0 -71.610162346058814 396.93540321580804 0 396.93540321580804 -2074.5400480132666 0 0 0 0 106.71177313476377 159.89027936660204 0 159.89027936660204 -2346.4267415408249 0 0 0 0 -520.73733147198436 -94.994481206544151 0 -94.994481206544151 -1961.9677832448979 0 0 0 0 0.055150305798209086 -136.27813224769253 0 -136.27813224769253 -1500.7663278755645 0 0 0 0 -138.35635614887531 393.54514566791477 0 393.54514566791477 -2603.9557706423147 0 0 0 0 -5.0369709685352291 64.370185504043548 0 64.370185504043548 -1854.272514362252 0 0 0 0 -187.88607219864772 -682.16085711592359 0 -682.16085711592359 -1063.9047394645022 0 0 0 0 -0.33898255827779988 3.86719047452452 0 3.86719047452452 -10.934054416858913 0 0 0 0 -193.85201835365069 -827.10686679730861 0 -827.10686679730861 -2624.7658827989358 0 0 0 0 192.81304712041646 -595.54819314079941 0 -595.54819314079941 -1239.0592171590688 0 0 0 0 -129.79981765627321 -582.33933632080516 0 -582.33933632080516 -1278.4511325898202 0 0 0 0 239.48266249761767 -101.06958843449911 0 -101.06958843449911 -916.66323160272441 0 0 0 0 0.17545778993712741 7.5458272758437914 0 7.5458272758437914 -20.905291668564303 0 0 0 0 205.15018183478918 -76.93778129623206 0 -76.93778129623206 -698.8452130889782 0 0 0 0 197.84927349000142 545.86220298502303 0 545.86220298502303 -509.04722722379665 0 0 0 0 -64.00437541645266 -468.01473391559921 0 -468.01473391559921 -670.11219738264253 0 0 0 0 0.19551222681780145 2.9436229961452511 0 2.9436229961452511 -10.953880873682778 0 0 0 0 0.038632102990816319 -223.97259065130311 0 -223.97259065130311 -2229.0204425215707 0 0 0 0 -130.15301801544777 -73.134142189724116 0 -73.134142189724116 -1697.4420904005965 0 0 0 0 -239.44741573273919 -355.29372301708463 0 -355.29372301708463 -981.21532470405509 0 0 0 0 -23.519612230928814 129.80495633924329 0 129.80495633924329 -2317.1150489505599 0 0 0 0 -87.989085868403208 -9.6432510792328685 0 -9.6432510792328685 -2539.7244558623215 0 0 0 0 -244.561470715539 -1082.4512494196042 0 -1082.4512494196042 -2860.1674699228897 0 0 0 0 73.601560327567256 -734.96080839866045 0 -734.96080839866045 -1974.2564831393684 0 0 0 0 -176.1534570132207 -285.0891599243696 0 -285.0891599243696 -2138.2195846881514 0 0 0 0 -53.061353398484698 -152.74560964352349 0 -152.74560964352349 -1998.9824253577026 0 0 0 0 -892.34731148703645 -79.244859386271855 0 -79.244859386271855 -1997.047139797658 0 0 0 0 -16.065125752823448 -144.82072184969365 0 -144.82072184969365 -2468.6080951647964 0 0 0 0 21.66308849695497 -424.80519426159663 0 -424.80519426159663 -1781.9880023984915 0 0 0 0 -490.03028813299295 -830.24676991615161 0 -830.24676991615161 -584.13209857978654 0 0 0 0 -0.83591205180058892 -2.3698973240827286 0 -2.3698973240827286 -14.573288877013795 0 0 0 0 -319.91057146429966 388.88909448945924 0 388.88909448945924 -619.09550325128293 0 0 0 0 -293.59282980418334 709.25269190884137 0 709.25269190884137 -2142.5292270209393 0 0 0 0 285.78759135659016 -384.59368797374555 0 -384.59368797374555 -2180.5825276616379 0 0 0 0 -276.10253996923313 -861.37935621626093 0 -861.37935621626093 -2548.5479080578334 0 0 0 0 88.796669371257849 -379.88913541279544 0 -379.88913541279544 -2039.2318056756267 0 0 0 0 62.189216067061921 -531.45930482491531 0 -531.45930482491531 -2128.8670112095642 0 0 0 0 -118.51876857389043 -641.40431594377969 0 -641.40431594377969 -1945.2015181642637 0 0 0 0 -16.584951713919033 -654.12408663113365 0 -654.12408663113365 -1742.8352440506424 0 0 0 0 -61.433801928440317 -528.90635141979146 0 -528.90635141979146 -1789.8430497867284 0 0 0 0 -44.77443135503708 -514.65266090403929 0 -514.65266090403929 -1944.7588003277779 0 0 0 0 118.41201858863522 -420.73026283785839 0 -420.73026283785839 -1922.8554722081317 0 0 0 0 -198.49656282713113 -383.40283897248082 0 -383.40283897248082 -1821.0890228246863 0 0 0 0 -159.29038803464726 -487.66070093802955 0 -487.66070093802955 -1710.514889843078 0 0 0 0 -61.480341495185456 -493.5378781976724 0 -493.5378781976724 -1734.8888527486633 0 0 0 0 -168.38535871790361 -429.53036524910567 0 -429.53036524910567 -1742.2109658652189 0 0 0 0 -137.42634695735148 -459.36945102497339 0 -459.36945102497339 -1730.2781018262904 0 0 0 0 105.4401894859825 -365.31680763838085 0 -365.31680763838085 -1759.3107747026952 0 0 0 0 -178.4579169304854 -561.24203444192608 0 -561.24203444192608 -1850.1491270718107 0 0 0 0 -1.7531190249288173 -3.5486502306150527 0 -3.5486502306150527 -6.403975433695976 0 0 0 0 51.122747557451248 416.00597010224374 0 416.00597010224374 -2624.594861434296 0 0 0 0 273.85300184953127 -116.0981723997246 0 -116.0981723997246 -1884.1210190023412 0 0 0 0 -20.474751650151234 -311.42903664571168 0 -311.42903664571168 -1893.865384314704 0 0 0 0 75.566078246668098 -529.65376359144284 0 -529.65376359144284 -898.8965997057021 0 0 0 0 57.535750261979842 -278.03889297883029 0 -278.03889297883029 88.202138558197476 0 0 0 0 171.91568343330763 22.566258078804822 0 22.566258078804822 -284.04759478298001 0 0 0 0 103.52064348701424 300.71704585304178 0 300.71704585304178 182.02970822797215 0 0 0 0 3.1926060575393453 3.1754507282570046 0 3.1754507282570046 -2.9448678562590231 0 0 0 0 -12.457526367318792 462.25279363532172 0 462.25279363532172 -562.65012035126711 0 0 0 0 215.94288171411756 16.798368693424891 0 16.798368693424891 -23.399426991250948 0 0 0 0 0.30175533160539292 1.0118965419771087 0 1.0118965419771087 -0.92535907618673718 0 0 0 0 -22.541412765991254 -19.703670208109543 0 -19.703670208109543 -359.69380216904392 0 0 0 0 49.864006788108952 -98.219840412213671 0 -98.219840412213671 -981.67797053704271 0 0 0 0 -56.249126680061863 -139.16257749869146 0 -139.16257749869146 -511.42947222231305 0 0 0 0 17.87520033826263 -30.252417036245788 0 -30.252417036245788 -317.21250960168982 0 0 0 0 36.480236036882616 -57.920345566013566 0 -57.920345566013566 -483.37056035871865 0 0 0 0 22.674021730329514 19.22292441668651 0 19.22292441668651 -166.72941185013769 0 0 0 0 34.831050057713469 23.926682943196283 0 23.926682943196283 -392.92478120312444 0 0 0 0 -18.367852628985247 5.0799971888209257 0 5.0799971888209257 -78.506496802096081 0 0 0 0 4.5331853174299441 -4.9335960759319022 0 -4.9335960759319022 5.1306628371215197 0 0 0 0 28.640537477820089 46.585480147199632 0 46.585480147199632 -157.43326731470006 0 0 0 0 29.89131861779083 -46.406274949753424 0 -46.406274949753424 51.375553537152882 0 0 0 0 18.105356873894884 -19.05897134165869 0 -19.05897134165869 -4.5472837525266634 0 0 0 0 2.6759383569710167 -6.7151661206844437 0 -6.7151661206844437 72.15331944214995 0 0 0 0 31.959609052297481 116.73740750767683 0 116.73740750767683 -434.35716694044822 0 0 0 0 -21.053704452955117 105.71584384308517 0 105.71584384308517 -123.75035622931318 0 0 0 0 -98.124565004874569 -28.750714958909157 0 -28.750714958909157 -313.84101660365559 0 0 0 0 17.751881649938866 -62.988242780367727 0 -62.988242780367727 72.774223507294664 0 0 0 0 0.69133443937415395 -0.44480637484053887 0 -0.44480637484053887 -1.9463735744876942 0 0 0 0 -122.22987875035679 199.67596139026864 0 199.67596139026864 -425.01861666008699 0 0 0 0 23.135947421796288 -81.374972560421156 0 -81.374972560421156 1.3045515129924752 0 0 0 0 0.062981283497563822 -5.8609553188492214 0 -5.8609553188492214 -2.7238123677316537 0 0 0 0 28.030188135930814 -36.433728834395879 0 -36.433728834395879 49.705321014902438 0 0 0 0 12.208241877980351 -19.418205285515626 0 -19.418205285515626 -9.9858928418403643 0 0 0 0 30.127372476797973 -28.505053874265286 0 -28.505053874265286 5.3044115869925008 0 0 0 0 13.959208103791809 -6.5235050217015669 0 -6.5235050217015669 51.045214241792564 0 0 0 0 2.6425328530685874 -19.248842451430392 0 -19.248842451430392 81.258995343654533 0 0 0 0 0.32773956749497302 -14.31870744115713 0 -14.31870744115713 22.40711388742784 0 0 0 0 30.9970017878818 -17.125667125787004 0 -17.125667125787004 36.107273344197893 0 0 0 0 29.705310726720825 -35.298021967377281 0 -35.298021967377281 39.28699259799032 0 0 0 0 59.308563093820112 -18.322633531817701 0 -18.322633531817701 31.951446256403869 0 0 0 0 7.2575100524773006 -66.785588558966992 0 -66.785588558966992 -4.1710470156394877 0 0 0 0 -259.92162296162218 -314.16063569519611 0 -314.16063569519611 34.095060661544267 0 0 0 0 1.5508928380095313 -6.7110157290007919 0 -6.7110157290007919 -8.9531615980667993 0 0 0 0 10.033940139569975 3.6420668842560531 0 3.6420668842560531 -12.325047002618739 0 0 0 0 2.9496498631554977 -6.157039149202987 0 -6.157039149202987 -7.0610971023260873 0 0 0 0 0.15060031624755676 -1.7955693765611578 0 -1.7955693765611578 0.26400373596999316 0 0 0 0 1.3388688060029827 -15.345207215404862 0 -15.345207215404862 5.2850410401581485 0 0 0 0 13.142318926034932 -6.0759065996753634 0 -6.0759065996753634 -26.051013157692068 0 0 0 0 122.53731906906819 26.839827617646733 0 26.839827617646733 -56.308621066418709 0 0 0 0 3.1199374687691086 -9.3630851386460918 0 -9.3630851386460918 -47.478978276641129 0 0 0 0 99.039185451516289 -79.273308904705118 0 -79.273308904705118 -93.224321158719249 0 0 0 0 94.880647004908951 -93.215831539440842 0 -93.215831539440842 -134.4563958941435 0 0 0 0 -29.386951091981615 5.4937123817508109 0 5.4937123817508109 -43.654332893413084 0 0 0 0 69.562040270250918 -150.31516939600806 0 -150.31516939600806 -243.36088512332935 0 0 0 0 -37.643972867014782 141.3125135789669 0 141.3125135789669 -74.79239153060189 0 0 0 0 267.79817926103601 -65.306762980624626 0 -65.306762980624626 -226.47261035942938 0 0 0 0 -1.1168041546988761 -5.4306899029762228 0 -5.4306899029762228 -36.308403927999706 0 0 0 0 -19.682082726075635 142.56769283461472 0 142.56769283461472 -145.42143210911308 0 0 0 0 -167.16342818014078 476.87168341998768 0 476.87168341998768 669.67407840753731 0 0 0 0 113.31376187045322 296.75624085761956 0 296.75624085761956 -42.268215627991594 0 0 0 0 -257.70649857744371 74.496658635620406 0 74.496658635620406 124.45895851809473 0 0 0 0 -96.770964312500723 -27.36984300680524 0 -27.36984300680524 -226.85718312412064 0 0 0 0 138.59128600627037 122.7397425545787 0 122.7397425545787 -317.26587602957443 0 0 0 0 -358.10412928693353 -218.54691232295772 0 -218.54691232295772 -257.7874549385233 0 0 0 0 117.10120270686707 -60.698333704302058 0 -60.698333704302058 -54.779341451518121 0 0 0 0 -163.0438730757777 100.43201253338339 0 100.43201253338339 -127.66635323179798 0 0 0 0 44.587731926515517 94.118026234049466 0 94.118026234049466 -38.393911040194325 0 0 0 0 -29.675227114010795 72.222257684785291 0 72.222257684785291 -6.9447488095174776 0 0 0 0 64.831498599536076 537.8283785042222 0 537.8283785042222 -820.36858782399213 0 0 0 0 53.154367132430934 50.051218970034824 0 50.051218970034824 -17.659298013633816 0 0 0 0 4.8116007850387446 4.0962085397231505 0 4.0962085397231505 -2.811167687076761 0 0 0 0 -143.12915637496306 177.47989188943757 0 177.47989188943757 8.0453183679055655 0 0 0 0 -680.52445051755899 -568.62620867755322 0 -568.62620867755322 -908.75577591011825 0 0 0 0 0.27439090063913696 2.7648855074890832 0 2.7648855074890832 1.0118202304846022 0 0 0 0 -28.396294878087133 243.48708913355949 0 243.48708913355949 -296.09781029066653 0 0 0 0 -65.110252416893914 12.98464075335869 0 12.98464075335869 70.866657103470061 0 0 0 0 -16.292714486717216 92.935238149540965 0 92.935238149540965 -104.4546949196374 0 0 0 0 -0.37768286099440318 0.92593141712856664 0 0.92593141712856664 0.26260125448287397 0 0 0 0 -0.58448150612525507 35.52209883829164 0 35.52209883829164 -451.67900262201147 0 0 0 0 -184.59926702801013 -201.35558509418479 0 -201.35558509418479 -27.607536799969239 0 0 0 0 -40.404395635237336 183.50975340214791 0 183.50975340214791 -510.72220200620359 0 0 0 0 -73.27265804844086 186.57513623295017 0 186.57513623295017 -482.88294934386067 0 0 0 0 -93.239899072791559 163.54472684283246 0 163.54472684283246 -474.60252671085618 0 0 0 0 -0.47670673815489656 18.602855139777603 0 18.602855139777603 -545.77768601571734 0 0 0 0 47.772084706854152 -304.28813549806546 0 -304.28813549806546 -988.9126747527298 0 0 0 0 7.3447200238585992 -377.02809729882756 0 -377.02809729882756 -1175.7892177138201 0 0 0 0 40.900471305145402 -84.806704599832301 0 -84.806704599832301 -900.42541083064134 0 0 0 0 181.03547917468609 -120.84001328174782 0 -120.84001328174782 -932.65342393336505 0 0 0 0 1.7334407394847631 -87.488282958753189 0 -87.488282958753189 -551.96851150800649 0 0 0 0 -51.574391039695911 -88.05437030799294 0 -88.05437030799294 -551.00925427745915 0 0 0 0 -19.474123065208687 -184.7267257716303 0 -184.7267257716303 -95.070243634610961 0 0 0 0 -26.944165998051631 -263.05853306932113 0 -263.05853306932113 -568.52716536013759 0 0 0 0 -61.508482964673362 -53.009105490491493 0 -53.009105490491493 135.88741164706153 0 0 0 0 8.0936948879570991 -36.543262301660434 0 -36.543262301660434 -57.660809447230349 0 0 0 0 38.949011312116284 -39.2914817441997 0 -39.2914817441997 -131.55428009753814 0 0 0 0 -3.7450004584855434 -4.2668467460786985 0 -4.2668467460786985 -0.81243878336897346 0 0 0 0 -66.945420506286666 -234.50664550609144 0 -234.50664550609144 -957.88319187210459 0 0 0 0 -47.797645938440809 -206.85267021442633 0 -206.85267021442633 -1154.8576892749043 0 0 0 0 -1.3201079517119008 -1.128471848578215 0 -1.128471848578215 -0.93009767331023774 0 0 0 0 33.422096825480708 -320.29585142943688 0 -320.29585142943688 -1480.2489831951443 0 0 0 0 -35.333477378440762 -312.30896553449566 0 -312.30896553449566 -1123.6232539977254 0 0 0 0 -40.901763300512144 -395.69669385949101 0 -395.69669385949101 -1245.0887761867998 0 0 0 0 -27.145378134463613 -331.95763235853155 0 -331.95763235853155 -1104.563754674029 0 0 0 0 -19.050998849249822 -295.7599270007031 0 -295.7599270007031 -1282.3237830718645 0 0 0 0 33.538352797029461 -359.33632402705553 0 -359.33632402705553 -1298.0793650339729 0 0 0 0 40.828478317387464 -352.27746072742593 0 -352.27746072742593 -1324.8545181907466 0 0 0 0 53.758036996885494 -165.13550556638802 0 -165.13550556638802 -1085.1323345350756 0 0 0 0 190.93848028469188 -46.222226226416751 0 -46.222226226416751 -1282.5104441392177 0 0 0 0 2.8978503631891614 0.19076394139401032 0 0.19076394139401032 -2.2564650578274623 0 0 0 0 62.328374093826142 -322.70355537558316 0 -322.70355537558316 -1342.4221957581103 0 0 0 0 275.2200042606006 -268.77748344441625 0 -268.77748344441625 -1535.4311300860209 0 0 0 0 30.239772609986176 -223.23089421254917 0 -223.23089421254917 -1650.4591198682638 0 0 0 0 5.6058052438343822 -0.56491025880886525 0 -0.56491025880886525 -3.2494689700143979 0 0 0 0 -37.382719681853814 -200.02947521612441 0 -200.02947521612441 -1529.0718234772212 0 0 0 0 -63.700858994804776 -374.200033932324 0 -374.200033932324 -1741.7564559246439 0 0 0 0 -112.34003156680456 -243.91329087500708 0 -243.91329087500708 -1663.9664323486977 0 0 0 0 -12.746629260645022 -235.69371706763923 0 -235.69371706763923 -1677.3883973648972 0 0 0 0 2.687591435567608 -0.93071189076069061 0 -0.93071189076069061 -2.4889348151999648 0 0 0 0 -30.281738857613789 -207.66140707533305 0 -207.66140707533305 -1612.7549110740511 0 0 0 0 160.61667517225351 -248.77843913519246 0 -248.77843913519246 -1682.4894776340843 0 0 0 0 56.082090524007754 188.03762222100505 0 188.03762222100505 -934.05703446685948 0 0 0 0 -149.0815665256082 56.283497647564218 0 56.283497647564218 -985.2373699577729 0 0 0 0 300.6429317774332 -164.78754469597698 0 -164.78754469597698 -906.67347259576491 0 0 0 0 -96.789117056937357 97.109780624985433 0 97.109780624985433 -292.2058519461425 0 0 0 0 1.5834794627004261 -2.8497679772125792 0 -2.8497679772125792 -4.6641402794520559 0 0 0 0 -3.8712031776826139 -10.453814180268722 0 -10.453814180268722 -14.20427103811285 0 0 0 0 -20.378529203831476 -128.69085024893138 0 -128.69085024893138 -764.23301934364645 0 0 0 0 2.954901597683147 118.19419949386429 0 118.19419949386429 -931.85394871209792 0 0 0 0 -91.982999754975481 -122.20073969440818 0 -122.20073969440818 -918.27268487709807 0 0 0 0 234.07272743440944 -94.847361517215177 0 -94.847361517215177 -1599.8162508348814 0 0 0 0 -10.744799000925354 249.09259403148735 0 249.09259403148735 -525.0295197880987 0 0 0 0 -24.247286604993405 -133.56059480276235 0 -133.56059480276235 -286.55371169586579 0 0 0 0 -118.72142205022851 12.81543242421867 0 12.81543242421867 -142.02268587982689 0 0 0 0 139.11496913866449 -30.797952734712453 0 -30.797952734712453 -222.5249135795857 0 0 0 0 -1.7829659370942856 -1.7950165685390829 0 -1.7950165685390829 -2.2587677178067054 0 0 0 0 -61.807578461376295 -161.87694992010165 0 -161.87694992010165 -187.45714442302415 0 0 0 0 -71.420056598612064 -157.08546504195692 0 -157.08546504195692 138.04454096756672 0 0 0 0 5.61219575617495 0.93725120169781917 0 0.93725120169781917 -7.7255953576138268 0 0 0 0 -17.884637720656428 40.10726197666736 0 40.10726197666736 -259.87201156955416 0 0 0 0 174.94736635319057 -5.2603672965915393 0 -5.2603672965915393 -29.6315952547302 0 0 0 0 0.38927951813047912 71.413666371903673 0 71.413666371903673 -330.7126451233562 0 0 0 0 138.14937092024115 -27.491476279576545 0 -27.491476279576545 -15.673178790952079 0 0 0 0 -2.782774448597487 -5.6581456687303984 0 -5.6581456687303984 -7.6467621137452397 0 0 0 0 16.941776207303064 28.124207331551588 0 28.124207331551588 -335.54761238740502 0 0 0 0 9.7413655418004055 20.386041865720472 0 20.386041865720472 -305.17907109641237 0 0 0 0 47.192603650933506 -1.5317860847208067 0 -1.5317860847208067 -295.81501656378896 0 0 0 0 63.727093968830332 50.121708207965639 0 50.121708207965639 -225.73886319893063 0 0 0 0 91.135995095834005 5.5641732338081056 0 5.5641732338081056 -340.68520847749642 0 0 0 0 77.368581732830989 44.608635158117977 0 44.608635158117977 -305.67548306355457 0 0 0 0 23.854895488718284 -50.908881999926962 0 -50.908881999926962 18.450474844561541 0 0 0 0 3.1589043239377332 -1.061976261211953 0 -1.061976261211953 -2.0531454040778243 0 0 0 0 67.056359050368201 -28.416196285052138 0 -28.416196285052138 -227.52420270242874 0 0 0 0 47.137204151194055 -28.909209272620501 0 -28.909209272620501 -186.07476764822241 0 0 0 0 89.043798201371374 -25.822276886450709 0 -25.822276886450709 -71.578316999431991 0 0 0 0 27.765888142523657 -16.47994149383986 0 -16.47994149383986 -4.0355678485120805 0 0 0 0 -300.40710663902428 16.924295479084321 0 16.924295479084321 -118.72450622834003 0 0 0 0 18.610997336097171 159.98892254357997 0 159.98892254357997 -776.56603900112168 0 0 0 0 -45.34793985058468 77.285586175483331 0 77.285586175483331 -262.19252113167749 0 0 0 0 -178.48017642588025 3.7023144226877776 0 3.7023144226877776 85.989353049051715 0 0 0 0 95.901972330182616 53.103453240510134 0 53.103453240510134 -330.2884323073813 0 0 0 0 81.00514988393752 40.263540829786507 0 40.263540829786507 -117.34079208817366 0 0 0 0 177.42098035070376 116.79810479225489 0 116.79810479225489 -133.33064814885438 0 0 0 0 62.917468488454233 110.66446104277566 0 110.66446104277566 -107.16654132740223 0 0 0 0 128.60033225840152 71.433655329892645 0 71.433655329892645 -138.03779526076687 0 0 0 0 88.735891088313338 113.15106050344548 0 113.15106050344548 -82.668083677068353 0 0 0 0 49.878279724862068 52.393297551017895 0 52.393297551017895 -102.85291135580701 0 0 0 0 55.083643394043065 95.993437708897545 0 95.993437708897545 -332.35423793707014 0 0 0 0 -45.183266237619591 -150.64915739512799 0 -150.64915739512799 -278.26460119713829 0 0 0 0 84.165310826528298 -51.773643503773201 0 -51.773643503773201 -192.84921462434795 0 0 0 0 19.334906606460663 -28.64664724341128 0 -28.64664724341128 -141.34347524539044 0 0 0 0 26.826371808783392 -96.673645204278728 0 -96.673645204278728 -213.12645878834883 0 0 0 0 59.711835929467469 11.465422193495215 0 11.465422193495215 -263.06790022863424 0 0 0 0 -73.153940420107801 -32.937327674531844 0 -32.937327674531844 -253.75759186337382 0 0 0 0 22.070261062070784 -75.156344037586678 0 -75.156344037586678 -151.81895358702604 0 0 0 0 33.99831464694995 40.246719371236395 0 40.246719371236395 -245.23895897296461 0 0 0 0 46.601880696105695 6.9777167957345227 0 6.9777167957345227 -167.64388469087135 0 0 0 0 28.54995968511335 7.6843368864356307 0 7.6843368864356307 -255.23086202804552 0 0 0 0 111.59105842654363 36.961027851827566 0 36.961027851827566 -24.329110927072179 0 0 0 0 224.54534491682472 -127.99975156427172 0 -127.99975156427172 -145.63811686117697 0 0 0 0 -1.0979718315266731 -2.019505632854262 0 -2.019505632854262 0.17701709212261107 0 0 0 0 -107.15875867078219 147.54589456477697 0 147.54589456477697 -166.37613895317554 0 0 0 0 -46.897710532734152 47.020832819041971 0 47.020832819041971 -24.420065664948197 0 0 0 0 0.021055463885659265 67.989399671507272 0 67.989399671507272 -25.058034587288944 0 0 0 0 9.0921709407592584 26.887440313644078 0 26.887440313644078 -65.715472210551212 0 0 0 0 17.990532222131151 11.72343830495447 0 11.72343830495447 -104.88589823349685 0 0 0 0 183.90716447416682 1.1651012825568614 0 1.1651012825568614 -32.161872082906484 0 0 0 0 149.4294406519862 165.55453554970245 0 165.55453554970245 -4.6985249938225024 0 0 0 0 1.1075687051187657 8.4940980327053381 0 8.4940980327053381 -6.4235054411965393 0 0 0 0 52.028449244964122 7.0100818372302456 0 7.0100818372302456 -217.40098882698931 0 0 0 0 2.450833428918394 -3.6073626099326788 0 -3.6073626099326788 -11.023313337300578 0 0 0 0 25.108867843252483 -48.991929437310318 0 -48.991929437310318 -211.04691386435297 0 0 0 0 -0.17356227073663366 -8.4477076620414309 0 -8.4477076620414309 -94.863824147641509 0 0 0 0 -3.9610918965240671 -18.602693436156187 0 -18.602693436156187 -134.99615590703252 0 0 0 0 8.8296966491035391 -27.830486271375776 0 -27.830486271375776 -166.42666885534709 0 0 0 0 16.913831446769109 15.245434178792493 0 15.245434178792493 -100.82462948536795 0 0 0 0 15.115384546473749 3.4385504323745408 0 3.4385504323745408 -111.64435233925906 0 0 0 0 4.0093079733103485 9.3396649687637492 0 9.3396649687637492 -52.44734473970945 0 0 0 0 17.233092131503781 19.224370116680802 0 19.224370116680802 -86.715266814411734 0 0 0 0 11.971698562775375 24.217505644268769 0 24.217505644268769 -57.203032296838487 0 0 0 0 17.389412395609259 -4.4243639169296074 0 -4.4243639169296074 -42.179165179138707 0 0 0 0 6.9039923349237142 8.4240709992045595 0 8.4240709992045595 -45.161226925643859 0 0 0 0 20.444712159043711 20.243746209036203 0 20.243746209036203 -10.645659874999552 0 0 0 0 14.454664129500543 24.552214055514924 0 24.552214055514924 -128.1563768369233 0 0 0 0 17.370247065397507 19.818443000782281 0 19.818443000782281 -129.79400671943586 0 0 0 0 11.762606010282752 -0.52894232889957493 0 -0.52894232889957493 -156.86759657019138 0 0 0 0 11.020465909016821 31.609754710902052 0 31.609754710902052 -108.93735380273938 0 0 0 0 16.5839669550096 13.550555917834572 0 13.550555917834572 -98.060772315933718 0 0 0 0 2.6059904762514634 28.809412415568659 0 28.809412415568659 -93.000450284402177 0 0 0 0 11.161646460525283 2.1122476045358667 0 2.1122476045358667 -73.705186001713059 0 0 0 0 4.4063863924426983 35.006021953934578 0 35.006021953934578 -95.369260734732961 0 0 0 0 -6.0272292144927633 33.538881878503162 0 33.538881878503162 -95.143899561968283 0 0 0 0 -16.92701213271922 41.127507175044499 0 41.127507175044499 -53.46611489559708 0 0 0 0 4.228422469372731 12.377552285823237 0 12.377552285823237 -77.714909887112043 0 0 0 0 4.492264613000458 33.926506400499534 0 33.926506400499534 -101.673134256911 0 0 0 0 7.0605585489083751 30.304435620599179 0 30.304435620599179 -100.87800529531523 0 0 0 0 36.107744733763305 -3.2934595440994912 0 -3.2934595440994912 -46.84548868092817 0 0 0 0 -45.309450789025504 254.04045427990422 0 254.04045427990422 -251.26586934758234 0 0 0 0 -108.27136989073824 116.46124113041878 0 116.46124113041878 -162.87396677971174 0 0 0 0 -43.326229743112691 65.361699708917627 0 65.361699708917627 -57.494788793651793 0 0 0 0 -104.39740733099734 96.954450857296251 0 96.954450857296251 -152.1159316838648 0 0 0 0 -61.91498881622158 77.987064095541427 0 77.987064095541427 -114.5066048923145 0 0 0 0 16.990268937166746 16.013880013596903 0 16.013880013596903 -34.483850342615312 0 0 0 0 8.107639124029447 48.849179918906884 0 48.849179918906884 -10.110615748497366 0 0 0 0 3.7575857907377213 244.7729394816306 0 244.7729394816306 -4.3545870172856667 0 0 0 0 -94.102511465742737 68.643052560843444 0 68.643052560843444 -158.09962302794156 0 0 0 0 -37.492213860778065 271.47201406856766 0 271.47201406856766 -371.8656467409819 0 0 0 0 -45.444278635499131 87.385169447562021 0 87.385169447562021 -259.49352051327878 0 0 0 0 39.332725858450587 -14.064955669444778 0 -14.064955669444778 -28.827514569637742 0 0 0 0 10.977586018880174 30.589616020750327 0 30.589616020750327 -115.56016838088726 0 0 0 0 68.780068670348328 39.421102992353553 0 39.421102992353553 -178.12647733532503 0 0 0 0 -55.517317590107041 91.083693356908043 0 91.083693356908043 -18.825249955451 0 0 0 0 12.603718056231173 36.487206012907336 0 36.487206012907336 -127.92879139907018 0 0 0 0 12.882704571548016 18.741707996936285 0 18.741707996936285 4.6177147283460087 0 0 0 0 3.4622006951326512 28.821672437525194 0 28.821672437525194 -121.6715003805075 0 0 0 0 7.5014781700015192 38.756008046893839 0 38.756008046893839 -143.62938168184701 0 0 0 0 36.120405159289575 -21.179073794921251 0 -21.179073794921251 -33.800624216256921 0 0 0 0 4.833196143807724 19.374389230593351 0 19.374389230593351 -1.9810482186381506 0 0 0 0 69.47047666126673 17.283005262121151 0 17.283005262121151 -327.06353440427301 0 0 0 0 64.215289803370979 83.126514530507848 0 83.126514530507848 -330.35473410916325 0 0 0 0 0.95963032368490531 107.7448788705733 0 107.7448788705733 -322.29390109164524 0 0 0 0 36.442043540294812 -15.496353265671914 0 -15.496353265671914 -32.587365090620807 0 0 0 0 26.778311021094851 188.53508501602846 0 188.53508501602846 -420.39061915937782 0 0 0 0 51.32066697350092 -64.113915365815046 0 -64.113915365815046 18.047283305946621 0 0 0 0 -11.936592998747074 122.3712164823628 0 122.3712164823628 -412.28143806477601 0 0 0 0 73.33103021772331 83.401643685720046 0 83.401643685720046 -530.83367478505534 0 0 0 0 45.975856407370884 14.010203864338109 0 14.010203864338109 -370.40581315931922 0 0 0 0 4.7924134527048849 -9.5202698665245151 0 -9.5202698665245151 5.0406645083749169 0 0 0 0 -6.7950230552069115 -61.350733342722378 0 -61.350733342722378 122.55363371370913 0 0 0 0 1.4036497514659914 -1.9503294749071216 0 -1.9503294749071216 -2.3017051355705576 0 0 0 0 19.7042943244669 167.16090717558109 0 167.16090717558109 -741.86550230809326 0 0 0 0 -13.387124032840802 281.30087876992548 0 281.30087876992548 -740.2080573617277 0 0 0 0 -75.148783175278368 228.7089418632022 0 228.7089418632022 -585.47702775450307 0 0 0 0 44.085468554254476 66.960055361283594 0 66.960055361283594 -557.20378502463063 0 0 0 0 31.833882550701304 -11.393161730880294 0 -11.393161730880294 -14.23146041552495 0 0 0 0 48.746398727802443 -85.246643354705157 0 -85.246643354705157 -61.19998760886665 0 0 0 0 83.394809068278846 17.922279032194638 0 17.922279032194638 -414.76496814246912 0 0 0 0 -20.231984202289823 78.451704184815753 0 78.451704184815753 -358.34525576164742 0 0 0 0 64.963369915896976 99.570923323070133 0 99.570923323070133 -406.57260089865304 0 0 0 0 22.359548040381924 23.71340664188574 0 23.71340664188574 -577.45420692571497 0 0 0 0 -24.224565677177452 82.97824150431552 0 82.97824150431552 -365.65755180543056 0 0 0 0 18.208598149973113 74.895864154575975 0 74.895864154575975 -386.14452598489879 0 0 0 0 23.194968663881809 46.567941215278552 0 46.567941215278552 -488.36094681659597 0 0 0 0 37.479422664489903 89.273106664004445 0 89.273106664004445 -504.15996079772594 0 0 0 0 49.436672228715906 76.388110588417476 0 76.388110588417476 -526.77987427415792 0 0 0 0 8.4644920417122194 122.20121855096659 0 122.20121855096659 -231.01838819122349 0 0 0 0 14.96778169809113 103.8234089711259 0 103.8234089711259 -382.53928617306974 0 0 0 0 10.700258926694914 51.072477821610846 0 51.072477821610846 -272.31449964015337 0 0 0 0 30.277153058941622 105.18043406876677 0 105.18043406876677 -366.92296851789251 0 0 0 0 61.48610143429687 132.79238813447591 0 132.79238813447591 -228.3561625844286 0 0 0 0 66.159975280452272 134.24187822378008 0 134.24187822378008 -370.64391538692598 0 0 0 0 -5.9748577295722498 83.231153266213369 0 83.231153266213369 -231.60351317547611 0 0 0 0 95.132172602287028 148.78809210130566 0 148.78809210130566 -92.568248188156304 0 0 0 0 25.56462327403915 98.360459272140361 0 98.360459272140361 -97.174975215217273 0 0 0 0 86.744203707979068 143.33191373493901 0 143.33191373493901 -229.33101930304838 0 0 0 0 8.4609350504738359 61.098981234743405 0 61.098981234743405 -113.77231223398121 0 0 0 0 63.079968360888415 122.37836427292496 0 122.37836427292496 -99.369891694725084 0 0 0 0 27.833417534218825 187.503041239499 0 187.503041239499 -162.90243562054457 0 0 0 0 68.650267745262681 77.504456785150978 0 77.504456785150978 -213.71044947033079 0 0 0 0 47.987039548354005 95.56642355785516 0 95.56642355785516 -235.40806148623233 0 0 0 0 74.968951600902074 156.31459670187905 0 156.31459670187905 -292.43876955071755 0 0 0 0 83.310923394181373 187.74505710415178 0 187.74505710415178 -27.257110164220649 0 0 0 0 29.681743630515484 118.16020837093674 0 118.16020837093674 -38.466035394900246 0 0 0 0 29.42180853400555 229.08824638787951 0 229.08824638787951 188.37601702568645 0 0 0 0 -41.743436849082883 33.823724798315396 0 33.823724798315396 -22.020301616322982 0 0 0 0 48.782386930077223 94.864955767652873 0 94.864955767652873 134.99799971396715 0 0 0 0 72.213926786134834 270.82664479636151 0 270.82664479636151 307.0421376707709 0 0 0 0 -39.236819021879001 -33.887541847103421 0 -33.887541847103421 -446.27546478797376 0 0 0 0 -30.773382343493086 26.48534353580456 0 26.48534353580456 -19.336654740758334 0 0 0 0 -39.074132698796063 -43.991060547115922 0 -43.991060547115922 -317.6429578708121 0 0 0 0 -46.66146453844749 25.801442742274958 0 25.801442742274958 -211.9878836053831 0 0 0 0 110.55182889356365 107.73991738718178 0 107.73991738718178 29.735635747907509 0 0 0 0 22.35669966856949 94.877298832001543 0 94.877298832001543 36.217073653213447 0 0 0 0 73.320917571725886 85.361055158112549 0 85.361055158112549 46.436286150812521 0 0 0 0 49.905631993231509 185.48279621772235 0 185.48279621772235 136.27109743039182 0 0 0 0 141.63850888522575 143.58064534945152 0 143.58064534945152 154.77656719821243 0 0 0 0 49.82571016240945 130.12971151929742 0 130.12971151929742 275.54115992967854 0 0 0 0 103.83101358044769 195.21153384701029 0 195.21153384701029 148.89839218966517 0 0 0 0 250.38695578105217 344.21203663678898 0 344.21203663678898 354.48316589115893 0 0 0 0 -19.767564858008118 17.476562975889991 0 17.476562975889991 -13.073833469441027 0 0 0 0 -31.895749638010329 -82.959790945589702 0 -82.959790945589702 -830.07503107466619 0 0 0 0 -63.794095931643824 82.607637667595554 0 82.607637667595554 -568.90870847702172 0 0 0 0 -108.98864216403672 -105.51973608398293 0 -105.51973608398293 -936.00940007198369 0 0 0 0 10.818021722227968 31.53647454539896 0 31.53647454539896 -420.52795282043371 0 0 0 0 -29.913441806323021 -23.328640354795709 0 -23.328640354795709 -436.31325243514584 0 0 0 0 -5.2304497236818861 27.963041853832692 0 27.963041853832692 -544.78366103061126 0 0 0 0 -8.0136664700761457 20.52580558358477 0 20.52580558358477 -426.81893975780986 0 0 0 0 63.366847352925106 57.968573264588485 0 57.968573264588485 -431.6971399225331 0 0 0 0 10.486188436563225 33.278697113009912 0 33.278697113009912 -423.28892854752485 0 0 0 0 -29.97434343679106 79.916977594722994 0 79.916977594722994 -418.50548598909063 0 0 0 0 -29.754081035753643 72.550098906249332 0 72.550098906249332 -289.14568134981528 0 0 0 0 32.479057107748694 18.101658077906336 0 18.101658077906336 -131.48988359478778 0 0 0 0 -107.11075353786987 48.581827819805767 0 48.581827819805767 -409.66015612734464 0 0 0 0 170.1517847413179 663.23523743551459 0 663.23523743551459 -697.28485661332843 0 0 0 0 -354.07829109003069 255.20405437434647 0 255.20405437434647 -25.857757248586267 0 0 0 0 -181.70121525302238 -12.442983070088417 0 -12.442983070088417 61.544303185188255 0 0 0 0 -205.35974244782903 8.3989027880052163 0 8.3989027880052163 -189.47074091368995 0 0 0 0 32.136815210332188 11.499492092481553 0 11.499492092481553 -136.42575513156845 0 0 0 0 60.120918741709829 181.16635213910376 0 181.16635213910376 -47.464548741709507 0 0 0 0 -145.77578009178194 129.56900018456054 0 129.56900018456054 -264.94500649876136 0 0 0 0 -97.20964152769983 65.537576857668228 0 65.537576857668228 -105.91566554464225 0 0 0 0 -4.9516845411259851 -24.517640357884623 0 -24.517640357884623 -78.196661326907559 0 0 0 0 -55.406954457804659 -39.395720295331557 0 -39.395720295331557 -183.06111116531611 0 0 0 0 -35.409911822806862 82.389693643794999 0 82.389693643794999 -181.20308771442797 0 0 0 0 -40.523240032822287 76.904521654630116 0 76.904521654630116 -177.70895234155614 0 0 0 0 -56.10932576349137 -3.5885971065436024 0 -3.5885971065436024 -94.902037258063501 0 0 0 0 -18.982938947617949 -17.072047286985022 0 -17.072047286985022 -54.823139745660221 0 0 0 0 -49.924675149755714 36.515485100263248 0 36.515485100263248 -40.307610591476617 0 0 0 0 -72.241320404221824 39.886766678799631 0 39.886766678799631 -110.31326819195965 0 0 0 0 -32.578493146262304 2.3110068716077876 0 2.3110068716077876 -288.64250660315884 0 0 0 0 -61.548810461051062 21.364522875977855 0 21.364522875977855 -245.93630956998823 0 0 0 0 -69.061963343152229 31.161512245598715 0 31.161512245598715 -116.31028726956174 0 0 0 0 0.12725458874126808 126.33280860566538 0 126.33280860566538 -192.91187522983819 0 0 0 0 99.463787112101087 241.17063957536311 0 241.17063957536311 -549.43546653472731 0 0 0 0 185.43602331055115 -69.882449108188666 0 -69.882449108188666 8.5562324557977263 0 0 0 0 1.1688111053617329 0.0018893569403815036 0 0.0018893569403815036 -3.2026638857284979 0 0 0 0 -84.325144459307921 125.21940844134588 0 125.21940844134588 -467.41195884563786 0 0 0 0 -55.177042233970269 135.86843947300804 0 135.86843947300804 -529.17035556942574 0 0 0 0 -69.545623753272707 142.84835606316483 0 142.84835606316483 -459.38824800148723 0 0 0 0 -86.585336558090205 136.4765932607479 0 136.4765932607479 -511.00113756545761 0 0 0 0 -222.44500223520777 66.509094392757106 0 66.509094392757106 -435.94680411123954 0 0 0 0 86.53222855421518 15.198551593737648 0 15.198551593737648 -451.78839554028673 0 0 0 0 159.60476147381917 -40.334776219780906 0 -40.334776219780906 -1002.1576659011807 0 0 0 0 -119.62877551286591 -198.14649338806612 0 -198.14649338806612 51.053682308971474 0 0 0 0 376.37886504301991 -399.46469390358106 0 -399.46469390358106 -458.34163861615525 0 0 0 0 0.73818507247963983 -0.47392069775215617 0 -0.47392069775215617 -13.304453961035449 0 0 0 0 -94.041949893389642 346.94225774856022 0 346.94225774856022 -148.74423927161843 0 0 0 0 -357.51315847225283 148.59693472128311 0 148.59693472128311 -237.82836202291946 0 0 0 0 -601.27528225079436 719.86677210530252 0 719.86677210530252 -719.40725280721199 0 0 0 0 -422.53024448881649 278.24906828218082 0 278.24906828218082 -1.0701935763354413 0 0 0 0 -438.69762657709293 755.51949204430275 0 755.51949204430275 -704.65205205520033 0 0 0 0 -101.69361239982754 9.8265196428001218 0 9.8265196428001218 -0.76992763887756155 0 0 0 0 -64.79452684398143 79.289807123552237 0 79.289807123552237 -112.63755576239782 0 0 0 0 -81.930535230776968 138.64358991962581 0 138.64358991962581 -353.10915218802984 0 0 0 0 -115.3254132989 139.03338699110463 0 139.03338699110463 -217.90985951716721 0 0 0 0 437.58365634458448 -84.856092980357062 0 -84.856092980357062 -321.65034420833399 0 0 0 0 -188.71656644940185 17.093858475040179 0 17.093858475040179 -89.975487241790688 0 0 0 0 1.5406506689959061 -2.9888701985975459 0 -2.9888701985975459 -31.136309321208046 0 0 0 0 -14.792193357091151 23.553192322800896 0 23.553192322800896 -151.02737490394065 0 0 0 0 -582.86354889119093 672.65523819329246 0 672.65523819329246 -654.61509422551899 0 0 0 0 -326.315289971026 301.69007484690883 0 301.69007484690883 -196.34326413847157 0 0 0 0 -76.661907696336925 291.97810208691226 0 291.97810208691226 -1020.304507354449 0 0 0 0 273.74452583013283 210.59861258460478 0 210.59861258460478 -1069.7394134177885 0 0 0 0 302.52101676171662 647.90100000459643 0 647.90100000459643 -1279.2349592166283 0 0 0 0 -25.464763944860351 33.226184065526468 0 33.226184065526468 -584.78641991833138 0 0 0 0 -35.546391548874453 158.11529092839919 0 158.11529092839919 -745.20507537777303 0 0 0 0 70.627139330797945 -87.988886209603152 0 -87.988886209603152 -937.51987455884228 0 0 0 0 -65.618526339069149 230.77484203428321 0 230.77484203428321 -716.80210898818041 0 0 0 0 -8.7534647813172342 189.0930474576744 0 189.0930474576744 -686.26529270784522 0 0 0 0 -34.413265893073913 206.21591101156082 0 206.21591101156082 -685.55547557504906 0 0 0 0 -7.0970632026910607 189.37545221482287 0 189.37545221482287 -721.62574027734081 0 0 0 0 -44.31410977610085 130.86989367037313 0 130.86989367037313 -635.54906197226956 0 0 0 0 -94.588760361453751 180.29566670709755 0 180.29566670709755 -348.63642541994341 0 0 0 0 -99.760372378093962 283.63623982200079 0 283.63623982200079 -667.79327567199834 0 0 0 0 -35.721656209137109 113.88861223418644 0 113.88861223418644 -426.49658595522124 0 0 0 0 -0.28886798061375885 143.37011315298878 0 143.37011315298878 -629.93664250020811 0 0 0 0 -83.487447217929002 143.43685158118024 0 143.43685158118024 -435.14712710107597 0 0 0 0 48.367911996802832 199.96074838850836 0 199.96074838850836 -958.87579526501941 0 0 0 0 -32.829571045712328 -27.293244658423646 0 -27.293244658423646 78.47803863012814 0 0 0 0 0.74907902457674069 -2.8912825330432383 0 -2.8912825330432383 -2.5338529089228103 0 0 0 0 -48.573907120369313 183.53682703662707 0 183.53682703662707 -702.51814349152846 0 0 0 0 -60.7480531366582 -45.586877045949223 0 -45.586877045949223 -689.63573114428436 0 0 0 0 7.9643296565209312 -108.05018202583597 0 -108.05018202583597 -87.92684015739178 0 0 0 0 84.725764266759143 87.567601271817693 0 87.567601271817693 -475.85472043188929 0 0 0 0 6.8396797463292387 87.558810564853047 0 87.558810564853047 -475.31623263355868 0 0 0 0 74.115327492792858 100.68488040076045 0 100.68488040076045 -530.61766070935118 0 0 0 0 50.778547784548209 93.406857091853453 0 93.406857091853453 -480.1853781616519 0 0 0 0 33.028293070736254 123.22702074005792 0 123.22702074005792 -529.75953431869993 0 0 0 0 -24.765430255774845 97.897356542263879 0 97.897356542263879 -454.5319727066817 0 0 0 0 18.238677849716623 107.70708232287143 0 107.70708232287143 -458.20956323988139 0 0 0 0 0.43258241663170338 113.81489889015938 0 113.81489889015938 -384.38914324378129 0 0 0 0 31.797281350460253 89.883521663970896 0 89.883521663970896 -478.59510100875559 0 0 0 0 16.380240247356198 70.700728960305469 0 70.700728960305469 -350.51792559948808 0 0 0 0 13.794849886367956 63.172160974922008 0 63.172160974922008 -232.71859229938491 0 0 0 0 -32.828436018678985 117.74516960879555 0 117.74516960879555 -263.8507461471745 0 0 0 0 -65.087472453101327 128.54848094417684 0 128.54848094417684 -315.98076556444721 0 0 0 0 -10.77654956774586 61.937141740523657 0 61.937141740523657 -272.98983851529192 0 0 0 0 -57.814481686170438 44.514244379926822 0 44.514244379926822 -170.8042949990886 0 0 0 0 -78.915130570008841 119.03347975356155 0 119.03347975356155 -207.39131770646054 0 0 0 0 -41.307798875644949 43.570528984542761 0 43.570528984542761 -116.0246137198701 0 0 0 0 -85.259157005759334 46.079701204209414 0 46.079701204209414 -5.42769311441225 0 0 0 0 -2.055044555263521 52.070780058849778 0 52.070780058849778 -114.58227908842309 0 0 0 0 -7.8011920472872589 92.759119172718783 0 92.759119172718783 -103.383384886768 0 0 0 0 4.5054607533297713 33.012171477435913 0 33.012171477435913 -1.4012342917121714 0 0 0 0 -50.499776075483169 85.557962104045146 0 85.557962104045146 -103.81370105882525 0 0 0 0 -4.62032088437536 102.82688432705982 0 102.82688432705982 41.129700063207565 0 0 0 0 -17.900815460636295 54.022157234328915 0 54.022157234328915 -4.5916842317637929 0 0 0 0 -14.82076264612715 22.332333631999063 0 22.332333631999063 45.720162457990227 0 0 0 0 -17.23295585194569 72.038118250104162 0 72.038118250104162 84.507845506566809 0 0 0 0 -5.842677245138475 69.469771729724016 0 69.469771729724016 82.212300730629067 0 0 0 0 103.07363484678211 38.101373128821393 0 38.101373128821393 79.56240390939638 0 0 0 0 6.9450590569049382 106.04335720185918 0 106.04335720185918 168.28910120701767 0 0 0 0 197.41481560783677 77.761672816759528 0 77.761672816759528 162.76944304553035 0 0 0 0 -224.68954648429553 758.74185033864342 0 758.74185033864342 413.75851127180795 0 0 0 0 -19.614799165939985 74.943427221918682 0 74.943427221918682 302.43758332778816 0 0 0 0 37.131525576144668 84.626649521022046 0 84.626649521022046 -2221.6583329799178 0 0 0 0 -7.7185932732741875 5.7157711601666676 0 5.7157711601666676 -4.5344081919535881 0 0 0 0 -400.14381036340455 -301.95698738574356 0 -301.95698738574356 -538.78928774341148 0 0 0 0 -146.94215066609195 879.36923339105124 0 879.36923339105124 -1254.9069407069037 0 0 0 0 -93.081673066303779 1071.6314069854197 0 1071.6314069854197 -1039.6157851069875 0 0 0 0 -168.06075088143643 208.34673521885998 0 208.34673521885998 183.64069424932677 0 0 0 0 252.15142646071763 243.29124030409002 0 243.29124030409002 -531.23811940650921 0 0 0 0 -78.539680389504156 301.64603199928388 0 301.64603199928388 -214.86645224894164 0 0 0 0 608.31532340158174 416.69794900400302 0 416.69794900400302 -895.29118179691432 0 0 0 0 329.17546224723787 66.082870811615066 0 66.082870811615066 -241.90272974382242 0 0 0 0 -754.78856632922566 1599.9362752805609 0 1599.9362752805609 -652.75108261080459 0 0 0 0 371.91507006072163 1624.3420419273825 0 1624.3420419273825 -1331.7451136845921 0 0 0 0 -874.1452642790855 -518.31740083198565 0 -518.31740083198565 378.85861748254683 0 0 0 0 4.9929915363206359 -1.3442299392977333 0 -1.3442299392977333 -47.34278785400204 0 0 0 0 1159.3265021204215 -573.42270645565441 0 -573.42270645565441 -729.4379244135489 0 0 0 0 24.13352641389929 -9.9532328492168745 0 -9.9532328492168745 -47.529919422151579 0 0 0 0 1.3301828005514835 4.8938277999404818 0 4.8938277999404818 -32.825228696799059 0 0 0 0 7.3731260235938416 7.3263011229385313 0 7.3263011229385313 -24.738805611063896 0 0 0 0 8.7119718117751397 10.047428485613576 0 10.047428485613576 -30.834794655054566 0 0 0 0 22.021502715967472 11.542890070835711 0 11.542890070835711 -20.357435099547729 0 0 0 0 19.408518692277084 5.7061322784466029 0 5.7061322784466029 -33.382618380986969 0 0 0 0 -302.94675689878721 694.3197125435313 0 694.3197125435313 -603.78755576253752 0 0 0 0 -344.63156420945472 531.44665565345895 0 531.44665565345895 -807.05210795514722 0 0 0 0 2.9301373946795777 -7.7078384756445075 0 -7.7078384756445075 -19.834092500094414 0 0 0 0 -209.89779690525813 1107.7000508263445 0 1107.7000508263445 -2115.4622436306308 0 0 0 0 -3.0978068678674839 4.8542744812384484 0 4.8542744812384484 -5.4230564570246713 0 0 0 0 -137.96496394017902 -372.39203735296906 0 -372.39203735296906 -1031.0441785326693 0 0 0 0 -156.59172978991865 -39.006918121973285 0 -39.006918121973285 -13.624727653572336 0 0 0 0 0.76021076148309197 1.4820982325714027 0 1.4820982325714027 -0.16778850682140956 0 0 0 0 13.834420513769688 -18.249475105042805 0 -18.249475105042805 -30.193139129707276 0 0 0 0 -791.92804150039569 -41.379995665454771 0 -41.379995665454771 281.02098598759039 0 0 0 0 128.52806749064393 69.366111913699569 0 69.366111913699569 45.461861750402022 0 0 0 0 -1175.9992485582366 1296.6725716855799 0 1296.6725716855799 -547.14592006642488 0 0 0 0 2.227719999006053 2.0441627009181964 0 2.0441627009181964 -21.603701991364574 0 0 0 0 -28.264309932206231 37.763714211318074 0 37.763714211318074 47.661184751043038 0 0 0 0 -2558.7667524673634 442.95964276519953 0 442.95964276519953 797.17249285875005 0 0 0 0 -1237.5372002259596 1810.1165506207708 0 1810.1165506207708 -3188.4765982069075 0 0 0 0 -2949.4875382026462 471.92129864299932 0 471.92129864299932 1620.4798737163219 0 0 0 0 -6.0825221302879982 3.7104440341317968 0 3.7104440341317968 -22.963657899359532 0 0 0 0 1.6157781737528107 -3.284276733393213 0 -3.284276733393213 -37.512891823913208 0 0 0 0 -47.627015488234292 39.041431385707256 0 39.041431385707256 49.660416474376689 0 0 0 0 -51.027945906555317 416.13025379271539 0 416.13025379271539 -620.26318650042231 0 0 0 0 73.525242243338255 -150.13114465911713 0 -150.13114465911713 -259.92106984119164 0 0 0 0 2.5392897085128272 -2.0989867300606022 0 -2.0989867300606022 -9.8582901059700134 0 0 0 0 58.390104863264298 -33.345007910676941 0 -33.345007910676941 -14.609228463028558 0 0 0 0 39.128190322996332 15.386698758214152 0 15.386698758214152 -56.756029527736246 0 0 0 0 40.656590086970141 -2.0566210095048518 0 -2.0566210095048518 -42.076964177962509 0 0 0 0 19.564927042789293 -1.8870308980804111 0 -1.8870308980804111 -34.508693108495208 0 0 0 0 20.59433339224023 -5.5853609406694886 0 -5.5853609406694886 -21.516803027363494 0 0 0 0 13.987193388382984 11.436342176924882 0 11.436342176924882 -34.57696599594783 0 0 0 0 11.248887620522964 -3.8491293132574356 0 -3.8491293132574356 -34.364426532811649 0 0 0 0 -0.27846381999736991 27.334604908446636 0 27.334604908446636 -30.829534210977727 0 0 0 0 4.3984402209046607 17.126193116026116 0 17.126193116026116 -29.780029643054149 0 0 0 0 21.128105918608981 9.4871444437521859 0 9.4871444437521859 -43.166629618732259 0 0 0 0 24.200965504954404 19.74321738348408 0 19.74321738348408 -47.332146380271297 0 0 0 0 17.487679989058471 28.130952184486887 0 28.130952184486887 -49.261413187588914 0 0 0 0 0.016649320537011458 0.11037204159534042 0 0.11037204159534042 -0.017358809659981489 0 0 0 0 19.184180071596415 18.628595134032366 0 18.628595134032366 -50.938595993838135 0 0 0 0 17.74977115850956 25.530607308930485 0 25.530607308930485 -35.073507020118996 0 0 0 0 5.1966229296823485 36.002351125534915 0 36.002351125534915 -37.41330709281101 0 0 0 0 -57.908261992391843 47.379426801620866 0 47.379426801620866 -38.741867061522498 0 0 0 0 -3.082816684679087 6.7343938609192264 0 6.7343938609192264 -4.3406302571038395 0 0 0 0 -0.0064720821049086569 -2.5675174510543002 0 -2.5675174510543002 -1.7826216318098886 0 0 0 0 -58.1404244869168 46.728540640069696 0 46.728540640069696 -37.996759634945192 0 0 0 0 -0.31271895403333955 48.439524695750151 0 48.439524695750151 -38.505334524728823 0 0 0 0 -0.099623050765360155 -0.16108680147007703 0 -0.16108680147007703 0.55958524056114811 0 0 0 0 -0.046346440520971532 0.14425630340652162 0 0.14425630340652162 -0.030577361219798149 0 0 0 0 -45.657888392028724 72.687159849236195 0 72.687159849236195 -59.775821743678534 0 0 0 0 20.614779541668213 21.231291091669846 0 21.231291091669846 -46.995582345567527 0 0 0 0 34.245327838420678 -3.2149962772637082 0 -3.2149962772637082 -29.314820397936273 0 0 0 0 55.717688513719509 7.8831089930608869 0 7.8831089930608869 -24.389070923407417 0 0 0 0 56.695881142431617 42.432934463045967 0 42.432934463045967 -69.598538953294337 0 0 0 0 -0.49940118668502015 84.087327880966768 0 84.087327880966768 -228.41911909203918 0 0 0 0 -51.84521360736727 106.64073447541159 0 106.64073447541159 -159.5511706661382 0 0 0 0 -9.0032743625379652 79.123014589418744 0 79.123014589418744 -180.0863278667166 0 0 0 0 -26.066330927197555 49.108698387899494 0 49.108698387899494 17.276433152241225 0 0 0 0 -4.3465490125980626 -4.7925245883539702 0 -4.7925245883539702 0.88329815221364072 0 0 0 0 -13.449748085294175 3.5927036313114513 0 3.5927036313114513 -44.287137982682907 0 0 0 0 26.727711699341469 66.302264985890361 0 66.302264985890361 -245.24049587814807 0 0 0 0 -0.013907842534152826 -2.9143530309156631 0 -2.9143530309156631 -7.8160972410696559 0 0 0 0 -0.79429760964126495 -0.74809881666803335 0 -0.74809881666803335 -1.4586502821024965 0 0 0 0 -0.28152655929352138 -0.9053062712080191 0 -0.9053062712080191 -2.5300738844547652 0 0 0 0 -1.7323771145308386 -2.7157201395311859 0 -2.7157201395311859 -7.3103170504145965 0 0 0 0 -0.0015911761832824711 -0.40721647162354202 0 -0.40721647162354202 -18.518684737500735 0 0 0 0 0.37542583647762823 -5.3733462836462422 0 -5.3733462836462422 -26.35735401767306 0 0 0 0 0.0077852257168327483 -0.16346880351920845 0 -0.16346880351920845 -29.902420383499702 0 0 0 0 2.0841725191604326 8.7944192658760585 0 8.7944192658760585 -30.501261366298422 0 0 0 0 0.16427870982589673 -0.20374224582677414 0 -0.20374224582677414 -5.3962896550145345 0 0 0 0 2.4455047768282459 -3.527593170288128 0 -3.527593170288128 -30.020116632083955 0 0 0 0 0.43492826463683082 2.9304938727343313 0 2.9304938727343313 -4.6313503961505091 0 0 0 0 3.3760182743218201 2.4445602613826765 0 2.4445602613826765 -19.576337351038006 0 0 0 0 -2.2753483442543798 -1.2770945209049387 0 -1.2770945209049387 -18.427400904998649 0 0 0 0 2.7087863409825812 1.5506229217631784 0 1.5506229217631784 -10.231957622309039 0 0 0 0 -3.7707118054838702 -6.9252772356412606 0 -6.9252772356412606 -23.005330404557753 0 0 0 0 -0.24154266257105284 -0.47528723196774081 0 -0.47528723196774081 -19.414533255825518 0 0 0 0 -0.10484329836071993 -9.2675518977630418 0 -9.2675518977630418 -26.380990908506647 0 0 0 0 -3.4069978208139102 -7.0921253649955247 0 -7.0921253649955247 -5.9486764061634432 0 0 0 0 -0.31176410180854131 -7.1349474555877208 0 -7.1349474555877208 -11.874072130849498 0 0 0 0 -3.5332288287372506 -9.0768456566975146 0 -9.0768456566975146 -16.647793774085585 0 0 0 0 6.4673968085901379 0.695084871025756 0 0.695084871025756 -19.991248247628391 0 0 0 0 2.6152299536334689 10.280858982916044 0 10.280858982916044 -30.517129451034435 0 0 0 0 -11.039865682206482 -7.4410658907800098 0 -7.4410658907800098 -52.569311335741077 0 0 0 0 4.1392043609807843 3.1678666118859837 0 3.1678666118859837 -56.014998447164544 0 0 0 0 3.1318458886447731 -1.668028303666901 0 -1.668028303666901 -19.452127129140337 0 0 0 0 4.7889058039738721 -7.0892250159068624 0 -7.0892250159068624 -29.752129766628997 0 0 0 0 -0.17258608668907982 6.0145213208561472 0 6.0145213208561472 -56.6611916940019 0 0 0 0 6.8351891505062667 2.9361619947558211 0 2.9361619947558211 -67.736646074947203 0 0 0 0 5.0803271901802987 -3.9981559714346986 0 -3.9981559714346986 -52.970006041774468 0 0 0 0 1.0930860093913495 -9.3847393800506467 0 -9.3847393800506467 -8.2890645945090924 0 0 0 0 -1.10496764440677 -4.0666476696060272 0 -4.0666476696060272 -24.429402862704592 0 0 0 0 5.3481367258984136 1.1661548330051374 0 1.1661548330051374 -10.723394832772968 0 0 0 0 8.5928899975837112 -94.470558383985917 0 -94.470558383985917 48.675428729002306 0 0 0 0 24.521529953452045 -29.257341306903982 0 -29.257341306903982 -49.260165156330913 0 0 0 0 -8.2425576283792061 -19.230458210147319 0 -19.230458210147319 -31.120571554448873 0 0 0 0 -30.069460491112924 -2.2017237836334971 0 -2.2017237836334971 46.926972083772853 0 0 0 0 -6.8451456505273161 -21.944916263043524 0 -21.944916263043524 -17.051648238179041 0 0 0 0 -39.372524792336158 12.471108873047342 0 12.471108873047342 -69.884642291159253 0 0 0 0 -84.527432318915601 44.921816941925499 0 44.921816941925499 -18.018807787381206 0 0 0 0 -119.35675281541349 -13.979274821846047 0 -13.979274821846047 78.5093825440199 0 0 0 0 7.4113524342590722 22.39920705064651 0 22.39920705064651 -60.349197152776469 0 0 0 0 46.126205945160592 -186.15434087553513 0 -186.15434087553513 -13.685671506602375 0 0 0 0 -8.8034797424185758 -19.106409548599565 0 -19.106409548599565 -32.232330946572262 0 0 0 0 18.560267592606579 36.612793364522076 0 36.612793364522076 -64.365080850144295 0 0 0 0 94.182096292406641 -52.112410604153411 0 -52.112410604153411 -38.053467495275584 0 0 0 0 -8.1065206428140755 -21.063626261528043 0 -21.063626261528043 -54.085371401626617 0 0 0 0 -4.9960908981738612 -15.657086855339003 0 -15.657086855339003 -59.533905403965036 0 0 0 0 -23.016359614734029 -0.048172630777116865 0 -0.048172630777116865 -72.860568300326122 0 0 0 0 -8.4857021404895931 -18.189388851358672 0 -18.189388851358672 -54.379908612372674 0 0 0 0 18.567178592285018 3.4344745056223474 0 3.4344745056223474 -58.286249527780456 0 0 0 0 0.10054184573891689 -6.0926773876890366 0 -6.0926773876890366 -37.584332007914782 0 0 0 0 15.312853945099505 -4.1245440787315601 0 -4.1245440787315601 -73.494689600120182 0 0 0 0 0.040634027727952216 -0.21183376596229664 0 -0.21183376596229664 -4.0822208052786664 0 0 0 0 6.1757644633703421 -1.992873289695126 0 -1.992873289695126 -98.139810615783063 0 0 0 0 -4.3948581917607044 4.1736603869394457 0 4.1736603869394457 -46.34476370808261 0 0 0 0 3.0082277480446908 -6.0473493877320976 0 -6.0473493877320976 -47.945293228896475 0 0 0 0 -1.4189344398109824 -2.4055111538909841 0 -2.4055111538909841 -70.005685905809514 0 0 0 0 3.7253713906559938 -3.2864743130117944 0 -3.2864743130117944 -11.08716744846847 0 0 0 0 -0.4975017726455917 17.487412442023924 0 17.487412442023924 -45.32841072183146 0 0 0 0 21.79955285386086 -2.3930203241325216 0 -2.3930203241325216 -69.103104979403724 0 0 0 0 1.1645911812145222 -2.1649331591169982 0 -2.1649331591169982 -8.8166913224421322 0 0 0 0 12.861429002112345 -14.418307604988513 0 -14.418307604988513 -78.321372121135937 0 0 0 0 490.51801205824313 -322.83626286669823 0 -322.83626286669823 69.802026482007932 0 0 0 0 1.3254715947877571 0.86824061463316582 0 0.86824061463316582 -16.776718574053916 0 0 0 0 7.1340122960316918 -12.834541847115792 0 -12.834541847115792 -49.677857336924461 0 0 0 0 15.409664626724407 39.171541649775463 0 39.171541649775463 -21.757240489921969 0 0 0 0 -55.799868136396981 -273.95613381571457 0 -273.95613381571457 413.00472924203495 0 0 0 0 154.10820190928553 -209.00476372411867 0 -209.00476372411867 97.133504788020218 0 0 0 0 -575.02723850325992 526.1434361010588 0 526.1434361010588 -578.40035738526785 0 0 0 0 -116.65928985509754 211.6347032318281 0 211.6347032318281 343.45489011489553 0 0 0 0 70.378223820866879 -509.71910789000685 0 -509.71910789000685 69.742093260349066 0 0 0 0 -175.96468510602699 71.799448355880486 0 71.799448355880486 122.77667162915895 0 0 0 0 -298.03942263085355 -61.698077793840639 0 -61.698077793840639 -16.758671881540067 0 0 0 0 -301.21533111695265 447.01546887318295 0 447.01546887318295 -485.47787017047085 0 0 0 0 -50.638067484858084 98.911738638727002 0 98.911738638727002 -23.197159008421295 0 0 0 0 -133.14799177955865 -109.65458799019689 0 -109.65458799019689 253.70825457591127 0 0 0 0 16.095858634323122 -2.5649337371323782 0 -2.5649337371323782 -17.582225431301595 0 0 0 0 2.0518593873148987 -11.633688554404401 0 -11.633688554404401 -13.329954130588995 0 0 0 0 -1.7143695440507951 -7.8011769082278075 0 -7.8011769082278075 -18.130277547098785 0 0 0 0 83.539020937811074 -177.66083819640335 0 -177.66083819640335 64.284696411181358 0 0 0 0 -42.168254521028302 36.21147163925707 0 36.21147163925707 -30.261319729681418 0 0 0 0 -49.184160560009332 -17.615588881417352 0 -17.615588881417352 1.6011289268717519 0 0 0 0 -7.247170992367046 11.428843430396228 0 11.428843430396228 -14.668358846320189 0 0 0 0 -12.686746383159516 -108.54469669733953 0 -108.54469669733953 -245.23730806112872 0 0 0 0 -81.470552966956348 -87.708099295217835 0 -87.708099295217835 -71.552699904987094 0 0 0 0 -208.4420640968699 215.96075109519006 0 215.96075109519006 -34.996023632491415 0 0 0 0 -1.1109501411335012 -1.9997429576998798 0 -1.9997429576998798 -6.2430117110388608 0 0 0 0 -49.047424020751123 -53.945014840504882 0 -53.945014840504882 38.110998928445042 0 0 0 0 303.34633705509737 187.04355861534492 0 187.04355861534492 -395.54070030631556 0 0 0 0 -389.40235000124812 -356.99882284321939 0 -356.99882284321939 302.73408207602188 0 0 0 0 -361.92055102779233 20.704172190594363 0 20.704172190594363 72.259362345794216 0 0 0 0 3.4417025903721878 71.947242945287144 0 71.947242945287144 -333.98903003590385 0 0 0 0 88.68013530159601 60.866666250021808 0 60.866666250021808 140.4725579546357 0 0 0 0 190.1125301030479 -143.20323055580229 0 -143.20323055580229 77.043361258157915 0 0 0 0 -2.4506372339205673 -4.3009884074545397 0 -4.3009884074545397 -7.0275695147885244 0 0 0 0 -4.7965709192328063 -3.9599032992641838 0 -3.9599032992641838 -6.7657382778953092 0 0 0 0 -238.1317002520081 564.85508355998263 0 564.85508355998263 -767.60996948336833 0 0 0 0 449.11805958396087 160.65191675520327 0 160.65191675520327 -995.28459812921938 0 0 0 0 490.26598287782156 637.0217313556318 0 637.0217313556318 -1133.0408487780078 0 0 0 0 -1014.7865848175607 336.55964999593562 0 336.55964999593562 827.31053630073438 0 0 0 0 216.33027663574649 174.3612064125191 0 174.3612064125191 -972.56160497994279 0 0 0 0 361.51715650982806 63.226976235448092 0 63.226976235448092 -969.11458969276282 0 0 0 0 117.63676529025724 -23.583946221173392 0 -23.583946221173392 -999.72003300988581 0 0 0 0 -1110.4607759098769 66.05841942216648 0 66.05841942216648 127.37524649042462 0 0 0 0 170.90769301270427 53.037393774051452 0 53.037393774051452 -746.05988377837639 0 0 0 0 -198.71877428884576 -183.68054857359675 0 -183.68054857359675 -486.98386733338702 0 0 0 0 7.9157830210751854 -429.73501222123741 0 -429.73501222123741 194.23309414102187 0 0 0 0 2.2619105588159982 -13.003879282889102 0 -13.003879282889102 -49.039830598369008 0 0 0 0 -8.4013964747219347 -0.4283529571121818 0 -0.4283529571121818 -3.9208910888544821 0 0 0 0 -5.9976004034114698 -12.690874353590161 0 -12.690874353590161 -22.387602656108157 0 0 0 0 -12.889780498308937 26.634650543923271 0 26.634650543923271 -39.966239798275637 0 0 0 0 -47.887683550215385 318.64505284958432 0 318.64505284958432 -493.55058915063273 0 0 0 0 28.294822999546341 35.246496268493502 0 35.246496268493502 -78.301657504503964 0 0 0 0 -6.4025835260975779 1.2433657469538417 0 1.2433657469538417 0.63306868280458417 0 0 0 0 -79.761113977748437 166.38601006852332 0 166.38601006852332 -359.59924775274703 0 0 0 0 106.11464607766433 226.11245211119967 0 226.11245211119967 -440.05101463392202 0 0 0 0 -60.276151597930877 118.57115317353964 0 118.57115317353964 -245.84982203414256 0 0 0 0 -1.5956899454058671 0.24419708207923918 0 0.24419708207923918 -0.5698114620157142 0 0 0 0 -143.09258282707714 158.18552334822016 0 158.18552334822016 -482.47276265248365 0 0 0 0 -211.8555520191459 250.95453587892553 0 250.95453587892553 -350.35496794818755 0 0 0 0 93.046479474364787 -1.7232264211197617 0 -1.7232264211197617 -106.69015802405011 0 0 0 0 -71.973833749466863 54.335146782206721 0 54.335146782206721 85.048928055141005 0 0 0 0 6.5699454781431541 62.189141181228479 0 62.189141181228479 -96.434092770534335 0 0 0 0 -7.4155212867252089 -17.895782138771516 0 -17.895782138771516 -30.311629892943188 0 0 0 0 9.2677828688297268 7.2455768030995387 0 7.2455768030995387 -25.251965580413525 0 0 0 0 51.558663263663675 17.252627729758387 0 17.252627729758387 -69.330320492459578 0 0 0 0 84.653890423491475 -63.213136248854426 0 -63.213136248854426 -38.293280738752401 0 0 0 0 299.46841571175742 -226.03332546713472 0 -226.03332546713472 -75.89289934689441 0 0 0 0 15.092602974086844 35.787532542261033 0 35.787532542261033 -66.132555523057817 0 0 0 0 -240.70720444626937 67.403200443455717 0 67.403200443455717 -131.560378769811 0 0 0 0 -125.54307070286244 -70.204877533120452 0 -70.204877533120452 -99.732742087318911 0 0 0 0 -91.543558137694035 143.05951335426766 0 143.05951335426766 -189.49240579770412 0 0 0 0 -212.62346157540813 126.60460281308042 0 126.60460281308042 -79.841528935761744 0 0 0 0 -484.9903189303011 303.78050105696457 0 303.78050105696457 -255.10989536942361 0 0 0 0 119.33905194607109 94.508850112957589 0 94.508850112957589 -929.1202876166135 0 0 0 0 -281.82256132396526 434.08478324665339 0 434.08478324665339 -666.24954655594775 0 0 0 0 -192.76927494727084 325.18611968024197 0 325.18611968024197 -881.0757084696088 0 0 0 0 -34.529367644119816 -78.278377508559061 0 -78.278377508559061 -327.31918370792118 0 0 0 0 -409.92723703726591 -130.25130137012729 0 -130.25130137012729 -362.41038246039534 0 0 0 0 -186.37271737996872 236.05753436738451 0 236.05753436738451 -81.077926404068421 0 0 0 0 -209.601220315262 602.95217964267067 0 602.95217964267067 -852.23135951739096 0 0 0 0 -359.80133775551769 320.36812175797968 0 320.36812175797968 -280.89092425635317 0 0 0 0 -420.8006158938299 388.93945588766655 0 388.93945588766655 -57.417812971398234 0 0 0 0 -302.71656796981142 230.03771463476733 0 230.03771463476733 -152.73206955555361 0 0 0 0 -22.597158453621546 15.336317313900508 0 15.336317313900508 -155.95826279339963 0 0 0 0 -68.695298450615951 -106.37294231214764 0 -106.37294231214764 42.477033071685582 0 0 0 0 -0.08553234215395128 2.2787469619288068 0 2.2787469619288068 -13.677358400074354 0 0 0 0 230.56669167391408 -9.9129634529926989 0 -9.9129634529926989 -143.63449279780616 0 0 0 0 133.85063504371556 67.500937575339776 0 67.500937575339776 -37.374953082704451 0 0 0 0 -10.907397689558671 82.463866498255925 0 82.463866498255925 66.396700423647417 0 0 0 0 47.947042509155423 -128.19595908805422 0 -128.19595908805422 -296.74682050032425 0 0 0 0 -0.26944215534239607 1.2668929254039938 0 1.2668929254039938 -5.9691842665595516 0 0 0 0 -323.32838691085425 438.0147947659425 0 438.0147947659425 -373.41414815402823 0 0 0 0 -52.610296961406675 -142.53527189970191 0 -142.53527189970191 -13.291880626507918 0 0 0 0 37.860206345310587 -141.88694174393822 0 -141.88694174393822 -461.24851595119981 0 0 0 0 -23.98511001525333 -37.174357912056621 0 -37.174357912056621 -117.57645714482351 0 0 0 0 -17.582061849956091 2.1156698799895821 0 2.1156698799895821 -149.28030100278556 0 0 0 0 -28.698289209731119 -4.4138560742649133 0 -4.4138560742649133 -13.455652221549826 0 0 0 0 54.439714350268062 7.3796907144642319 0 7.3796907144642319 -25.097741923425929 0 0 0 0 -7.726882453550866 -48.336259213049175 0 -48.336259213049175 -105.4532454755099 0 0 0 0 2.95794092783406 -5.1143104747970938 0 -5.1143104747970938 -115.60237345617497 0 0 0 0 0.033182110409219506 5.0496516372732003 0 5.0496516372732003 -121.40990629087901 0 0 0 0 -19.607600046612333 -22.852130891209526 0 -22.852130891209526 -30.582890964846229 0 0 0 0 21.888846904521131 -29.799033993680496 0 -29.799033993680496 -224.08423133394535 0 0 0 0 -26.534194593295211 75.760653310317139 0 75.760653310317139 -221.71352797365216 0 0 0 0 -0.022818981695586566 7.0043775330050266 0 7.0043775330050266 -133.09473159157642 0 0 0 0 0.10921728674253539 -0.079413738975290471 0 -0.079413738975290471 -0.76409271628432407 0 0 0 0 38.557305650922395 -63.989323354644512 0 -63.989323354644512 -194.17937104488374 0 0 0 0 25.801461164060488 141.48475440801121 0 141.48475440801121 -461.25803008419672 0 0 0 0 -95.388274602137315 203.46080482393836 0 203.46080482393836 -275.06991166509397 0 0 0 0 -11.284813777577597 194.84819670790603 0 194.84819670790603 -359.59401362772405 0 0 0 0 16.08698596231698 145.74778143467847 0 145.74778143467847 -363.15202800824773 0 0 0 0 -24.185773118396483 225.45310018070722 0 225.45310018070722 -372.42863818832848 0 0 0 0 0.14818406164665604 -0.017830265929745792 0 -0.017830265929745792 -0.9906982958329138 0 0 0 0 4.9960294384000008 -6.9482478374770835 0 -6.9482478374770835 -313.24453136518343 0 0 0 0 -8.6878482701563229 -0.80956398936001683 0 -0.80956398936001683 -21.237316309284274 0 0 0 0 -27.028994071262787 23.181119500813111 0 23.181119500813111 -289.69323347289856 0 0 0 0 -9.7138343353581149 -68.026195416120572 0 -68.026195416120572 -109.37974216138696 0 0 0 0 38.328593222342903 24.495102594703866 0 24.495102594703866 -121.91377616108232 0 0 0 0 130.34692780999967 266.35024697653716 0 266.35024697653716 -175.15141241101082 0 0 0 0 -8.3805184028597068 -18.37512432044241 0 -18.37512432044241 -71.937554433738114 0 0 0 0 -95.67107287994304 127.18376884457757 0 127.18376884457757 -60.088775777694536 0 0 0 0 4.2949570351179602 -19.602923754994229 0 -19.602923754994229 -168.32391362424519 0 0 0 0 -55.608538685515668 -9.95587876540651 0 -9.95587876540651 -319.7994490162373 0 0 0 0 -2.1454301632234873 -37.697470099325756 0 -37.697470099325756 -101.69189974905714 0 0 0 0 30.41089615805231 0.11393388093893009 0 0.11393388093893009 -49.374954665345285 0 0 0 0 36.094818719824616 -24.510467948844962 0 -24.510467948844962 -93.994287877882016 0 0 0 0 -46.036135990849289 36.859312371324087 0 36.859312371324087 -300.05860764426734 0 0 0 0 -14.297914726108612 -70.939414473673452 0 -70.939414473673452 -131.5533932214413 0 0 0 0 36.094818719806426 -24.510467948857695 0 -24.510467948857695 -93.994287877882016 0 0 0 0 36.094818719833711 -24.510467948854057 0 -24.510467948854057 -93.994287877882016 0 0 0 0 -45.166755948409673 49.540279974701896 0 49.540279974701896 -174.40187055316528 0 0 0 0 -12.589172718537156 -10.139575147568792 0 -10.139575147568792 -269.66054420095645 0 0 0 0 -12.454016510854899 -7.940210141643508 0 -7.940210141643508 -240.18898509570954 0 0 0 0 8.8986892929278838 -32.74637032325154 0 -32.74637032325154 -269.74403532429687 0 0 0 0 -9.5000088508876033 7.11294531850365 0 7.11294531850365 0.348744125721828 0 0 0 0 -28.027463931740385 -61.04425895939255 0 -61.04425895939255 -246.52665067418729 0 0 0 0 -63.37413131602807 43.476695774599648 0 43.476695774599648 -158.05893526987052 0 0 0 0 77.575844577350836 -161.86427169679996 0 -161.86427169679996 -384.40135671154303 0 0 0 0 170.64265801433066 35.797818214036852 0 35.797818214036852 -482.01850004672031 0 0 0 0 -47.971322619350758 -207.31628673799673 0 -207.31628673799673 -468.60503828707169 0 0 0 0 -310.67050929327706 97.750346945759134 0 97.750346945759134 -78.710005302049694 0 0 0 0 -647.42127124451963 560.93656153005031 0 560.93656153005031 -931.17382888157317 0 0 0 0 -121.90808744561127 -144.59932829268848 0 -144.59932829268848 -590.01640595867411 0 0 0 0 0.053572747586258629 131.74357486837471 0 131.74357486837471 -424.19204407565849 0 0 0 0 182.8725192121442 113.95231961997524 0 113.95231961997524 -425.79839264274051 0 0 0 0 85.826136344955557 -108.89775630381729 0 -108.89775630381729 -153.4490512997188 0 0 0 0 173.32748647247263 61.369707666629012 0 61.369707666629012 -278.25818640984653 0 0 0 0 35.19699415361741 16.366280220963393 0 16.366280220963393 -134.84506317649885 0 0 0 0 -34.835205074177338 146.16988876294636 0 146.16988876294636 -99.050854069928391 0 0 0 0 122.21051666028757 -16.118475436153858 0 -16.118475436153858 -355.27865093138826 0 0 0 0 8.7367893352798092 50.219126678330213 0 50.219126678330213 -394.02253926205958 0 0 0 0 -20.252114027256994 73.321033161792002 0 73.321033161792002 -448.93056025992337 0 0 0 0 6.0093986842121012 72.712481495480461 0 72.712481495480461 -479.95610741759083 0 0 0 0 -47.421587687243118 115.3058565511019 0 115.3058565511019 -508.99614551627201 0 0 0 0 81.208819856743276 -73.584197057488382 0 -73.584197057488382 -29.446839899792394 0 0 0 0 -2.7986770040744329 -0.98272447180065114 0 -0.98272447180065114 2.4412783977279844 0 0 0 0 -73.714984618221706 69.561449850381905 0 69.561449850381905 -211.96734714914055 0 0 0 0 -205.63188885719455 272.21317788824672 0 272.21317788824672 -462.22593317458291 0 0 0 0 12.852508147560911 93.708550996783742 0 93.708550996783742 -615.15807129829409 0 0 0 0 -27.794236151391033 164.51647684769523 0 164.51647684769523 -399.39406763036823 0 0 0 0 -40.96349452198865 127.6841363106214 0 127.6841363106214 -77.093794400141633 0 0 0 0 61.138110176580994 2.4216936193324727 0 2.4216936193324727 -311.26096083555603 0 0 0 0 -142.81852043925846 234.73376317411021 0 234.73376317411021 -184.74626527178043 0 0 0 0 -11.633040470866035 -13.022203056349099 0 -13.022203056349099 -54.892995776166572 0 0 0 0 -127.09775124511543 70.590629474365414 0 70.590629474365414 -33.677020609706233 0 0 0 0 -7.8964581526159776 -13.945221998598896 0 -13.945221998598896 -4.2728401264739269 0 0 0 0 -141.7603983312838 7.2986684527022589 0 7.2986684527022589 222.36313227684877 0 0 0 0 -22.438866205410733 -28.13345427067361 0 -28.13345427067361 -14.334896573956939 0 0 0 0 -15.973180881769885 -13.913218368344943 0 -13.913218368344943 -3.5835182861913637 0 0 0 0 -17.661154057049998 -29.346338550181827 0 -29.346338550181827 -52.154476606505341 0 0 0 0 -1.8645249854746453 -25.114127463706609 0 -25.114127463706609 -91.610931705756229 0 0 0 0 -19.706075849511762 -15.234525205796672 0 -15.234525205796672 -29.294815380308137 0 0 0 0 -28.714605724019975 -56.845084666482762 0 -56.845084666482762 -95.766882672323845 0 0 0 0 -69.101291471860861 259.8591051710614 0 259.8591051710614 -226.8561566562712 0 0 0 0 55.651855936478569 6.9943714479795744 0 6.9943714479795744 -117.07250829559052 0 0 0 0 5.9964874037825844 5.8863844437006634 0 5.8863844437006634 -20.679385529276743 0 0 0 0 -35.982084008649963 51.073987318864965 0 51.073987318864965 14.17882564331012 0 0 0 0 -45.796655139271934 33.737342632106447 0 33.737342632106447 -16.433451775857975 0 0 0 0 -22.366260769163318 -8.6686061722339218 0 -8.6686061722339218 -92.612933828411769 0 0 0 0 -44.13742372097181 -42.156628767388611 0 -42.156628767388611 -98.865194821414661 0 0 0 0 26.243608677690119 2.8571590908969569 0 2.8571590908969569 -81.155856248628169 0 0 0 0 -20.489506016682313 -18.93244672448651 0 -18.93244672448651 -20.778231632333508 0 0 0 0 24.885191151681283 27.369342010344553 0 27.369342010344553 -98.283611371043662 0 0 0 0 -5.1983533455381803 -25.44917412106588 0 -25.44917412106588 -116.49780052307688 0 0 0 0 24.171212482602346 10.081599430998999 0 10.081599430998999 -89.014749436363672 0 0 0 0 -66.365891369720316 -31.109794070795033 0 -31.109794070795033 -109.63275390791205 0 0 0 0 13.799314995891564 -9.7594788323685862 0 -9.7594788323685862 -114.77760064134782 0 0 0 0 -5.5951739418824218 -49.906195436395592 0 -49.906195436395592 -137.80022423137052 0 0 0 0 9.8211538559253313 -49.657357139141823 0 -49.657357139141823 -101.65853976647486 0 0 0 0 9.7721579688482052 -33.569346274864074 0 -33.569346274864074 -159.94212582148612 0 0 0 0 -10.041804664877759 -21.28857348404199 0 -21.28857348404199 -92.408095881363806 0 0 0 0 -16.753215972916678 -3.2277428338675236 0 -3.2277428338675236 -54.637770202927641 0 0 0 0 -14.409110443748176 -18.868415391211329 0 -18.868415391211329 -145.75824551231926 0 0 0 0 50.248619824466914 15.133954716962762 0 15.133954716962762 -152.52796694562403 0 0 0 0 11.396237042119992 7.6186724837298243 0 7.6186724837298243 -47.052628901830758 0 0 0 0 -30.014453615558978 -109.02322456810361 0 -109.02322456810361 357.0151234431687 0 0 0 0 94.909358655370397 -11.478908772071009 0 -11.478908772071009 -49.170045229489915 0 0 0 0 15.888504813444342 3.4025334297402878 0 3.4025334297402878 109.45076889886695 0 0 0 0 26.097788720807671 -8.0654509912601497 0 -8.0654509912601497 -81.622907480123104 0 0 0 0 23.576137413250308 -177.62342774988792 0 -177.62342774988792 72.513552201397033 0 0 0 0 23.342812353307636 -160.35132365747268 0 -160.35132365747268 -35.01750296733735 0 0 0 0 19.97357633052043 15.351513503578389 0 15.351513503578389 -98.605578578729705 0 0 0 0 -30.201193214837467 -80.647561717878261 0 -80.647561717878261 -91.889635768748121 0 0 0 0 -24.498008938132898 -24.809440015088057 0 -24.809440015088057 -303.37575711264799 0 0 0 0 -20.244424212654799 -4.3588339708111974 0 -4.3588339708111974 -35.920516180207457 0 0 0 0 -17.364242800337252 19.154920664206657 0 19.154920664206657 -111.92304199851787 0 0 0 0 253.57597612832069 -89.376457380887587 0 -89.376457380887587 -683.31203709602414 0 0 0 0 273.30171041475114 -1249.1328031801386 0 -1249.1328031801386 95.128640884022388 0 0 0 0 -37.085380915305905 258.42625266165851 0 258.42625266165851 -432.50229536088591 0 0 0 0 8.4765649398122189 -3.2411764457448839 0 -3.2411764457448839 -35.054578817659383 0 0 0 0 -103.99715317913797 -199.50844653171953 0 -199.50844653171953 -434.7070409437074 0 0 0 0 -0.42638331120594586 -0.27227567186682222 0 -0.27227567186682222 -4.8499845053134152 0 0 0 0 -23.893748445872916 -22.614133621354995 0 -22.614133621354995 -123.22816693449568 0 0 0 0 -23.38514040616792 -26.774930780771683 0 -26.774930780771683 -116.8442531195933 0 0 0 0 -16.837747514804505 -27.300193610883071 0 -27.300193610883071 -126.16596560113248 0 0 0 0 -15.308604030238712 -17.207522913753564 0 -17.207522913753564 -142.31426782693597 0 0 0 0 -30.756584080603716 4.1430609512117371 0 4.1430609512117371 -96.148038350525894 0 0 0 0 -20.763680990620088 -0.99546392130677219 0 -0.99546392130677219 -5.7380802904511761 0 0 0 0 -35.506644432985922 1.8542288822063711 0 1.8542288822063711 -96.641770161179011 0 0 0 0 -17.824108672560214 -23.174273816390269 0 -23.174273816390269 -136.32915133107599 0 0 0 0 -43.416889995072779 2.9715608893529861 0 2.9715608893529861 -72.171776080729614 0 0 0 0 -17.816415206791135 11.168558473691519 0 11.168558473691519 -89.662811296439031 0 0 0 0 -3.1764313328539995 -4.6845654106418166 0 -4.6845654106418166 -2.3368111748762175 0 0 0 0 -17.581583745891578 -15.373593745813167 0 -15.373593745813167 -50.516378943066229 0 0 0 0 -7.5124999091395708 10.317411402414329 0 10.317411402414329 -11.815712327620886 0 0 0 0 -28.333652344650545 5.1349960271618329 0 5.1349960271618329 -28.026820054070413 0 0 0 0 -16.030556624718884 -20.925557826933073 0 -20.925557826933073 -98.530785315644607 0 0 0 0 -15.190242479960659 -13.47336282086863 0 -13.47336282086863 -2.1444057383731638 0 0 0 0 1.5134616657760489 23.76784441491327 0 23.76784441491327 -51.250669282986564 0 0 0 0 -36.917615954756911 -45.546137404853653 0 -45.546137404853653 -78.181749238960037 0 0 0 0 -45.085430359758902 -36.63779089252057 0 -36.63779089252057 -58.615481102155172 0 0 0 0 61.632318189705984 -2.8664220705832122 0 -2.8664220705832122 -164.58698712900514 0 0 0 0 -34.923824502820025 -8.5609173598713824 0 -8.5609173598713824 -13.574827508557064 0 0 0 0 -15.98964143609011 -14.077265647568723 0 -14.077265647568723 -0.13729565593007598 0 0 0 0 -17.571346601687765 -14.530140042968696 0 -14.530140042968696 -89.226973548975366 0 0 0 0 -57.378435589703258 -77.726961476160795 0 -77.726961476160795 -97.647542363331013 0 0 0 0 -1.3889352150719549 -3.2095372586934019 0 -3.2095372586934019 -8.7573643945689668 0 0 0 0 -16.775766925688004 -18.362902845918143 0 -18.362902845918143 -92.094073811682392 0 0 0 0 -25.34455681003783 -21.661699096484881 0 -21.661699096484881 -114.45554488407652 0 0 0 0 -5.5267276768083811 12.723986881520183 0 12.723986881520183 -7.524491354549351 0 0 0 0 -21.115115978822359 -20.480882043219026 0 -20.480882043219026 -114.21115196289247 0 0 0 0 -25.490633800254727 -31.845735729213629 0 -31.845735729213629 -109.69255045230966 0 0 0 0 -21.629334295154877 -31.115698664341608 0 -31.115698664341608 -111.32781737735422 0 0 0 0 -38.237432983196413 -15.39750145032167 0 -15.39750145032167 -111.4241540251096 0 0 0 0 -44.882537126111856 -32.335569674492945 0 -32.335569674492945 -109.48170172668551 0 0 0 0 -17.402591756364927 -34.473443410375694 0 -34.473443410375694 -136.81104655461604 0 0 0 0 -13.983204527610269 -47.243010219608095 0 -47.243010219608095 -91.520841586694587 0 0 0 0 -16.78187699902719 -13.477368549090897 0 -13.477368549090897 -104.17358897873055 0 0 0 0 -21.02502735046437 -44.110081194494342 0 -44.110081194494342 -122.86821067053097 0 0 0 0 -1.638224784483171 -7.1144805029314924 0 -7.1144805029314924 -26.114862910410682 0 0 0 0 -18.609295734666375 -61.161416967611785 0 -61.161416967611785 -161.43828263024176 0 0 0 0 -20.450247831709024 -39.469032864842944 0 -39.469032864842944 -69.351977053928607 0 0 0 0 -47.663599921866989 -15.998892976962452 0 -15.998892976962452 -83.809221004732535 0 0 0 0 -10.666874872949847 25.349176456194982 0 25.349176456194982 -85.742123341606202 0 0 0 0 -3.3990868116716229 -36.390944538577202 0 -36.390944538577202 -117.24908094451905 0 0 0 0 -1.845430902994849 -30.343429224771697 0 -30.343429224771697 -95.589982343717651 0 0 0 0 -3.8656265872670517 -1.1983530163684435 0 -1.1983530163684435 -20.457866901113853 0 0 0 0 -22.33933613985937 -42.812375591437672 0 -42.812375591437672 -240.87837840338366 0 0 0 0 -4.1752466566304065 -23.510717161143816 0 -23.510717161143816 -112.32271534323314 0 0 0 0 -10.050687835594587 -37.75805829769773 0 -37.75805829769773 -70.718910098199274 0 0 0 0 -7.3041628061463975 -33.455042227140041 0 -33.455042227140041 -70.449405486367652 0 0 0 0 -11.885423730909679 -35.98363321109025 0 -35.98363321109025 -84.580023511808577 0 0 0 0 -6.6687178326737921 -41.682406128543562 0 -41.682406128543562 -90.024580685582862 0 0 0 0 -10.307248127290222 -15.413384467600167 0 -15.413384467600167 -86.632670317340853 0 0 0 0 -12.983972374217501 -16.195620506057821 0 -16.195620506057821 -82.193654045095172 0 0 0 0 -1.4625625034013012 -2.4285986482989523 0 -2.4285986482989523 -20.984484836863384 0 0 0 0 -7.9444478168436774 -21.901036415018069 0 -21.901036415018069 -50.74083759395058 0 0 0 0 -13.459252659624326 -14.844129275754312 0 -14.844129275754312 -84.878852939811622 0 0 0 0 -5.6140235176346209 7.8113185454248821 0 7.8113185454248821 -27.47554252439744 0 0 0 0 -10.110605770376424 -19.596738531523442 0 -19.596738531523442 -120.47575701895403 0 0 0 0 -15.989444498999546 -21.834947494706284 0 -21.834947494706284 -93.104795352141082 0 0 0 0 -21.108654993638993 -28.47737400045844 0 -28.47737400045844 -33.030434695956501 0 0 0 0 -7.0045660307296203 -29.235682521051785 0 -29.235682521051785 -155.05902245710604 0 0 0 0 -10.173029677224061 -16.129599343463362 0 -16.129599343463362 0.67379169304497322 0 0 0 0 -8.1211651377451872 -0.51510130718887126 0 -0.51510130718887126 -9.7573946895330721 0 0 0 0 -10.593588462624101 -16.642733316805128 0 -16.642733316805128 -19.515426149941735 0 0 0 0 -7.2784562098349852 -36.552549100939359 0 -36.552549100939359 -63.147025483889593 0 0 0 0 -13.496097297904271 -8.5266267282040644 0 -8.5266267282040644 -101.9023305699593 0 0 0 0 -8.0341655080334462 0.16507329655894409 0 0.16507329655894409 -18.970594739660513 0 0 0 0 -15.086265472971718 -14.809099596623128 0 -14.809099596623128 -96.129466169493071 0 0 0 0 -0.3735717968611425 -21.765216876397176 0 -21.765216876397176 -116.08093345644329 0 0 0 0 -19.108685130811331 -20.088476077468084 0 -20.088476077468084 -35.319546823783398 0 0 0 0 -23.063386973702116 0.73220112214893263 0 0.73220112214893263 -16.601724360432183 0 0 0 0 -21.787621107993118 3.408520748993169 0 3.408520748993169 -102.33249502757553 0 0 0 0 -62.971639518094889 -53.741562406873527 0 -53.741562406873527 -53.632817937554677 0 0 0 0 1.8797665056645201 -28.753936372875785 0 -28.753936372875785 -79.972897005217874 0 0 0 0 6.8616580832240288 -19.2478707059405 0 -19.2478707059405 -91.635851659645141 0 0 0 0 -3.0584679067237204 -0.93408033750393749 0 -0.93408033750393749 -14.519989883756983 0 0 0 0 -11.454696233486175 -21.663679906043626 0 -21.663679906043626 -72.177986467479855 0 0 0 0 -8.8933275313829654 -26.17691629735657 0 -26.17691629735657 -91.411713929124943 0 0 0 0 -6.8467423546899226 -19.995343775550054 0 -19.995343775550054 -87.510170586177878 0 0 0 0 -10.935971587507538 7.7870366187643185 0 7.7870366187643185 -101.1543990662235 0 0 0 0 -19.036464077550775 1.9918661127016923 0 1.9918661127016923 1.5302384497451691 0 0 0 0 -180.43059545192409 -28.441163535087298 0 -28.441163535087298 43.572369982597735 0 0 0 0 -32.903080364856578 -9.1808889172493764 0 -9.1808889172493764 -58.957558875833911 0 0 0 0 -0.52044264908383298 1.1676515635068174 0 1.1676515635068174 0.49968756277428783 0 0 0 0 78.6831268514361 -41.22348220896788 0 -41.22348220896788 -207.69018429990183 0 0 0 0 -122.27133774186041 -39.235920328655453 0 -39.235920328655453 -65.650875276970879 0 0 0 0 -143.25728614892296 32.960681924699898 0 32.960681924699898 -145.54106214902322 0 0 0 0 33.438807029577674 12.781556614258648 0 12.781556614258648 -145.75651745947425 0 0 0 0 -193.92584645014537 127.01718855036587 0 127.01718855036587 -198.95489126863924 0 0 0 0 -110.76850639572058 51.855291353068651 0 51.855291353068651 -134.77232040214665 0 0 0 0 -184.76775209158615 -27.182418517292259 0 -27.182418517292259 -69.639591050394785 0 0 0 0 0.13706769753939341 1.4238180938624527 0 1.4238180938624527 -1.3306881904117362 0 0 0 0 -24.94374699333639 -38.295423276302486 0 -38.295423276302486 -91.882100086393208 0 0 0 0 -139.11685570760346 111.03075508149993 0 111.03075508149993 -205.68746888803162 0 0 0 0 -202.97209925852621 62.35936856712766 0 62.35936856712766 -207.83196951608693 0 0 0 0 -181.87724324433475 44.190528366528923 0 44.190528366528923 -211.93319494121044 0 0 0 0 -138.59118252983717 74.2026574401537 0 74.2026574401537 -219.3000891592707 0 0 0 0 -23.445083114685985 -46.816724148195476 0 -46.816724148195476 -94.449826317677093 0 0 0 0 -34.232160696987194 -15.172361711340045 0 -15.172361711340045 -95.578587323336762 0 0 0 0 -1.5823369355894101 -20.74580803643029 0 -20.74580803643029 -89.323242880700519 0 0 0 0 -1.0425984822385885 1.7333414197619463 0 1.7333414197619463 -0.080661215951451037 0 0 0 0 -8.9848198918643902 -13.737230436479029 0 -13.737230436479029 -91.056462568038128 0 0 0 0 -45.664912581755743 -47.031478026503578 0 -47.031478026503578 -142.09426987051506 0 0 0 0 -35.521341080092498 -2.3693793292991359 0 -2.3693793292991359 -78.013699454872722 0 0 0 0 16.566895772706175 -138.41080369973557 0 -138.41080369973557 -498.13093985623345 0 0 0 0 0.12210057694714038 2.7034389640538361 0 2.7034389640538361 0.34282122472326071 0 0 0 0 103.57713068990051 73.385232332802389 0 73.385232332802389 -400.08189583565786 0 0 0 0 -145.71178808072909 -108.88107118596031 0 -108.88107118596031 -229.12842225601298 0 0 0 0 -187.94294720090511 -17.002184807566664 0 -17.002184807566664 -289.15466640089517 0 0 0 0 -57.956011708808091 62.244020344420051 0 62.244020344420051 -240.89430429122422 0 0 0 0 -209.00214369528658 122.24413494661485 0 122.24413494661485 -284.20985411805668 0 0 0 0 -197.45833050380133 54.52368093050427 0 54.52368093050427 -211.87270314407613 0 0 0 0 -152.05303703535719 42.986797844844205 0 42.986797844844205 -294.42453954124539 0 0 0 0 -195.57432757349892 72.083557285709801 0 72.083557285709801 -216.6584522309463 0 0 0 0 -156.4401772265428 40.672534397140225 0 40.672534397140225 -368.19689788841742 0 0 0 0 -166.68784330790868 57.457987750975235 0 57.457987750975235 -304.07259646281727 0 0 0 0 -284.06965835438848 251.10946954854688 0 251.10946954854688 -571.45466617638249 0 0 0 0 -26.5026182871934 -91.9849818245184 0 -91.9849818245184 -758.10372982460922 0 0 0 0 -41.76276033977274 -69.241674663969434 0 -69.241674663969434 -546.99816990133331 0 0 0 0 8.8361372976014536 -103.67943623431984 0 -103.67943623431984 -355.4029667143659 0 0 0 0 1.8131330746553012 1.5323605422672717 0 1.5323605422672717 -2.0433616449720162 0 0 0 0 -380.43222122395105 216.18788323959041 0 216.18788323959041 -626.79430792564381 0 0 0 0 -354.49431080720024 -64.456398069919487 0 -64.456398069919487 -508.09047914563052 0 0 0 0 -92.943962073146395 -150.27198121883612 0 -150.27198121883612 -506.91921661732346 0 0 0 0 -173.92222510697502 -17.583736752944787 0 -17.583736752944787 -320.83689064517603 0 0 0 0 -53.722313564365322 92.095156854386005 0 92.095156854386005 -793.30621674974191 0 0 0 0 34.011378720129869 -23.919508583193419 0 -23.919508583193419 -630.98562522091959 0 0 0 0 21.067345057857892 160.17195279643329 0 160.17195279643329 -770.96017904183282 0 0 0 0 7.3302716618745762 165.58327106531351 0 165.58327106531351 -760.87498073867482 0 0 0 0 -12.690604047878878 -45.312247084737464 0 -45.312247084737464 -506.45446203856409 0 0 0 0 -12.526647201844753 27.876357337810532 0 27.876357337810532 -849.75754108483306 0 0 0 0 118.47702248565838 -48.048357355889948 0 -48.048357355889948 -1840.2898888801528 0 0 0 0 -5.3335935077729602 2.9140841899768235 0 2.9140841899768235 -2.1962096262957749 0 0 0 0 8.92437171036363 205.28498300261845 0 205.28498300261845 -1061.4071626353784 0 0 0 0 27.691546130439519 307.87069797603192 0 307.87069797603192 -1014.3498999789645 0 0 0 0 -105.84509415538741 336.72176779176834 0 336.72176779176834 -951.46383361645258 0 0 0 0 -6.2447417478106217 315.15390514507408 0 315.15390514507408 -989.29150444984384 0 0 0 0 -295.57214288190329 31.913542972150694 0 31.913542972150694 -97.813036490843388 0 0 0 0 -4.6737800495338035 3.8971557236129302 0 3.8971557236129302 -2.7142659265925766 0 0 0 0 39.365709897135929 -152.97656910148592 0 -152.97656910148592 -427.88818957878811 0 0 0 0 -28.603319741163432 -65.425491786892508 0 -65.425491786892508 -307.5958734704127 0 0 0 0 64.094471227368558 -78.422105259573073 0 -78.422105259573073 -279.01611592735253 0 0 0 0 36.502812048721808 -127.72298644182138 0 -127.72298644182138 -263.73622408871847 0 0 0 0 152.00820653974444 -202.18614876795925 0 -202.18614876795925 -415.08160893553031 0 0 0 0 153.16410024360007 -210.89345473977119 0 -210.89345473977119 -538.72694730142575 0 0 0 0 -22.237869125028737 -164.49746226585467 0 -164.49746226585467 -419.30051326248804 0 0 0 0 44.746735385211196 -85.237919070131738 0 -85.237919070131738 -524.71624769605296 0 0 0 0 -0.5789513732809155 -157.82009134104283 0 -157.82009134104283 -549.2963458600243 0 0 0 0 -45.057032808568692 -163.41857137869192 0 -163.41857137869192 -621.55579857727525 0 0 0 0 -72.551749361851535 -148.79314174652404 0 -148.79314174652404 -451.72176456834859 0 0 0 0 -78.033191438387803 -93.520059244307959 0 -93.520059244307959 -478.27011436867406 0 0 0 0 -49.094317497933844 -62.123445562123834 0 -62.123445562123834 -457.6909524862549 0 0 0 0 -43.726430195795729 -108.39912144844448 0 -108.39912144844448 -353.96008206666738 0 0 0 0 -87.33218230069815 9.4121522852424278 0 9.4121522852424278 -287.01842010688847 0 0 0 0 -66.796899096975039 -36.24009179156667 0 -36.24009179156667 -208.93785740552994 0 0 0 0 -110.55910680267698 50.816796785370116 0 50.816796785370116 -436.64353786266702 0 0 0 0 -99.523396746344133 -17.454269547167542 0 -17.454269547167542 -305.87465502078976 0 0 0 0 -122.69544341203255 55.899452817904489 0 55.899452817904489 -217.0696958007602 0 0 0 0 -150.34779618628758 70.708467290000868 0 70.708467290000868 -222.60645554316034 0 0 0 0 -122.02325969957838 68.982867741492328 0 68.982867741492328 -134.04313861459332 0 0 0 0 -70.485195925286462 40.148066618628945 0 40.148066618628945 -227.4193255412921 0 0 0 0 -34.63284062344519 63.748411948507965 0 63.748411948507965 -129.01460303245449 0 0 0 0 -30.622854297309914 41.984787407544673 0 41.984787407544673 -34.500297412421446 0 0 0 0 -13.41661733588333 15.852231083248569 0 15.852231083248569 -86.687631341782435 0 0 0 0 -64.665270350084597 13.890048998820362 0 13.890048998820362 -112.20466411778125 0 0 0 0 -15.819600294721567 -3.4748434960210943 0 -3.4748434960210943 -170.65585401548014 0 0 0 0 -63.783803842069233 -20.073172407007803 0 -20.073172407007803 -161.92800028449528 0 0 0 0 9.7603127607681017 -128.88964856438452 0 -128.88964856438452 -236.41447580488784 0 0 0 0 1.4081759050477558 -26.542972010606263 0 -26.542972010606263 -223.59133900501456 0 0 0 0 21.248190257389751 -72.960222414937107 0 -72.960222414937107 -137.93308986212196 0 0 0 0 84.681482965842974 -137.8589793557453 0 -137.8589793557453 -176.28677645682819 0 0 0 0 79.01272019971347 -72.900215249229774 0 -72.900215249229774 -48.05937020879901 0 0 0 0 59.40202409339463 -8.1334840985073242 0 -8.1334840985073242 -98.058760086759094 0 0 0 0 137.13278588774392 -61.581785863041659 0 -61.581785863041659 -70.211869163893425 0 0 0 0 100.96673791425106 48.874061869425759 0 48.874061869425759 -36.216237042734974 0 0 0 0 73.301946267660924 -12.11619555608172 0 -12.11619555608172 -94.368788002653673 0 0 0 0 214.68966089023968 -19.184436670567948 0 -19.184436670567948 -37.815103711566735 0 0 0 0 182.63193041418393 66.122178583037567 0 66.122178583037567 -33.838577778866238 0 0 0 0 74.671834065642315 11.550289504934312 0 11.550289504934312 16.769480758196096 0 0 0 0 126.33374673400044 118.53887054567718 0 118.53887054567718 -58.587207823692097 0 0 0 0 62.351126166807148 61.504351901263703 0 61.504351901263703 -83.412966208799389 0 0 0 0 -48.461073473822353 76.810593865317585 0 76.810593865317585 -105.16996561607436 0 0 0 0 -38.595541730759578 101.86621216844094 0 101.86621216844094 -41.691393746743188 0 0 0 0 -153.28656876154946 135.03674300501996 0 135.03674300501996 -103.58975392902502 0 0 0 0 -34.824095165088465 23.604439624359117 0 23.604439624359117 -132.27775544071972 0 0 0 0 187.66547008708605 53.911067124417869 0 53.911067124417869 -332.43847089931978 0 0 0 0 189.63202484578756 34.381402652425663 0 34.381402652425663 -178.83812448123956 0 0 0 0 20.402668797924548 85.254770765603382 0 85.254770765603382 -121.87256647640982 0 0 0 0 70.883726727307703 56.794721914702563 0 56.794721914702563 -120.07120015771693 0 0 0 0 -153.62550475272542 96.639189283937412 0 96.639189283937412 -162.3350760115386 0 0 0 0 -118.44560856461703 117.43342720295865 0 117.43342720295865 -188.48120608454519 0 0 0 0 -92.454592075883738 43.285171482438045 0 43.285171482438045 -115.1752251663338 0 0 0 0 -113.45645115168554 125.86818374176153 0 125.86818374176153 -117.14696977545628 0 0 0 0 -116.33681328646981 143.9351234178896 0 143.9351234178896 -159.28860261223099 0 0 0 0 -121.69453092794947 113.9776518980091 0 113.9776518980091 -134.23983123111262 0 0 0 0 -126.78434573717368 153.90020315321078 0 153.90020315321078 -146.2189884380881 0 0 0 0 -98.639777538171074 139.46176180391473 0 139.46176180391473 -170.20267725932609 0 0 0 0 -10.959051005435867 72.48677033099375 0 72.48677033099375 -186.06669363827189 0 0 0 0 -115.69654673177774 152.94369893880389 0 152.94369893880389 -179.45816285466913 0 0 0 0 -72.574754325749609 205.93216623795144 0 205.93216623795144 -448.00355259566754 0 0 0 0 -133.13839109589924 -62.412166777193534 0 -62.412166777193534 -71.429385140995237 0 0 0 0 -4.6665866941805163 1.4748632548119067 0 1.4748632548119067 -0.39169159437591095 0 0 0 0 -14.208293430771164 14.784683657207836 0 14.784683657207836 -76.831178649610365 0 0 0 0 -67.050933098967107 89.940685855281345 0 89.940685855281345 -71.339968594634456 0 0 0 0 -12.949727278496805 2.1231675688880589 0 2.1231675688880589 -0.43643810502466346 0 0 0 0 -95.142606998893825 -126.40749877134817 0 -126.40749877134817 -210.39769756302576 0 0 0 0 163.39120843045953 7.9134897938102995 0 7.9134897938102995 -193.24653329192176 0 0 0 0 317.33229755098489 -43.945027220651696 0 -43.945027220651696 -284.896860750938 0 0 0 0 154.6855869499168 -110.6914861113317 0 -110.6914861113317 -161.43396682304183 0 0 0 0 -20.166816308522812 1.4930730106621013 0 1.4930730106621013 -183.92881894626021 0 0 0 0 -8.1840931362153242 35.488762139726859 0 35.488762139726859 -147.3636890391773 0 0 0 0 -357.90340204709196 27.274326428372547 0 27.274326428372547 -101.10632559868498 0 0 0 0 -290.35691459376471 256.83811059758 0 256.83811059758 -196.12053566406735 0 0 0 0 214.6596615080357 6.9154673761083814 0 6.9154673761083814 -387.40099276792739 0 0 0 0 -146.31196710325639 224.74722431008837 0 224.74722431008837 -320.45355655886146 0 0 0 0 105.35171799284376 -32.961274304184258 0 -32.961274304184258 -405.78480762577317 0 0 0 0 -204.95534926500659 -312.27031962097601 0 -312.27031962097601 -110.11770342649187 0 0 0 0 107.05249767970687 135.8331469218779 0 135.8331469218779 0.11893672185419746 0 0 0 0 354.37704850418442 290.09177557122268 0 290.09177557122268 -0.43732542820794151 0 0 0 0 261.59141319940528 -1.9730903985799273 0 -1.9730903985799273 -1424.2212050437774 0 0 0 0 38.284126709688735 -63.019734795904355 0 -63.019734795904355 451.29573545541712 0 0 0 0 0.57965468335572501 0.093719607714996656 0 0.093719607714996656 -0.83250004978996017 0 0 0 0 158.1504396325364 -41.013404392871621 0 -41.013404392871621 -129.44188144119664 0 0 0 0 11.431026540157887 -229.55886039953816 0 -229.55886039953816 17.256616491235718 0 0 0 0 -145.48442707249876 -17.828479190575376 0 -17.828479190575376 -85.191942083001209 0 0 0 0 232.65100332184238 -1998.0711513037625 0 -1998.0711513037625 -1914.5159890484338 0 0 0 0 82.474903805761642 -699.4368450375797 0 -699.4368450375797 273.84809663932685 0 0 0 0 368.91654779102532 -84.55286733645508 0 -84.55286733645508 -606.42487569379398 0 0 0 0 461.60481347310792 62.204077956707295 0 62.204077956707295 -861.29080744223961 0 0 0 0 56.603567427665439 190.82797467083765 0 190.82797467083765 -86.926705237847045 0 0 0 0 182.74212746079684 113.49049533599828 0 113.49049533599828 -73.976541744166752 0 0 0 0 186.11641902769514 -88.506506246590618 0 -88.506506246590618 -170.31418281963261 0 0 0 0 0.50954569563544738 9.5470701855371143 0 9.5470701855371143 -72.339049058441702 0 0 0 0 144.21764827585685 -152.54600686027698 0 -152.54600686027698 -154.01072826091695 0 0 0 0 -213.58665807579894 -335.08350367128469 0 -335.08350367128469 -502.71925570672101 0 0 0 0 29.362094782208715 232.83143189921793 0 232.83143189921793 -326.98472928548199 0 0 0 0 -48.83072375745185 -8.7778989764096877 0 -8.7778989764096877 -148.04837381953621 0 0 0 0 28.641680250625996 92.761165608277224 0 92.761165608277224 -76.281842767719354 0 0 0 0 21.237324709003587 172.3437517618022 0 172.3437517618022 -27.668196011130021 0 0 0 0 19.519922608625734 114.84831652441653 0 114.84831652441653 64.553949726898281 0 0 0 0 -54.562725033244988 67.900883186315696 0 67.900883186315696 35.525451171539316 0 0 0 0 139.40317682288418 96.347427731318021 0 96.347427731318021 68.137701571144135 0 0 0 0 -10.575398192897893 128.80870757645107 0 128.80870757645107 81.475472698555677 0 0 0 0 -29.48074265570267 156.51348967986632 0 156.51348967986632 178.89150235059424 0 0 0 0 -54.020436350223918 15.36871218127817 0 15.36871218127817 133.19582908759094 0 0 0 0 -120.44190042357161 100.29485934630225 0 100.29485934630225 25.283371384328348 0 0 0 0 101.85995531898448 137.43170168102097 0 137.43170168102097 -79.6601385998365 0 0 0 0 -16.428253482318269 28.12119314514166 0 28.12119314514166 75.921715102382223 0 0 0 0 -145.32837133189241 -66.456135947037183 0 -66.456135947037183 10.820237853482467 0 0 0 0 -407.34920454690518 44.054288104111947 0 44.054288104111947 644.99142361123813 0 0 0 0 -18.759440183514926 15.59410304884932 0 15.59410304884932 9.9870544352816069 0 0 0 0 0.31223944299813211 -2.3105392520574393 0 -2.3105392520574393 -15.053506716667442 0 0 0 0 -24.623761594646794 44.758210439227696 0 44.758210439227696 -144.8200820433467 0 0 0 0 -1.6621484584303499 2.469424589079491 0 2.469424589079491 -18.115275847622499 0 0 0 0 323.36905469196199 -63.971193947553274 0 -63.971193947553274 3.0507650922841094 0 0 0 0 150.96321205986595 43.172121292151843 0 43.172121292151843 77.172477869817612 0 0 0 0 226.42415900093295 175.08990531373985 0 175.08990531373985 -96.671096238641752 0 0 0 0 282.87930062637218 181.55840256134007 0 181.55840256134007 -340.00473847968635 0 0 0 0 -33.064600572220343 -190.17750535816162 0 -190.17750535816162 -342.08097375558464 0 0 0 0 9.4746352705168491 -11.438780816276745 0 -11.438780816276745 -6.1304628971592461 0 0 0 0 0.86785501917418861 -2.6737454240035579 0 -2.6737454240035579 -13.428096619827627 0 0 0 0 23.782737407167872 70.129658791144266 0 70.129658791144266 -16.423894983632636 0 0 0 0 4.1283423757258788 8.7530406913683692 0 8.7530406913683692 -92.740953128690307 0 0 0 0 -43.935382391332496 -18.895972025813535 0 -18.895972025813535 -88.476142805448035 0 0 0 0 -39.786816474676016 10.108152042193979 0 10.108152042193979 -78.110026142465358 0 0 0 0 -6.77822225298587 3.5936842286064348 0 3.5936842286064348 -79.113310911656299 0 0 0 0 -1.6768578786786748 -13.487181945201883 0 -13.487181945201883 -111.16247760023543 0 0 0 0 -90.889892073489136 48.425316028173256 0 48.425316028173256 -17.626095528918086 0 0 0 0 -6.9648793148363808 18.623349246411181 0 18.623349246411181 -87.748767875833437 0 0 0 0 -383.98148701692099 -126.67035113544216 0 -126.67035113544216 -66.003333281529194 0 0 0 0 -245.37371308895581 78.218148104673674 0 78.218148104673674 -51.122625053823867 0 0 0 0 2.9209048263172228 -2.8441031705087809 0 -2.8441031705087809 -10.976221711962069 0 0 0 0 3.5891762321475387 -9.7174653981945127 0 -9.7174653981945127 -48.059388373275048 0 0 0 0 -9.4667834676679021 12.640450402798464 0 12.640450402798464 -21.73672486632077 0 0 0 0 1.9349101602426799 -37.578232922644929 0 -37.578232922644929 -36.348111226656329 0 0 0 0 87.511190331911166 102.12115249547787 0 102.12115249547787 -117.53710023560416 0 0 0 0 1.5732892821260656 -0.98576702411389761 0 -0.98576702411389761 -4.431324252953651 0 0 0 0 181.28627435692013 -128.65555010325579 0 -128.65555010325579 -303.87055917207181 0 0 0 0 0.06500429698598964 12.508338211155205 0 12.508338211155205 -82.069141476053119 0 0 0 0 9.2619587536290719 15.418231143182442 0 15.418231143182442 -56.294265463935091 0 0 0 0 -78.228041106002479 167.36101872444669 0 167.36101872444669 -463.92492022894294 0 0 0 0 -1.5746420620696426 -18.143785000213938 0 -18.143785000213938 -64.798813588146004 0 0 0 0 10.335430444431225 11.444699169604085 0 11.444699169604085 -1.3487794344866515 0 0 0 0 231.44346144917381 -36.981944176231991 0 -36.981944176231991 -13.345759996788729 0 0 0 0 231.87201914543175 11.769871418286129 0 11.769871418286129 -119.06559382914543 0 0 0 0 148.1413310071498 53.262558548738525 0 53.262558548738525 -33.539306640326686 0 0 0 0 231.12769173137121 79.819397045746882 0 79.819397045746882 -169.10238537645637 0 0 0 0 237.94092772228066 89.285398501344389 0 89.285398501344389 -106.67606304035507 0 0 0 0 174.55834787017579 129.43276149187159 0 129.43276149187159 -111.54502495639463 0 0 0 0 305.63226486237966 121.50721516053454 0 121.50721516053454 -137.48230939209316 0 0 0 0 320.6499784804505 77.958111786259906 0 77.958111786259906 -410.15983209258775 0 0 0 0 229.35197263854684 101.88009035821403 0 101.88009035821403 -54.151505075038585 0 0 0 0 319.40228004042154 85.174688456265358 0 85.174688456265358 -124.3258624110149 0 0 0 0 219.95920811781912 -30.394932247928409 0 -30.394932247928409 -4.7168923706885835 0 0 0 0 725.85584421509384 -129.16372622052631 0 -129.16372622052631 -2.3634516538622847 0 0 0 0 324.02449127498181 326.03849071256627 0 326.03849071256627 218.42874017477516 0 0 0 0 167.38047860348843 -22.092791032269815 0 -22.092791032269815 303.19576703888515 0 0 0 0 135.80777834576043 119.13467127442709 0 119.13467127442709 45.038702253650627 0 0 0 0 154.86539580649344 281.84874034909262 0 281.84874034909262 80.921306327981256 0 0 0 0 -19.065264963008644 206.77821015625523 0 206.77821015625523 71.843988932645061 0 0 0 0 40.881116744891401 73.181625013636676 0 73.181625013636676 -70.022397354892746 0 0 0 0 3.5918936617014334 2.299110680713202 0 2.299110680713202 2.1710478443504613 0 0 0 0 3.4487252730878595 139.54102973838053 0 139.54102973838053 -129.53509419940838 0 0 0 0 -94.25795697090075 37.470792241676463 0 37.470792241676463 -15.103630342175165 0 0 0 0 73.008298612752611 152.75887416442856 0 152.75887416442856 27.498817658844928 0 0 0 0 16.371811406041843 10.343637846748607 0 10.343637846748607 -11.661409530963283 0 0 0 0 51.196872571360757 5.6540768134145765 0 5.6540768134145765 -28.528110721912526 0 0 0 0 0.96024065516181212 -1.2724214469336843 0 -1.2724214469336843 -5.0494224056581407 0 0 0 0 30.099819984689702 11.662626575252943 0 11.662626575252943 -340.2264877466223 0 0 0 0 -12.373353072737928 -9.7033616371118114 0 -9.7033616371118114 -15.56853151240648 0 0 0 0 -5.0756849716382817 9.9262100069227017 0 9.9262100069227017 -78.465068756403184 0 0 0 0 15.549001467501512 -5.6733630158978485 0 -5.6733630158978485 -28.330726366497402 0 0 0 0 -3.3459021703412475 0.90770995611794092 0 0.90770995611794092 -7.6855713727288801 0 0 0 0 -46.900205154518744 5.2194406528351465 0 5.2194406528351465 -36.318624981591711 0 0 0 0 -0.81251510421778828 0.85493652714966828 0 0.85493652714966828 -1.3434688636259793 0 0 0 0 -239.48267586992165 -273.50576560412446 0 -273.50576560412446 404.01403678943461 0 0 0 0 -29.280361499060746 -35.513120524061378 0 -35.513120524061378 -55.061237574853294 0 0 0 0 -75.29136975556662 -11.829656288027763 0 -11.829656288027763 -61.915070286835544 0 0 0 0 3.1446763953351251 -19.330389541385102 0 -19.330389541385102 -89.193921949219657 0 0 0 0 2.4720131749827261 -6.7468847337155022 0 -6.7468847337155022 -3.1142529686693194 0 0 0 0 -63.942925717591152 61.865030775232299 0 61.865030775232299 -76.591324834717852 0 0 0 0 74.9030061961858 49.138904940049542 0 49.138904940049542 101.83161869722153 0 0 0 0 4.1746942133687206 -132.36524454189941 0 -132.36524454189941 -132.4542694676129 0 0 0 0 135.45593778009172 124.49985581851706 0 124.49985581851706 -198.47185712899955 0 0 0 0 214.05261487454129 88.439403225435854 0 88.439403225435854 -123.31210300849307 0 0 0 0 162.7994864238579 46.157472565135322 0 46.157472565135322 -106.96900893374914 0 0 0 0 165.63962476000771 43.389864067038161 0 43.389864067038161 -147.29790454832619 0 0 0 0 238.52823172371484 -22.073672115311638 0 -22.073672115311638 -218.97121847718324 0 0 0 0 266.55760364401988 68.3269991582074 0 68.3269991582074 -224.917790683921 0 0 0 0 294.91839229856123 91.396893771564464 0 91.396893771564464 -246.05060625390615 0 0 0 0 507.03532993204482 -15.197536134040547 0 -15.197536134040547 -172.97099276505469 0 0 0 0 473.23289674766397 264.32017552191246 0 264.32017552191246 -159.94142634895252 0 0 0 0 291.06025504924423 -38.695865347582185 0 -38.695865347582185 -435.17490589962472 0 0 0 0 292.19223962268234 185.67215936985485 0 185.67215936985485 -360.73287366331351 0 0 0 0 371.25228716257698 46.406237197446899 0 46.406237197446899 -389.45694954363353 0 0 0 0 272.42367177532947 -72.122098842617561 0 -72.122098842617561 -330.94980983579535 0 0 0 0 276.58660871107003 -73.837786898012837 0 -73.837786898012837 -501.7392209239697 0 0 0 0 164.40229214658794 -163.87824509509142 0 -163.87824509509142 -233.38160326462094 0 0 0 0 113.00174413305331 -73.98721155243652 0 -73.98721155243652 -64.391733921898776 0 0 0 0 187.95891170172331 -26.034797654144313 0 -26.034797654144313 -71.885397067518852 0 0 0 0 178.66113973601364 -127.81133366532049 0 -127.81133366532049 -89.457095414032665 0 0 0 0 178.57881110309432 -70.401134798216503 0 -70.401134798216503 -99.851372854416695 0 0 0 0 179.64484756377476 -87.318482374914311 0 -87.318482374914311 -134.73750131912675 0 0 0 0 275.80058960492136 -46.387328584763054 0 -46.387328584763054 -277.64286401008394 0 0 0 0 208.75575501467205 -23.312311061135915 0 -23.312311061135915 -183.20259037711548 0 0 0 0 201.35741352888309 -0.048243158021250565 0 -0.048243158021250565 -142.45264507068509 0 0 0 0 103.57328723042656 -66.063954028728404 0 -66.063954028728404 -81.015682563333939 0 0 0 0 106.31329192958049 -43.352664901940443 0 -43.352664901940443 -84.404807443264872 0 0 0 0 19.525386104475359 3.7818990540515642 0 3.7818990540515642 -101.02420909859211 0 0 0 0 43.508182352938547 13.590764362026675 0 13.590764362026675 -122.85192492687653 0 0 0 0 57.154450563427886 6.4841433336132468 0 6.4841433336132468 -119.16205796597751 0 0 0 0 3.9570403091036717 63.306383058505332 0 63.306383058505332 -123.06686089749201 0 0 0 0 0.49729794762420865 3.7144761610453827 0 3.7144761610453827 -8.943379640376989 0 0 0 0 136.78774580932512 -58.248088751495743 0 -58.248088751495743 -8.8639813400668572 0 0 0 0 747.58797623765099 571.33579408960577 0 571.33579408960577 -144.25068522094261 0 0 0 0 361.14574166480179 205.94687666094796 0 205.94687666094796 -65.722192826704486 0 0 0 0 -163.02290348586666 451.95803556614919 0 451.95803556614919 903.5850543775814 0 0 0 0 -288.04776827592741 -234.3201339405623 0 -234.3201339405623 -350.02347769634616 0 0 0 0 -168.62477552752534 352.12575941371324 0 352.12575941371324 45.810604911799601 0 0 0 0 403.89631855457424 -9.7349933328559928 0 -9.7349933328559928 -135.54970477158713 0 0 0 0 0.88408242578799479 2.1972652163089448 0 2.1972652163089448 -31.043074952554797 0 0 0 0 264.7069229945937 -47.144925680713413 0 -47.144925680713413 19.465575071807507 0 0 0 0 221.86176892809431 28.301880998681554 0 28.301880998681554 -97.80602633758599 0 0 0 0 879.79218984566728 -660.37650979038494 0 -660.37650979038494 -1523.1446612427681 0 0 0 0 1.527549187931136 -0.79224541787514546 0 -0.79224541787514546 -32.714537757241672 0 0 0 0 470.85181247775711 37.825030940168972 0 37.825030940168972 -90.340943437461647 0 0 0 0 293.41635894563876 104.63638226150306 0 104.63638226150306 7.2319480106322658 0 0 0 0 -997.06270744149333 -681.25210749287544 0 -681.25210749287544 622.59433702613387 0 0 0 0 -158.73998797283912 -301.51601997494254 0 -301.51601997494254 -391.03546228577034 0 0 0 0 -170.52342593701724 -673.4666286926149 0 -673.4666286926149 -1066.6403624551567 0 0 0 0 -243.87640932219074 -572.89160502750747 0 -572.89160502750747 -432.95211508772627 0 0 0 0 -243.59059433047923 -571.83055386048272 0 -571.83055386048272 -483.36670940275508 0 0 0 0 -3.0476773703878677 3.1305820651061751 0 3.1305820651061751 -3.2151487901162596 0 0 0 0 -290.50066975651498 -452.18571171556414 0 -452.18571171556414 -751.8219610872984 0 0 0 0 -275.12981899225497 42.349474907596232 0 42.349474907596232 -62.365283468801863 0 0 0 0 -259.69493496077212 254.15382183327165 0 254.15382183327165 -418.30623157553055 0 0 0 0 137.27442266202434 -2.3583865134987718 0 -2.3583865134987718 -54.401161019909978 0 0 0 0 -102.11612443591139 -0.99737015986647748 0 -0.99737015986647748 -67.343044258093869 0 0 0 0 9.5780809160188483 203.90308574011578 0 203.90308574011578 -382.78067117911996 0 0 0 0 -35.338532824050162 146.45240509984069 0 146.45240509984069 -889.79064977271628 0 0 0 0 -59.974712901891507 140.98384773492216 0 140.98384773492216 -343.22766887555554 0 0 0 0 212.40287833126445 -26.115728817228955 0 -26.115728817228955 -372.78786511675571 0 0 0 0 203.83933210737655 -119.00498971871821 0 -119.00498971871821 -692.75729638224584 0 0 0 0 -348.03538166120597 -248.91110717626725 0 -248.91110717626725 -930.44897530465732 0 0 0 0 27.311817264359206 -215.6631069422474 0 -215.6631069422474 -1026.8904836666625 0 0 0 0 80.115574908350254 -47.120056294060305 0 -47.120056294060305 -595.46297066669649 0 0 0 0 -101.31057007308573 -258.19100243045614 0 -258.19100243045614 -530.48228080276476 0 0 0 0 -160.64978365346087 -337.06676151551073 0 -337.06676151551073 -828.39313645574657 0 0 0 0 -277.28235417241558 -204.36461943595714 0 -204.36461943595714 -536.68461179622682 0 0 0 0 -278.21173897156336 -229.26718320573809 0 -229.26718320573809 -1006.7431122687558 0 0 0 0 -669.55142234788127 -27.299271190935542 0 -27.299271190935542 -972.15601271649211 0 0 0 0 -398.32634203838916 48.593729066218657 0 48.593729066218657 -784.47534653404728 0 0 0 0 -1293.1472534356071 108.67081472030986 0 108.67081472030986 -846.69973300581478 0 0 0 0 -1371.0515313902779 64.105406105794827 0 64.105406105794827 -774.17318431611784 0 0 0 0 -697.28967267946973 -207.08701262003888 0 -207.08701262003888 -772.81758667420218 0 0 0 0 -218.60885542542201 59.329419831459745 0 59.329419831459745 -744.89816098446317 0 0 0 0 -107.96705757749169 218.74519594553385 0 218.74519594553385 -610.59003526360584 0 0 0 0 -0.28756447006595076 1.0796760417084847 0 1.0796760417084847 -3.9118564896395682 0 0 0 0 -85.354121441302823 443.9932378680669 0 443.9932378680669 -87.976651074892288 0 0 0 0 -185.7546995902253 409.97811858974728 0 409.97811858974728 86.244063178695797 0 0 0 0 -117.93848857891999 -346.4072931749588 0 -346.4072931749588 -344.13289776376496 0 0 0 0 -31.848809138127081 -226.21771295973485 0 -226.21771295973485 -182.85096561057617 0 0 0 0 0.77293818003020731 0.73816670630967351 0 0.73816670630967351 -7.6789222212433188 0 0 0 0 215.53829251696231 -50.760385385879317 0 -50.760385385879317 -50.03555904075256 0 0 0 0 196.23767356735516 -14.478592466152804 0 -14.478592466152804 -27.293618939520002 0 0 0 0 561.31710897579967 169.8271082067281 0 169.8271082067281 -411.70264802843667 0 0 0 0 -0.25522502584256712 0.61998244802522429 0 0.61998244802522429 -11.700723278760265 0 0 0 0 -546.97909260770939 452.51206246043012 0 452.51206246043012 -4.8051937788331998 0 0 0 0 6.2695075003302918 396.35344795721267 0 396.35344795721267 -868.33555086839442 0 0 0 0 -224.63065071419101 253.44593249489458 0 253.44593249489458 114.48779409935923 0 0 0 0 -22.658763428717748 -217.9239835809085 0 -217.9239835809085 -76.429849867450798 0 0 0 0 240.0325766046368 60.220252428915728 0 60.220252428915728 -47.707061572986277 0 0 0 0 -54.355217181438931 -401.4878826618052 0 -401.4878826618052 -515.65498540348017 0 0 0 0 188.57275407806833 -241.27095217494298 0 -241.27095217494298 -927.01890645428648 0 0 0 0 184.36169530511586 -223.60439092904744 0 -223.60439092904744 -559.15116106535788 0 0 0 0 233.82813861335171 -18.172442703414163 0 -18.172442703414163 -914.58528270619081 0 0 0 0 -592.04505267600416 236.29004644500537 0 236.29004644500537 -33.936605968110598 0 0 0 0 105.39471270818493 -131.37508047090068 0 -131.37508047090068 -392.58164751189088 0 0 0 0 0.43072669726862634 1.8169074897729232 0 1.8169074897729232 -1.5537945610252581 0 0 0 0 -143.004369782097 -437.7003492443082 0 -437.7003492443082 -613.28038361051767 0 0 0 0 60.959264824987258 -150.34130348497001 0 -150.34130348497001 -217.31848732893377 0 0 0 0 86.366410056418317 -214.55498389298282 0 -214.55498389298282 -71.261124860504424 0 0 0 0 562.86142606728083 -4.6652135354675011 0 -4.6652135354675011 -74.678728380407847 0 0 0 0 -43.084455142914976 -452.94854942817801 0 -452.94854942817801 -60.976883332321449 0 0 0 0 0.59634896473514454 -0.13885728136957987 0 -0.13885728136957987 -3.6360529833674846 0 0 0 0 43.696772259092768 -288.888746037896 0 -288.888746037896 -156.04601557724527 0 0 0 0 213.54793292234672 -239.35125336816418 0 -239.35125336816418 -258.88663449089881 0 0 0 0 203.52798656411369 -382.71276691337971 0 -382.71276691337971 -117.97427122193949 0 0 0 0 170.75659898661252 -397.29460651067711 0 -397.29460651067711 -32.776159293915043 0 0 0 0 225.43173587416049 -411.06457548660046 0 -411.06457548660046 54.346025156584801 0 0 0 0 184.9813364382062 -110.46987565606105 0 -110.46987565606105 477.60353091952766 0 0 0 0 142.29614402231914 -286.99745275780697 0 -286.99745275780697 366.18798023814088 0 0 0 0 3.3854327865762013 -12.453733314042779 0 -12.453733314042779 -17.288508223106096 0 0 0 0 -226.89480309958162 -99.853973336143099 0 -99.853973336143099 293.5445494929445 0 0 0 0 106.17243706593092 -477.84376797255163 0 -477.84376797255163 405.41164452377598 0 0 0 0 170.30562866525634 -321.22474106340815 0 -321.22474106340815 -26.095470115666103 0 0 0 0 225.22878775938898 -506.03072105364481 0 -506.03072105364481 -131.08908790186979 0 0 0 0 332.349911475515 -193.78302328575955 0 -193.78302328575955 203.01869895393429 0 0 0 0 -0.46838740067023998 -1.4609713912216122 0 -1.4609713912216122 3.8768964452703258 0 0 0 0 -26.599265022041436 110.55986402103736 0 110.55986402103736 -799.65445142280987 0 0 0 0 -28.970105619178867 171.78617054671849 0 171.78617054671849 -929.14468374522403 0 0 0 0 -130.15835505886298 224.46791908444811 0 224.46791908444811 -885.93691831686738 0 0 0 0 -122.78039112667011 258.00220251897554 0 258.00220251897554 -736.19420194243685 0 0 0 0 -24.429310475656166 297.76799844470224 0 297.76799844470224 -1050.7303687835047 0 0 0 0 -185.4815789011609 369.38744843012864 0 369.38744843012864 -911.68904520593787 0 0 0 0 0.53931780209768476 211.06293745263611 0 211.06293745263611 -903.39985677498589 0 0 0 0 2.3790758072227618 203.60411845183626 0 203.60411845183626 -893.66786726797727 0 0 0 0 75.559435841695631 -496.7122232373149 0 -496.7122232373149 768.13386219734184 0 0 0 0 1.381497273451604 -9.5984963345522054 0 -9.5984963345522054 -9.2202421172403994 0 0 0 0 -80.761817766388958 448.98983264006165 0 448.98983264006165 -1276.4351768177548 0 0 0 0 388.87822365826241 -161.40586217403188 0 -161.40586217403188 369.93228628092947 0 0 0 0 5.3902166687953468 56.847088136587217 0 56.847088136587217 92.458952278644574 0 0 0 0 110.28261818621377 -674.89153319143861 0 -674.89153319143861 942.48513105543225 0 0 0 0 306.26720390775779 -571.40116096192196 0 -571.40116096192196 59.650600683025914 0 0 0 0 -121.18827586201488 25.48500741221369 0 25.48500741221369 36.507086861265634 0 0 0 0 181.29703737758291 -334.40774057152157 0 -334.40774057152157 267.86209055865856 0 0 0 0 33.809753114021646 30.467489302990089 0 30.467489302990089 -63.49104888997681 0 0 0 0 -1.4848141322745505 -6.0656355917999463 0 -6.0656355917999463 -37.378454664115452 0 0 0 0 -0.46594206449663034 -6.1494411925923487 0 -6.1494411925923487 -54.228519662308827 0 0 0 0 -11.857673207752669 -21.833156417498685 0 -21.833156417498685 -67.486317566123034 0 0 0 0 14.48319876104506 15.72710538154206 0 15.72710538154206 -109.98459957752857 0 0 0 0 -138.28026174744627 72.860711025954515 0 72.860711025954515 -30.833825929781597 0 0 0 0 16.771833971855813 27.996700891224464 0 27.996700891224464 -44.331385044059971 0 0 0 0 10.110730764993779 -3.6090759415739413 0 -3.6090759415739413 -30.493392974314673 0 0 0 0 9.9905493564089625 30.20959445610788 0 30.20959445610788 -88.767214803495563 0 0 0 0 -7.338624672793685 5.2910870962277841 0 5.2910870962277841 -21.215294219153293 0 0 0 0 33.223722741684682 -7.4429630770209769 0 -7.4429630770209769 -93.057659661353682 0 0 0 0 -17.445602368501 13.167276895908799 0 13.167276895908799 -62.42112396749144 0 0 0 0 -6.2272064061031642 -20.009407142773853 0 -20.009407142773853 -49.948855218131939 0 0 0 0 80.299199618707917 -37.998190169028021 0 -37.998190169028021 -75.863278471748345 0 0 0 0 25.938597371173728 -2.9480945954928757 0 -2.9480945954928757 -91.555965918450966 0 0 0 0 77.597832976641484 -56.58750592655565 0 -56.58750592655565 -51.83213840172175 0 0 0 0 47.260910249241647 -47.385914058515482 0 -47.385914058515482 -38.235532897848316 0 0 0 0 85.474905374695027 -48.227628612648914 0 -48.227628612648914 -61.056600897931276 0 0 0 0 40.983568295441273 -0.3837486692591483 0 -0.3837486692591483 -39.852574322420992 0 0 0 0 -70.582460399211413 53.028768722375389 0 53.028768722375389 -76.00009317844524 0 0 0 0 46.272353779981586 29.554020265424697 0 29.554020265424697 -193.62052916355242 0 0 0 0 -23.003850258806779 3.4731168151411111 0 3.4731168151411111 10.322906330726255 0 0 0 0 -0.80271746957355994 -0.47190394926037982 0 -0.47190394926037982 0.043602126277214381 0 0 0 0 11.187238317927372 -11.852337147208438 0 -11.852337147208438 -17.869467743682243 0 0 0 0 -16.063355809714267 -10.616954201922454 0 -10.616954201922454 -42.7746516629486 0 0 0 0 -11.70155177922652 -75.087562751210498 0 -75.087562751210498 78.914081770883058 0 0 0 0 158.57417821858883 -129.72256968068018 0 -129.72256968068018 32.390256448088621 0 0 0 0 43.387328706055087 -113.72594842716353 0 -113.72594842716353 75.919757237559679 0 0 0 0 160.28490789072566 -120.67711101797977 0 -120.67711101797977 25.877068402478471 0 0 0 0 116.50717123727918 -78.514472081835265 0 -78.514472081835265 29.179276085444144 0 0 0 0 46.190160295784153 -41.620102251221397 0 -41.620102251221397 11.731782710638072 0 0 0 0 -19.208161492364525 -40.284973059653566 0 -40.284973059653566 63.822099677789083 0 0 0 0 129.73887598866759 -104.65832094826328 0 -104.65832094826328 -10.049623033085936 0 0 0 0 139.14141001465808 -89.085501643300631 0 -89.085501643300631 -34.123512197927994 0 0 0 0 183.65274677117236 -67.935431273767335 0 -67.935431273767335 -48.794898501684656 0 0 0 0 139.85313914353128 -89.933366603290779 0 -89.933366603290779 -65.908650733683317 0 0 0 0 295.68761539817388 48.015395125285977 0 48.015395125285977 19.503730586132406 0 0 0 0 242.82932933869643 -127.62626958737201 0 -127.62626958737201 -12.499480075552128 0 0 0 0 318.37215425379782 -51.943070605668254 0 -51.943070605668254 9.563437174558203 0 0 0 0 400.8861764769581 -104.26798125838832 0 -104.26798125838832 -4.1710163616844511 0 0 0 0 395.40182348881626 -144.81839354989097 0 -144.81839354989097 -21.60258350778895 0 0 0 0 346.48294540410961 -129.51293184807582 0 -129.51293184807582 -14.538448312729088 0 0 0 0 350.27530377848052 -164.24400109060116 0 -164.24400109060116 -29.466116400679311 0 0 0 0 349.50683048566998 -117.08925436876234 0 -117.08925436876234 30.361845911607361 0 0 0 0 -46.159899435300304 227.79831001124694 0 227.79831001124694 -442.9651032950278 0 0 0 0 -80.741145597863579 48.84705947645125 0 48.84705947645125 -360.30667281440765 0 0 0 0 -43.388093106250381 303.30807438794182 0 303.30807438794182 -781.30697078308003 0 0 0 0 -9.7847615660375595 302.84812611132656 0 302.84812611132656 -957.40962976207811 0 0 0 0 39.43859940008133 134.99081482866859 0 134.99081482866859 -833.41954047652689 0 0 0 0 5.1638339772098334 203.52213538905562 0 203.52213538905562 -908.00854510232602 0 0 0 0 28.368768682854352 142.74549721145377 0 142.74549721145377 -877.02755570492991 0 0 0 0 51.054561178757467 159.48743525103055 0 159.48743525103055 -877.69071632366831 0 0 0 0 118.00006444752853 133.43162695155661 0 133.43162695155661 -875.01542551203602 0 0 0 0 96.834979996010588 120.36587359346595 0 120.36587359346595 -872.53614212002924 0 0 0 0 90.858920572496572 126.98416051819004 0 126.98416051819004 -776.92707950001932 0 0 0 0 29.941149237471109 60.576205387616938 0 60.576205387616938 -751.26039250023314 0 0 0 0 82.082793351083637 156.27294588540826 0 156.27294588540826 -872.71975584005236 0 0 0 0 115.78919591394515 110.8658971418572 0 110.8658971418572 -884.28301778643799 0 0 0 0 115.00584357131265 109.96476079640343 0 109.96476079640343 -874.15359090095444 0 0 0 0 125.31788023818262 123.89994118128016 0 123.89994118128016 -876.90283425624148 0 0 0 0 90.967112316456223 38.738655377126634 0 38.738655377126634 -1071.7129556526597 0 0 0 0 114.27530359384036 113.4443480605114 0 113.4443480605114 -880.74149099551141 0 0 0 0 23.756050595759007 -48.95757463521295 0 -48.95757463521295 -790.37677483764492 0 0 0 0 8.8266809366196242 -13.898799992792064 0 -13.898799992792064 -15.565121733196854 0 0 0 0 -1.9719209545647161 0.19666013901782264 0 0.19666013901782264 -5.1047444125184107 0 0 0 0 9.3126013044675346 35.544835011758551 0 35.544835011758551 -149.51301625068299 0 0 0 0 216.36259465720968 -171.25044083911325 0 -171.25044083911325 93.571859195552861 0 0 0 0 -54.910359076624445 -20.442148449230444 0 -20.442148449230444 -381.7162291585646 0 0 0 0 -5.2762062562560459 -159.74608109865949 0 -159.74608109865949 -467.91038648924587 0 0 0 0 23.173797541217937 70.782988684935845 0 70.782988684935845 -577.82476115298778 0 0 0 0 10.97218384352891 -20.978818366660562 0 -20.978818366660562 -606.18286963434002 0 0 0 0 40.909917811696587 132.18985798112641 0 132.18985798112641 -140.05635592725594 0 0 0 0 0.62952719787779188 -63.282530320175738 0 -63.282530320175738 -168.93324531319377 0 0 0 0 38.9094760022017 43.700483455533686 0 43.700483455533686 -361.89834203834471 0 0 0 0 22.33247679004262 -0.3875496916443808 0 -0.3875496916443808 -83.332745432369848 0 0 0 0 33.537105595176627 -69.245557460184727 0 -69.245557460184727 -1021.4438072499288 0 0 0 0 -0.64728370159707005 -1.2882927913090469 0 -1.2882927913090469 -0.2278591070013718 0 0 0 0 4.4501719913423585 66.657619242367218 0 66.657619242367218 -1.0160760184007813 0 0 0 0 -1.5012535783498606 0.67598128456666018 0 0.67598128456666018 -76.751271954795811 0 0 0 0 -84.8432963112582 221.08168321773701 0 221.08168321773701 -1114.141387969461 0 0 0 0 21.33681420574294 -4.5114565791554924 0 -4.5114565791554924 -955.96964041236606 0 0 0 0 39.850852112400389 -89.016583221269684 0 -89.016583221269684 -1292.0090075738481 0 0 0 0 -90.795716589866515 -28.731516152169206 0 -28.731516152169206 -1186.6372359335728 0 0 0 0 -65.674996141160591 -39.224551440204777 0 -39.224551440204777 -1426.5931520517697 0 0 0 0 1.9709192907953366 -174.41656353687358 0 -174.41656353687358 -1443.6614040084532 0 0 0 0 27.340082502253665 -6.4540511166735541 0 -6.4540511166735541 -48.746452467836207 0 0 0 0 -0.78658343920326068 -1.1535129235253336 0 -1.1535129235253336 -5.8388601627430319 0 0 0 0 1.6497701730550034 4.378353039996 0 4.378353039996 -44.43496338876048 0 0 0 0 -15.744860928552953 -2.918349996136385 0 -2.918349996136385 -35.18460042102015 0 0 0 0 -9.6821219432763428 -2.638947396659205 0 -2.638947396659205 -35.247907854092773 0 0 0 0 163.46835143196859 144.61015198551468 0 144.61015198551468 -192.72815538914892 0 0 0 0 45.096119973103669 119.6090502541083 0 119.6090502541083 -1742.9235863254471 0 0 0 0 1.3197403479853058 -0.7164932759432574 0 -0.7164932759432574 -5.2465371733508448 0 0 0 0 -386.78078295099522 803.47469486518276 0 803.47469486518276 -1458.346272348288 0 0 0 0 -247.70496153804197 443.14792089105686 0 443.14792089105686 -593.35900578895235 0 0 0 0 73.031295338282462 227.74116245270898 0 227.74116245270898 -911.80149409703881 0 0 0 0 62.952358642682611 179.46508228659513 0 179.46508228659513 -1139.2954580259684 0 0 0 0 3.0129766682675649 -2.0896175268156227 0 -2.0896175268156227 -10.35262046067686 0 0 0 0 -59.083784751698204 146.57696198954909 0 146.57696198954909 -442.1462722710412 0 0 0 0 -80.775173585479479 248.49370759552039 0 248.49370759552039 -398.80147266470885 0 0 0 0 79.09859087524103 176.64358383299054 0 176.64358383299054 -654.56182907967741 0 0 0 0 86.719798049255587 133.03335175390566 0 133.03335175390566 -714.23879129756824 0 0 0 0 57.15087835770737 173.4636662229841 0 173.4636662229841 -726.70494776001215 0 0 0 0 119.29516934768071 157.79747370243786 0 157.79747370243786 -891.74873470086459 0 0 0 0 119.36700488415499 114.47246052887567 0 114.47246052887567 -891.6830710100694 0 0 0 0 106.88348147894339 153.43221944757897 0 153.43221944757897 -799.9266215562966 0 0 0 0 115.79968194962748 106.82321225484338 0 106.82321225484338 -776.59217322508812 0 0 0 0 108.07077282322825 113.92254372821481 0 113.92254372821481 -864.95739655655234 0 0 0 0 55.617780110397689 135.23016568433013 0 135.23016568433013 -823.53861068864353 0 0 0 0 109.8422553466479 137.81316089242 0 137.81316089242 -880.62611102747178 0 0 0 0 80.85905777991502 133.79809445674618 0 133.79809445674618 -702.02153701141651 0 0 0 0 93.617469385878849 112.01796066810493 0 112.01796066810493 -828.75494613005139 0 0 0 0 79.572444227154847 85.860205114964629 0 85.860205114964629 -685.01100343104099 0 0 0 0 59.199532557371185 116.41287513156476 0 116.41287513156476 -671.45248419632844 0 0 0 0 38.68540464833859 101.90503968152188 0 101.90503968152188 -486.87442641033704 0 0 0 0 56.489697772038198 71.127214408628788 0 71.127214408628788 -487.71575134389741 0 0 0 0 54.254210031533148 13.867127997986245 0 13.867127997986245 -543.23046614502528 0 0 0 0 43.611085640121019 -17.654919595512183 0 -17.654919595512183 -330.75976711620751 0 0 0 0 0.86137561021769216 101.59070552989033 0 101.59070552989033 -398.78301987161103 0 0 0 0 -17.44833964713024 -18.634027798852571 0 -18.634027798852571 -164.69260710025992 0 0 0 0 -9.5212465244653686 73.19918406860927 0 73.19918406860927 -193.38373157261231 0 0 0 0 15.424544416539902 -76.727303209238016 0 -76.727303209238016 -81.740280020416321 0 0 0 0 -6.609477081091427 0.65464308238733793 0 0.65464308238733793 -1.1014582689967938 0 0 0 0 -0.68324293824817417 0.34270850245027162 0 0.34270850245027162 -0.66289721493745546 0 0 0 0 -9.599566518656502 20.688313319682493 0 20.688313319682493 -23.444959521613782 0 0 0 0 -68.077436011484224 29.067867692306208 0 29.067867692306208 52.968274090751947 0 0 0 0 0.66388064904092836 3.9420592732472954 0 3.9420592732472954 1.1021803870213915 0 0 0 0 35.58058711735066 -36.240703923009278 0 -36.240703923009278 38.920825710039935 0 0 0 0 -0.34351421358453216 7.0999511098082451 0 7.0999511098082451 -11.620759791793956 0 0 0 0 1.7898742706329358 11.426632774800964 0 11.426632774800964 -62.947141184272368 0 0 0 0 4.5933710800263956 -2.4576056137435529 0 -2.4576056137435529 -10.594458717474126 0 0 0 0 -45.695928478525644 23.604837248775652 0 23.604837248775652 -123.58675989554831 0 0 0 0 25.211172086023964 -26.07885073331795 0 -26.07885073331795 -145.94738885579136 0 0 0 0 8.9428146497130001 55.4562338912001 0 55.4562338912001 -97.953197258619184 0 0 0 0 -50.078245138452075 117.09220626655406 0 117.09220626655406 -279.38764021348106 0 0 0 0 12.688487118574812 17.798131597557585 0 17.798131597557585 -81.282272899316013 0 0 0 0 49.019529250633695 26.116386392665845 0 26.116386392665845 -2.4284788782570104 0 0 0 0 5.6147030783469845 0.54028920352804732 0 0.54028920352804732 -2.445937515181452 0 0 0 0 67.241825040711774 138.03655056688513 0 138.03655056688513 171.78932453541256 0 0 0 0 1.7929211648105436 -0.74300963887372973 0 -0.74300963887372973 0.44596802734097807 0 0 0 0 270.62428261504556 -14.442557171398221 0 -14.442557171398221 -42.894524502517015 0 0 0 0 41.26874906592775 47.089924713080109 0 47.089924713080109 -52.045595187617437 0 0 0 0 -234.43741738891322 -41.38683360093637 0 -41.38683360093637 -666.64359495744975 0 0 0 0 77.838389556423863 -104.87673391402495 0 -104.87673391402495 -1582.0968564727264 0 0 0 0 9.1167406427006767 -30.045039143298709 0 -30.045039143298709 -648.44332495437629 0 0 0 0 -0.25823833727201251 -2.6557076492402807 0 -2.6557076492402807 -3.1781619358897473 0 0 0 0 0.16125977936462732 648.66822907454116 0 648.66822907454116 -2082.3735849421919 0 0 0 0 -16.05001509093654 155.28156270016552 0 155.28156270016552 -1367.2482346536926 0 0 0 0 -338.76298799198958 408.84598748365352 0 408.84598748365352 -1176.0775749730819 0 0 0 0 -144.75069280959633 225.93636574206903 0 225.93636574206903 -1174.2322274068993 0 0 0 0 -11.158049967829015 124.66901098815561 0 124.66901098815561 -901.68047533718345 0 0 0 0 -25.065808519289021 264.23186510418009 0 264.23186510418009 -1181.176953875969 0 0 0 0 4.7609506943281303 177.74363714748506 0 177.74363714748506 -868.08150025852956 0 0 0 0 71.342226569971899 147.90801323266714 0 147.90801323266714 -920.66123085772961 0 0 0 0 28.669369130657287 160.43503928677092 0 160.43503928677092 -1013.0966157189941 0 0 0 0 9.7711322071227187 156.75688307565724 0 156.75688307565724 -870.02901405687589 0 0 0 0 77.015646770399144 102.88964926140034 0 102.88964926140034 -859.81935436457798 0 0 0 0 54.289287539409088 69.599664022574871 0 69.599664022574871 -701.83087326948589 0 0 0 0 33.187722884628784 -3.0005529226036742 0 -3.0005529226036742 -759.51471631897221 0 0 0 0 -32.582464025443187 -39.207060526372516 0 -39.207060526372516 -543.99069465220236 0 0 0 0 29.952222583709954 75.531481752947002 0 75.531481752947002 -676.77778123785174 0 0 0 0 11.601843113460745 85.643338644715186 0 85.643338644715186 -534.45014933325001 0 0 0 0 -74.325492069043321 115.59492482902169 0 115.59492482902169 -707.84497081971494 0 0 0 0 -25.081796069232041 -93.782490720508576 0 -93.782490720508576 -685.42479923991255 0 0 0 0 -53.222847741858004 -3.50897479762898 0 -3.50897479762898 -896.81386044136889 0 0 0 0 -60.669376841353369 40.295979491738763 0 40.295979491738763 -354.08665182507684 0 0 0 0 -42.890920983965771 41.948208413476095 0 41.948208413476095 -353.93318448938317 0 0 0 0 -102.45789112213379 -81.127579099078503 0 -81.127579099078503 -182.53674985253019 0 0 0 0 -56.551933777601164 95.628185373178894 0 95.628185373178894 -170.73002189094041 0 0 0 0 36.818716483670869 51.02885158429126 0 51.02885158429126 -374.20907768594589 0 0 0 0 -55.270381596581501 -12.45901868263536 0 -12.45901868263536 -402.1701093186457 0 0 0 0 -21.173835953210983 49.577255161655557 0 49.577255161655557 -240.54625547277828 0 0 0 0 -70.160275371600619 7.9098549733753316 0 7.9098549733753316 -213.14027797003655 0 0 0 0 27.051502100664948 87.640798605109012 0 87.640798605109012 -179.66735676728604 0 0 0 0 112.25698055207431 -11.490235633209522 0 -11.490235633209522 -232.06675031383884 0 0 0 0 -119.89559562882869 43.944838145504036 0 43.944838145504036 -37.793202936307353 0 0 0 0 -0.58200936756950128 0.44548510274989184 0 0.44548510274989184 -0.086601381461736793 0 0 0 0 1.3287373779539848 -27.719042185914077 0 -27.719042185914077 -32.884143911816864 0 0 0 0 -14.880793321682177 4.1708941126380523 0 4.1708941126380523 4.816685792026874 0 0 0 0 -14.918195500069942 8.1904756711282971 0 8.1904756711282971 36.596580639670719 0 0 0 0 -97.231656570958876 -107.96236136111838 0 -107.96236136111838 170.20541178193844 0 0 0 0 -21.681156088156222 20.256476596935755 0 20.256476596935755 -14.306023959544994 0 0 0 0 56.236110827955372 82.170237105538035 0 82.170237105538035 -191.59172925448001 0 0 0 0 -138.49884699268807 163.60581303629169 0 163.60581303629169 195.51373135476024 0 0 0 0 -22.826757662528053 42.476679942245028 0 42.476679942245028 13.955669641242821 0 0 0 0 -165.03855613980954 -37.639615667286307 0 -37.639615667286307 -264.32149846820903 0 0 0 0 5.6379207577542729 68.088950078963535 0 68.088950078963535 -628.26337041919851 0 0 0 0 -28.996951310047507 -115.2625254987106 0 -115.2625254987106 -174.88661851602592 0 0 0 0 -26.566822995000912 207.22855557578902 0 207.22855557578902 -215.8106138896801 0 0 0 0 -6.9872170808721421 15.213746934902701 0 15.213746934902701 -9.9217409862067143 0 0 0 0 -22.066751274947819 41.363049721178868 0 41.363049721178868 36.82585696798651 0 0 0 0 -27.179725144869796 17.720819542887607 0 17.720819542887607 -4.4329548902460871 0 0 0 0 14.521720575172367 141.95471835639637 0 141.95471835639637 116.12534326445825 0 0 0 0 67.838319435526955 95.874464993279616 0 95.874464993279616 103.58556925647099 0 0 0 0 11.388883477126001 114.58144823440853 0 114.58144823440853 114.36740288533565 0 0 0 0 -22.348504130949038 100.19267375975876 0 100.19267375975876 126.28476561366915 0 0 0 0 -2.3064476649124117 111.98070257886502 0 111.98070257886502 98.416406702041968 0 0 0 0 -21.951087366524007 127.51688211802775 0 127.51688211802775 112.44997875990339 0 0 0 0 -2.1041585053026211 109.38988458090898 0 109.38988458090898 129.14590494715958 0 0 0 0 -4.7268834681863154 103.81063725290096 0 103.81063725290096 107.6765838022784 0 0 0 0 1.2874851139786188 76.75461376263047 0 76.75461376263047 104.99235616245369 0 0 0 0 -114.01680459177123 162.31217745127469 0 162.31217745127469 -380.17045376176611 0 0 0 0 -30.062223724856896 22.796868166325552 0 22.796868166325552 -14.20425625918184 0 0 0 0 -2.7911433510835195 93.825721236698882 0 93.825721236698882 137.28005394257525 0 0 0 0 -8.0579492110008104 2.0462430398673241 0 2.0462430398673241 5.9172885665545536 0 0 0 0 -14.081229803667693 20.341258604859668 0 20.341258604859668 -16.484751160284727 0 0 0 0 101.60241519155636 -91.236509817779734 0 -91.236509817779734 -768.3860488066457 0 0 0 0 74.360130696280862 -133.97193328210597 0 -133.97193328210597 -584.76580047662537 0 0 0 0 -16.373444634421503 -273.095676859175 0 -273.095676859175 -556.32520073894557 0 0 0 0 0.29851665457954368 -162.06489908763251 0 -162.06489908763251 -611.0139708370225 0 0 0 0 -133.34444934158228 -195.05332679780804 0 -195.05332679780804 -603.73137942597532 0 0 0 0 -66.625424423193635 8.6647157465995406 0 8.6647157465995406 -692.03722804597055 0 0 0 0 24.261645200964352 -60.618889232895526 0 -60.618889232895526 -604.89132803122629 0 0 0 0 -21.962826209102786 -158.66471608814754 0 -158.66471608814754 -504.02270777109061 0 0 0 0 54.174647304485916 -173.99454633016899 0 -173.99454633016899 -609.60393877901515 0 0 0 0 78.447800342724008 -13.471074528808458 0 -13.471074528808458 -694.7833891635637 0 0 0 0 144.93822806711148 -174.19409510471723 0 -174.19409510471723 -720.85955572716693 0 0 0 0 99.482853737824371 -244.24493482215166 0 -244.24493482215166 -434.42831245847174 0 0 0 0 96.532094868752438 -73.933903256060148 0 -73.933903256060148 -650.56360377139026 0 0 0 0 -40.314648001086425 -81.945773329508484 0 -81.945773329508484 -564.4185664098477 0 0 0 0 -121.03994898806241 -360.60558270386628 0 -360.60558270386628 -1172.1933682532499 0 0 0 0 31.158089113758706 -127.0099065405243 0 -127.0099065405243 -724.37246774780397 0 0 0 0 -18.062345894373131 12.953999979100299 0 12.953999979100299 -9.0789433160690685 0 0 0 0 68.655130550705508 102.63374949399258 0 102.63374949399258 131.67165592841502 0 0 0 0 -12.486287551573014 -323.74650409004062 0 -323.74650409004062 -773.19502825793643 0 0 0 0 35.053593753353084 -232.44759594859806 0 -232.44759594859806 -787.15581061497141 0 0 0 0 131.59968085960645 156.23006967930496 0 156.23006967930496 163.19560570371141 0 0 0 0 59.368416751523455 109.23647670291757 0 109.23647670291757 146.10785676233536 0 0 0 0 74.024770750217613 96.741949979460514 0 96.741949979460514 134.32022347934253 0 0 0 0 215.46665987166853 157.51001606440695 0 157.51001606440695 107.51809070870695 0 0 0 0 -5.1046726033782761 77.533544737482771 0 77.533544737482771 135.35766136472375 0 0 0 0 15.584587065008236 102.41491203909936 0 102.41491203909936 142.41949955714517 0 0 0 0 68.919856341552077 107.51585709902793 0 107.51585709902793 128.05591277213261 0 0 0 0 25.78434671672585 86.602104619342754 0 86.602104619342754 136.34728746451947 0 0 0 0 19.088977121264179 99.116920541187937 0 99.116920541187937 132.39701593753853 0 0 0 0 22.785861711938196 84.720876709979166 0 84.720876709979166 128.27064560410872 0 0 0 0 70.843478201193648 76.054711091053377 0 76.054711091053377 129.42849171674607 0 0 0 0 46.160828207139275 110.59985370891809 0 110.59985370891809 141.16169380049064 0 0 0 0 55.451162064807477 110.40707752321907 0 110.40707752321907 134.65704269425987 0 0 0 0 -8.36424357740907 104.43024318698281 0 104.43024318698281 132.2824407859971 0 0 0 0 196.81237964482261 152.67686884681052 0 152.67686884681052 106.50671950367905 0 0 0 0 122.3990103258875 129.90802599635754 0 129.90802599635754 138.41707163821661 0 0 0 0 164.93493515573937 97.587699058394719 0 97.587699058394719 107.94277446578781 0 0 0 0 164.38143669413057 121.19973170059302 0 121.19973170059302 107.31421783538826 0 0 0 0 236.44770284291189 134.35112811868021 0 134.35112811868021 84.678423416497026 0 0 0 0 258.36106917963116 148.62520261200098 0 148.62520261200098 89.867482585981634 0 0 0 0 -5.4034945975692779 4.4361300737656677 0 4.4361300737656677 -23.998919620110168 0 0 0 0 327.65697164049197 191.67481720395767 0 191.67481720395767 77.155366166743988 0 0 0 0 259.12057761460892 201.96324129029392 0 201.96324129029392 99.223632404486125 0 0 0 0 72.264813697614954 107.23660505368071 0 107.23660505368071 -94.885257416666718 0 0 0 0 78.638967443203342 82.743021763303204 0 82.743021763303204 -83.288682882921421 0 0 0 0 72.432819206425734 89.316251120102606 0 89.316251120102606 -66.985316381673329 0 0 0 0 56.793606690912839 49.900811638621235 0 49.900811638621235 -135.48412069034021 0 0 0 0 310.39590431915349 -62.184199780473136 0 -62.184199780473136 -158.77442103986687 0 0 0 0 446.7403734744621 385.72746297084268 0 385.72746297084268 98.43092517889454 0 0 0 0 4.0167684591893336 21.897063966483046 0 21.897063966483046 -100.74244216655546 0 0 0 0 -9.0495365795588594 19.966230581900156 0 19.966230581900156 17.86571421488263 0 0 0 0 276.74500485708904 387.88290486082496 0 387.88290486082496 354.23861202935041 0 0 0 0 299.4866693087065 253.27488555270202 0 253.27488555270202 127.63668451684498 0 0 0 0 172.50648057653234 216.97319641844115 0 216.97319641844115 119.63749320047282 0 0 0 0 199.47933209002622 197.2669411222796 0 197.2669411222796 99.359060694162963 0 0 0 0 2.6095716274488154 49.164320907717411 0 49.164320907717411 -75.760581938931864 0 0 0 0 3.1409816945976958 3.164047299533955 0 3.164047299533955 -17.890618752345063 0 0 0 0 1.5207069822206007 -1.2250975423652193 0 -1.2250975423652193 0.047237095579093946 0 0 0 0 22.535421187192895 -18.32172653596399 0 -18.32172653596399 -84.146082296738314 0 0 0 0 106.3152152660557 26.0716787241563 0 26.0716787241563 -174.38690074965416 0 0 0 0 142.84263890219518 82.564570996513794 0 82.564570996513794 -109.72151855664197 0 0 0 0 -0.88681478043345718 -0.40536601344624046 0 -0.40536601344624046 1.3357370913886513 0 0 0 0 -43.433219916315352 -4.6616018753447861 0 -4.6616018753447861 -70.260978572054228 0 0 0 0 -18.930144339246226 331.50605617551355 0 331.50605617551355 115.76402165974287 0 0 0 0 214.91959283692859 -77.184615214026053 0 -77.184615214026053 -439.13576400043712 0 0 0 0 22.476214191110301 -21.126652755017858 0 -21.126652755017858 -82.410638711437969 0 0 0 0 12.764007551757004 22.305686641856937 0 22.305686641856937 -84.640701729611465 0 0 0 0 -4.5307806584376067 34.510349118603699 0 34.510349118603699 -100.83014749097492 0 0 0 0 -5.2138859697566886 35.166045627865969 0 35.166045627865969 -93.333887140426668 0 0 0 0 3.0761652116119107 -0.1717188799047733 0 -0.1717188799047733 -10.775993919425812 0 0 0 0 77.697284768396457 79.480600992063046 0 79.480600992063046 28.403097443464503 0 0 0 0 16.142632346201694 1.9053415236485307 0 1.9053415236485307 -147.67042210057298 0 0 0 0 7.9171830875099358 26.905498131777968 0 26.905498131777968 -98.432584277530452 0 0 0 0 97.992843100127232 81.036250627288155 0 81.036250627288155 -108.98636153851476 0 0 0 0 42.752208086494193 -20.622094238920909 0 -20.622094238920909 102.36803212678416 0 0 0 0 107.17288215517488 30.977427649828314 0 30.977427649828314 -103.43270953977844 0 0 0 0 622.56483842240777 172.24857128941403 0 172.24857128941403 -480.45080860209055 0 0 0 0 628.30087933691266 267.24302075371997 0 267.24302075371997 -179.27687854975011 0 0 0 0 12.716575719464888 25.271173253664482 0 25.271173253664482 -100.83578706245436 0 0 0 0 107.06045961734412 60.124206939548458 0 60.124206939548458 -241.63290975839845 0 0 0 0 -1.6849945727080762 8.0494969137516996 0 8.0494969137516996 -5.0283322917445759 0 0 0 0 100.45196586758811 13.701440479744633 0 13.701440479744633 -79.735628289527085 0 0 0 0 -98.908706973316555 204.12360700503359 0 204.12360700503359 -95.173400687584945 0 0 0 0 28.460430718953901 14.381478506932543 0 14.381478506932543 -38.304691512833315 0 0 0 0 -90.938795267338719 -25.007155794308346 0 -25.007155794308346 -231.8067679363885 0 0 0 0 20.718594028964617 144.09379141908084 0 144.09379141908084 201.99667367202983 0 0 0 0 123.25048204204722 197.55914873796792 0 197.55914873796792 229.68008859532529 0 0 0 0 -53.285430842252026 420.82238404813324 0 420.82238404813324 153.81467140604764 0 0 0 0 281.88093621129156 207.74160492614101 0 207.74160492614101 259.21632921001128 0 0 0 0 632.7133847623536 673.5606609431552 0 673.5606609431552 -167.8702615527618 0 0 0 0 379.20778108815375 271.04644451094737 0 271.04644451094737 -1201.3956707114558 0 0 0 0 320.43440538637697 197.59589357474033 0 197.59589357474033 122.78249549767224 0 0 0 0 -5.5598101451999504 4.1957989536280991 0 4.1957989536280991 -3.6015904537601671 0 0 0 0 -86.210798031357172 130.31687669861185 0 130.31687669861185 -783.85485257732216 0 0 0 0 -382.82245342258011 69.686162866641098 0 69.686162866641098 -267.29292733889088 0 0 0 0 -32.031215223993968 -64.267015601555613 0 -64.267015601555613 -338.19959402222412 0 0 0 0 -257.58636105539881 -303.62755721279063 0 -303.62755721279063 -234.66292549050195 0 0 0 0 157.8582940584447 -144.44979868473456 0 -144.44979868473456 -345.37384137625668 0 0 0 0 92.408245470237489 -128.06039760275416 0 -128.06039760275416 -180.88946457292968 0 0 0 0 -59.722403455452422 -165.4661920127221 0 -165.4661920127221 -185.98479370315181 0 0 0 0 -16.020967000967175 -36.870510885552903 0 -36.870510885552903 -71.514996827513642 0 0 0 0 -140.14416037460887 -152.58603982131262 0 -152.58603982131262 -139.85110205345154 0 0 0 0 65.512450136315238 52.138439251760246 0 52.138439251760246 -193.27686925547459 0 0 0 0 1.0451897026667289 31.07463983501313 0 31.07463983501313 -101.81263143841187 0 0 0 0 13.01509249953989 1.1644722567033163 0 1.1644722567033163 -38.173717547679139 0 0 0 0 150.11600388881971 -124.57478519918277 0 -124.57478519918277 -179.32278619497811 0 0 0 0 382.21713424378504 -99.196573476856429 0 -99.196573476856429 -223.39424474203588 0 0 0 0 266.80895249394416 316.08579567851666 0 316.08579567851666 -247.97299230021781 0 0 0 0 688.0096053914549 -91.658623432069362 0 -91.658623432069362 -85.590223295406759 0 0 0 0 405.21577923897166 53.903601705043911 0 53.903601705043911 -107.8838145133559 0 0 0 0 332.81970070695024 -160.45587286896262 0 -160.45587286896262 -342.33404560374311 0 0 0 0 307.69562821082491 -42.723955598087741 0 -42.723955598087741 -265.91592741564455 0 0 0 0 94.578745361744041 -83.917152570111284 0 -83.917152570111284 -168.03360413049995 0 0 0 0 146.52079383412092 -60.794408336803826 0 -60.794408336803826 -267.88405244109344 0 0 0 0 163.7670418526377 34.289820571855671 0 34.289820571855671 -204.14696522284248 0 0 0 0 29.510943136381325 12.696238855475453 0 12.696238855475453 -48.550052984070796 0 0 0 0 35.948642256883659 15.103291195177803 0 15.103291195177803 -43.118759577481796 0 0 0 0 29.305487911497039 72.316220405873537 0 72.316220405873537 -189.53294068589366 0 0 0 0 84.349587439288371 -8.5512442701101463 0 -8.5512442701101463 -70.836335870664698 0 0 0 0 69.83959598491856 -40.176990569748796 0 -40.176990569748796 -138.66204150396516 0 0 0 0 34.778825824192609 -61.121178554469225 0 -61.121178554469225 -54.161610813403968 0 0 0 0 21.258727098716896 3.4490640767681562 0 3.4490640767681562 -17.416751997421009 0 0 0 0 -13.44771575262218 12.82982830375601 0 12.82982830375601 -6.6792200896132634 0 0 0 0 45.149528272484531 -19.107456751152313 0 -19.107456751152313 -71.638649818421754 0 0 0 0 45.390997187133621 -15.701723059279914 0 -15.701723059279914 -38.09556679076195 0 0 0 0 67.98470982057006 -168.03577496355138 0 -168.03577496355138 -298.60247695233556 0 0 0 0 0.92891337894579706 0.62526183630562571 0 0.62526183630562571 -1.5624405909128036 0 0 0 0 2.6403736000920617 46.705006127138859 0 46.705006127138859 -22.721710562090266 0 0 0 0 1.722681580697099 53.768116065708455 0 53.768116065708455 -75.163555420616376 0 0 0 0 -11.957737247333114 15.695245946479929 0 15.695245946479929 109.11321205985769 0 0 0 0 -65.837501575686474 -107.78245330285063 0 -107.78245330285063 22.324299280283412 0 0 0 0 -26.817827829251883 -127.33274939461 0 -127.33274939461 -85.603332875252818 0 0 0 0 35.460840367089986 -60.452590415476152 0 -60.452590415476152 -60.088578474060341 0 0 0 0 -21.997062868361354 -75.767249219529731 0 -75.767249219529731 -12.501405732509738 0 0 0 0 3.3015418158875036 -19.884013168114507 0 -19.884013168114507 44.496798609729012 0 0 0 0 24.944352985388832 -33.431145234018913 0 -33.431145234018913 -391.57780572233787 0 0 0 0 -126.04564317594486 -31.759576724045473 0 -31.759576724045473 -257.91614352708393 0 0 0 0 13.687990660151879 -4.4300220485397261 0 -4.4300220485397261 -3.1096676702220964 0 0 0 0 6.1133998398849236 -3.6300596668321035 0 -3.6300596668321035 1.6806594272457183 0 0 0 0 -18.919863290799185 -83.933643489212045 0 -83.933643489212045 -282.86060477520732 0 0 0 0 5.1100749394290688 -116.77197274214177 0 -116.77197274214177 -318.58041020420751 0 0 0 0 -16.991034079201199 -68.05486783248125 0 -68.05486783248125 -326.84119991338684 0 0 0 0 -46.252929897769491 -116.87383948176193 0 -116.87383948176193 -316.44540691241491 0 0 0 0 53.001786536702639 23.593517082148992 0 23.593517082148992 -9.4928110762339202 0 0 0 0 2.5500644971910855 -0.75892858186594481 0 -0.75892858186594481 0.074889754334897418 0 0 0 0 -40.307804580195807 -82.327546326441734 0 -82.327546326441734 -292.65703142904385 0 0 0 0 -75.618707947097846 87.850016100097491 0 87.850016100097491 211.78687865659776 0 0 0 0 2.6236264410339096 2.0274854748455784 0 2.0274854748455784 -2.6289896830658694 0 0 0 0 -12.851445799364456 -81.553915116185635 0 -81.553915116185635 -348.48710692550412 0 0 0 0 -17.132278374352154 -116.0951807351039 0 -116.0951807351039 -366.50469819924183 0 0 0 0 174.54373574366684 7.6594501992858568 0 7.6594501992858568 -461.61146923063552 0 0 0 0 1.5643610743640703 2.738362668294279 0 2.738362668294279 -2.7191759012677803 0 0 0 0 220.92285988312824 -14.34161070373284 0 -14.34161070373284 -748.27161524945677 0 0 0 0 -42.762361642136966 -88.246847179567339 0 -88.246847179567339 -376.10586499637793 0 0 0 0 -53.313699702062479 15.095194808421184 0 15.095194808421184 -97.602387997974802 0 0 0 0 -42.982285428306909 -105.23373772437799 0 -105.23373772437799 -325.64045010721202 0 0 0 0 0.98235173061411452 0.77721477024548236 0 0.77721477024548236 -0.61600379311214049 0 0 0 0 -45.295947963124036 104.02521792708467 0 104.02521792708467 145.26562923581969 0 0 0 0 26.312631838078232 -28.196901525542671 0 -28.196901525542671 -193.46292800337324 0 0 0 0 -30.807734974392588 7.0467586216636846 0 7.0467586216636846 30.95413891320095 0 0 0 0 -24.806847991167047 -25.928924417643429 0 -25.928924417643429 -66.943710323592313 0 0 0 0 -22.920033545370075 -23.989449909290897 0 -23.989449909290897 -138.66393603222969 0 0 0 0 -55.368679247908858 -36.901410714935082 0 -36.901410714935082 -184.81635171115886 0 0 0 0 -9.1769860038848492 -53.390545549764283 0 -53.390545549764283 -119.79720818110582 0 0 0 0 -19.972181953597556 -122.73228492623639 0 -122.73228492623639 -350.7786782088333 0 0 0 0 45.400606530556615 -91.652578202378209 0 -91.652578202378209 -516.15590209699712 0 0 0 0 2.7914154971399512 -21.537097124801221 0 -21.537097124801221 -357.75039264600309 0 0 0 0 -1.900178382833019 -84.179814790384626 0 -84.179814790384626 -565.36204412591451 0 0 0 0 -122.59722725893792 12.207375569723808 0 12.207375569723808 -226.88510542327822 0 0 0 0 -111.82827764178637 -123.73738589931691 0 -123.73738589931691 -363.78165827003613 0 0 0 0 -101.77649346461089 7.7122829991517392 0 7.7122829991517392 -201.3649612107547 0 0 0 0 -94.02341629685543 -78.802330441547383 0 -78.802330441547383 -44.396669420048056 0 0 0 0 -20.270183641113817 -55.884135440038335 0 -55.884135440038335 26.927993747564869 0 0 0 0 12.357490273544499 13.78227012090656 0 13.78227012090656 -229.55436303664465 0 0 0 0 32.160094123768431 82.462839241351503 0 82.462839241351503 -33.92738739277047 0 0 0 0 
</DataArray>
<DataArray type="Float64" Name="cross_section_updated" format="ascii">
1 1 0.0089143453796880368 1 1 1 1 1 1 1 1 1 0.0080281846676332081 1 1 1 1 1 0.0095074653940427061 1 1 1 1 1 1 1 1 1 1 1 1 1 0.0095051985089577625 1 1 1 1 0.0097552319622359242 1 1 1 0.0097549626583474554 1 1 1 1 1 1 1 1 1 1 1 1 1 1 1 1 1 1 1 1 1 1 1 1 0.0081945094099482221 1 1 1 1 1 0.00466959131414953 1 1 1 0.010295639251020214 0.010915636503478803 1 1 1 1 1 1 1 1 1 1 1 1 0.0088534495001217298 1 1 0.0016434196610808898 1 1 1 1 1 1 1 1 1 1 1 1 1 1 1 1 1 1 1 0.009873053009409459 1 1 0.0091107530887788255 1 1 1 1 1 1 1 1 1 1 0.0096631145222096874 1 1 1 1 1 0.0099778161534427139 1 1 1 1 0.0079146053113498226 1 0.0085754795387727456 1 1 1 1 0.0092942161764644048 1 1 1 1 1 1 1 1 1 1 1 1 1 1 0.0042121016690436185 1 1 1 1 0.0078044280621018102 1 1 1 1 1 1 1 1 0.010035284229678124 1 1 1 1 1 1 1 1 0.0077770368245918603 0.0086674469905109481 1 1 1 1 1 0.0085757257417179607 0.0083788182197691661 1 1 1 1 1 1 1 1 0.0051188712833356437 1 1 0.0098958257514776601 1 0.0084026918779109578 1 0.0098924660926619779 1 1 1 1 1 1 1 0.0093734982955694952 1 1 1 1 1 1 1 1 1 1 1 0.0080271523692746431 1 1 1 1 0.010675893267056653 0.0046428291640879544 1 1 1 1 0.0067395931740446436 1 1 1 0.0064509036990040014 1 1 1 1 1 1 1 1 1 0.010214128304800304 1 1 1 1 1 1 1 1 1 1 1 1 1 1 1 1 1 1 1 1 1 1 1 1 1 0.01006052437681405 1 1 1 1 1 1 1 1 1 1 1 1 1 1 1 1 1 1 1 1 1 1 1 1 1 0.0048213308360106049 1 1 1 1 1 1 0.010075799223837785 1 1 1 1 1 1 1 0.0087869796075328334 0.010112179067235039 1 1 1 1 1 1 1 1 1 0.0094321968582405102 1 1 1 1 0.010338141147079104 1 1 1 1 0.0097494814864162432 1 1 1 1 1 1 1 1 0.0094834663300825336 1 1 1 1 0.009245605349600363 1 1 1 1 1 1 1 1 1 1 0.010257326075469669 1 0.0086139482550929933 1 1 1 1 1 1 1 1 1 1 0.0097847017618550459 1 0.007632397457962555 1 1 1 1 1 1 1 1 1 1 1 0.0081200294792329701 1 1 1 1 1 1 1 1 0.0080150014790896906 1 1 1 1 0.0081208091082866397 1 1 1 1 1 1 1 1 0.0086609931783576018 1 1 1 1 1 1 1 1 1 1 1 1 1 1 1 1 1 1 1 1 1 0.0092448257205466934 1 1 1 1 1 1 1 1 1 0.0078364557739112935 1 1 1 1 1 1 1 1 1 1 1 1 1 1 1 1 1 1 1 1 1 1 1 1 1 1 1 1 1 1 1 1 0.0071976701557513803 1 1 1 1 1 1 1 1 1 1 1 1 1 1 1 0.0058657925437434495 1 0.0070420179523342334 1 1 1 1 0.0058470796467181927 1 1 1 1 1 0.0073290042496312515 1 1 1 1 1 1 1 1 1 1 1 1 0.0060226979360984301 1 1 1 1 1 1 1 1 1 1 1 1 1 1 1 1 1 1 1 1 1 1 1 1 1 1 1 1 1 1 1 1 1 1 1 1 1 1 1 1 1 0.0086311146590482904 1 1 0.0086687974818172586 1 1 1 1 1 1 0.010046259736351324 1 1 1 1 1 1 0.0098744537073922004 1 1 1 1 1 1 1 1 1 1 0.00012219565146790942 1 1 1 1 1 1 1 1 1 1 1 1 1 0.01027467745686887 1 1 1 1 1 0.0092037540538007397 1 1 1 1 1 1 1 1 1 -4.5355750405429163e-12 0.010702727680458629 1 1 1 1 1 1.1436144613590285e-05 1 1 1 1 1 1 1 1 1 1 1 1 1 1 1 1 1 1 1 1 1 1 1 1 1 1 1 1 1 1 1 1 1 1 1 1 1 0.00085432479579603329 1 0.00041006893911085113 1 1 1 1 1 1 1 1 1 1 1 1 1 1 1 1 1 1 1 0.010156577919774454 1 1 0.0013108138815463889 1 1 1 1 1 1 0.001818699611793163 1 0.0066347282123613103 1 1 1 0.009349533852132233 1 1 0.0104205040986333 0.0065055226242089603 1 0.0021079453975733665 1 1 1 1 1 1 0.0098799585389016936 1 1 1 1 1 0.0053665374032142842 0.010001870540877537 0.0067316424663954356 1 1 1 1 0.0096410359688800032 1 1 1 1 1 1 0.0018293599522132969 1 1 1 1 1 1 0.0054639141185634146 1 0.009055421883583499 0.00020254162494386628 1 1 -1.409310515509965e-11 1 0.0096088302953232854 1 1 1 1 1 1 1 1 1 1 1 1 1 1 1 1 1 0.0098897913132390287 1 1 1 0.0097257454255123658 1 1 1 1 1 0.0096875599005194473 1 1 1 1 1 1 0.0098693936201957339 1 1 1 0.0096147819476186808 1 1 1 1 1 1 1 1 1 1 1 1 1 1 1 1 0.0099053575951953306 1 1 0.0070348721691839648 1 1 1 1 1 1 1 1 0.0099979828190304067 1 1 1 1 1 1 1 1 1 1 1 1 1 1 1 1 1 0.0084220360505224533 1 1 1 1 1 1 0.0088737577583852811 1 1 1 0.0099943943692489094 1 0.0093752905582106961 1 0.0099230095200878495 1 0.0082023608048175829 1 1 0.010220344450886727 1 1 1 1 1 1 1 1 1 1 1 1 0.0092248467423187794 1 1 1 1 1 1 1 1 1 1 1 1 1 1 1 1 1 1 1 1 1 1 1 1 1 1 1 1 1 1 1 1 1 0.0099484388887480998 1 1 1 1 1 0.0087466198699384674 0.010026784360187993 1 0.0096688434248306324 1 1 1 1 1 1 1 0.0097372468495095493 1 1 1 1 1 1 1 1 1 1 1 0.0086782438264843102 1 0.0089987062156932605 1 1 0.009613973119464974 1 1 1 0.010013620636264126 1 1 1 0.010026111948852601 1 1 1 0.0097487962040729015 0.009897190415826795 1 1 1 1 1 1 1 1 1 1 1 1 1 1 1 1 1 1 1 1 1 1 1 1 1 1 1 1 1 1 1 1 1 1 1 1 1 1 1 1 1 1 1 1 1 1 1 1 1 1 1 1 1 1 1 1 1 1 1 1 1 1 1 1 1 1 1 1 1 1 1 1 1 1 1 1 1 1 1 1 1 1 1 1 1 1 1 1 1 1 1 1 1 1 1 1 1 1 1 1 1 1 1 1 1 1 1 1 1 1 1 1 1 1 1 1 1 1 1 1 1 1 1 1 1 1 1 1 1 1 1 1 1 1 1 1 1 1 1 1 1 1 1 1 1 1 1 0.0097622783063036102 0.0099160305824488783 1 1 1 1 1 1 1 1 1 1 1 1 1 1 1 1 1 1 1 1 1 1 1 1 1 1 1 1 1 1 1 1 1 1 1 1 1 1 1 1 1 1 0.00010970054342137464 1 1 0.0013099113998925327 1 1 1 1 1 1 1 1 1 1 1 0.0073920289651837751 1 1 0.00019459647657225215 1 1 9.7258773584196073e-05 1 1 1 1 1 1 1 1 1 1 1 1 1 1 1 0.0099857891808639715 1 1 1 1 1 0.010037656598504308 0.0083626640884577191 1 1 1 1 1 1 1 1 1 1 1 1 1 1 1 1 1 1 1 0.010053206356797047 1 0.0086273910633265366 1 1 0.009982738417376999 1 0.008787787237578169 1 1 1 0.009663759609404847 1 1 1 1 1 1 0.008942260560622476 1 1 1 1 0.0095240062955560117 1 1 1 1 1 1 1 1 1 1 1.4032238912498052e-11 1 1 1 1 1 1 1 1 1 1 1 1 1 0.0098359083281352126 1 1 1 1 5.7666801089574504e-05 0.0056704111440503101 1 1 1 0.011820050692325106 1 0.010238433349495674 1 1 0.010070331319794823 1 1 1 1 0.0068551653628738793 0.0087437974523306271 1 1 1 1 1 0.004568977392335475 1 1 1 1 1 1 1 1 1 1 0.0023571591664542958 1 1 1 1 1 1 1 1 1 1 1 1 1 1 1 1 0.0049946253748364344 1 0.010244909023842064 1 0.0078054761807680294 1 1 0.010246547840160406 0.0052227110108735621 1 1 1 1 1 1 1 0.010028655202092642 1 0.0047751436193025198 1 1 1 1 1 1 1 1 1 1 1 1 1 1 1 1 1 1 1 1 1 1 1 1 1 1 1 1 1 1 0.0083459704267572488 1 1 1 1 1 1 1 1 1 1 1 1 1 1 0.010750968072489202 1 1 1 1 1 1 1 1 1 1 1 0.010145373271918445 1 1 1 1 1 1 1 1 1 1 1 1 1 1 1 0.0092168900129207497 1 1 1 1 1 1 1 1 1 0.008428513716746501 1 0.0096125580624123862 1 1 1 1 0.0088811726523506176 1 1 0.0095337914456572227 1 1 1 1 1 1 1 0.01005097410345494 0.0099900687097607462 1 1 1 1 1 1 1 1 0.0062029608749835791 1 1 0.011003685261259475 1 1 1 1 1 1 1 1 1 1 0.012123467358932872 1 1 2.8839933913227256e-12 1 1 0.010003759797920519 1 1 1 0.0086301178633128826 0.00051092102157245835 1 1 1 1 1 1 1 1 1 1 1 0.001190421261492507 1 1 1 1 1 1 1 1 1 1 1 1 1 1 1 1 1 1 1 1 1 1 1 1 1 0.0098859428429693367 1 1 1 1 1 1 1 1 0.0037356100760677657 1 1 1 1 1 0.0039559708491260816 1 1 1 1 1 1 0.0042420994787261829 1 1 1 1 1 1 1 1 1 1 1 1 1 1 1 1 1 1 1 1 1 1 1 1 1 1 0.010034701166070071 1 1 1 1 1 0.0099492569533674059 1 1 1 1 1 1 1 1 1 1 1 1 1 1 1 1 1 1 1 1 1 1 1 1 0.010589333326227966 1 1 0.0099751019583804793 1 1 1 0.010212771113653691 1 0.0088339847608285386 1 1 1 0.0069717563286345761 1 0.010011035034351993 1 1 1 1 1 0.010145143870669435 0.0046474837900207623 1 1 1 1 1 0.0098146754436319889 0.010330849189706179 0.0063653352541227877 1 0.0096367885294133138 1 1 1 1 1 1 1 1 1 1 1 1 1 1 1 1 1 0.0099818487543109694 1 0.0092509688983656961 1 1 1 1 0.0026958477117007777 0.0041768859760056565 0.006887742741906097 1 1 1 1 1 1 1 1 1 1 1 1 1 1 1 1 1 1 1 0.0099194317179081438 1 1 1 1 1 0.0020916278348904714 1 1 1 1 0.010005089175193799 1 1 1 1 1 1 1 1 1 1 1 1 1 1 1 1 1 1 1 0.0097559196333969374 1 0.0096063018728056327 1 1 1 1 1 1 1 1 0.010073067189695573 0.0098247210420143762 1 1 1 0.0098253253644155492 1 1 1 1 1 1 1 1 1 0.010080640415641037 1 1 1 1 1 1 1 1 1 1 1 1 1 1 1 1 1 0.0036079839852351508 1 1 1 1 1 0.0053164028665122747 1 1 0.0070970662757785068 1 1 1 1 1 1 1 1 1 1 1 1 1 1 1 0.0090480049398704993 1 1 0.0098876888429427316 1 1 1 0.0061655079989749329 1 1 1 1 0.0034428643153504839 1 1 1 1 1 1 0.0049411022935678325 1 1 0.0096267670819030933 1 1 1 1 1 1 1 1 1 1 1 1 1 1 1 1 1 1 1 1 1 1 1 1 1 1 4.0362577863328752e-11 1 1 9.7317539250244695e-05 1 1 1 1 1 1 1 1 1 1 1 1 1 1 1 1 1 1 1 1 1 1 1 1 1 1 1 1 1 0.010010503616514621 1 1 1 1 1 1 1 -5.2912269184191008e-11 1 1 1 1 1 1 1 0.00036409718620549164 1 1 1 1 1 1 1 1 1 1 1 1 1 1 1 1 1 1 1 1 1 1 1 1 1 1 1 1 1 1 1 1 1 0.0097966996397821308 1 1 1 1 0.0044958563534995243 1 1 0.007070940948380915 0.0098908213490363772 1 1 1 1 1 1 0.0065998384882861617 1 1 1 1 1 1 1 1 1 1 1 1 1 1 1 1 1 1 1 1 1 1 1 1 1 0.0075002351058211687 1 1 1 1 1 1 1 1 1 1 1 1 1 1 1 1 1 1 1 1 1 1 1 1 1 1 1 1 1 1 1 1 1 1 1 1 1 1 1 1 1 1 1 1 1 1 1 1 1 1 1 1 1 1 1 1 1 1 1 1 1 1 1 1 1 1 1 1 1 1 1 1 1 1 1 1 1 1 1 1 1 1 1 1 1 1 1 1 1 1 1 1 1 1 0.0065554154651473566 1 1 1 1 1 1 1 1 1 1 1 0.0072259434713448558 1 1 0.0090422270200997655 1 1 0.0097576677091477937 1 1 1 1 1 1 1 1 1 1 0.0096915414542597233 1 1 1 1 1 0.0046883850122482959 1 1 0.0088836923914094243 1 1 1 1 1 1 0.0098060305163025704 1 1 1 1 1 1 1 0.0093882128571338968 1 1 1 1 0.012038117423469996 0.0064575180406105208 1 1 1 0.0096621890883864334 1 1 1 1 1 1 1 0.0067822701789903607 1 0.011978987797147735 1 0.0079469032177827605 1 0.012115052376105785 1 0.010001465070812305 1 1 0.01221867098322026 1 0.0099079433238903909 1 1 1 1 1 0.0098580600672025821 1 1 1 1 1 1 1 1 1 1 1 0.0098034458703111938 1 1 1 1 1 0.0098971047372111327 1 1 1 0.0099309972613272103 1 1 1 1 1 1 0.010023816959636164 1 1 1 1 0.010102664754745859 1 1 0.0035818008524089156 1 1 1 1 1 1 1 1 1 1 1 1 1 1 1 1 1 1 1 1 1 1 1 1 0.0091887834743576736 1 1 1 1 1 1 1 1 0.01117179357852217 1 1 1 1 1 1 1 1 1 1 1 1 1 1 0.010400813361171043 1 1 1 1 1 0.0094883000374623421 1 0.0097285001440146988 1 0.010021187880545656 1 1 1 1 1 1 1 1 1 1 1 1 1 1 1 0.0094541757885385665 1 1 1 1 1 1 1 1 1 0.0094248602216897032 1 1 0.0086879335840104321 1 1 1 1 1 1 1 1 1 1 0.0087954356148543019 1 1 0.0095491867618445452 0.0092259178825656388 1 1 1 0.0094191872999570721 1 1 1 1 1 0.0097425575663657466 1 1 1 1 1 1 1 0.010002407450373207 1 1 0.0084090968123286553 1 1 1 1 1 1 1 1 1 1 1 1 1 1 1 1 0.0093945140354715403 1 1 1 1 1 1 1 1 1 1 0.0090010145937402843 1 1 1 1 1 1 1 1 0.010428013415409604 1 1 1 1 1 1 1 1 1 1 1 1 1 1 1 0.0099270204467370171 1 1 1 1 1 1 1 1 0.0088102762400319844 1 0.010084537733470667 0.0059863817533670049 1 1 1 1 1 1 1 1 1 1 1 1 1 1 1 1 1 0.0094587566207349968 1 0.0086368253195701471 1 0.01144623131963915 1 1 1 0.0070124986306463345 0.0098026213899418766 1 1 1 1 1 1 1 1 0.0063233440600154013 1 1 1 1 1 1 0.0085332196866656287 1 1 1 1 1 1 1 1 1 1 1 1 1 1 1 1 1 1 1 1 1 1 1 1 1 0.0083884802598751407 1 1 1 1 1 0.0056362332790553631 1 1 1 1 0.0090189229091912869 1 0.0084343519532719506 1 1 0.010130178572997877 1 0.0093813102393164646 1 1 0.0098074165464504225 1 1 0.0098369845409334057 1 1 0.0099754538490689458 1 0.0077760895334939226 1 0.010298108233372105 1 0.0086985779423435269 1 1 1 1 1 1 1 0.0044300969347365431 1 1 1 1 1 1 1 1 1 0.0095386208881695009 1 1 1 1 1 1 1 1 1 1 1 1 1 1 1 1 1 1 0.010802533017813558 1 1 1 1 1 0.0087444808137759102 1 1 1 1 1 1 1 1 1 0.0094448561165684005 1 1 1 1 1 1 1 0.0092996246972075133 1 1 1 1 1 1 1 1 1 1 1 1 1 1 1 1 1 1 1 0.010036628506183767 0.01103257423772348 1 1 1 1 1 0.0072799096590021612 1 0.0072344003985982605 1 1 0.010014154346022378 1 1 1 1 0.008100604160122293 1 1 1 0.0054342178903056416 1 1 1 1 0.0082417751082549708 1 1 1 1 1 0.0092179204438797707 1 1 1 0.009984209588717376 1 0.00676676860758311 1 0.0099940132811326843 1 1 1 0.010874845429598112 1 1 1 1 0.01026985586543764 1 1 0.0075040728740240446 1 1 1 0.0072598968119185411 1 1 1 1 1 1 1 1 1 1 1 1 0.0082349903791317097 1 1 1 1 1 1 1 1 1 0.0097564604892255834 1 1 1 1 1 1 1 1 1 1 1 1 1 1 1 1 1 1 1 1 1 1 1 1 1 1 1 1 1 1 1 1 1 1 1 1 1 1 1 1 1 1 1 1 1 1 1 1 0.0092543789835414052 1 1 1 1 1 1 1 1 1 1 1 1 1 1 1 1 1 1 0.0093645042398626636 1 0.0086198377396090042 1 1 1 1 1 1 1 1 1 1 1 1 1 1 1 1 1 1 1 1 1 1 1 1 1 0.0059790128051209488 1 0.0090753583146813317 1 1 1 1 0.0096164741198372893 1 0.0094330026164534241 1 0.010438166303316492 1 1 1 1 1 0.0082305840482735926 0.0094637168470623409 1 1 0.009053539081520014 0.0081675611239553237 1 1 1 1 1 1 1 0.0061509270937460149 1 1 1 1 1 1 1 0.0096231986218715867 1 1 1 1 1 1 0.0094320915000799324 0.0086366239259222776 1 1 1 1 0.010075730361645597 0.0062703063630289036 1 1 1 1 1 1 1 1 1 1 1 1 1 1 1 1 1 1 1 1 1 1 1 1 1 1 1 1 0.0068158537441824832 1 1 0.0017211023171837107 1 1 1 1 1 1 1 1 1 1 1 1 1 1 1 1 1 1 0.0084054460344733586 1 0.010125729416576553 1 1 1 1 1 1 1 1 1 1 1 1 1 1 1 0.0074796556996357131 1 1 0.0092073531910446416 1 1 1 1 1 1 1 1 1 1 1 0.0097858774249017753 1 1 1 1 1 1 1 1 0.0097107347055830091 1 1 1 1 1 1 1 1 1 1 1 1 1 1 1 1 1 1 1 1 1 1 1 0.0081072980457626564 1 1 1 1 1 1 1 1 0.0054207242879688363 1 0.010524869863010567 1 1 0.01026295639815609 1 0.005410291212359036 1 0.010149362515419638 1 0.0099676075052206256 1 1 0.01089657545422563 1 1 1 1 1 1 1 1 1 1 0.0097338035592381134 1 1 1 1 1 1 1 1 1 1 1 1 1 1 1 1 1 1 1 0.0096963206513024716 0.0099995491293299738 1 1 0.01013509300151387 1 1 1 1 1 1 1 1 1 1 1 1 1 1 1 1 1 1 1 1 1 1 1 1 1 1 1 1 1 1 1 1 1 1 1 1 1 1 1 1 0.010012443614247128 1 1 1 1 1 1 1 1 0.010380108291336565 1 1 0.009982387341714527 1 1 1 0.010659223363330556 1 1 1 0.0079337426143206748 1 0.010886448007423419 1 0.0089159500394512797 0.010056244520633521 1 1 1 1 1 0.013058045515374159 1 1 1 1 1 1 0.0099204245195936118 1 1 1 1 1 1 1 0.0099988919391471379 0.0083603978970056836 1 1 1 1 1 1 1 1 0.0089119212241141332 1 1 1 1 0.012093558050365206 1 1 1 1 1 1 0.0034905902799068182 1 1 1 1 1 1 1 1 0.006221288137812888 1 1 1 0.0052073582324794459 1 1 1 1 1 1 1 1 1 0.0078270546137667388 1 1 1 1 1 1 1 0.0099991289741454895 1 1 1 1 1 1 0.0040188763327363552 1 1 1 1 1 1 1 1 1 0.010113306629145932 1 1 1 1 0.010524625397516979 0.0098624282064909367 1 1 1 1 1 1 1 1 1 1 1 1 1 1 1 1 1 0.008743029506315763 1 1 1 1 1 1 1 1 1 1 1 1 1 1 1 1 1 1 1 1 1 0.0098482445781917123 1 1 1 1 0.0038200125753344461 1 1 1 0.0046665274026835776 1 1 1 1 1 1 1 1 1 1 1 1 1 1 1 1 1 0.0096831211400038933 1 1 1 1 1 0.0061750698270263641 1 0.0091604760475468318 1 1 1 1 0.0097622824985022887 1 1 1 1 1 1 1 1 1 0.0083529878315174826 1 1 1 1 1 1 1 1 1 1 1 1 1 1 1 1 1 1 1 1 1 1 1 1 1 1 1 1 1 1 1 1 1 1 1 1 1 1 1 1 1 1 1 1 1 1 1 1 1 1 1 1 1 1 1 1 1 1 1 1 1 1 0.01043389899400508 1 1 1 1 1 0.010585967048439657 1 0.0092477801295799099 1 1 1 1 1 1 1 1 1 1 1 1 1 1 1 1 1 1 1 1 1 1 0.0097751019325547344 1 1 1 1 1 0.0089629425077850169 1 1 1 1 1 1 1 0.0068552338453238115 1 1 1 1 1 1 0.010013596426466204 0.011029524723934727 1 1 1 1 1 1 1 1 1 1 1 1 1 0.0098832359056998109 1 1 1 1 1 1 1 1 1 1 1 1 0.00063734822917360656 1 1 1 1 1 -8.1113950625710807e-11 1 1 1 1 1 1 1 1 1 1 1 1 1 1 1 1 1 1 1 -1.3442355215054214e-10 1 1 1 1 1 1 1 1 1 1 0.00044212375777861915 1 1 1 1 1 0.010158055809394533 1 1 1 0.0091401370615659984 1 1 1 1 1 1.9181844480853361e-09 1 1 1 1 1 1 1 1 1 1 1 1 0.010028101469696668 1 1 1 1 0.010900296732381669 1 1 1 1 0.013034484403679396 1 1 -2.1670700893483552e-09 1 1 0.01233922946697982 1 1 1 1 1 0.010880321249091801 1 1 1 0.007067519882138139 1 1 1 0.006724217127569045 1 1 1 1 1 1 1 1 1 1 0.0075398638133126732 1 1 1 1 1 1 1 1 0.0095135002949623074 1 1 1 1 0.010089888153735564 1 1 0.010004534489228029 0.008963572729289623 1 1 1 1 1 1 1 1 0.0099188828142807387 1 1 0.0097561428031224737 1 1 0.0096308148255272417 1 1 1 0.0094087583206241762 1 1 1 1 1 1 1 1 0.0088496418968536574 1 1 1 1 1 0.0080328854694598339 1 1 0.0092130189719675792 1 1 1 1 1 0.0074493893517672775 1 1 1 0.010201384228658633 1 1 1 1 0.01060700437951205 1 1 1 0.0075871586700531606 1 0.009456454372214023 1 1 1 0.0097251552627794138 1 1 1 1 1 1 1 1 1 1 1 1 1 1 1 1 1 1 1 1 1 1 1 1 1 1 1 1 1 1 1 1 1 1 1 1 1 1 1 1 1 1 1 1 0.010665490707099136 0.0093622647951831402 0.0099743044706469622 0.0078554020528011134 1 1 1 1 1 0.0097161809764863306 1 1 1 1 1 1 1 1 1 1 0.0098691383329164474 1 1 1 0.0091637241560022595 0.0099082516919356631 1 1 0.010382565616162086 1 1 1 1 1 1 1 1 0.0067723969011837162 1 1 0.0096311082201792197 0.010174424738627431 1 1 0.0095643576102182395 0.01037611655071724 1 1 1 1 1 1 1 1 1 0.0099932693611206273 1 1 1 1 1 1 0.0070968222176232797 1 1 1 1 1 1 1 1 1 1 1 1 1 1 1 1 1 1 1 1 1 1 1 1 1 0.0098896034916578952 1 1 1 1 1 0.012680829729401663 0.0092981734343947336 1 0.0070914849567134605 1 1 1 0.0099284948135360783 1 1 1 0.010944409921044149 1 1 1 0.010248384783589392 1 1 1 0.0045293195523369665 1 1 1 0.0056705583151196101 1 0.0081995776008684396 1 1 1 1 1 1 1 1 1 1 1 1 1 1 1 1 0.010419363521281803 1 1 1 1 1 1 1 1 1 1 1 0.0099038428133142956 1 1 0.008913440378451206 0.0085245055403001761 1 1 1 1 1 1 1 1 0.0082683756776629116 1 1 1 1 1 1 1 1 0.0093692453884073219 1 0.0096376463725524018 1 1 1 1 1 1 1 1 1 1 0.0068121373976570889 1 1 1 0.0049389955162989496 1 1 1 0.012936133546636702 1 1 1 1 1 0.010236724256437247 1 0.012429561110514357 1 1 1 1 1 1 1 1 1 1 1 1 1 1 1 1 1 1 1 1 1 1 0.011649232654032596 1 1 1 1 1 1 1 1 1 1 1 1 1 1 1 1 1 0.010441283462826136 0.010040693642458361 1 0.0077048673457604556 1 1 1 1 1 1 1 0.010067923304754643 1 1 1 1 0.010131845759251775 1 1 1 1 1 1 1 1 1 1 1 1 1 1 1 1 1 1 1 0.0083164189815034262 1 1 0.0093467724457002958 1 1 1 1 1 1 1 1 0.0093056930259090183 1 1 1 0.0098214919155303511 1 1 1 1 1 1 1 1 1 1 1 1 0.0098611484232809903 1 1 1 1 1 1 1 1 1 1 1 1 1 1 1 1 1 1 1 1 1 1 1 1 1 1 1 1 1 1 1 0.0094100944232487632 1 1 1 0.0085249427091480118 1 1 1 0.0089438770213661218 1 1 1 0.0097207484711203385 1 1 0.0096267475454981568 1 1 1 1 1 1 1 1 1 1 1 1 1 1 1 1 1 1 1 0.0070604271327682471 1 1 1 0.0072076969114027341 1 1 1 1 1 1 1 1 1 1 0.010164293933431304 1 1 0.007141452437288422 1 1 1 1 1 0.0093115527673851336 1 0.0092276346539785902 1 1 1 0.0093431702046942455 1 1 1 1 1 1 1 1 1 1 1 1 1 1 0.0088460091116921886 0.0085300760009501195 1 1 1 1 1 1 1 1 1 1 1 1 1 1 1 1 1 1 1 1 1 0.0092655875537326193 0.0079429388726401564 1 1 1 1 1 1 1 1 1 1 1 1 0.0088121743250193767 1 1 1 1 1 1 1 1 1 1 0.0099395791591945764 1 1 0.0099507262209532991 1 1 1 1 1 1 0.010088029106156488 1 1 0.010152642832856449 1 1 1 1 1 0.0081300171842734921 1 1 1 1 1 1 1 1 0.0082537013762123187 1 0.010011959632665801 1 1 1 1 0.0099682399218484329 1 1 1 1 1 1 1 1 1 1 0.010003131833227284 1 1 1 1 1 1 1 1 1 1 1 0.0069121699366675249 1 0.011143032729506515 1 0.010816409167244145 1 1 1 1 1 1 0.0095917645628087814 1 1 1 1 1 1 1 1 0.0098708483960296307 0.010175714150756889 1 1 1 1 1 1 1 1 1 0.0099577035753614044 1 1 1 1 1 0.0074744193711158442 0.010979401304104802 0.010322116703571017 1 1 1 1 0.009957643008753219 1 1 1 1 0.010031117008862925 1 1 1 1 1 1 0.0093827726552156016 1 1 1 1 1 1 0.0099788444595119256 1 1 1 1 0.010181218005085157 1 1 0.010122306676743281 0.0093473064840879621 1 1 1 1 1 1 1 1 1 0.010701335714293925 1 1 0.010290682304897332 1 1 1 1 1 1 1 1 1 1 1 1 1 1 1 1 1 1 1 1 1 1 1 1 1 1 0.0077085017918562919 1 1 1 0.0081485052187949165 1 1 1 1 1 1 0.0092208304532063416 1 1 1 1 1 1 1 1 1 1 0.0093878661739980312 1 1 0.0097640968144267985 1 1 1 1 1 1 1 1 1 1 1 1 1 1 0.0086649045463848846 1 1 1 1 1 1 1 1 1 1 1 1 1 1 1 1 1 1 1 1 1 1 1 1 1 1 1 1 1 0.0080800777938476436 1 1 1 1 1 1 1 1 1 1 1 1 1 1 1 1 1 1 1 1 1 1 1 1 1 1 1 1 1 1 1 1 1 1 1 1 1 1 1 1 1 1 1 1 1 1 1 1 1 1 1 1 1 1 1 1 1 1 1 1 1 1 1 1 1 1 1 1 1 1 1 1 1 1 1 1 1 1 1 1 1 1 1 1 1 1 1 1 1 1 1 1 0.0087853720284182153 1 1 1 1 1 0.01027011918003282 1 1 1 1 1 1 1 1 1 1 1 0.0087115210701766352 1 1 1 1 0.010218361417876231 1 0.0098103904974074074 0.010061168948761762 1 0.011069438273316773 1 1 1 1 1 1 1 1 0.0058795703234590449 1 1 1 1 1 1 1 1 1 1 1 1 1 1 1 1 1 1 1 1 1 1 1 1 1 1 1 1 1 1 1 1 1 1 1 0.0097405967114451361 0.0056259133125766553 1 1 0.010289286914404706 1 1 0.007788972614277816 1 1 0.0080615553597717573 1 1 1 1 0.010156959972630301 1 0.0099990024070459368 1 1 1 0.0068268873940597746 1 0.01049275300843534 1 0.010096444180671101 0.0081889095178967562 0.0092660053155766888 1 1 0.0098043421125883993 0.0058176422623911969 1 1 1 1 1 1 1 0.0099534450246631274 1 1 1 1 1 1 0.0098614755494049883 1 1 0.0074007514267860532 1 0.0084572027156046958 1 1 1 1 1 0.0078296439599541291 1 1 0.0080127051238933003 1 1 1 1 1 1 1 1 1 1 1 1 1 1 1 1 1 1 1 0.0093337167768915708 1 1 0.0099902375709260884 0.0085157398911877499 1 0.0099885933717367825 1 0.0087683575848735134 1 1 1 0.0066120682806879074 0.0088081669175744393 1 1 1 1 0.0063378849816155616 1 1 1 1 1 1 1 1 1 1 1 1 1 1 1 0.0095437968555678165 1 1 1 0.0099063270581834402 1 1 1 1 0.0092373120809415635 1 1 0.009120179175666784 1 1 1 1 1 1 1 1 1 0.0099544162698242053 1 1 1 1 1 1 1 1 1 1 1 1 1 1 1 1 1 1 1 1 1 1 1 1 0.009998030295181478 1 1 1 1 1 1 1 1 1 1 1 1 0.0088033935349029896 1 1 1 1 0.0088885191458936384 1 1 0.0099931365584428507 1 1 1 1 1 1 0.0099452402846156099 1 1 1 1 1 1 0.0083480152396257709 0.0093317264655677374 0.0079466834177529325 1 1 1 0.0099946673152785954 1 1 1 1 1 1 1 1 1 1 1 1 1 0.00781158427399831 1 1 1 1 1 1 1 1 0.010005996733704746 1 1 0.010121693670312614 1 0.0074325212043724019 1 1 1 1 1 0.0099674868034394584 0.0099083136019631601 1 1 1 1 1 1 1 1 1 0.009612538776898414 0.0099521815366686341 1 1 1 1 1 1 1 0.0078460167126563965 1 1 1 1 1 1 1 1 1 1 1 1 1 1 1 1 1 1 1 1 1 1 1 1 0.0099442796348755986 1 1 1 1 1 1 1 1 1 1 1 1 1 1 1 1 1 1 1 1 1 1 1 1 1 1 1 1 1 1 0.0088765291565204036 1 0.0082631505537323 1 1 1 0.0096496268801097296 1 1 1 1 0.0089622622314968082 1 1 1 0.0090939371187340867 1 1 1 1 1 1 1 0.009863555704994309 0.010038184347733433 1 1 0.009850674479872935 1 1 1 1 1 1 1 1 1 1 1 1 1 1 1 0.0099672968986199931 0.010138937629813896 1 1 1 1 1 0.0099352453829206697 1 1 1 1 1 0.0099712082129563631 1 1 1 0.0099836884065132338 1 1 1 1 1 1 1 1 1 1 1 1 1 1 1 1 1 1 1 1 1 1 1 1 0.0091278797706618939 1 1 0.0095851274454477713 1 1 0.0076113151031469914 1 1 1 1 1 1 1 1 1 1 1 1 1 1 1 1 1 1 1 1 1 1 1 1 1 0.0098227434367046083 1 1 1 0.0087881972568604697 1 1 1 1 1 1 1 1 1 1 1 1 1 1 1 1 1 1 1 1 1 1 1 1 1 1 1 1 1 1 1 1 1 1 1 1 1 1 1 1 1 1 1 1 1 1 1 1 0.0094506313066681207 1 1 1 1 1 1 1 1 1 1 1 1 0.0095139037536989251 1 1 1 1 1 1 1 1 0.0097515197449557674 1 0.0099384836610229184 1 1 1 1 1 1 1 1 1 1 1 1 1 1 1 0.0095814882514537146 1 1 1 1 1 1 1 1 0.012088449065454643 0.0071391790832479127 1 1 0.012955394272220269 1 1 1 1 0.010858956329202418 1 0.0088300400387957053 1 1 1 1 1 0.0069831092108623254 0.00964992830770834 1 1 1 1 1 1 1 1 1 1 1 1 1 1 1 1 1 1 1 1 1 1 1 1 0.0099836733176427959 1 1 1 1 0.0096491727999626561 1 0.010188984188639201 1 1 1 1 1 1 1 1 1 1 1 1 1 1 1 1 1 1 1 1 0.0095325631262481187 1 1 0.0091794801239845607 1 1 1 1 1 1 1 1 1 1 1 1 1 1 1 1 0.0085450650948966471 1 1 1 1 1 1 0.0092974064112926191 0.010028776579392985 1 1 1 1 1 1 1 1 1 1 1 1 1 1 1 1 1 1 1 1 1 1 1 1 1 1 0.010002540014066801 1 1 1 1 1 1 1 1 1 1 1 1 1 1 1 1 1 1 0.010029203319898497 1 1 1 1 1 1 1 1 0.010508903448558661 1 0.010146416619764339 1 1 1 1 1 1 1 1 1 1 1 0.0089146024999392868 1 1 1 1 1 1 1 1 1 1 1 1 1 1 0.0070418535566007107 1 1 1 1 0.0055659770054612215 1 1 1 1 0.0055627100971877962 1 0.011556929846692989 0.0099954914525639572 1 1 1 1 0.011565417582973306 1 1 1 1 1 1 1 0.010991463028387667 1 1 0.0099946195132395877 0.009998924397428945 1 1 1 1 1 1 1 1 0.011211172013639666 1 1 1 1 1 1 1 1 1 1 1 1 1 1 1 1 1 1 0.005789838910440279 1 1 1 0.010007213658922386 1 1 1 1 0.0099947437233060838 1 1 1 1 1 1 1 1 1 1 1 1 1 1 0.010083638586469216 1 1 1 1 1 1 1 1 1 1 1 1 0.010029196806131296 1 1 1 1 1 0.0099743697234634578 1 1 1 1 1 1 1 0.0099481394324298835 1 1 1 1 1 1 1 0.0099386178491966959 1 1 0.0093329820471700822 1 0.010065370978944457 1 1 1 0.010037805155935699 1 1 1 1 1 1 1 1 1 1 1 1 1 1 0.0061023467102652214 1 1 1 1 1 1 1 1 1 1 0.0068480417934187448 1 1 1 0.010163615194599702 1 1 0.0085182861337084574 1 1 1 0.010185559870490527 1 0.010042823983837828 1 1 1 1 1 1 1 0.0095200572232326235 1 1 1 1 1 1 0.0098023056582454728 1 1 1 1 1 1 1 1 1 1 1 1 0.0096246028233063878 1 1 1 1 1 1 1 1 0.0098194712712493526 1 1 1 1 1 1 1 1 1 0.0089173417170702457 1 1 1 1 1 1 1 0.0091256292804325345 1 1 1 1 1 1 1 1 1 1 1 1 1 0.010645155534998365 1 1 1 0.010022609314601328 1 0.0094666198005632102 0.011260101800201944 1 1 1 1 1 1 0.0093375659501923527 1 1 1 1 1 1 1 1 1 1 1 1 1 1 1 0.011224157025463899 1 1 1 1 1 1 0.010065159392521818 1 1 1 1 1 1 1 1 1 1 1 1 1 1 0.0099244376812762537 1 0.010856492642631808 1 1 1 1 0.010377545817814558 1 1 1 1 1 1 0.0094289478187779326 1 1 1 1 1 1 0.010063215273407301 1 1 1 1 1 1 1 1 1 1 1 1 1 1 1 1 1 1 1 1 1 1 1 1 1 1 1 1 1 1 1 1 1 1 1 1 1 1 1 1 1 1 1 1 1 1 1 1 1 0.010506556145254234 1 1 1 1 0.0099789672929548358 1 0.010471046687604115 1 1 1 1 1 1 1 1 1 1 1 1 1 1 1 1 1 1 1 0.010660311512776537 1 0.0051212440256624345 1 1 1 1 0.0096270158801682274 1 0.0058965957952992563 0.0086871201326486729 1 1 1 1 0.0068843071093901568 0.01011474204416001 0.01026814388106996 1 1 0.0078144051082390375 0.0090581534111341972 1 1 1 1 1 1 1 1 1 1 1 1 1 1 1 1 1 0.010011574942546923 1 1 1 1 0.0012673726569303496 1 1 1 0.001165457726955749 1 1 1 1 1 1 1 1 0.0089997654470618804 1 1 1 1 1 1 1 1 1 1 1 1 1 0.0084711412977451113 1 0.009413225793610187 1 1 1 1 1 1 1 1 1 1 1 0.0078315609884058498 1 1 1 1 1 1 1 1 0.0089919026876535413 1 0.010002746518332589 0.010105961761886341 1 0.010818708394392201 1 1 0.010009867607455369 1 1 1 1 1 1 1 1 1 1 1 1 1 1 1 1 1 1 1 0.010164928972273045 1 1 0.0099848991371307184 1 1 1 1 1 1 1 0.0085631051675934093 1 1 0.0077029410942212571 1 1 1 1 1 0.0094828070037332943 1 1 0.0093036692466119258 1 1 0.010019975296297065 0.0092053789986402332 1 1 1 1 1 1 1 0.0096754552619498814 1 1 1 1 1 0.0096540433478393885 1 0.010193406403110481 1 1 1 1 0.0096497570814293651 1 0.0061574960209783772 1 1 1 1 1 1 1 1 1 1 1 1 1 1 1 1 1 1 0.0062238860988468661 1 1 0.0068760427030344386 1 0.0086985616219805422 1 1 1 1 1 1 1 1 1 1 1 1 1 1 1 1 1 1 1 0.0098270786789329337 1 1 1 1 1 1 1 1 1 1 1 1 1 1 1 1 1 1 1 0.0072902826839440051 1 1 1 1 0.0058241550324535539 1 1 0.0044534425659054173 1 1 1 1 1 0.0050610640819126612 1 1 1 1 1 1 1 1 1 1 1 1 0.0051858324967123583 1 1 1 1 1 1 1 0.008144647369239269 1 1 1 1 1 1 1 1 1 1 1 0.0097294110484336428 1 1 0.0092902669044694301 1 0.008266027726378385 1 1 1 1 0.010673218134678152 1 1 1 1 0.010509839329610294 1 0.011588950568205128 1 1 1 0.0091445337743502643 1 1 1 1 0.0082479044384702778 1 1 1 1 1 1 1 1 1 1 1 1 1 1 1 0.0027254802257967968 0.011272465217701566 1 1 1 1 0.0071867979930216562 1 0.01002142926893713 1 1 1 1 0.013300255705522755 1 1 1 1 1 0.0099761489741541191 1 1 0.012296103423176722 1 1 1 0.011560174798968322 1 1 0.010073756161152294 1 1 0.0097637471339418885 1 1 1 1 1 1 1 1 1 1 1 1 1 1 0.0098226387170580066 1 1 1 1 0.0099702757026049488 1 1 1 1 1 0.0099625804826153873 1 1 1 1 1 1 1 1 1 1 1 1 1 1 1 1 1 1 1 1 1 1 1 1 1 1 1 1 1 1 1 1 1 0.0095455443416007351 1 1 1 1 1 1 0.0099757425480093784 1 1 1 1 1 1 0.0085776266353917753 1 1 1 0.0061028033952381742 1 1 1 1 1 0.0051380005730053083 1 1 0.010130528675258335 1 1 1 0.0099539098400072828 1 1 1 1 1 1 1 1 1 1 1 1 1 1 1 1 1 1 1 1 1 1 1 1 1 1 1 1 1 1 1 1 1 1 1 1 1 0.0099846976261907718 1 1 1 0.010029210480463025 1 1 1 1 1 1 1 1 1 0.009951730969557376 1 1 0.0097265557887953533 1 1 1 1 1 1 1 1 1 1 1 0.0087070173084834342 1 1 1 0.0085949896311567908 1 1 1 1 1 1 1 1 1 0.0090956469400214641 1 1 1 1 0.0076061568179473082 1 1 1 1 1 1 1 1 1 0.0067121458178942116 1 1 1 1 0.0094924573857814772 1 1 1 1 1 1 1 1 1 1 1 1 1 1 1 1 1 0.0092801663677547028 0.010157338044707979 1 1 1 1 0.0097091691879345778 1 1 1 1 0.0071078651115814451 1 0.010000590913625733 1 1 1 1 1 1 1 1 1 0.0098581283449363528 1 1 0.0096894017899200342 1 1 1 1 1 1 1 1 1 1 1 0.0092741731857699117 1 1 1 1 1 1 1 1 1 1 1 1 1 1 1 0.0087969246748778093 1 1 1 1 1 1 1 1 0.0092874113841945743 1 1 1 1 1 0.0099961963550859873 1 1 1 1 1 1 0.009982657715065955 1 1 1 1 1 1 1 1 1 1 1 1 1 1 1 1 1 1 1 1 1 1 1 1 1 1 1 1 1 1 1 1 1 1 1 1 1 1 1 1 1 1 1 1 1 1 1 1 1 1 1 1 1 1 1 1 0.0085615845699644911 1 1 1 1 1 1 1 1 1 1 1 1 1 1 1 0.0090594703591307391 1 1 1 1 1 1 1 1 1 1 1 0.0099793591431683037 1 1 0.0096319673937058942 1 1 1 1 1 1 1 1 0.0097752536646063468 1 1 1 1 1 1 1 1 0.0096437562369112231 0.0094230114874945693 1 1 1 1 1 0.009990466737447766 1 1 1 1 1 1 1 1 1 0.0092649862867899106 1 1 1 1 1 1 1 1 1 1 1 1 1 1 1 1 1 1 1 1 1 1 1 1 1 1 1 1 1 1 1 1 0.0098112925681181126 1 1 0.0099999421368146633 1 1 1 1 1 1 1 1 1 0.0095798524542589462 1 1 1 1 1 1 1 1 1 1 1 1 1 1 1 1 1 1 1 1 1 1 1 1 1 1 1 1 1 1 1 0.008460785241989505 1 1 1 1 1 0.0094609855686017784 1 1 1 1 1 1 0.0083283945878705121 1 1 1 1 0.0076845346259179874 0.007288781328582121 1 1 1 1 1 0.0086066912215366324 1 1 1 1 1 1 1 1 1 1 1 1 0.0098537133507855985 1 1 1 1 1 1 1 1 1 1 1 1 1 1 1 1 1 1 1 1 1 1 1 1 1 1 1 1 1 1 1 1 1 1 1 1 1 1 1 1 1 1 1 1 1 1 1 1 0.010255790567702166 1 1 1 1 1 1 1 1 1 1 1 1 1 1 1 1 1 1 1 1 1 1 1 1 1 0.0099342241422570449 1 1 1 1 1 1 1 1 1 1 1 1 0.007054579039249961 1 1 1 1 1 1 1 1 1 1 1 1 1 1 1 1 1 1 1 1 0.0063303036726885774 1 1 1 1 0.0060116439131097793 1 1 1 0.0066447145907957538 0.01006423070440194 1 1 1 1 0.0071532429528624788 1 1 1 1 1 1 1 0.010028970398706887 1 1 1 1 1 0.010049227770608732 1 1 1 0.01002025737190184 1 1 1 1 0.009959167541982894 1 1 1 1 1 1 1 1 1 1 1 1 1 0.0099811036153452937 1 1 1 1 1 0.0099759454272574013 1 0.0099610233636061776 1 1 0.0099943753856305134 1 1 1 0.0098921942615888339 0.0099497339309721419 1 1 1 1 1 1 0.0099557015566982179 0.0099663304166681052 1 0.0099680903037149635 1 1 1 1 1 1 1 1 1 1 1 1 1 1 1 1 1 1 1 1 1 1 1 1 1 1 1 1 1 0.0096099680322009624 1 1 1 1 1 1 1 1 1 1 1 1 1 1 1 1 1 1 1 1 1 1 1 1 1 1 1 1 1 1 1 1 1 0.0095346564051137558 1 1 1 1 1 1 1 0.0088707070604204571 1 1 1 1 1 1 1 1 1 1 1 1 1 0.0093211345874709105 1 1 1 1 1 1 1 1 0.009641482014205463 1 0.0080699010922814143 1 0.0089775326695121522 1 1 1 1 1 1 1 1 1 1 1 1 0.010814501679291905 1 1 1 1 1 1 0.009728490792997254 1 1 1 1 1 1 1 1 1 1 1 1 1 1 1 1 1 1 1 1 1 1 1 1 1 1 1 1 1 1 1 1 1 0.008826608892715691 1 1 1 1 1 1 1 1 1 1 0.010357693638794923 1 1 1 1 0.0085645979296250473 1 1 1 1 1 1 1 1 1 1 1 1 1 1 1 0.0094829545404533453 1 1 1 1 1 0.0088078372822918988 1 1 1 1 0.007340466061668674 1 1 1 0.0097341519302866514 1 1 0.0054391470870983703 1 1 0.012402059349033292 1 1 1 1 1 0.01004876827990062 1 1 1 1 1 0.010137776996837471 1 1 0.012241845748086693 1 1 1 1 0.0097697466734777538 1 1 1 0.010312552283383172 1 1 1 1 1 1 1 1 1 1 1 1 1 1 1 1 1 1 1 1 1 1 1 1 1 0.0098852071421856331 1 1 1 1 1 0.00085075005116782079 1 0.009699173648392595 1 1 1 1 0.0096324027778065553 1 0.0011879183702914117 1 1 0.010002263652510576 1 1 1 1 1 1 1 0.0065747238689591314 1 1 1 1 1 1 1 1 1 1 1 1 1 1 1 1 1 1 1 0.0053403893558166236 0.0054223892713025773 1 1 1 1 1 1 1 1 0.0043647835825500504 1 0.0094615801721781578 1 1 1 1 1 0.010558779695184267 1 1 1 1 1 1 1 1 1 1 1 1 1 1 1 1 1 1 1 1 1 1 1 1 1 1 1 1 0.010142859344865975 1 1 0.0097248856629969325 1 1 1 0.00065622882937434006 1 1 0.00063738279897353374 1 0.0091592873619313793 0.0066535133864828074 1 1 1 1 1 1 1 1 0.0050812761166793719 1 0.0069363813725972084 1 0.0058846395467721073 1 1 1 1 1 1 1 1 1 1 1 0.0089230198258008261 1 1 1 1 1 1 0.0098619974952572353 1 1 1 1 1 0.0097619300316353803 0.0093264538638204164 1 1 1 1 1 0.0083675226741513273 1 1 1 0.009362245349652968 1 0.0098141620752087572 1 0.0047193105762521233 1 1 1 1 0.005212824774604774 1 1 0.0097347142837737426 1 1 0.01023948713514268 1 0.0086300191077167254 1 1 1 1 1 1 1 1 1 1 1 1 1 0.010231052013143156 1 1 1 1 0.010251051688923776 1 1 1 1 1 1 1 1 1 1 1 0.010148345906119171 1 1 0.0076356598529110954 1 1 1 0.0094049718647810608 1 0.0077287108606869451 0.007929737940944136 1 1 1 1 1 1 1 0.0099766640718014568 1 1 1 1 1 1 1 1 1 1 0.0079681063592837234 1 1 0.0092091367449684981 1 1 1 1 1 1 1 1 1 1 1 1 1 0.0098330909384995377 1 0.009430016486577977 1 1 1 1 1 1 1 1 1 1 1 1 0.010091082776209782 1 1 1 1 1 1 1 1 1 1 1 0.010141455729398605 1 1 1 0.010447853404005419 1 1 1 1 1 1 1 1 1 1 0.010161460508133196 1 0.0070816474140223684 1 1 0.010445791272372388 1 1 1 0.0098409814248665191 1 1 0.0086183212776549094 1 1 1 0.008657418209258862 1 1 0.0078134476370831582 1 1 1 1 0.0089157836360140262 0.0088569041003154492 1 1 1 0.0088807586356487722 1 1 1 0.0090399845187789339 1 1 1 1 1 1 1 1 1 0.0056873344808692399 1 1 1 1 1 1 1 1 1 1 0.0072317670485858507 0.0098721315127494585 1 1 1 1 1 1 1 0.0051322361895833274 0.0094378973337502486 1 1 1 0.0096667614887921104 1 0.0083506360913035704 1 1 1 1 1 1 1 1 1 1 1 1 1 1 1 1 1 1 1 1 1 1 1 1 1 1 1 1 1 1 1 1 1 1 1 1 1 0.0095335968015998335 1 1 1 1 1 1 1 0.0063634785229195199 1 0.0097892981884288941 1 1 0.0070708195840649656 1 1 0.010138781337206058 0.0077316723021915584 1 1 1 0.011963550686673798 1 0.011102253793424459 1 1 1 0.0079179490714345498 0.0050736486279879794 1 0.012078022281238821 0.010877076260619732 1 0.0099987057094011195 1 1 0.012576406485828548 0.0098675081273609383 1 0.0066663364670286954 1 1 1 1 1 1 1 1 1 1 1 1 1 1 1 1 0.0099922653782320049 1 1 1 1 0.010117466335765265 0.010117623158957142 0.010267191373213833 1 1 1 0.01074815894049963 0.0086137455491813401 1 1 1 1 1 1 0.0050051985863800363 1 0.0089079809126156682 0.010253869473187691 1 1 1 0.0068573536438856879 1 1 1 0.0099662102797794319 1 1 1 1 0.010474506584844778 1 0.009249963442687463 1 1 0.0097589872252076982 1 1 1 1 1 1 1 1 1 1 1 1 1 1 1 1 1 1 1 1 1 1 1 1 1 1 1 1 1 1 1 1 1 1 1 1 0.007365968922798562 1 1 1 1 1 1 1 1 1 1 1 1 1 1 1 1 1 1 1 1 1 1 1 1 1 1 1 1 1 1 1 1 1 1 1 1 1 1 1 1 1 1 1 1 1 1 1 1 1 1 1 1 1 1 1 1 1 1 1 1 1 1 1 0.0029623138584706048 1 1 1 0.010002462028104557 0.0099946041849989925 1 1 1 1 1 1 1 1 1 1 1 1 1 1 1 0.010115641161571778 1 1 1 0.010372865518306367 1 0.009911507399237544 0.0024785416804531026 1 1 1 1 1 1 1 1 1 1 0.012436842689195149 1 1 0.0036484752556591987 0.010619190722619623 1 0.0097188239124304694 1 0.0085028097287397197 1 1 1 1 1 1 1 1 1 1 1 1 1 1 1 1 1 0.003485499141326856 0.0099978828100418232 1.7350060624310437e-11 1 1 1 1 1 0.0011232669139441317 1 1 1 1 1 1 1 1 1 1 1 1 1 1 1 1 1 1 1 1 1 1 1 1 1 1 1 1 1 0.010017198309397908 1 1 1 1 1 1 0.009701888844893522 1 1 1 1 1 1 1 1 1 0.0093076157829913696 0.0092979923184904802 1 1 1 1 1 1 1 0.0096056729573726837 0.009629799956080095 1 1 1 0.0090753151185724561 1 1 1 1 0.0099827689374070577 1 0.0098587640005349461 0.0072055823284752178 0.0096071035285363003 1 1 1 1 0.0087893142304579508 1 1 1 1 0.0090914887689535293 1 1 1 1 0.0027095839928004007 1 1 1 1 1 0.0051071474681121031 0.0089264157180951112 1 1 1 1 1 1 0.0092371972245812381 1 1 0.0071457393658853428 1 1 1 1 1 0.0088318170671842795 1 1 1 1 1 1 1 0.0088689983111691593 1 1 1 1 1 1 1 0.0079604870801226885 1 1 1 1 1 1 1 1 1 1 1 1 1 1 1 1 1 1 1 1 1 1 1 1 1 1 0.0096496794389529881 1 1 1 1 1 1 1 1 1 1 1 1 1 1 1 1 1 0.0087876949012226542 1 1 0.0048178963395066575 1 0.0099067789946199539 1 1 0.0059886892964607467 1 1 1 1 0.0098362994424555459 0.0071111142541523606 1 1 1 1 1 1 1 1 1 1 0.0095276340284595439 1 1 1 1 1 1 1 1 1 1 1 1 1 1 1 1 1 1 1 1 1 1 1 1 1 1 1 1 1 1 1 1 1 1 1 1 1 1 1 1 1 1 1 1 1 1 1 0.010397306679259392 1 1 1 1 1 1 1 1 1 0.0088746183803963784 1 1 1 0.011153879775739384 0.0096206685532554768 0.011970855898754896 1 1 1 1 0.0095349805949768579 1 1 0.0076530679335061521 0.0051642706144720846 1 1 0.010097912688684518 0.00079552309265862493 1 1 1 1 1 1 1 1 1 1 1 1 0.0023227743297056479 1 1 1 1 0.0096719611712804583 1 1 1 1 1 1 1 1 1 1 0.0088196119631875815 1 1 1 1 1 1 1 1 1 1 1 1 1 1 1 0.0073110677055420667 1 0.010024241893875149 0.0094388881702576442 1 1 1 0.0083467479052167989 1 1 1 1 1 1 1 1 1 1 1 1 1 1 1 1 1 1 1 1 1 1 1 1 1 1 1 1 1 1 1 1 1 0.0096469967521732435 1 1 1 1 1 1 1 1 1 1 0.0093054366945863262 1 1 1 1 1 0.0046038778410141213 1 1 1 1 1 1 1 1 1 1 0.0068021536034157662 1 1 1 0.0075207297244700528 1 1 1 1 1 1 1 1 1 1 1 1 1 1 1 1 1 1 1 1 1 1 1 1 0.0099387443608873992 1 0.0096745556171349938 1 1 1 1 1 1 0.0093309431801272269 1 1 1 1 1 1 1 0.012824576025049059 1 1 1 1 1 0.010222265621849358 1 1 1 1 1 0.0099979179120680724 1 0.0099831772507546802 1 1 1 1 1 1 0.010185920026397304 1 1 1 1 1 0.013487110609631574 1 1 1 1 1 1 1 1 1 1 1 1 1 1 1 1 0.014146049717202756 1 1 1 1 1 1 1 0.0083378709788492489 1 0.011128477979140166 0.010147302507465527 0.014043591853531556 1 0.009142553032811019 1 1 1 1 1 1 1 1 1 1 0.01126258378822648 1 1 1 1 1 1 1 1 1 1 1 1 1 0.010605876171934293 1 1 1 1 1 0.013976518998581374 1 1 1 1 1 0.010432153753297887 1 1 1 1 1 0.010140058250615407 1 1 0.010324961213442974 1 0.0076902216184339504 0.0072154460856147015 1 1 0.0099899148973496277 1 1 1 0.0062979829703112417 0.014392720831423959 1 1 0.012209217565565745 1 1 1 1 0.011612606329056439 1 1 1 1 1 0.012189476785744162 1 1 1 1 1 1 1 1 0.0097203750582322938 0.013030782254093765 1 1 1 0.0050632377797717679 1 1 0.010520278568446013 1 1 0.0059137039875686625 1 1 1 1 0.011369895207805826 1 1 1 0.0062057963211992195 1 0.0099963004128497818 1 1 0.0069686543306859555 0.0087749657174258193 1 0.010856304564627654 0.0096872732159428432 1 1 1 1 0.0077440208370337651 0.012954861686820293 0.0071979733364111714 1 1 1 1 1 1 1 1 1 1 1 1 0.0068756525366904103 1 1 1 1 1 1 1 1 0.010276409018084338 0.0099884626516223863 0.0080289843509853218 1 1 1 0.009494467301155593 0.0079748114837015251 0.0095203420255818346 1 1 1 1 1 1 1 1 1 1 1 1 1 0.0062604904984257248 1 1 1 0.0056447023111839811 1 1 1 0.0089118413235543068 1 1 1 1 0.008152469717995766 1 1 1 0.0096511157814545001 1 1 1 0.0023728653633304057 1 1 1 1 1 1 1 1 1 1 1 1 1 1 1 1 1 1 1 1 1 1 1 1 1 1 1 1 0.0012060668217718524 1 0.0092552501950892829 1 1 1 1 1 1 1 1 1 1 1 1 1 1 1 1 1 1 1 1 0.0099009567820047169 0.01539098370752822 1 1 1 1 1 1 0.015048868970517918 1 1 1 1 1 1 0.0099744425221231989 1 1 1 1 1 1 1 1 1 1 0.0099695982867878674 1 1 1 1 0.0012391309171015815 1 0.0099564743905081743 1 1 0.010021500621896417 1 1 0.0063845002740911261 1 0.015159282696268622 1 1 1 0.011650574151390846 1 0.011703279009259191 1 1 0.0087092751069205478 1 0.0099963548147838678 1 0.008398330442263546 1 0.0088455857278682895 1 1 0.012960808251828959 1 1 1 0.0098297153879360298 1 1 1 1 1 1 1 1 1 1 1 0.007678396614389087 0.010007394447729814 0.011175057880385983 0.0098738128151936392 1 1 1 0.0084095913440456888 1 1 0.0066200572251661578 1 1 1 0.0080433239973546448 0.011559191741675166 1 1 1 1 1 1 1 0.0073456488353005594 1 1 1 1 1 1 0.0090445465956417118 0.009818253434215881 1 1 1 1 1 0.0095235902030987585 0.008794537439041919 0.008459440685766418 1 1 1 1 1 1 1 1 1 0.005587790676601135 1 1 1 1 1 1 1 1 1 1 0.010069420822244711 1 1 1 1 1 1 1 1 1 1 1 1 1 1 1 1 1 0.009635179717572058 1 1 1 1 1 1 0.0070218052167239017 1 1 1 1 1 0.0095350418848906895 1 1 1 1 1 1 1 1 1 1 1 1 1 1 1 1 1 1 1 1 1 1 1 1 1 1 1 1 1 1 1 1 1 1 1 1 1 1 1 1 1 1 0.0082342370793360587 1 1 1 1 1 1 1 1 1 1 1 1 1 1 1 1 0.0096312794444252028 1 1 1 1 1 1 1 1 1 1 1 1 1 1 1 1 1 0.0097267209306020116 1 0.0093580003750272176 1 1 1 1 1 1 1 1 1 1 1 1 1 1 1 1 1 1 1 1 1 1 1 1 1 0.0083311562328253329 1 1 1 1 0.0065127655190443841 1 1 1 1 1 1 1 1 1 1 1 1 1 0.0081784079473813248 1 1 1 1 1 1 1 1 1 1 1 1 1 1 1 1 1 1 1 1 1 1 1 1 1 1 1 1 1 1 1 1 1 1 1 0.0095834473140857749 1 1 1 1 1 1 1 1 1 0.0098465403662065642 1 1 1 0.0094313523455050088 1 1 1 1 1 1 1 1 1 1 1 1 1 1 1 1 1 1 1 1 1 1 1 1 1 1 1 1 1 0.008948701498247634 1 1 1 1 0.0080077930280640711 1 1 1 0.0090590915298164442 1 1 1 1 1 1 1 1 1 1 1 1 1 0.0085048943108233192 1 1 1 1 1 1 1 1 1 1 1 1 1 1 1 1 1 1 0.0092897878382755678 1 1 1 1 1 1 1 0.010006016016953051 1 1 0.0099409589071510276 1 1 1 1 1 1 1 1 0.010047098675336133 1 1 0.011421827947852228 1 1 1 1 1 0.0099683332844639864 1 1 0.0096477213942211155 1 0.010825620534367603 1 1 1 1 1 1 1 1 1 1 0.011046505723599833 0.0098552333828421986 0.0099550808045794897 0.0099069153139150143 1 1 0.0050879375248305495 1 1 1 1 1 1 0.0062976565583601034 1 1 1 1 1 1 1 1 1 1 1 1 1 0.010646591432834036 1 1 0.010191459069147358 1 1 1 0.010020660911569362 1 1 1 1 1 1 1 1 1 1 1 1 1 1 1 1 1 0.0096587502785064772 1 1 0.0098767259630949868 1 1 1 1 1 1 1 1 1 0.010279748431224931 1 1 1 0.010562421002213485 1 1 1 1 0.010282672570988562 1 1 1 1 1 1 0.010268412766919253 0.0081724957117172183 1 1 1 1 1 1 1 1 0.0096265652343776667 1 1 0.010301048188687264 1 1 1 1 0.0089714045167727362 1 1 1 1 1 1 1 0.010086964604290399 1 1 1 0.01242902233359131 1 1 1 1 1 1 1 1 1 1 1 1 1 1 1 1 1 1 1 1 1 1 1 1 0.009913953703618578 1 1 1 0.00519239709327321 1 1 1 0.0098070709492837256 1 0.010046786494535489 1 0.00068179712120766678 1 1 1 1 0.005539454855455336 1 0.0071651696454566047 0.011597758243916602 1 0.012405605216642171 1 1 1 1 1 1 0.0032408819832642419 1 1 0.0041493173583433823 0.0033106525080003942 1 1 0.011161687828556078 1 1 -2.5430664865599972e-09 1 1 0.011764221401116841 1 1 1 1 1 0.010923972129193021 1 1 1 1 0.011641857580936835 1 1 0.0099324881771955149 0.010850465786349364 1 1 1 0.010486638540652595 1 1 1 1 1 0.0096737955765583503 1 0.009885800452700275 1 1 1 1 0.012920514061267489 1 1 1 1 1 1 1 1 1 1 1 1 1 1 1 1 1 1 1 1 1 1 1 1 1 1 1 1 1 0.0034725844337183658 1 1 1 0.0049942467947926613 1 1 1 1 1 1 1 1 1 1 0.0067324888313883662 1 1 1 1 1 1 1 1 1 1 1 2.7327085646428051e-10 1 1 1 1 1 0.00024144336411395604 1 1 1 0.0030093574606974045 1 1 1 1 0.0044188079025334163 0.0022170221839352385 1 1 1 1 1 1 1 0.0098910733242067433 1 1 1 1 1 1 1 1 1 0.008770151397882146 1 1 1 1 1 1 1 1 1 1 1 0.00701193662434158 1 1 1 1 1 1 1 1 1 1 1 1 1 1 1 1 1 1 1 1 1 0.0098810347685009715 1 1 1 1 1 1 1 1 1 1 1 1 1 1 1 1 1 1 1 1 1 1 1 1 1 1 1 1 1 1 1 1 1 1 1 1 0.0088273143230159674 1 1 1 1 1 1 1 1 1 1 1 0.0056558520991052685 1 1 1 0.0082466540177589878 0.0078419405132693215 1 1 1 1 0.0083458088250114512 1 0.0090795345536747434 1 1 0.01007598005448759 0.01078464909946018 1 1 1 0.0081742421352179254 1 1 1 1 1 0.0064160273616773698 1 1 1 0.0094032210102522468 1 1 1 1 1 1 1 1 1 1 1 1 0.010010433802845931 1 1 1 1 1 1 1 1 0.010012147046820337 0.010010443022922035 1 1 1 1 1 1 1 1 1 0.0098144653015852755 1 1 1 0.0099585838037738947 0.010000856514337656 1 1 1 1 1 0.0099923337423143254 1 0.010040810174737951 0.0088352565029734802 1 0.0094066885083864266 1 1 1 0.009970619660594043 0.0085968326451402888 1 1 0.0074208293359703543 1 1 0.01018633242460903 0.0077858834505185898 1 1 1 0.0097567800756237898 1 0.010391662903914986 1 1 0.0059558261048114538 1 1 1 1 1 1 1 0.0058802161521062431 1 1 1 1 1 1 1 1 1 0.0099907926485683935 1 1 0.005315186679470587 1 0.010213706650945526 1 1 0.0099968523604281549 1 1 0.010106940551777679 0.0048072941193904473 1 1 1 1 1 1 1 1 1 1 1 1 0.0097057549345901384 0.007888694142822214 1 1 1 1 1 1 1 0.0093074795600542395 1 1 1 1 1 1 1 0.0090574925865544286 0.009015466292037061 1 1 1 1 1 1 1 1 1 1 1 1 0.0091675403184123851 0.007200771745452951 1 1 1 0.0094655279381125803 1 1 1 0.009858932794622256 1 1 1 1 1 0.0061693675166245247 1 1 1 1 1 1 1 1 1 1 1 1 1 1 1 1 1 1 1 1 1 1 0.0086004489766519816 1 1 1 1 0.0093835240688533803 1 1 1 1 1 1 1 1 1 1 1 1 1 1 0.0099708742596226144 1 1 1 1 1 1 0.0099708743716806734 1 0.0091150442720402125 1 1 0.0002669308971262746 1 1 1 1.3712303384774693e-10 1 0.00060184508538702053 1 1 1 0.0067283869372277549 1 1 1 1 1 1 0.0087998479744343973 1 1 1 1 1 1 1 1 1 1 1 1 2.6878710021605023e-10 1 1 1 1 1 1 1 0.0099080630683305703 1 1 1 1 1 1 1 1 1 0.0086943314054221 1 1 0.0079207115843128346 1 1 1 1 1 1 0.0097309017819261923 1 1 1 1 0.004765773709788727 0.0072309717750518102 1 1 0.0034918453337204666 1 1 1 1 1 1 1 1 1 1 1 1 1 1 1 1 0.0022110445527809743 1 1 0.0079921271581728411 1 1 1 1 0.010858739251986653 1 0.009915772130013505 1 1 1 1 1 0.0079281387819549569 1 1 1 1 0.0099975135093307282 1 0.0085250632272464259 1 1 0.0085345821557098155 1 1 1 1 1 0.0084571313108932483 1 1 0.0099546760767536512 1 1 0.0085947223664472501 1 1 1 1 1 1 1 1 1 0.0099486556650189486 1 0.0013571979729682902 1 1 1 1 0.0094143358322637781 1 1 0.0019257776106481896 0.0024938514359481847 1 1 1 1 0.009776591174181018 0.0046903111600664262 1 0.0086664711898266564 1 1 1 1 0.0090466864612634267 0.0092012400208644173 0.0090058849642100734 1 1 0.0091503536712668563 1 1 0.0052044183517539304 0.0076910266436600247 1 1 1 1 0.0096872821501767618 1 1 1 1 0.0080893024059159185 1 1 0.0099078364181124472 1 1 1 1 1 1 1 0.0099033040047110492 1 1 1 1 1 1 1 1 0.0097944669992249579 1 1 1 1 0.0098106884011412328 1 1 1 1 1 1 1 1 1 1 1 1 1 1 0.010059726943058914 1 1 1 1 1 1 1 1 1 1 1 0.0093412603491547092 1 1 1 1 1 0.0093801708182571879 1 1 1 1 1 1 1 1 1 1 1 1 1 1 1 1 1 1 1 1 1 1 1 1 1 1 1 1 1 1 1 1 1 1 1 1 1 1 1 1 1 1 1 1 1 1 1 1 1 1 1 1 1 1 1 1 1 1 1 1 1 1 0.0095276948330773846 1 1 0.0086971457777792957 1 1 1 1 1 1 1 1 1 1 1 1 1 1 1 1 0.0099469185036614501 1 1 1 1 1 1 1 1 1 1 0.0027543144949241458 1 1 1 1 1 1 1 1 1 1 1 1 1 1 1 1 1 1 0.0084976323103222069 1 0.0084172686114719307 1 1 1 1 1 0.010831489090221538 0.0087133788261093467 1 1 1 1 1 1 1 1 1 1 0.010030868738949959 0.0063768477293849306 0.0073464788409662793 1 1 0.0098922468058690698 1 1 0.0054693149491911513 1 1 0.0114768468396346 1 1 1 1 1 1 1 1 1 1 1 1 1 1 1 1 1 1 0.010502495386150685 1 1 1 1 1 0.010106975117837955 1 1 1 1 0.0092725261815218389 1 0.0098036527699051565 1 1 1 1 0.0097835769839021425 1 1 1 1 1 1 1 1 1 1 1 1 1 1 1 1 1 1 1 1 1 1 1 1 1 1 1 1 1 1 1 1 0.010042852774807699 1 1 1 1 1 1 1 0.0068816230936781719 1 1 1 0.0067672527169909289 1 1 1 1 1 1 1 0.0094041972548681955 1 1 1 1 1 1 1 1 1 1 1 1 1 1 1 1 1 1 1 1 1 1 1 1 0.0095793058992351045 1 1 1 1 0.0092473553166082904 1 1 1 0.0088277492027965913 1 1 1 1 1 1 1 1 1 1 1 0.0099219419650770878 1 1 1 1 1 0.0096680494173731844 1 1 1 1 1 1 1 0.0090306439339398695 1 1 1 1 1 0.009943637250712966 1 1 1 1 1 1 1 1 1 0.0092233875275312301 1 1 1 1 1 1 1 1 1 1 1 1 1 1 0.0095500187249328086 1 1 1 1 1 1 1 1 1 1 1 1 1 1 0.0098986769759797383 0.0092407576661401591 1 1 1 1 1 1 1 1 1 1 1 1 1 1 1 1 1 1 1 1 1 1 1 1 1 1 1 1 1 1 1 1 1 1 1 1 1 1 1 0.0089515500066963856 0.0097629481144891582 1 1 1 1 1 1 1 1 1 1 1 0.0099686117666846971 1 1 1 1 1 1 1 1 1 0.0099423305400379736 1 1 1 1 1 0.0096719808220070286 1 1 1 1 0.0093029751307965314 1 1 1 1 1 1 1 1 1 1 1 1 1 1 1 1 1 1 1 1 1 1 1 1 1 0.0099252542736369444 1 1 0.010447418460815688 1 0.0098221956466570913 1 0.009316742327556941 1 1 1 1 1 1 0.010544139304375685 1 0.010192053789452619 1 1 1 1 1 0.009721313893420333 1 1 1 1 1 1 1 1 1 1 1 1 1 1 1 1 1 1 1 1 1 1 1 1 1 1 1 1 1 1 0.0099338695349218409 1 1 1 1 0.0064062969547545867 1 1 1 1 1 1 1 1 1 0.0068489447999836792 1 1 1 1 1 1 1 1 1 1 0.0055259887734237824 1 0.0098011640515798804 0.0069830493215237511 1 1 1 1 1 1 1 1 1 1 1 1 1 1 1 1 0.0073592150776973743 1 1 1 1 1 1 1 1 1 1 1 1 1 1 1 1 1 1 1 1 1 1 1 0.0077403983145583341 1 1 1 1 1 1 1 1 0.00099762015312940266 0.0099879889377212771 1 1 1 1 1 0.010355371357377758 0.010127068534330902 1 1 1 0.0099922070386833581 1 1 1 1 1 1 1 0.010024896364134599 1 1 0.00081945520328779 1 1 1 1 1 0.0009384948837088858 1 0.0099002265541220415 1 1 0.012369799692629333 1 1 1 1 1 1 1 1 0.0091565130693823747 1 1 1 1 1 1 1 1 1 1 2.2932110177800724e-09 0.010070807704167749 1 1 1 1 1 1 1 1 1 1 0.0098883808807088795 1 1 1 1 1 0.010325978243577883 0.0080553221626178499 1 1 1 0.010017019997917858 1 1 1 1 1 1 1 1 1 1 0.011477624650497856 0.010763959412536156 1 1 1 1 1 0.010276386557063873 1 1 0.010100154891240014 1 1 1 0.0099623699132581865 1 1 1 1 0.010048238728612536 1 1 1 1 1 1 1 1 1 1 1 1 1 1 1 1 1 1 
</DataArray>
</CellData>
</Piece>
</UnstructuredGrid>
</VTKFile>
