<?xml version="1.0"?>
<VTKFile type="UnstructuredGrid" version="0.1" byte_order="LittleEndian">
<UnstructuredGrid>
<Piece NumberOfPoints="29440" NumberOfCells="10265">
<Points>
<DataArray type="Float64" NumberOfComponents="3" format="ascii">
-0.5 -0.5 0 -0.50000000000000366 -0.4758940323610672 0 -0.48154466283124719 -0.48914367115642382 0 -0.5 -0.5 0 -0.48154466283124719 -0.48914367115642382 0 -0.45308059359875369 -0.5 0 -0.50000000000000366 -0.4758940323610672 0 -0.47309805772623531 -0.48068065226462803 0 -0.49999999999999872 -0.46919826660640068 0 -0.50000000000000366 -0.4758940323610672 0 -0.47855779320775899 -0.46218565898811509 0 -0.50000000000000366 -0.4758940323610672 0 -0.47309805772623531 -0.48068065226462803 0 -0.48154466283124719 -0.48914367115642382 0 -0.47309805772623531 -0.48068065226462803 0 -0.46492821400685858 -0.46750138682341369 0 -0.47855779320775899 -0.46218565898811509 0 -0.50000000000000366 -0.4758940323610672 0 -0.47309805772623531 -0.48068065226462803 0 -0.47855779320775899 -0.46218565898811509 0 -0.47309805772623531 -0.48068065226462803 0 -0.48154466283124719 -0.48914367115642382 0 -0.45308059359875369 -0.5 0 -0.47309805772623531 -0.48068065226462803 0 -0.44619611545246668 -0.48546727216818808 0 -0.45308059359875369 -0.5 0 -0.44619611545246668 -0.48546727216818808 0 -0.45308059359875369 -0.5 0 -0.41929417317869822 -0.49025389207174819 0 -0.47309805772623531 -0.48068065226462803 0 -0.45275063711340169 -0.47156228136029071 0 -0.44619611545246668 -0.48546727216818808 0 -0.47309805772623531 -0.48068065226462803 0 -0.45275063711340169 -0.47156228136029071 0 -0.46492821400685858 -0.46750138682341369 0 -0.47309805772623531 -0.48068065226462803 0 -0.44619611545246668 -0.48546727216818808 0 -0.45275063711340169 -0.47156228136029071 0 -0.44619611545246668 -0.48546727216818808 0 -0.43819159672332431 -0.46546700730528529 0 -0.442857329869486 -0.45018237785839038 0 -0.45711558641551953 -0.45517305136982888 0 -0.44809898974577789 -0.43449369051384862 0 -0.442857329869486 -0.45018237785839038 0 -0.44809898974577789 -0.43449369051384862 0 -0.42802314659332252 -0.44559576224459868 0 -0.45275063711340169 -0.47156228136029071 0 -0.43819159672332431 -0.46546700730528529 0 -0.45711558641551953 -0.45517305136982888 0 -0.442857329869486 -0.45018237785839038 0 -0.43819159672332431 -0.46546700730528529 0 -0.45711558641551953 -0.45517305136982888 0 -0.45711558641551953 -0.45517305136982888 0 -0.47855779320775899 -0.46218565898811509 0 -0.46492821400685858 -0.46750138682341369 0 -0.45711558641551953 -0.45517305136982888 0 -0.47855779320775899 -0.46218565898811509 0 -0.45275063711340169 -0.47156228136029071 0 -0.46492821400685858 -0.46750138682341369 0 -0.45711558641551953 -0.45517305136982888 0 -0.45711558641551953 -0.45517305136982888 0 -0.46641851180287469 -0.43948650374523202 0 -0.47085226186845069 -0.45076649041963712 0 -0.45711558641551953 -0.45517305136982888 0 -0.46641851180287469 -0.43948650374523202 0 -0.44809898974577789 -0.43449369051384862 0 -0.47949069118603521 -0.45266957084107662 0 -0.48114519832851549 -0.46234632374884982 0 -0.49057259916425799 -0.43833936654671463 0 -0.46641851180287469 -0.43948650374523202 0 -0.47085226186845069 -0.45076649041963712 0 -0.47686723534684372 -0.44399729909913022 0 -0.46641851180287469 -0.43948650374523202 0 -0.47686723534684372 -0.44399729909913022 0 -0.47684523831963571 -0.43396858891284601 0 -0.47085226186845069 -0.45076649041963712 0 -0.47949069118603521 -0.45266957084107662 0 -0.47686723534684372 -0.44399729909913022 0 -0.47686723534684372 -0.44399729909913022 0 -0.49057259916425799 -0.43833936654671463 0 -0.47684523831963571 -0.43396858891284601 0 -0.47949069118603521 -0.45266957084107662 0 -0.47686723534684372 -0.44399729909913022 0 -0.49057259916425799 -0.43833936654671463 0 -0.45711558641551953 -0.45517305136982888 0 -0.47085226186845069 -0.45076649041963712 0 -0.47855779320775899 -0.46218565898811509 0 -0.47085226186845069 -0.45076649041963712 0 -0.47949069118603521 -0.45266957084107662 0 -0.47855779320775899 -0.46218565898811509 0 -0.47949069118603521 -0.45266957084107662 0 -0.48114519832851549 -0.46234632374884982 0 -0.47855779320775899 -0.46218565898811509 0 -0.49999999999999872 -0.46919826660640068 0 -0.47855779320775899 -0.46218565898811509 0 -0.49999999999999872 -0.46919826660640068 0 -0.49190426051394631 -0.4526111685174028 0 -0.5 -0.44176533797549 0 -0.49999999999999872 -0.46919826660640068 0 -0.48114519832851549 -0.46234632374884982 0 -0.47855779320775899 -0.46218565898811509 0 -0.49999999999999872 -0.46919826660640068 0 -0.48114519832851549 -0.46234632374884982 0 -0.49190426051394631 -0.4526111685174028 0 -0.48114519832851549 -0.46234632374884982 0 -0.49057259916425799 -0.43833936654671463 0 -0.49190426051394631 -0.4526111685174028 0 -0.48114519832851549 -0.46234632374884982 0 -0.49057259916425799 -0.43833936654671463 0 -0.49057259916425799 -0.43833936654671463 0 -0.49190426051394631 -0.4526111685174028 0 -0.5 -0.44176533797549 0 -0.49057259916425799 -0.43833936654671463 0 -0.50000000000000022 -0.41433240934457932 0 -0.48251161804909493 -0.4236611728041596 0 -0.49057259916425799 -0.43833936654671463 0 -0.5 -0.44176533797549 0 -0.50000000000000022 -0.41433240934457932 0 -0.49057259916425799 -0.43833936654671463 0 -0.50000000000000022 -0.41433240934457932 0 -0.50000000000000022 -0.41433240934457932 0 -0.48251161804909493 -0.4236611728041596 0 -0.47590467334390352 -0.40485073726313892 0 -0.48251161804909493 -0.4236611728041596 0 -0.47590467334390352 -0.40485073726313892 0 -0.46780167560229868 -0.42472239338016499 0 -0.47684523831963571 -0.43396858891284601 0 -0.48251161804909493 -0.4236611728041596 0 -0.46780167560229868 -0.42472239338016499 0 -0.46641851180287469 -0.43948650374523202 0 -0.47684523831963571 -0.43396858891284601 0 -0.46780167560229868 -0.42472239338016499 0 -0.49057259916425799 -0.43833936654671463 0 -0.47684523831963571 -0.43396858891284601 0 -0.48251161804909493 -0.4236611728041596 0 -0.50000000000000011 -0.37554881876466428 0 -0.5 -0.39494061405462177 0 -0.48386056071607231 -0.38524471640964308 0 -0.50000000000000011 -0.37554881876466428 0 -0.48386056071607231 -0.38524471640964308 0 -0.48648544733228999 -0.36594165214355451 0 -0.5 -0.39494061405462177 0 -0.47590467334390352 -0.40485073726313892 0 -0.48386056071607231 -0.38524471640964308 0 -0.50000000000000022 -0.41433240934457932 0 -0.5 -0.39494061405462177 0 -0.47590467334390352 -0.40485073726313892 0 -0.47590467334390352 -0.40485073726313892 0 -0.48386056071607231 -0.38524471640964308 0 -0.46818935695393332 -0.38711367415766551 0 -0.48386056071607231 -0.38524471640964308 0 -0.46818935695393332 -0.38711367415766551 0 -0.47132803578186899 -0.37107715116434858 0 -0.46818935695393332 -0.38711367415766551 0 -0.45664811881057049 -0.37758651015383887 0 -0.45522140894635049 -0.39537139458888509 0 -0.46818935695393332 -0.38711367415766551 0 -0.45664811881057049 -0.37758651015383887 0 -0.47132803578186899 -0.37107715116434858 0 -0.47590467334390352 -0.40485073726313892 0 -0.45522140894635049 -0.39537139458888509 0 -0.45122710705687058 -0.41172543127077571 0 -0.47590467334390352 -0.40485073726313892 0 -0.46818935695393332 -0.38711367415766551 0 -0.45522140894635049 -0.39537139458888509 0 -0.45522140894635049 -0.39537139458888509 0 -0.43833336119685778 -0.40082466232310898 0 -0.44466701861025743 -0.38564726223926549 0 -0.45522140894635049 -0.39537139458888509 0 -0.43833336119685778 -0.40082466232310898 0 -0.45122710705687058 -0.41172543127077571 0 -0.44466701861025743 -0.38564726223926549 0 -0.43002722768137319 -0.37679217182334201 0 -0.44570328837050199 -0.36708158431690108 0 -0.45664811881057049 -0.37758651015383887 0 -0.45522140894635049 -0.39537139458888509 0 -0.44466701861025743 -0.38564726223926549 0 -0.45664811881057049 -0.37758651015383887 0 -0.44466701861025743 -0.38564726223926549 0 -0.44570328837050199 -0.36708158431690108 0 -0.46780167560229868 -0.42472239338016499 0 -0.45122710705687058 -0.41172543127077571 0 -0.44809898974577789 -0.43449369051384862 0 -0.46641851180287469 -0.43948650374523202 0 -0.46780167560229868 -0.42472239338016499 0 -0.44809898974577789 -0.43449369051384862 0 -0.47590467334390352 -0.40485073726313892 0 -0.46780167560229868 -0.42472239338016499 0 -0.45122710705687058 -0.41172543127077571 0 -0.45122710705687058 -0.41172543127077571 0 -0.44809898974577789 -0.43449369051384862 0 -0.42726110625909908 -0.4158409881398068 0 -0.45122710705687058 -0.41172543127077571 0 -0.42726110625909908 -0.4158409881398068 0 -0.43833336119685778 -0.40082466232310898 0 -0.45122710705687058 -0.41172543127077571 0 -0.42726110625909908 -0.4158409881398068 0 -0.44809898974577789 -0.43449369051384862 0 -0.42726110625909908 -0.4158409881398068 0 -0.42802314659332252 -0.44559576224459868 0 -0.42726110625909908 -0.4158409881398068 0 -0.41297322678284942 -0.43414684501444312 0 -0.42802314659332252 -0.44559576224459868 0 -0.42726110625909908 -0.4158409881398068 0 -0.41052093588224842 -0.40333225794007471 0 -0.40329510546132769 -0.41995654500883789 0 -0.42726110625909908 -0.4158409881398068 0 -0.42500930015586202 -0.40088392304800607 0 -0.41052093588224842 -0.40333225794007471 0 -0.42726110625909908 -0.4158409881398068 0 -0.40329510546132769 -0.41995654500883789 0 -0.42726110625909908 -0.4158409881398068 0 -0.41297322678284942 -0.43414684501444312 0 -0.40329510546132769 -0.41995654500883789 0 -0.44466701861025743 -0.38564726223926549 0 -0.43002722768137319 -0.37679217182334201 0 -0.42737866528993668 -0.38851991802351837 0 -0.43002722768137319 -0.37679217182334201 0 -0.42737866528993668 -0.38851991802351837 0 -0.41139876677512383 -0.37874811591356711 0 -0.43002722768137319 -0.37679217182334201 0 -0.42737866528993668 -0.38851991802351837 0 -0.44466701861025743 -0.38564726223926549 0 -0.43002722768137319 -0.37679217182334201 0 -0.43833336119685778 -0.40082466232310898 0 -0.44466701861025743 -0.38564726223926549 0 -0.42737866528993668 -0.38851991802351837 0 -0.42737866528993668 -0.38851991802351837 0 -0.42500930015586202 -0.40088392304800607 0 -0.41490815953589899 -0.39063670661057232 0 -0.43833336119685778 -0.40082466232310898 0 -0.42737866528993668 -0.38851991802351837 0 -0.42500930015586202 -0.40088392304800607 0 -0.43833336119685778 -0.40082466232310898 0 -0.42726110625909908 -0.4158409881398068 0 -0.42500930015586202 -0.40088392304800607 0 -0.41052093588224842 -0.40333225794007471 0 -0.41490815953589899 -0.39063670661057232 0 -0.39418441473463173 -0.38698179637043689 0 -0.42500930015586202 -0.40088392304800607 0 -0.41052093588224842 -0.40333225794007471 0 -0.41490815953589899 -0.39063670661057232 0 -0.41490815953589899 -0.39063670661057232 0 -0.41139876677512383 -0.37874811591356711 0 -0.39418441473463173 -0.38698179637043689 0 -0.42737866528993668 -0.38851991802351837 0 -0.41490815953589899 -0.39063670661057232 0 -0.41139876677512383 -0.37874811591356711 0 -0.41139876677512383 -0.37874811591356711 0 -0.39418441473463173 -0.38698179637043689 0 -0.40448234684121381 -0.36134097920710168 0 -0.39418441473463173 -0.38698179637043689 0 -0.39797173467656438 -0.40572330321328048 0 -0.38388648262804997 -0.4126226135337725 0 -0.41052093588224842 -0.40333225794007471 0 -0.39418441473463173 -0.38698179637043689 0 -0.39797173467656438 -0.40572330321328048 0 -0.39418441473463173 -0.38698179637043689 0 -0.37523004537135962 -0.40058585603955082 0 -0.38388648262804997 -0.4126226135337725 0 -0.39418441473463173 -0.38698179637043689 0 -0.38388648262804997 -0.4126226135337725 0 -0.39418441473463173 -0.38698179637043689 0 -0.37523004537135962 -0.40058585603955082 0 -0.37645558751284619 -0.38463906907506168 0 -0.39418441473463173 -0.38698179637043689 0 -0.37645558751284619 -0.38463906907506168 0 -0.3879779817757511 -0.36997077579152249 0 -0.40329510546132769 -0.41995654500883789 0 -0.37932910466355618 -0.42407210187786898 0 -0.40329510546132769 -0.41995654500883789 0 -0.37932910466355618 -0.42407210187786898 0 -0.3948275380815725 -0.43791432295757382 0 -0.41297322678284942 -0.43414684501444312 0 -0.40329510546132769 -0.41995654500883789 0 -0.3948275380815725 -0.43791432295757382 0 -0.41052093588224842 -0.40333225794007471 0 -0.39797173467656438 -0.40572330321328048 0 -0.40329510546132769 -0.41995654500883789 0 -0.39797173467656438 -0.40572330321328048 0 -0.40329510546132769 -0.41995654500883789 0 -0.38388648262804997 -0.4126226135337725 0 -0.40329510546132769 -0.41995654500883789 0 -0.38388648262804997 -0.4126226135337725 0 -0.37932910466355618 -0.42407210187786898 0 -0.37523004537135962 -0.40058585603955082 0 -0.38388648262804997 -0.4126226135337725 0 -0.37122813695408302 -0.4151710294954587 0 -0.38388648262804997 -0.4126226135337725 0 -0.37932910466355618 -0.42407210187786898 0 -0.37122813695408302 -0.4151710294954587 0 -0.37932910466355618 -0.42407210187786898 0 -0.3819772994773119 -0.43981033241645939 0 -0.3948275380815725 -0.43791432295757382 0 -0.37932910466355618 -0.42407210187786898 0 -0.3819772994773119 -0.43981033241645939 0 -0.36903346868625481 -0.43700295944165979 0 -0.45308059359875369 -0.5 0 -0.38998610862596222 -0.50000000000000178 0 -0.41929417317869822 -0.49025389207174819 0 -0.3819772994773119 -0.43981033241645939 0 -0.3948275380815725 -0.43791432295757382 0 -0.39379274882553511 -0.45563263391875058 0 -0.3819772994773119 -0.43981033241645939 0 -0.39379274882553511 -0.45563263391875058 0 -0.37385505232340371 -0.45092355124284322 0 -0.3948275380815725 -0.43791432295757382 0 -0.39379274882553511 -0.45563263391875058 0 -0.41038491726423437 -0.44959012958319872 0 -0.41297322678284942 -0.43414684501444312 0 -0.3948275380815725 -0.43791432295757382 0 -0.41038491726423437 -0.44959012958319872 0 -0.39379274882553511 -0.45563263391875058 0 -0.40052795779708628 -0.4796035183735845 0 -0.41715118881537611 -0.46584599351726752 0 -0.39379274882553511 -0.45563263391875058 0 -0.38035033017363079 -0.46765994081286949 0 -0.40052795779708628 -0.4796035183735845 0 -0.39379274882553511 -0.45563263391875058 0 -0.38035033017363079 -0.46765994081286949 0 -0.37385505232340371 -0.45092355124284322 0 -0.38035033017363079 -0.46765994081286949 0 -0.38998610862596222 -0.50000000000000178 0 -0.36693175785602228 -0.48194238216350432 0 -0.38035033017363079 -0.46765994081286949 0 -0.38998610862596222 -0.50000000000000178 0 -0.40052795779708628 -0.4796035183735845 0 -0.38998610862596222 -0.50000000000000178 0 -0.36693175785602228 -0.48194238216350432 0 -0.38998610862596222 -0.50000000000000178 0 -0.40052795779708628 -0.4796035183735845 0 -0.41929417317869822 -0.49025389207174819 0 -0.40052795779708628 -0.4796035183735845 0 -0.41929417317869822 -0.49025389207174819 0 -0.41715118881537611 -0.46584599351726752 0 -0.44619611545246668 -0.48546727216818808 0 -0.41929417317869822 -0.49025389207174819 0 -0.43819159672332431 -0.46546700730528529 0 -0.41929417317869822 -0.49025389207174819 0 -0.41715118881537611 -0.46584599351726752 0 -0.44619611545246668 -0.48546727216818808 0 -0.43819159672332431 -0.46546700730528529 0 -0.41929417317869822 -0.49025389207174819 0 -0.442857329869486 -0.45018237785839038 0 -0.43819159672332431 -0.46546700730528529 0 -0.42802314659332252 -0.44559576224459868 0 -0.43819159672332431 -0.46546700730528529 0 -0.42802314659332252 -0.44559576224459868 0 -0.41715118881537611 -0.46584599351726752 0 -0.41297322678284942 -0.43414684501444312 0 -0.42802314659332252 -0.44559576224459868 0 -0.41038491726423437 -0.44959012958319872 0 -0.39379274882553511 -0.45563263391875058 0 -0.41038491726423437 -0.44959012958319872 0 -0.41715118881537611 -0.46584599351726752 0 -0.42802314659332252 -0.44559576224459868 0 -0.41038491726423437 -0.44959012958319872 0 -0.41715118881537611 -0.46584599351726752 0 -0.45242163007135899 -0.27541398582352927 0 -0.44962239678773019 -0.26827543551856742 0 -0.45707957377796588 -0.25251993593009492 0 -0.44121222731808057 -0.26472945880803522 0 -0.44962239678773019 -0.26827543551856742 0 -0.45707957377796588 -0.25251993593009492 0 -0.44121222731808057 -0.26472945880803522 0 -0.45707957377796588 -0.25251993593009492 0 -0.4400130151743441 -0.24738943500130309 0 -0.44121222731808057 -0.26472945880803522 0 -0.45707957377796588 -0.25251993593009492 0 -0.44121222731808057 -0.26472945880803522 0 -0.44463439945008409 -0.27297261081797852 0 -0.44962239678773019 -0.26827543551856742 0 -0.44121222731808057 -0.26472945880803522 0 -0.44463439945008409 -0.27297261081797852 0 -0.4372609148950809 -0.27618178322838288 0 -0.4426548281781697 -0.28026239071137848 0 -0.43766570938410071 -0.28489110031609788 0 -0.4372609148950809 -0.27618178322838288 0 -0.44463439945008409 -0.27297261081797852 0 -0.4426548281781697 -0.28026239071137848 0 -0.4372609148950809 -0.27618178322838288 0 -0.44463439945008409 -0.27297261081797852 0 -0.4426548281781697 -0.28026239071137848 0 -0.45242163007135899 -0.27541398582352927 0 -0.44121222731808057 -0.26472945880803522 0 -0.44962239678773019 -0.26827543551856742 0 -0.44463439945008409 -0.27297261081797852 0 -0.45242163007135899 -0.27541398582352927 0 -0.44962239678773019 -0.26827543551856742 0 -0.45242163007135899 -0.27541398582352927 0 -0.46863184190906731 -0.27250780562877541 0 -0.46017901135776312 -0.28958423527802868 0 -0.45242163007135899 -0.27541398582352927 0 -0.46863184190906731 -0.27250780562877541 0 -0.45707957377796588 -0.25251993593009492 0 -0.46863184190906731 -0.27250780562877541 0 -0.45707957377796588 -0.25251993593009492 0 -0.47066823282063319 -0.25697391365351752 0 -0.45242163007135899 -0.27541398582352927 0 -0.45707957377796588 -0.25251993593009492 0 -0.45707957377796588 -0.25251993593009492 0 -0.47066823282063319 -0.25697391365351752 0 -0.47071381627218861 -0.2420287302280229 0 -0.48535690813609511 -0.26112051823255888 0 -0.47071381627218861 -0.2420287302280229 0 -0.47066823282063319 -0.25697391365351752 0 -0.48535690813609511 -0.26112051823255888 0 -0.47071381627218861 -0.2420287302280229 0 -0.46863184190906731 -0.27250780562877541 0 -0.47066823282063319 -0.25697391365351752 0 -0.48535690813609511 -0.26112051823255888 0 -0.49999999999999922 -0.25312270956325039 0 -0.48535690813609511 -0.26112051823255888 0 -0.47970416047315168 -0.2402056193030136 0 -0.49999999999999922 -0.25312270956325039 0 -0.48535690813609511 -0.26112051823255888 0 -0.50000000000000133 -0.28021230623709509 0 -0.48535690813609511 -0.26112051823255888 0 -0.50000000000000133 -0.28021230623709509 0 -0.48535690813609511 -0.26112051823255888 0 -0.50000000000000133 -0.28021230623709509 0 -0.48238531981286392 -0.2803213291989578 0 -0.46863184190906731 -0.27250780562877541 0 -0.48535690813609511 -0.26112051823255888 0 -0.48238531981286392 -0.2803213291989578 0 -0.46863184190906731 -0.27250780562877541 0 -0.48238531981286392 -0.2803213291989578 0 -0.47327755800452109 -0.29075118154223051 0 -0.47327755800452109 -0.29075118154223051 0 -0.48766446123411772 -0.29492408561238093 0 -0.47785718988779952 -0.30470552263824718 0 -0.48238531981286392 -0.2803213291989578 0 -0.47327755800452109 -0.29075118154223051 0 -0.48766446123411772 -0.29492408561238093 0 -0.50000000000000133 -0.28021230623709509 0 -0.48766446123411772 -0.29492408561238093 0 -0.5 -0.30726447087362818 0 -0.50000000000000133 -0.28021230623709509 0 -0.48238531981286392 -0.2803213291989578 0 -0.48766446123411772 -0.29492408561238093 0 -0.48766446123411772 -0.29492408561238093 0 -0.5 -0.30726447087362818 0 -0.49169470547148059 -0.30804245210374892 0 -0.48766446123411772 -0.29492408561238093 0 -0.49169470547148059 -0.30804245210374892 0 -0.47785718988779952 -0.30470552263824718 0 -0.49169470547148059 -0.30804245210374892 0 -0.47785718988779952 -0.30470552263824718 0 -0.4836811274721301 -0.31528528720477872 0 -0.47785718988779952 -0.30470552263824718 0 -0.47063603238895391 -0.31725162924996753 0 -0.4836811274721301 -0.31528528720477872 0 -0.47327755800452109 -0.29075118154223051 0 -0.47785718988779952 -0.30470552263824718 0 -0.4623990660466698 -0.30391713548104449 0 -0.47785718988779952 -0.30470552263824718 0 -0.4623990660466698 -0.30391713548104449 0 -0.47063603238895391 -0.31725162924996753 0 -0.4623990660466698 -0.30391713548104449 0 -0.44662505624251209 -0.30329753886000671 0 -0.47063603238895391 -0.31725162924996753 0 -0.44662505624251209 -0.30329753886000671 0 -0.47063603238895391 -0.31725162924996753 0 -0.4623990660466698 -0.30391713548104449 0 -0.46017901135776312 -0.28958423527802868 0 -0.44775239109462311 -0.29830573762061752 0 -0.46863184190906731 -0.27250780562877541 0 -0.47327755800452109 -0.29075118154223051 0 -0.46017901135776312 -0.28958423527802868 0 -0.47327755800452109 -0.29075118154223051 0 -0.4623990660466698 -0.30391713548104449 0 -0.46017901135776312 -0.28958423527802868 0 -0.45242163007135899 -0.27541398582352927 0 -0.46017901135776312 -0.28958423527802868 0 -0.44775239109462311 -0.29830573762061752 0 -0.45242163007135899 -0.27541398582352927 0 -0.44775239109462311 -0.29830573762061752 0 -0.45242163007135899 -0.27541398582352927 0 -0.442142459419123 -0.29028618894060498 0 -0.44775239109462311 -0.29830573762061752 0 -0.4426548281781697 -0.28026239071137848 0 -0.45242163007135899 -0.27541398582352927 0 -0.442142459419123 -0.29028618894060498 0 -0.4426548281781697 -0.28026239071137848 0 -0.43766570938410071 -0.28489110031609788 0 -0.442142459419123 -0.29028618894060498 0 -0.442142459419123 -0.29028618894060498 0 -0.43753957959170259 -0.29851603737034249 0 -0.43486188910500029 -0.29394559864247938 0 -0.43766570938410071 -0.28489110031609788 0 -0.442142459419123 -0.29028618894060498 0 -0.43486188910500029 -0.29394559864247938 0 -0.442142459419123 -0.29028618894060498 0 -0.43753957959170259 -0.29851603737034249 0 -0.44210118850890567 -0.30066847209979009 0 -0.442142459419123 -0.29028618894060498 0 -0.44210118850890567 -0.30066847209979009 0 -0.44775239109462311 -0.29830573762061752 0 -0.4623990660466698 -0.30391713548104449 0 -0.44775239109462311 -0.29830573762061752 0 -0.44662505624251209 -0.30329753886000671 0 -0.44210118850890567 -0.30066847209979009 0 -0.44662505624251209 -0.30329753886000671 0 -0.44210118850890567 -0.30066847209979009 0 -0.44171040568291892 -0.30401571888785611 0 -0.44662505624251209 -0.30329753886000671 0 -0.44210118850890567 -0.30066847209979009 0 -0.44171040568291892 -0.30401571888785611 0 -0.43802783676994927 -0.30353628199644711 0 -0.43753957959170259 -0.29851603737034249 0 -0.44210118850890567 -0.30066847209979009 0 -0.43802783676994927 -0.30353628199644711 0 -0.43802783676994927 -0.30353628199644711 0 -0.44008754121030852 -0.30856058259518071 0 -0.43497524085359929 -0.30849915164577463 0 -0.44171040568291892 -0.30401571888785611 0 -0.43802783676994927 -0.30353628199644711 0 -0.44008754121030852 -0.30856058259518071 0 -0.44008754121030852 -0.30856058259518071 0 -0.44662505624251209 -0.30329753886000671 0 -0.43870464661114578 -0.31545299839626378 0 -0.44171040568291892 -0.30401571888785611 0 -0.44008754121030852 -0.30856058259518071 0 -0.44662505624251209 -0.30329753886000671 0 -0.44210118850890567 -0.30066847209979009 0 -0.44775239109462311 -0.29830573762061752 0 -0.44662505624251209 -0.30329753886000671 0 -0.44775239109462311 -0.29830573762061752 0 -0.44662505624251209 -0.30329753886000671 0 -0.44662505624251209 -0.30329753886000671 0 -0.44236267728558443 -0.32217121115009711 0 -0.44662505624251209 -0.30329753886000671 0 -0.43870464661114578 -0.31545299839626378 0 -0.44236267728558443 -0.32217121115009711 0 -0.44662505624251209 -0.30329753886000671 0 -0.44236267728558443 -0.32217121115009711 0 -0.45458283345262301 -0.32693319802338261 0 -0.44236267728558443 -0.32217121115009711 0 -0.44109244672213238 -0.32779574984778498 0 -0.45458283345262301 -0.32693319802338261 0 -0.44008754121030852 -0.30856058259518071 0 -0.43870464661114578 -0.31545299839626378 0 -0.43449938236872132 -0.31448788693110769 0 -0.43870464661114578 -0.31545299839626378 0 -0.44236267728558443 -0.32217121115009711 0 -0.44109244672213238 -0.32779574984778498 0 -0.44236267728558443 -0.32217121115009711 0 -0.44109244672213238 -0.32779574984778498 0 -0.44109244672213238 -0.32779574984778498 0 -0.43555983720175251 -0.35229396083556352 0 -0.44109244672213238 -0.32779574984778498 0 -0.44829629191375447 -0.34044738807163932 0 -0.43555983720175251 -0.35229396083556352 0 -0.44109244672213238 -0.32779574984778498 0 -0.44829629191375447 -0.34044738807163932 0 -0.45458283345262301 -0.32693319802338261 0 -0.45458283345262301 -0.32693319802338261 0 -0.47288619642213542 -0.33410648718299102 0 -0.46045517604472141 -0.34409516897758258 0 -0.44829629191375447 -0.34044738807163932 0 -0.45458283345262301 -0.32693319802338261 0 -0.46045517604472141 -0.34409516897758258 0 -0.45458283345262301 -0.32693319802338261 0 -0.47063603238895391 -0.31725162924996753 0 -0.47288619642213542 -0.33410648718299102 0 -0.44662505624251209 -0.30329753886000671 0 -0.45458283345262301 -0.32693319802338261 0 -0.47063603238895391 -0.31725162924996753 0 -0.47063603238895391 -0.31725162924996753 0 -0.4836811274721301 -0.31528528720477872 0 -0.4945365821402859 -0.33114154482715152 0 -0.47063603238895391 -0.31725162924996753 0 -0.4945365821402859 -0.33114154482715152 0 -0.47288619642213542 -0.33410648718299102 0 -0.47063603238895391 -0.31725162924996753 0 -0.4945365821402859 -0.33114154482715152 0 -0.5 -0.30726447087362818 0 -0.49169470547148059 -0.30804245210374892 0 -0.4945365821402859 -0.33114154482715152 0 -0.49169470547148059 -0.30804245210374892 0 -0.4836811274721301 -0.31528528720477872 0 -0.4945365821402859 -0.33114154482715152 0 -0.49169470547148059 -0.30804245210374892 0 -0.4945365821402859 -0.33114154482715152 0 -0.5 -0.30726447087362818 0 -0.49999999999999939 -0.33431663551016128 0 -0.4945365821402859 -0.33114154482715152 0 -0.4945365821402859 -0.33114154482715152 0 -0.49726829107014281 -0.3533451817959079 0 -0.49999999999999939 -0.33431663551016128 0 -0.4945365821402859 -0.33114154482715152 0 -0.49726829107014281 -0.3533451817959079 0 -0.49999999999999939 -0.33431663551016128 0 -0.4945365821402859 -0.33114154482715152 0 -0.4945365821402859 -0.33114154482715152 0 -0.47288619642213542 -0.33410648718299102 0 -0.4781889083697598 -0.35048474758725268 0 -0.47288619642213542 -0.33410648718299102 0 -0.4781889083697598 -0.35048474758725268 0 -0.46045517604472141 -0.34409516897758258 0 -0.49999999999999939 -0.33431663551016128 0 -0.5 -0.35493272713741281 0 -0.49726829107014281 -0.3533451817959079 0 -0.4781889083697598 -0.35048474758725268 0 -0.49726829107014281 -0.3533451817959079 0 -0.48648544733228999 -0.36594165214355451 0 -0.4945365821402859 -0.33114154482715152 0 -0.4781889083697598 -0.35048474758725268 0 -0.49726829107014281 -0.3533451817959079 0 -0.50000000000000011 -0.37554881876466428 0 -0.49726829107014281 -0.3533451817959079 0 -0.48648544733228999 -0.36594165214355451 0 -0.50000000000000011 -0.37554881876466428 0 -0.5 -0.35493272713741281 0 -0.49726829107014281 -0.3533451817959079 0 -0.50000000000000011 -0.37554881876466428 0 -0.49726829107014281 -0.3533451817959079 0 -0.4781889083697598 -0.35048474758725268 0 -0.47132803578186899 -0.37107715116434858 0 -0.45917015987911552 -0.35983142597744178 0 -0.48386056071607231 -0.38524471640964308 0 -0.48648544733228999 -0.36594165214355451 0 -0.47132803578186899 -0.37107715116434858 0 -0.4781889083697598 -0.35048474758725268 0 -0.48648544733228999 -0.36594165214355451 0 -0.47132803578186899 -0.37107715116434858 0 -0.45664811881057049 -0.37758651015383887 0 -0.45917015987911552 -0.35983142597744178 0 -0.44570328837050199 -0.36708158431690108 0 -0.45664811881057049 -0.37758651015383887 0 -0.47132803578186899 -0.37107715116434858 0 -0.45917015987911552 -0.35983142597744178 0 -0.45917015987911552 -0.35983142597744178 0 -0.46045517604472141 -0.34409516897758258 0 -0.44983695068196933 -0.35274990563582559 0 -0.4781889083697598 -0.35048474758725268 0 -0.45917015987911552 -0.35983142597744178 0 -0.46045517604472141 -0.34409516897758258 0 -0.44829629191375447 -0.34044738807163932 0 -0.46045517604472141 -0.34409516897758258 0 -0.44983695068196933 -0.35274990563582559 0 -0.44829629191375447 -0.34044738807163932 0 -0.44983695068196933 -0.35274990563582559 0 -0.43555983720175251 -0.35229396083556352 0 -0.44983695068196933 -0.35274990563582559 0 -0.44570328837050199 -0.36708158431690108 0 -0.43555983720175251 -0.35229396083556352 0 -0.45917015987911552 -0.35983142597744178 0 -0.44983695068196933 -0.35274990563582559 0 -0.44570328837050199 -0.36708158431690108 0 -0.43002722768137319 -0.37679217182334201 0 -0.43555983720175251 -0.35229396083556352 0 -0.43002722768137319 -0.37679217182334201 0 -0.44570328837050199 -0.36708158431690108 0 -0.43555983720175251 -0.35229396083556352 0 -0.43002722768137319 -0.37679217182334201 0 -0.43555983720175251 -0.35229396083556352 0 -0.42062534810480168 -0.35799357520503478 0 -0.43555983720175251 -0.35229396083556352 0 -0.42062534810480168 -0.35799357520503478 0 -0.4124319806948672 -0.34154718895413189 0 -0.42062534810480168 -0.35799357520503478 0 -0.40448234684121381 -0.36134097920710168 0 -0.4124319806948672 -0.34154718895413189 0 -0.40448234684121381 -0.36134097920710168 0 -0.4124319806948672 -0.34154718895413189 0 -0.43002722768137319 -0.37679217182334201 0 -0.40448234684121381 -0.36134097920710168 0 -0.43002722768137319 -0.37679217182334201 0 -0.41139876677512383 -0.37874811591356711 0 -0.40448234684121381 -0.36134097920710168 0 -0.43002722768137319 -0.37679217182334201 0 -0.42062534810480168 -0.35799357520503478 0 -0.40448234684121381 -0.36134097920710168 0 -0.40448234684121381 -0.36134097920710168 0 -0.38014042669974268 -0.34661741486133751 0 -0.4124319806948672 -0.34154718895413189 0 -0.39418441473463173 -0.38698179637043689 0 -0.40448234684121381 -0.36134097920710168 0 -0.3879779817757511 -0.36997077579152249 0 -0.39418441473463173 -0.38698179637043689 0 -0.40448234684121381 -0.36134097920710168 0 -0.37645558751284619 -0.38463906907506168 0 -0.3879779817757511 -0.36997077579152249 0 -0.37113431237396549 -0.37011217495999638 0 -0.3879779817757511 -0.36997077579152249 0 -0.38014042669974268 -0.34661741486133751 0 -0.37113431237396549 -0.37011217495999638 0 -0.40448234684121381 -0.36134097920710168 0 -0.3879779817757511 -0.36997077579152249 0 -0.38014042669974268 -0.34661741486133751 0 -0.40448234684121381 -0.36134097920710168 0 -0.38014042669974268 -0.34661741486133751 0 -0.38014042669974268 -0.34661741486133751 0 -0.38509162557693749 -0.32917958069611303 0 -0.4124319806948672 -0.34154718895413189 0 -0.38509162557693749 -0.32917958069611303 0 -0.40290275128984998 -0.3231238636337912 0 -0.4124319806948672 -0.34154718895413189 0 -0.38509162557693749 -0.32917958069611303 0 -0.3888702843306911 -0.31387702967377501 0 -0.37040580388820282 -0.31801813653806899 0 -0.38509162557693749 -0.32917958069611303 0 -0.3888702843306911 -0.31387702967377501 0 -0.40290275128984998 -0.3231238636337912 0 -0.3888702843306911 -0.31387702967377501 0 -0.40290275128984998 -0.3231238636337912 0 -0.40910574547017331 -0.30797305891178078 0 -0.42038161454852102 -0.32175339870116249 0 -0.42658739695376829 -0.31120862304113478 0 -0.40910574547017331 -0.30797305891178078 0 -0.40290275128984998 -0.3231238636337912 0 -0.42038161454852102 -0.32175339870116249 0 -0.40910574547017331 -0.30797305891178078 0 -0.40290275128984998 -0.3231238636337912 0 -0.42038161454852102 -0.32175339870116249 0 -0.4124319806948672 -0.34154718895413189 0 -0.42038161454852102 -0.32175339870116249 0 -0.4124319806948672 -0.34154718895413189 0 -0.42743844274135612 -0.33608085201705751 0 -0.42038161454852102 -0.32175339870116249 0 -0.4124319806948672 -0.34154718895413189 0 -0.43555983720175251 -0.35229396083556352 0 -0.4124319806948672 -0.34154718895413189 0 -0.42743844274135612 -0.33608085201705751 0 -0.44109244672213238 -0.32779574984778498 0 -0.43555983720175251 -0.35229396083556352 0 -0.42743844274135612 -0.33608085201705751 0 -0.44109244672213238 -0.32779574984778498 0 -0.42743844274135612 -0.33608085201705751 0 -0.43121880651205452 -0.32312323374723889 0 -0.43870464661114578 -0.31545299839626378 0 -0.44109244672213238 -0.32779574984778498 0 -0.43121880651205452 -0.32312323374723889 0 -0.43121880651205452 -0.32312323374723889 0 -0.43449938236872132 -0.31448788693110769 0 -0.42658739695376829 -0.31120862304113478 0 -0.43870464661114578 -0.31545299839626378 0 -0.43121880651205452 -0.32312323374723889 0 -0.43449938236872132 -0.31448788693110769 0 -0.42038161454852102 -0.32175339870116249 0 -0.43121880651205452 -0.32312323374723889 0 -0.42658739695376829 -0.31120862304113478 0 -0.42038161454852102 -0.32175339870116249 0 -0.42743844274135612 -0.33608085201705751 0 -0.43121880651205452 -0.32312323374723889 0 -0.42310270419832863 -0.29980190900376757 0 -0.42658739695376829 -0.31120862304113478 0 -0.43261282725675881 -0.30267933430063282 0 -0.42658739695376829 -0.31120862304113478 0 -0.43497524085359929 -0.30849915164577463 0 -0.43261282725675881 -0.30267933430063282 0 -0.43449938236872132 -0.31448788693110769 0 -0.42658739695376829 -0.31120862304113478 0 -0.43497524085359929 -0.30849915164577463 0 -0.44008754121030852 -0.30856058259518071 0 -0.43449938236872132 -0.31448788693110769 0 -0.43497524085359929 -0.30849915164577463 0 -0.43802783676994927 -0.30353628199644711 0 -0.43497524085359929 -0.30849915164577463 0 -0.43261282725675881 -0.30267933430063282 0 -0.43753957959170259 -0.29851603737034249 0 -0.43261282725675881 -0.30267933430063282 0 -0.43486188910500029 -0.29394559864247938 0 -0.42310270419832863 -0.29980190900376757 0 -0.43261282725675881 -0.30267933430063282 0 -0.43486188910500029 -0.29394559864247938 0 -0.43753957959170259 -0.29851603737034249 0 -0.43802783676994927 -0.30353628199644711 0 -0.43261282725675881 -0.30267933430063282 0 -0.43486188910500029 -0.29394559864247938 0 -0.43159253931540742 -0.28729780286565793 0 -0.42537770463948332 -0.2907590287068863 0 -0.43766570938410071 -0.28489110031609788 0 -0.43486188910500029 -0.29394559864247938 0 -0.43159253931540742 -0.28729780286565793 0 -0.43766570938410071 -0.28489110031609788 0 -0.43159253931540742 -0.28729780286565793 0 -0.43184271175482958 -0.28177334504577728 0 -0.43159253931540742 -0.28729780286565793 0 -0.43184271175482958 -0.28177334504577728 0 -0.42525275702103948 -0.28469793053699999 0 -0.43159253931540742 -0.28729780286565793 0 -0.42525275702103948 -0.28469793053699999 0 -0.42537770463948332 -0.2907590287068863 0 -0.42310270419832863 -0.29980190900376757 0 -0.43486188910500029 -0.29394559864247938 0 -0.42537770463948332 -0.2907590287068863 0 -0.42525275702103948 -0.28469793053699999 0 -0.42537770463948332 -0.2907590287068863 0 -0.40930925814754421 -0.28927798889444928 0 -0.42310270419832863 -0.29980190900376757 0 -0.42537770463948332 -0.2907590287068863 0 -0.40930925814754421 -0.28927798889444928 0 -0.42525275702103948 -0.28469793053699999 0 -0.40930925814754421 -0.28927798889444928 0 -0.42526074273281272 -0.27700372385124278 0 -0.40930925814754421 -0.28927798889444928 0 -0.42526074273281272 -0.27700372385124278 0 -0.42310270419832863 -0.29980190900376757 0 -0.42658739695376829 -0.31120862304113478 0 -0.40910574547017331 -0.30797305891178078 0 -0.42310270419832863 -0.29980190900376757 0 -0.40930925814754421 -0.28927798889444928 0 -0.40910574547017331 -0.30797305891178078 0 -0.40930925814754421 -0.28927798889444928 0 -0.40910574547017331 -0.30797305891178078 0 -0.39122571074917228 -0.29667840259454842 0 -0.3888702843306911 -0.31387702967377501 0 -0.40910574547017331 -0.30797305891178078 0 -0.39122571074917228 -0.29667840259454842 0 -0.3888702843306911 -0.31387702967377501 0 -0.37692216353751817 -0.30399919650956447 0 -0.37040580388820282 -0.31801813653806899 0 -0.3888702843306911 -0.31387702967377501 0 -0.37692216353751817 -0.30399919650956447 0 -0.39122571074917228 -0.29667840259454842 0 -0.37692216353751817 -0.30399919650956447 0 -0.37506482485931752 -0.28642292767843891 0 -0.39122571074917228 -0.29667840259454842 0 -0.37506482485931752 -0.28642292767843891 0 -0.39122571074917228 -0.29667840259454842 0 -0.38743895564093173 -0.27901759584181002 0 -0.40930925814754421 -0.28927798889444928 0 -0.39122571074917228 -0.29667840259454842 0 -0.38743895564093173 -0.27901759584181002 0 -0.40930925814754421 -0.28927798889444928 0 -0.39992918693268698 -0.268664720032112 0 -0.38743895564093173 -0.27901759584181002 0 -0.39992918693268698 -0.268664720032112 0 -0.38743895564093173 -0.27901759584181002 0 -0.38705805278995858 -0.26696961669784319 0 -0.38743895564093173 -0.27901759584181002 0 -0.38705805278995858 -0.26696961669784319 0 -0.37754827439480088 -0.26827022105131021 0 -0.37506482485931752 -0.28642292767843891 0 -0.38743895564093173 -0.27901759584181002 0 -0.37218056159804641 -0.27678210300175859 0 -0.38743895564093173 -0.27901759584181002 0 -0.37754827439480088 -0.26827022105131021 0 -0.37218056159804641 -0.27678210300175859 0 -0.38302462721060548 -0.25958607851519588 0 -0.38530828728861949 -0.25088579952195222 0 -0.37464738056692998 -0.25325066522078848 0 -0.37754827439480088 -0.26827022105131021 0 -0.38302462721060548 -0.25958607851519588 0 -0.37464738056692998 -0.25325066522078848 0 -0.38705805278995858 -0.26696961669784319 0 -0.37754827439480088 -0.26827022105131021 0 -0.38302462721060548 -0.25958607851519588 0 -0.38705805278995858 -0.26696961669784319 0 -0.38302462721060548 -0.25958607851519588 0 -0.39080432099772372 -0.25849689914187551 0 -0.38302462721060548 -0.25958607851519588 0 -0.38530828728861949 -0.25088579952195222 0 -0.39080432099772372 -0.25849689914187551 0 -0.39992918693268698 -0.268664720032112 0 -0.41168714468827883 -0.26454032020793772 0 -0.40202307172178348 -0.24820614931333251 0 -0.39992918693268698 -0.268664720032112 0 -0.39080432099772372 -0.25849689914187551 0 -0.40202307172178348 -0.24820614931333251 0 -0.38530828728861949 -0.25088579952195222 0 -0.39080432099772372 -0.25849689914187551 0 -0.40202307172178348 -0.24820614931333251 0 -0.39992918693268698 -0.268664720032112 0 -0.38705805278995858 -0.26696961669784319 0 -0.39080432099772372 -0.25849689914187551 0 -0.41168714468827883 -0.26454032020793772 0 -0.42404619106771452 -0.25749174915478329 0 -0.40202307172178348 -0.24820614931333251 0 -0.41168714468827883 -0.26454032020793772 0 -0.42182104471911208 -0.27324591599661258 0 -0.42404619106771452 -0.25749174915478329 0 -0.42404619106771452 -0.25749174915478329 0 -0.40202307172178348 -0.24820614931333251 0 -0.40930925814754421 -0.28927798889444928 0 -0.39992918693268698 -0.268664720032112 0 -0.41360147544408687 -0.27454653379647093 0 -0.39992918693268698 -0.268664720032112 0 -0.41168714468827883 -0.26454032020793772 0 -0.41360147544408687 -0.27454653379647093 0 -0.40930925814754421 -0.28927798889444928 0 -0.41360147544408687 -0.27454653379647093 0 -0.42526074273281272 -0.27700372385124278 0 -0.41360147544408687 -0.27454653379647093 0 -0.42182104471911208 -0.27324591599661258 0 -0.42526074273281272 -0.27700372385124278 0 -0.41168714468827883 -0.26454032020793772 0 -0.41360147544408687 -0.27454653379647093 0 -0.42182104471911208 -0.27324591599661258 0 -0.42671255710076261 -0.27110423882409879 0 -0.42526074273281272 -0.27700372385124278 0 -0.43115217914229897 -0.26815785292053729 0 -0.44121222731808057 -0.26472945880803522 0 -0.42526074273281272 -0.27700372385124278 0 -0.44121222731808057 -0.26472945880803522 0 -0.42526074273281272 -0.27700372385124278 0 -0.43115217914229897 -0.26815785292053729 0 -0.44121222731808057 -0.26472945880803522 0 -0.42526074273281272 -0.27700372385124278 0 -0.4372609148950809 -0.27618178322838288 0 -0.42182104471911208 -0.27324591599661258 0 -0.42671255710076261 -0.27110423882409879 0 -0.42404619106771452 -0.25749174915478329 0 -0.42182104471911208 -0.27324591599661258 0 -0.42671255710076261 -0.27110423882409879 0 -0.42526074273281272 -0.27700372385124278 0 -0.43184271175482958 -0.28177334504577728 0 -0.42525275702103948 -0.28469793053699999 0 -0.42526074273281272 -0.27700372385124278 0 -0.43184271175482958 -0.28177334504577728 0 -0.42526074273281272 -0.27700372385124278 0 -0.4372609148950809 -0.27618178322838288 0 -0.43766570938410071 -0.28489110031609788 0 -0.43184271175482958 -0.28177334504577728 0 -0.4372609148950809 -0.27618178322838288 0 -0.44121222731808057 -0.26472945880803522 0 -0.42404619106771452 -0.25749174915478329 0 -0.42182104471911208 -0.27324591599661258 0 -0.42404619106771452 -0.25749174915478329 0 -0.44121222731808057 -0.26472945880803522 0 -0.43115217914229897 -0.26815785292053729 0 -0.42404619106771452 -0.25749174915478329 0 -0.44121222731808057 -0.26472945880803522 0 -0.42404619106771452 -0.25749174915478329 0 -0.4400130151743441 -0.24738943500130309 0 -0.42671255710076261 -0.27110423882409879 0 -0.43115217914229897 -0.26815785292053729 0 -0.42404619106771452 -0.25749174915478329 0 -0.32832167151183378 -0.25192562827051029 0 -0.31189878498660473 -0.25853362302682459 0 -0.31500916105078952 -0.2439033222451335 0 -0.32132139773664292 -0.26932814547777389 0 -0.32832167151183378 -0.25192562827051029 0 -0.31189878498660473 -0.25853362302682459 0 -0.32132139773664292 -0.26932814547777389 0 -0.33316211197355922 -0.27370465762759272 0 -0.32832167151183378 -0.25192562827051029 0 -0.32132139773664292 -0.26932814547777389 0 -0.32667973306088338 -0.28687007613395932 0 -0.30654468715033328 -0.27560674232998278 0 -0.32132139773664292 -0.26932814547777389 0 -0.33316211197355922 -0.27370465762759272 0 -0.32667973306088338 -0.28687007613395932 0 -0.32132139773664292 -0.26932814547777389 0 -0.30654468715033328 -0.27560674232998278 0 -0.31189878498660473 -0.25853362302682459 0 -0.32667973306088338 -0.28687007613395932 0 -0.30654468715033328 -0.27560674232998278 0 -0.33316211197355922 -0.27370465762759272 0 -0.34483123964219758 -0.26004102011148678 0 -0.34880625756091133 -0.27146294933196552 0 -0.33316211197355922 -0.27370465762759272 0 -0.34880625756091133 -0.27146294933196552 0 -0.34275112215219311 -0.28172966466764382 0 -0.33316211197355922 -0.27370465762759272 0 -0.32832167151183378 -0.25192562827051029 0 -0.34483123964219758 -0.26004102011148678 0 -0.32832167151183378 -0.25192562827051029 0 -0.34483123964219758 -0.26004102011148678 0 -0.34150357883167121 -0.24285447295938989 0 -0.33316211197355922 -0.27370465762759272 0 -0.32832167151183378 -0.25192562827051029 0 -0.34483123964219758 -0.26004102011148678 0 -0.35952592661323601 -0.25556234700535002 0 -0.34150357883167121 -0.24285447295938989 0 -0.34483123964219758 -0.26004102011148678 0 -0.35663092299969762 -0.26445053711260891 0 -0.34880625756091133 -0.27146294933196552 0 -0.34483123964219758 -0.26004102011148678 0 -0.35663092299969762 -0.26445053711260891 0 -0.35952592661323601 -0.25556234700535002 0 -0.37754827439480088 -0.26827022105131021 0 -0.35952592661323601 -0.25556234700535002 0 -0.36612637688720417 -0.26874398615178452 0 -0.37754827439480088 -0.26827022105131021 0 -0.35952592661323601 -0.25556234700535002 0 -0.37754827439480088 -0.26827022105131021 0 -0.35952592661323601 -0.25556234700535002 0 -0.37464738056692998 -0.25325066522078848 0 -0.35952592661323601 -0.25556234700535002 0 -0.37464738056692998 -0.25325066522078848 0 -0.36501681307239509 -0.24237634289844559 0 -0.35663092299969762 -0.26445053711260891 0 -0.35952592661323601 -0.25556234700535002 0 -0.36612637688720417 -0.26874398615178452 0 -0.36612637688720417 -0.26874398615178452 0 -0.35103356663901719 -0.28626736472634251 0 -0.36350004755993082 -0.28223140354859189 0 -0.37218056159804641 -0.27678210300175859 0 -0.36612637688720417 -0.26874398615178452 0 -0.36350004755993082 -0.28223140354859189 0 -0.37754827439480088 -0.26827022105131021 0 -0.37218056159804641 -0.27678210300175859 0 -0.36612637688720417 -0.26874398615178452 0 -0.35663092299969762 -0.26445053711260891 0 -0.36612637688720417 -0.26874398615178452 0 -0.34880625756091133 -0.27146294933196552 0 -0.36612637688720417 -0.26874398615178452 0 -0.34880625756091133 -0.27146294933196552 0 -0.35103356663901719 -0.28626736472634251 0 -0.36612637688720417 -0.26874398615178452 0 -0.35103356663901719 -0.28626736472634251 0 -0.34880625756091133 -0.27146294933196552 0 -0.35103356663901719 -0.28626736472634251 0 -0.34275112215219311 -0.28172966466764382 0 -0.35103356663901719 -0.28626736472634251 0 -0.36350004755993082 -0.28223140354859189 0 -0.35904419386020758 -0.30499948606299132 0 -0.35103356663901719 -0.28626736472634251 0 -0.3380025524352846 -0.29548368698467481 0 -0.34275112215219311 -0.28172966466764382 0 -0.37506482485931752 -0.28642292767843891 0 -0.36350004755993082 -0.28223140354859189 0 -0.35904419386020758 -0.30499948606299132 0 -0.37506482485931752 -0.28642292767843891 0 -0.35904419386020758 -0.30499948606299132 0 -0.37506482485931752 -0.28642292767843891 0 -0.37218056159804641 -0.27678210300175859 0 -0.36350004755993082 -0.28223140354859189 0 -0.37692216353751817 -0.30399919650956447 0 -0.35904419386020758 -0.30499948606299132 0 -0.37040580388820282 -0.31801813653806899 0 -0.37692216353751817 -0.30399919650956447 0 -0.37506482485931752 -0.28642292767843891 0 -0.35904419386020758 -0.30499948606299132 0 -0.35103356663901719 -0.28626736472634251 0 -0.35904419386020758 -0.30499948606299132 0 -0.34755103518557301 -0.30120012918548988 0 -0.35103356663901719 -0.28626736472634251 0 -0.34755103518557301 -0.30120012918548988 0 -0.33594075639082999 -0.30379074330090039 0 -0.35904419386020758 -0.30499948606299132 0 -0.34755103518557301 -0.30120012918548988 0 -0.34418562385223722 -0.30974292265172543 0 -0.34755103518557301 -0.30120012918548988 0 -0.34418562385223722 -0.30974292265172543 0 -0.33594075639082999 -0.30379074330090039 0 -0.34418562385223722 -0.30974292265172543 0 -0.33594075639082999 -0.30379074330090039 0 -0.33513094432182872 -0.31761442180126281 0 -0.33594075639082999 -0.30379074330090039 0 -0.3380025524352846 -0.29548368698467481 0 -0.32682866374652542 -0.29607935861114498 0 -0.33316211197355922 -0.27370465762759272 0 -0.3380025524352846 -0.29548368698467481 0 -0.34275112215219311 -0.28172966466764382 0 -0.33316211197355922 -0.27370465762759272 0 -0.3380025524352846 -0.29548368698467481 0 -0.35103356663901719 -0.28626736472634251 0 -0.33594075639082999 -0.30379074330090039 0 -0.3380025524352846 -0.29548368698467481 0 -0.35103356663901719 -0.28626736472634251 0 -0.33594075639082999 -0.30379074330090039 0 -0.33316211197355922 -0.27370465762759272 0 -0.3380025524352846 -0.29548368698467481 0 -0.32667973306088338 -0.28687007613395932 0 -0.3380025524352846 -0.29548368698467481 0 -0.32682866374652542 -0.29607935861114498 0 -0.32667973306088338 -0.28687007613395932 0 -0.32667973306088338 -0.28687007613395932 0 -0.31535772771580051 -0.29107694618209418 0 -0.30654468715033328 -0.27560674232998278 0 -0.32682866374652542 -0.29607935861114498 0 -0.32667973306088338 -0.28687007613395932 0 -0.31535772771580051 -0.29107694618209418 0 -0.32682866374652542 -0.29607935861114498 0 -0.31535772771580051 -0.29107694618209418 0 -0.31816254912982861 -0.30317534045409628 0 -0.33594075639082999 -0.30379074330090039 0 -0.31816254912982861 -0.30317534045409628 0 -0.32084794614264289 -0.32131412187545849 0 -0.31816254912982861 -0.30317534045409628 0 -0.32084794614264289 -0.32131412187545849 0 -0.30680428383374009 -0.31202217737011162 0 -0.33594075639082999 -0.30379074330090039 0 -0.32682866374652542 -0.29607935861114498 0 -0.31816254912982861 -0.30317534045409628 0 -0.32084794614264289 -0.32131412187545849 0 -0.32453115856879222 -0.33050396204054872 0 -0.33067488397943701 -0.32600114770003852 0 -0.3191192056351676 -0.33511690797774207 0 -0.31622659501973122 -0.33319989921085919 0 -0.30575513589445569 -0.33883750045001648 0 -0.32931576013844238 -0.33731378627042452 0 -0.30575513589445569 -0.33883750045001648 0 -0.31493808160586312 -0.34099036878748212 0 -0.32931576013844238 -0.33731378627042452 0 -0.30575513589445569 -0.33883750045001648 0 -0.32084794614264289 -0.32131412187545849 0 -0.30575513589445569 -0.33883750045001648 0 -0.3191192056351676 -0.33511690797774207 0 -0.31622659501973122 -0.33319989921085919 0 -0.32453115856879222 -0.33050396204054872 0 -0.32084794614264289 -0.32131412187545849 0 -0.31622659501973122 -0.33319989921085919 0 -0.30575513589445569 -0.33883750045001648 0 -0.3191192056351676 -0.33511690797774207 0 -0.32931576013844238 -0.33731378627042452 0 -0.30575513589445569 -0.33883750045001648 0 -0.31493808160586312 -0.34099036878748212 0 -0.31310415650100581 -0.34367663028444051 0 -0.31058109486806268 -0.34211776119324999 0 -0.31493808160586312 -0.34099036878748212 0 -0.31310415650100581 -0.34367663028444051 0 -0.31730013297236759 -0.34386102127234242 0 -0.31493808160586312 -0.34099036878748212 0 -0.32213922664466521 -0.34107944479058627 0 -0.31730013297236759 -0.34386102127234242 0 -0.32213922664466521 -0.34107944479058627 0 -0.32700293186198781 -0.34215260283209609 0 -0.31730013297236759 -0.34386102127234242 0 -0.31493808160586312 -0.34099036878748212 0 -0.32213922664466521 -0.34107944479058627 0 -0.32931576013844238 -0.33731378627042452 0 -0.32213922664466521 -0.34107944479058627 0 -0.32700293186198781 -0.34215260283209609 0 -0.32931576013844238 -0.33731378627042452 0 -0.32084794614264289 -0.32131412187545849 0 -0.31622659501973122 -0.33319989921085919 0 -0.32453115856879222 -0.33050396204054872 0 -0.3191192056351676 -0.33511690797774207 0 -0.32453115856879222 -0.33050396204054872 0 -0.32931576013844238 -0.33731378627042452 0 -0.32700293186198781 -0.34215260283209609 0 -0.3430235628610977 -0.32357604444754368 0 -0.32700293186198781 -0.34215260283209609 0 -0.32931576013844238 -0.33731378627042452 0 -0.3430235628610977 -0.32357604444754368 0 -0.32453115856879222 -0.33050396204054872 0 -0.32931576013844238 -0.33731378627042452 0 -0.33067488397943701 -0.32600114770003852 0 -0.32700293186198781 -0.34215260283209609 0 -0.33927899108417031 -0.33831563217292759 0 -0.3430235628610977 -0.32357604444754368 0 -0.32931576013844238 -0.33731378627042452 0 -0.3430235628610977 -0.32357604444754368 0 -0.33067488397943701 -0.32600114770003852 0 -0.32700293186198781 -0.34215260283209609 0 -0.33927899108417031 -0.33831563217292759 0 -0.33494219136525533 -0.35023642057642512 0 -0.33927899108417031 -0.33831563217292759 0 -0.34550791516566909 -0.34251389479525829 0 -0.33494219136525533 -0.35023642057642512 0 -0.33927899108417031 -0.33831563217292759 0 -0.34591835416684152 -0.33309919821331491 0 -0.34550791516566909 -0.34251389479525829 0 -0.33927899108417031 -0.33831563217292759 0 -0.3430235628610977 -0.32357604444754368 0 -0.34591835416684152 -0.33309919821331491 0 -0.33594075639082999 -0.30379074330090039 0 -0.32084794614264289 -0.32131412187545849 0 -0.33594075639082999 -0.30379074330090039 0 -0.32084794614264289 -0.32131412187545849 0 -0.33513094432182872 -0.31761442180126281 0 -0.3430235628610977 -0.32357604444754368 0 -0.33067488397943701 -0.32600114770003852 0 -0.33513094432182872 -0.31761442180126281 0 -0.32084794614264289 -0.32131412187545849 0 -0.33067488397943701 -0.32600114770003852 0 -0.33513094432182872 -0.31761442180126281 0 -0.34418562385223722 -0.30974292265172543 0 -0.3430235628610977 -0.32357604444754368 0 -0.33513094432182872 -0.31761442180126281 0 -0.35904419386020758 -0.30499948606299132 0 -0.3430235628610977 -0.32357604444754368 0 -0.35904419386020758 -0.30499948606299132 0 -0.3430235628610977 -0.32357604444754368 0 -0.35706801679194489 -0.31962187939104431 0 -0.35904419386020758 -0.30499948606299132 0 -0.34418562385223722 -0.30974292265172543 0 -0.3430235628610977 -0.32357604444754368 0 -0.3430235628610977 -0.32357604444754368 0 -0.35706801679194489 -0.31962187939104431 0 -0.35579850655827172 -0.3318938505155733 0 -0.35904419386020758 -0.30499948606299132 0 -0.35706801679194489 -0.31962187939104431 0 -0.37040580388820282 -0.31801813653806899 0 -0.38509162557693749 -0.32917958069611303 0 -0.37040580388820282 -0.31801813653806899 0 -0.35579850655827172 -0.3318938505155733 0 -0.35706801679194489 -0.31962187939104431 0 -0.37040580388820282 -0.31801813653806899 0 -0.35579850655827172 -0.3318938505155733 0 -0.38014042669974268 -0.34661741486133751 0 -0.38509162557693749 -0.32917958069611303 0 -0.35579850655827172 -0.3318938505155733 0 -0.38014042669974268 -0.34661741486133751 0 -0.35579850655827172 -0.3318938505155733 0 -0.35683629040061049 -0.34754111929728282 0 -0.38014042669974268 -0.34661741486133751 0 -0.35579850655827172 -0.3318938505155733 0 -0.35579850655827172 -0.3318938505155733 0 -0.34550791516566909 -0.34251389479525829 0 -0.35683629040061049 -0.34754111929728282 0 -0.3430235628610977 -0.32357604444754368 0 -0.35579850655827172 -0.3318938505155733 0 -0.34591835416684152 -0.33309919821331491 0 -0.35579850655827172 -0.3318938505155733 0 -0.34591835416684152 -0.33309919821331491 0 -0.34550791516566909 -0.34251389479525829 0 -0.34550791516566909 -0.34251389479525829 0 -0.34390084714872099 -0.35153177420468262 0 -0.35683629040061049 -0.34754111929728282 0 -0.34390084714872099 -0.35153177420468262 0 -0.35683629040061049 -0.34754111929728282 0 -0.34890433466625792 -0.36003482808292259 0 -0.35683629040061049 -0.34754111929728282 0 -0.36226133438016589 -0.35950164175482729 0 -0.34890433466625792 -0.36003482808292259 0 -0.38014042669974268 -0.34661741486133751 0 -0.35683629040061049 -0.34754111929728282 0 -0.36226133438016589 -0.35950164175482729 0 -0.38014042669974268 -0.34661741486133751 0 -0.37113431237396549 -0.37011217495999638 0 -0.36226133438016589 -0.35950164175482729 0 -0.37113431237396549 -0.37011217495999638 0 -0.35429130776025269 -0.37320267157259712 0 -0.36397761553627939 -0.38127316896893448 0 -0.37113431237396549 -0.37011217495999638 0 -0.36226133438016589 -0.35950164175482729 0 -0.35429130776025269 -0.37320267157259712 0 -0.35429130776025269 -0.37320267157259712 0 -0.34890433466625792 -0.36003482808292259 0 -0.33849119503398117 -0.37017619284777081 0 -0.36226133438016589 -0.35950164175482729 0 -0.35429130776025269 -0.37320267157259712 0 -0.34890433466625792 -0.36003482808292259 0 -0.33849119503398117 -0.37017619284777081 0 -0.32326404293198452 -0.37468988602303782 0 -0.32738468513544461 -0.3597661431642567 0 -0.33849119503398117 -0.37017619284777081 0 -0.33830847603454473 -0.35882770092103522 0 -0.32738468513544461 -0.3597661431642567 0 -0.34890433466625792 -0.36003482808292259 0 -0.33849119503398117 -0.37017619284777081 0 -0.33830847603454473 -0.35882770092103522 0 -0.34390084714872099 -0.35153177420468262 0 -0.34890433466625792 -0.36003482808292259 0 -0.33830847603454473 -0.35882770092103522 0 -0.34390084714872099 -0.35153177420468262 0 -0.33830847603454473 -0.35882770092103522 0 -0.33494219136525533 -0.35023642057642512 0 -0.34550791516566909 -0.34251389479525829 0 -0.34390084714872099 -0.35153177420468262 0 -0.33494219136525533 -0.35023642057642512 0 -0.32700293186198781 -0.34215260283209609 0 -0.33494219136525533 -0.35023642057642512 0 -0.32507802730639129 -0.35322108194735669 0 -0.33830847603454473 -0.35882770092103522 0 -0.33494219136525533 -0.35023642057642512 0 -0.32738468513544461 -0.3597661431642567 0 -0.33494219136525533 -0.35023642057642512 0 -0.32507802730639129 -0.35322108194735669 0 -0.32738468513544461 -0.3597661431642567 0 -0.32700293186198781 -0.34215260283209609 0 -0.31098230086287793 -0.36072916121664861 0 -0.32507802730639129 -0.35322108194735669 0 -0.32738468513544461 -0.3597661431642567 0 -0.31098230086287793 -0.36072916121664861 0 -0.32700293186198781 -0.34215260283209609 0 -0.31590583040487957 -0.34902895186595639 0 -0.31098230086287793 -0.36072916121664861 0 -0.32700293186198781 -0.34215260283209609 0 -0.32507802730639129 -0.35322108194735669 0 -0.31098230086287793 -0.36072916121664861 0 -0.32700293186198781 -0.34215260283209609 0 -0.31730013297236759 -0.34386102127234242 0 -0.31590583040487957 -0.34902895186595639 0 -0.31590583040487957 -0.34902895186595639 0 -0.31306944352090632 -0.34693987667954629 0 -0.31056400563856212 -0.35192305122159812 0 -0.31730013297236759 -0.34386102127234242 0 -0.31590583040487957 -0.34902895186595639 0 -0.31306944352090632 -0.34693987667954629 0 -0.31310415650100581 -0.34367663028444051 0 -0.31730013297236759 -0.34386102127234242 0 -0.31306944352090632 -0.34693987667954629 0 -0.31790104862101642 -0.3650815731404215 0 -0.32326404293198452 -0.37468988602303782 0 -0.30236883067606629 -0.36436738422421089 0 -0.31790104862101642 -0.3650815731404215 0 -0.32738468513544461 -0.3597661431642567 0 -0.31098230086287793 -0.36072916121664861 0 -0.32326404293198452 -0.37468988602303782 0 -0.30236883067606629 -0.36436738422421089 0 -0.31790104862101642 -0.3650815731404215 0 -0.32326404293198452 -0.37468988602303782 0 -0.32738468513544461 -0.3597661431642567 0 -0.32326404293198452 -0.37468988602303782 0 -0.30236883067606629 -0.36436738422421089 0 -0.30898941296363469 -0.37504930306572171 0 -0.30236883067606629 -0.36436738422421089 0 -0.29800808079933311 -0.37809460824777152 0 -0.30898941296363469 -0.37504930306572171 0 -0.30236883067606629 -0.36436738422421089 0 -0.29225138948858548 -0.37014568230255113 0 -0.29800808079933311 -0.37809460824777152 0 -0.30236883067606629 -0.36436738422421089 0 -0.31098230086287793 -0.36072916121664861 0 -0.30750825555986688 -0.35615245946021412 0 -0.31790104862101642 -0.3650815731404215 0 -0.30236883067606629 -0.36436738422421089 0 -0.31098230086287793 -0.36072916121664861 0 -0.31590583040487957 -0.34902895186595639 0 -0.31098230086287793 -0.36072916121664861 0 -0.31056400563856212 -0.35192305122159812 0 -0.31098230086287793 -0.36072916121664861 0 -0.31056400563856212 -0.35192305122159812 0 -0.30750825555986688 -0.35615245946021412 0 -0.30750825555986688 -0.35615245946021412 0 -0.30713586085940098 -0.35104845029603648 0 -0.30263511541984223 -0.35139856212950332 0 -0.31056400563856212 -0.35192305122159812 0 -0.30750825555986688 -0.35615245946021412 0 -0.30713586085940098 -0.35104845029603648 0 -0.31306944352090632 -0.34693987667954629 0 -0.30963202953782892 -0.34447412348958167 0 -0.30864608551202372 -0.34793505183003959 0 -0.31310415650100581 -0.34367663028444051 0 -0.31306944352090632 -0.34693987667954629 0 -0.30963202953782892 -0.34447412348958167 0 -0.31306944352090632 -0.34693987667954629 0 -0.31056400563856212 -0.35192305122159812 0 -0.30864608551202372 -0.34793505183003959 0 -0.31056400563856212 -0.35192305122159812 0 -0.30864608551202372 -0.34793505183003959 0 -0.30713586085940098 -0.35104845029603648 0 -0.30864608551202372 -0.34793505183003959 0 -0.30713586085940098 -0.35104845029603648 0 -0.30452936375692569 -0.34770291195429509 0 -0.30713586085940098 -0.35104845029603648 0 -0.30263511541984223 -0.35139856212950332 0 -0.30452936375692569 -0.34770291195429509 0 -0.30864608551202372 -0.34793505183003959 0 -0.30694580975851871 -0.34552189733917982 0 -0.30452936375692569 -0.34770291195429509 0 -0.30963202953782892 -0.34447412348958167 0 -0.30864608551202372 -0.34793505183003959 0 -0.30694580975851871 -0.34552189733917982 0 -0.30483978072720558 -0.34493846975382048 0 -0.30694580975851871 -0.34552189733917982 0 -0.30452936375692569 -0.34770291195429509 0 -0.30483978072720558 -0.34493846975382048 0 -0.30694580975851871 -0.34552189733917982 0 -0.30686216945276013 -0.34356601734511522 0 -0.30483978072720558 -0.34493846975382048 0 -0.30686216945276013 -0.34356601734511522 0 -0.30501954687857752 -0.342863916677004 0 -0.30963202953782892 -0.34447412348958167 0 -0.30694580975851871 -0.34552189733917982 0 -0.30686216945276013 -0.34356601734511522 0 -0.30483978072720558 -0.34493846975382048 0 -0.30085068830062661 -0.34550944504855502 0 -0.30501954687857752 -0.342863916677004 0 -0.30483978072720558 -0.34493846975382048 0 -0.30085068830062661 -0.34550944504855502 0 -0.30452936375692569 -0.34770291195429509 0 -0.30085068830062661 -0.34550944504855502 0 -0.30263511541984223 -0.35139856212950332 0 -0.30452936375692569 -0.34770291195429509 0 -0.30085068830062661 -0.34550944504855502 0 -0.30263511541984223 -0.35139856212950332 0 -0.2961451296003807 -0.35326244505639781 0 -0.30236883067606629 -0.36436738422421089 0 -0.30192631976005918 -0.356146198400972 0 -0.2961451296003807 -0.35326244505639781 0 -0.30236883067606629 -0.36436738422421089 0 -0.30750825555986688 -0.35615245946021412 0 -0.30192631976005918 -0.356146198400972 0 -0.30750825555986688 -0.35615245946021412 0 -0.30263511541984223 -0.35139856212950332 0 -0.30192631976005918 -0.356146198400972 0 -0.30263511541984223 -0.35139856212950332 0 -0.30192631976005918 -0.356146198400972 0 -0.2961451296003807 -0.35326244505639781 0 -0.30085068830062661 -0.34550944504855502 0 -0.28977245261336232 -0.34863065300829371 0 -0.28349085748896707 -0.34158618250784739 0 -0.30236883067606629 -0.36436738422421089 0 -0.2961451296003807 -0.35326244505639781 0 -0.28147361842014818 -0.35404488242538401 0 -0.30236883067606629 -0.36436738422421089 0 -0.28147361842014818 -0.35404488242538401 0 -0.2961451296003807 -0.35326244505639781 0 -0.28977245261336232 -0.34863065300829371 0 -0.28147361842014818 -0.35404488242538401 0 -0.30085068830062661 -0.34550944504855502 0 -0.2961451296003807 -0.35326244505639781 0 -0.28977245261336232 -0.34863065300829371 0 -0.28977245261336232 -0.34863065300829371 0 -0.28147361842014818 -0.35404488242538401 0 -0.28349085748896707 -0.34158618250784739 0 -0.30236883067606629 -0.36436738422421089 0 -0.28147361842014818 -0.35404488242538401 0 -0.28631729305760978 -0.36509065786411993 0 -0.30236883067606629 -0.36436738422421089 0 -0.28631729305760978 -0.36509065786411993 0 -0.29225138948858548 -0.37014568230255113 0 -0.29225138948858548 -0.37014568230255113 0 -0.28415457449404402 -0.3749292589651938 0 -0.29800808079933311 -0.37809460824777152 0 -0.28631729305760978 -0.36509065786411993 0 -0.28415457449404402 -0.3749292589651938 0 -0.27502449435462711 -0.36576444158544319 0 -0.28631729305760978 -0.36509065786411993 0 -0.29225138948858548 -0.37014568230255113 0 -0.28415457449404402 -0.3749292589651938 0 -0.28415457449404402 -0.3749292589651938 0 -0.27502449435462711 -0.36576444158544319 0 -0.26971818092854072 -0.38131455838694539 0 -0.28147361842014818 -0.35404488242538401 0 -0.28631729305760978 -0.36509065786411993 0 -0.27502449435462711 -0.36576444158544319 0 -0.27502449435462711 -0.36576444158544319 0 -0.25964335541429961 -0.36887273487009647 0 -0.26615976380516831 -0.35774508271259542 0 -0.27502449435462711 -0.36576444158544319 0 -0.25964335541429961 -0.36887273487009647 0 -0.26971818092854072 -0.38131455838694539 0 -0.25964335541429961 -0.36887273487009647 0 -0.25407894467253711 -0.35632097405549418 0 -0.2381632478828658 -0.36932284841584723 0 -0.25964335541429961 -0.36887273487009647 0 -0.25407894467253711 -0.35632097405549418 0 -0.26615976380516831 -0.35774508271259542 0 -0.25407894467253711 -0.35632097405549418 0 -0.26057840616422939 -0.34372238062655802 0 -0.24370457331024559 -0.34529557982237002 0 -0.26057840616422939 -0.34372238062655802 0 -0.24370457331024559 -0.34529557982237002 0 -0.25407894467253711 -0.35632097405549418 0 -0.26615976380516831 -0.35774508271259542 0 -0.26057840616422939 -0.34372238062655802 0 -0.28147361842014818 -0.35404488242538401 0 -0.26057840616422939 -0.34372238062655802 0 -0.28147361842014818 -0.35404488242538401 0 -0.26615976380516831 -0.35774508271259542 0 -0.26057840616422939 -0.34372238062655802 0 -0.28147361842014818 -0.35404488242538401 0 -0.26057840616422939 -0.34372238062655802 0 -0.28349085748896707 -0.34158618250784739 0 -0.28147361842014818 -0.35404488242538401 0 -0.27502449435462711 -0.36576444158544319 0 -0.26615976380516831 -0.35774508271259542 0 -0.27154312559407889 -0.33338899093201407 0 -0.26057840616422939 -0.34372238062655802 0 -0.28349085748896707 -0.34158618250784739 0 -0.26057840616422939 -0.34372238062655802 0 -0.28349085748896707 -0.34158618250784739 0 -0.28046312054316541 -0.32973251187511587 0 -0.27154312559407889 -0.33338899093201407 0 -0.27311607098049778 -0.32319448582546612 0 -0.28046312054316541 -0.32973251187511587 0 -0.27154312559407889 -0.33338899093201407 0 -0.28349085748896707 -0.34158618250784739 0 -0.27154312559407889 -0.33338899093201407 0 -0.26006717279353458 -0.32870939382508252 0 -0.27311607098049778 -0.32319448582546612 0 -0.26057840616422939 -0.34372238062655802 0 -0.24370457331024559 -0.34529557982237002 0 -0.24575613268857729 -0.33639998816931682 0 -0.27154312559407889 -0.33338899093201407 0 -0.26057840616422939 -0.34372238062655802 0 -0.26006717279353458 -0.32870939382508252 0 -0.26057840616422939 -0.34372238062655802 0 -0.24575613268857729 -0.33639998816931682 0 -0.26057840616422939 -0.34372238062655802 0 -0.26006717279353458 -0.32870939382508252 0 -0.24575613268857729 -0.33639998816931682 0 -0.26006717279353458 -0.32870939382508252 0 -0.24575613268857729 -0.33639998816931682 0 -0.24987039731162189 -0.31856047622257549 0 -0.26006717279353458 -0.32870939382508252 0 -0.26382294133709328 -0.3142159059790729 0 -0.24987039731162189 -0.31856047622257549 0 -0.26382294133709328 -0.3142159059790729 0 -0.27311607098049778 -0.32319448582546612 0 -0.27802319860838592 -0.3118190628232963 0 -0.26006717279353458 -0.32870939382508252 0 -0.26382294133709328 -0.3142159059790729 0 -0.27311607098049778 -0.32319448582546612 0 -0.28046312054316541 -0.32973251187511587 0 -0.27311607098049778 -0.32319448582546612 0 -0.28558346873573509 -0.32005626553165267 0 -0.27311607098049778 -0.32319448582546612 0 -0.28558346873573509 -0.32005626553165267 0 -0.27802319860838592 -0.3118190628232963 0 -0.28558346873573509 -0.32005626553165267 0 -0.29248196445171731 -0.30942645109546107 0 -0.27802319860838592 -0.3118190628232963 0 -0.28558346873573509 -0.32005626553165267 0 -0.29680767137778258 -0.32087259516212058 0 -0.29248196445171731 -0.30942645109546107 0 -0.29680767137778258 -0.32087259516212058 0 -0.28998771206672708 -0.32826325290815411 0 -0.29899120350225739 -0.33082134604764363 0 -0.28558346873573509 -0.32005626553165267 0 -0.29680767137778258 -0.32087259516212058 0 -0.28998771206672708 -0.32826325290815411 0 -0.28046312054316541 -0.32973251187511587 0 -0.28558346873573509 -0.32005626553165267 0 -0.28998771206672708 -0.32826325290815411 0 -0.28349085748896707 -0.34158618250784739 0 -0.30575513589445569 -0.33883750045001648 0 -0.28349085748896707 -0.34158618250784739 0 -0.29899120350225739 -0.33082134604764363 0 -0.30575513589445569 -0.33883750045001648 0 -0.28046312054316541 -0.32973251187511587 0 -0.28349085748896707 -0.34158618250784739 0 -0.28998771206672708 -0.32826325290815411 0 -0.30085068830062661 -0.34550944504855502 0 -0.28349085748896707 -0.34158618250784739 0 -0.30575513589445569 -0.33883750045001648 0 -0.28349085748896707 -0.34158618250784739 0 -0.28998771206672708 -0.32826325290815411 0 -0.29899120350225739 -0.33082134604764363 0 -0.32084794614264289 -0.32131412187545849 0 -0.30575513589445569 -0.33883750045001648 0 -0.30699739567651879 -0.32464607801970058 0 -0.29899120350225739 -0.33082134604764363 0 -0.30575513589445569 -0.33883750045001648 0 -0.30699739567651879 -0.32464607801970058 0 -0.30085068830062661 -0.34550944504855502 0 -0.30501954687857752 -0.342863916677004 0 -0.30575513589445569 -0.33883750045001648 0 -0.31493808160586312 -0.34099036878748212 0 -0.30575513589445569 -0.33883750045001648 0 -0.31058109486806268 -0.34211776119324999 0 -0.30812813444276349 -0.34202441550481 0 -0.30575513589445569 -0.33883750045001648 0 -0.31058109486806268 -0.34211776119324999 0 -0.30501954687857752 -0.342863916677004 0 -0.30660771537166642 -0.34157328130629488 0 -0.30575513589445569 -0.33883750045001648 0 -0.30686216945276013 -0.34356601734511522 0 -0.30812813444276349 -0.34202441550481 0 -0.30660771537166642 -0.34157328130629488 0 -0.30963202953782892 -0.34447412348958167 0 -0.30686216945276013 -0.34356601734511522 0 -0.30812813444276349 -0.34202441550481 0 -0.30686216945276013 -0.34356601734511522 0 -0.30501954687857752 -0.342863916677004 0 -0.30660771537166642 -0.34157328130629488 0 -0.30812813444276349 -0.34202441550481 0 -0.30660771537166642 -0.34157328130629488 0 -0.30575513589445569 -0.33883750045001648 0 -0.31310415650100581 -0.34367663028444051 0 -0.30963202953782892 -0.34447412348958167 0 -0.31058109486806268 -0.34211776119324999 0 -0.30963202953782892 -0.34447412348958167 0 -0.30812813444276349 -0.34202441550481 0 -0.31058109486806268 -0.34211776119324999 0 -0.32084794614264289 -0.32131412187545849 0 -0.30699739567651879 -0.32464607801970058 0 -0.30680428383374009 -0.31202217737011162 0 -0.29680767137778258 -0.32087259516212058 0 -0.30680428383374009 -0.31202217737011162 0 -0.29248196445171731 -0.30942645109546107 0 -0.29680767137778258 -0.32087259516212058 0 -0.30699739567651879 -0.32464607801970058 0 -0.30680428383374009 -0.31202217737011162 0 -0.29680767137778258 -0.32087259516212058 0 -0.29899120350225739 -0.33082134604764363 0 -0.30699739567651879 -0.32464607801970058 0 -0.30680428383374009 -0.31202217737011162 0 -0.30198282298852308 -0.29638840531920813 0 -0.29248196445171731 -0.30942645109546107 0 -0.31535772771580051 -0.29107694618209418 0 -0.31816254912982861 -0.30317534045409628 0 -0.30198282298852308 -0.29638840531920813 0 -0.31816254912982861 -0.30317534045409628 0 -0.30680428383374009 -0.31202217737011162 0 -0.30198282298852308 -0.29638840531920813 0 -0.30198282298852308 -0.29638840531920813 0 -0.2908053887909689 -0.28282569643755451 0 -0.30654468715033328 -0.27560674232998278 0 -0.31535772771580051 -0.29107694618209418 0 -0.30198282298852308 -0.29638840531920813 0 -0.30654468715033328 -0.27560674232998278 0 -0.30198282298852308 -0.29638840531920813 0 -0.2908053887909689 -0.28282569643755451 0 -0.28411082139032051 -0.29636865263023221 0 -0.2908053887909689 -0.28282569643755451 0 -0.28411082139032051 -0.29636865263023221 0 -0.27289349014804692 -0.2787698081226152 0 -0.30198282298852308 -0.29638840531920813 0 -0.28411082139032051 -0.29636865263023221 0 -0.29248196445171731 -0.30942645109546107 0 -0.28411082139032051 -0.29636865263023221 0 -0.29248196445171731 -0.30942645109546107 0 -0.27802319860838592 -0.3118190628232963 0 -0.28411082139032051 -0.29636865263023221 0 -0.27802319860838592 -0.3118190628232963 0 -0.26847806335428098 -0.2989824919832581 0 -0.26382294133709328 -0.3142159059790729 0 -0.27802319860838592 -0.3118190628232963 0 -0.26847806335428098 -0.2989824919832581 0 -0.26382294133709328 -0.3142159059790729 0 -0.26847806335428098 -0.2989824919832581 0 -0.25338274497423868 -0.30402952519475901 0 -0.26382294133709328 -0.3142159059790729 0 -0.25338274497423868 -0.30402952519475901 0 -0.24987039731162189 -0.31856047622257549 0 -0.26847806335428098 -0.2989824919832581 0 -0.25494575038128747 -0.28739440028075108 0 -0.27289349014804692 -0.2787698081226152 0 -0.26847806335428098 -0.2989824919832581 0 -0.25338274497423868 -0.30402952519475901 0 -0.25494575038128747 -0.28739440028075108 0 -0.28411082139032051 -0.29636865263023221 0 -0.26847806335428098 -0.2989824919832581 0 -0.27289349014804692 -0.2787698081226152 0 -0.27289349014804692 -0.2787698081226152 0 -0.25331903158984048 -0.26654067686892091 0 -0.26627459532923292 -0.2530800747220297 0 -0.25494575038128747 -0.28739440028075108 0 -0.27289349014804692 -0.2787698081226152 0 -0.25331903158984048 -0.26654067686892091 0 -0.25331903158984048 -0.26654067686892091 0 -0.26627459532923292 -0.2530800747220297 0 -0.24613954941868271 -0.24181674091805319 0 -0.27289349014804692 -0.2787698081226152 0 -0.26627459532923292 -0.2530800747220297 0 -0.28640964123978307 -0.26434340852600618 0 -0.26627459532923292 -0.2530800747220297 0 -0.28640964123978307 -0.26434340852600618 0 -0.28474250388175992 -0.24335367980098499 0 -0.26627459532923292 -0.2530800747220297 0 -0.28640964123978307 -0.26434340852600618 0 -0.28640964123978307 -0.26434340852600618 0 -0.30143001487116627 -0.24532242953246711 0 -0.28474250388175992 -0.24335367980098499 0 -0.2908053887909689 -0.28282569643755451 0 -0.27289349014804692 -0.2787698081226152 0 -0.28640964123978307 -0.26434340852600618 0 -0.28640964123978307 -0.26434340852600618 0 -0.30654468715033328 -0.27560674232998278 0 -0.2908053887909689 -0.28282569643755451 0 -0.28640964123978307 -0.26434340852600618 0 -0.30654468715033328 -0.27560674232998278 0 -0.28640964123978307 -0.26434340852600618 0 -0.30654468715033328 -0.27560674232998278 0 -0.31189878498660473 -0.25853362302682459 0 -0.28640964123978307 -0.26434340852600618 0 -0.31189878498660473 -0.25853362302682459 0 -0.30143001487116627 -0.24532242953246711 0 -0.31666757606948909 -0.4586908698052079 0 -0.34387740708608322 -0.46388476432700559 0 -0.33139710306801318 -0.43230321561592883 0 -0.34387740708608322 -0.46388476432700559 0 -0.35511849069809831 -0.44526810660242722 0 -0.33139710306801318 -0.43230321561592883 0 -0.31666757606948909 -0.4586908698052079 0 -0.33139710306801318 -0.43230321561592883 0 -0.30713447022026907 -0.43646971156658648 0 -0.31666757606948909 -0.4586908698052079 0 -0.33139710306801318 -0.43230321561592883 0 -0.31666757606948909 -0.4586908698052079 0 -0.32133415733022669 -0.48103238346636779 0 -0.34387740708608322 -0.46388476432700559 0 -0.32133415733022669 -0.48103238346636779 0 -0.3345345593202016 -0.5 0 -0.3068087846673212 -0.5 0 -0.32133415733022669 -0.48103238346636779 0 -0.3345345593202016 -0.5 0 -0.34653272441965632 -0.48428729748104071 0 -0.32133415733022669 -0.48103238346636779 0 -0.34653272441965632 -0.48428729748104071 0 -0.34387740708608322 -0.46388476432700559 0 -0.34653272441965632 -0.48428729748104071 0 -0.36693175785602228 -0.48194238216350432 0 -0.34387740708608322 -0.46388476432700559 0 -0.36693175785602228 -0.48194238216350432 0 -0.36402660762744771 -0.46193574902972989 0 -0.34387740708608322 -0.46388476432700559 0 -0.36693175785602228 -0.48194238216350432 0 -0.34387740708608322 -0.46388476432700559 0 -0.34653272441965632 -0.48428729748104071 0 -0.36226033397308188 -0.5 0 -0.36693175785602228 -0.48194238216350432 0 -0.3345345593202016 -0.5 0 -0.34653272441965632 -0.48428729748104071 0 -0.36226033397308188 -0.5 0 -0.38998610862596222 -0.50000000000000178 0 -0.36226033397308188 -0.5 0 -0.36693175785602228 -0.48194238216350432 0 -0.38035033017363079 -0.46765994081286949 0 -0.36693175785602228 -0.48194238216350432 0 -0.36402660762744771 -0.46193574902972989 0 -0.38035033017363079 -0.46765994081286949 0 -0.36402660762744771 -0.46193574902972989 0 -0.37385505232340371 -0.45092355124284322 0 -0.36402660762744771 -0.46193574902972989 0 -0.34387740708608322 -0.46388476432700559 0 -0.35511849069809831 -0.44526810660242722 0 -0.35511849069809831 -0.44526810660242722 0 -0.37385505232340371 -0.45092355124284322 0 -0.36903346868625481 -0.43700295944165979 0 -0.36402660762744771 -0.46193574902972989 0 -0.35511849069809831 -0.44526810660242722 0 -0.37385505232340371 -0.45092355124284322 0 -0.3819772994773119 -0.43981033241645939 0 -0.37385505232340371 -0.45092355124284322 0 -0.36903346868625481 -0.43700295944165979 0 -0.37932910466355618 -0.42407210187786898 0 -0.37122813695408302 -0.4151710294954587 0 -0.35536310386578501 -0.42818765874690018 0 -0.37932910466355618 -0.42407210187786898 0 -0.35536310386578501 -0.42818765874690018 0 -0.37932910466355618 -0.42407210187786898 0 -0.36903346868625481 -0.43700295944165979 0 -0.35536310386578501 -0.42818765874690018 0 -0.35511849069809831 -0.44526810660242722 0 -0.36903346868625481 -0.43700295944165979 0 -0.35536310386578501 -0.42818765874690018 0 -0.37122813695408302 -0.4151710294954587 0 -0.36124729055343702 -0.40733774247339072 0 -0.35536310386578501 -0.42818765874690018 0 -0.37523004537135962 -0.40058585603955082 0 -0.37122813695408302 -0.4151710294954587 0 -0.36124729055343702 -0.40733774247339072 0 -0.36124729055343702 -0.40733774247339072 0 -0.35536310386578501 -0.42818765874690018 0 -0.34331297941521249 -0.41095616051742961 0 -0.35511849069809831 -0.44526810660242722 0 -0.35536310386578501 -0.42818765874690018 0 -0.33139710306801318 -0.43230321561592883 0 -0.37645558751284619 -0.38463906907506168 0 -0.37113431237396549 -0.37011217495999638 0 -0.36397761553627939 -0.38127316896893448 0 -0.37645558751284619 -0.38463906907506168 0 -0.36397761553627939 -0.38127316896893448 0 -0.36642787894726753 -0.39268898839517408 0 -0.36397761553627939 -0.38127316896893448 0 -0.36642787894726753 -0.39268898839517408 0 -0.35522885576241542 -0.38960910541893229 0 -0.37523004537135962 -0.40058585603955082 0 -0.37645558751284619 -0.38463906907506168 0 -0.36642787894726753 -0.39268898839517408 0 -0.36124729055343702 -0.40733774247339072 0 -0.36642787894726753 -0.39268898839517408 0 -0.35522885576241542 -0.38960910541893229 0 -0.37523004537135962 -0.40058585603955082 0 -0.36124729055343702 -0.40733774247339072 0 -0.36642787894726753 -0.39268898839517408 0 -0.35522885576241542 -0.38960910541893229 0 -0.34415925518790258 -0.38501238782186459 0 -0.33744971432770599 -0.39739661570995749 0 -0.35522885576241542 -0.38960910541893229 0 -0.34331297941521249 -0.41095616051742961 0 -0.35522885576241542 -0.38960910541893229 0 -0.33744971432770599 -0.39739661570995749 0 -0.34331297941521249 -0.41095616051742961 0 -0.36124729055343702 -0.40733774247339072 0 -0.35522885576241542 -0.38960910541893229 0 -0.34331297941521249 -0.41095616051742961 0 -0.35429130776025269 -0.37320267157259712 0 -0.35522885576241542 -0.38960910541893229 0 -0.34415925518790258 -0.38501238782186459 0 -0.35429130776025269 -0.37320267157259712 0 -0.33849119503398117 -0.37017619284777081 0 -0.34415925518790258 -0.38501238782186459 0 -0.35429130776025269 -0.37320267157259712 0 -0.36397761553627939 -0.38127316896893448 0 -0.35522885576241542 -0.38960910541893229 0 -0.32326404293198452 -0.37468988602303782 0 -0.34415925518790258 -0.38501238782186459 0 -0.33849119503398117 -0.37017619284777081 0 -0.32326404293198452 -0.37468988602303782 0 -0.34415925518790258 -0.38501238782186459 0 -0.32326404293198452 -0.37468988602303782 0 -0.34415925518790258 -0.38501238782186459 0 -0.3291032960546012 -0.38768347901275207 0 -0.34415925518790258 -0.38501238782186459 0 -0.3291032960546012 -0.38768347901275207 0 -0.33744971432770599 -0.39739661570995749 0 -0.3291032960546012 -0.38768347901275207 0 -0.33744971432770599 -0.39739661570995749 0 -0.32192923505314708 -0.39837669244621171 0 -0.33744971432770599 -0.39739661570995749 0 -0.32192923505314708 -0.39837669244621171 0 -0.32815912381145551 -0.41228574375559818 0 -0.3291032960546012 -0.38768347901275207 0 -0.32192923505314708 -0.39837669244621171 0 -0.31231669744715518 -0.38304533376786692 0 -0.32326404293198452 -0.37468988602303782 0 -0.3291032960546012 -0.38768347901275207 0 -0.31231669744715518 -0.38304533376786692 0 -0.32326404293198452 -0.37468988602303782 0 -0.30898941296363469 -0.37504930306572171 0 -0.31231669744715518 -0.38304533376786692 0 -0.35536310386578501 -0.42818765874690018 0 -0.33139710306801318 -0.43230321561592883 0 -0.34331297941521249 -0.41095616051742961 0 -0.35536310386578501 -0.42818765874690018 0 -0.33139710306801318 -0.43230321561592883 0 -0.33139710306801318 -0.43230321561592883 0 -0.34331297941521249 -0.41095616051742961 0 -0.33139710306801318 -0.43230321561592883 0 -0.34331297941521249 -0.41095616051742961 0 -0.32815912381145551 -0.41228574375559818 0 -0.33744971432770599 -0.39739661570995749 0 -0.34331297941521249 -0.41095616051742961 0 -0.32815912381145551 -0.41228574375559818 0 -0.32192923505314708 -0.39837669244621171 0 -0.32815912381145551 -0.41228574375559818 0 -0.31229355614000848 -0.415179995321795 0 -0.33139710306801318 -0.43230321561592883 0 -0.32815912381145551 -0.41228574375559818 0 -0.31229355614000848 -0.415179995321795 0 -0.33139710306801318 -0.43230321561592883 0 -0.30713447022026907 -0.43646971156658648 0 -0.31229355614000848 -0.415179995321795 0 -0.33139710306801318 -0.43230321561592883 0 -0.30713447022026907 -0.43646971156658648 0 -0.30713447022026907 -0.43646971156658648 0 -0.31229355614000848 -0.415179995321795 0 -0.28965937719685242 -0.41774755506108252 0 -0.31229355614000848 -0.415179995321795 0 -0.28965937719685242 -0.41774755506108252 0 -0.30142317151760528 -0.39724357143100902 0 -0.28965937719685242 -0.41774755506108252 0 -0.28459654733313189 -0.4019515578437593 0 -0.27021485565429731 -0.4090942432964485 0 -0.28965937719685242 -0.41774755506108252 0 -0.27240211809720483 -0.42274626951373889 0 -0.28287183737252458 -0.44063620751724181 0 -0.30713447022026907 -0.43646971156658648 0 -0.28965937719685242 -0.41774755506108252 0 -0.28287183737252458 -0.44063620751724181 0 -0.29800808079933311 -0.37809460824777152 0 -0.31231669744715518 -0.38304533376786692 0 -0.30142317151760528 -0.39724357143100902 0 -0.29800808079933311 -0.37809460824777152 0 -0.30898941296363469 -0.37504930306572171 0 -0.31231669744715518 -0.38304533376786692 0 -0.32192923505314708 -0.39837669244621171 0 -0.31231669744715518 -0.38304533376786692 0 -0.30142317151760528 -0.39724357143100902 0 -0.32192923505314708 -0.39837669244621171 0 -0.31229355614000848 -0.415179995321795 0 -0.30142317151760528 -0.39724357143100902 0 -0.30142317151760528 -0.39724357143100902 0 -0.28459654733313189 -0.4019515578437593 0 -0.28605698305342969 -0.38862207370420337 0 -0.28965937719685242 -0.41774755506108252 0 -0.30142317151760528 -0.39724357143100902 0 -0.28459654733313189 -0.4019515578437593 0 -0.28459654733313189 -0.4019515578437593 0 -0.28605698305342969 -0.38862207370420337 0 -0.27421911910766539 -0.39503942817553922 0 -0.29800808079933311 -0.37809460824777152 0 -0.30142317151760528 -0.39724357143100902 0 -0.28605698305342969 -0.38862207370420337 0 -0.28415457449404402 -0.3749292589651938 0 -0.29800808079933311 -0.37809460824777152 0 -0.28605698305342969 -0.38862207370420337 0 -0.28415457449404402 -0.3749292589651938 0 -0.28605698305342969 -0.38862207370420337 0 -0.26971818092854072 -0.38131455838694539 0 -0.28605698305342969 -0.38862207370420337 0 -0.26971818092854072 -0.38131455838694539 0 -0.27421911910766539 -0.39503942817553922 0 -0.26971818092854072 -0.38131455838694539 0 -0.27421911910766539 -0.39503942817553922 0 -0.26131619800665951 -0.39638931687904327 0 -0.28459654733313189 -0.4019515578437593 0 -0.27421911910766539 -0.39503942817553922 0 -0.27021485565429731 -0.4090942432964485 0 -0.27421911910766539 -0.39503942817553922 0 -0.26131619800665951 -0.39638931687904327 0 -0.27021485565429731 -0.4090942432964485 0 -0.26131619800665951 -0.39638931687904327 0 -0.27021485565429731 -0.4090942432964485 0 -0.25367533682219767 -0.40933210928171387 0 -0.26131619800665951 -0.39638931687904327 0 -0.25367533682219767 -0.40933210928171387 0 -0.2485496135030231 -0.3985239110419857 0 -0.26131619800665951 -0.39638931687904327 0 -0.2515200820242332 -0.38503165109162768 0 -0.2485496135030231 -0.3985239110419857 0 -0.26971818092854072 -0.38131455838694539 0 -0.26131619800665951 -0.39638931687904327 0 -0.2515200820242332 -0.38503165109162768 0 -0.25964335541429961 -0.36887273487009647 0 -0.26971818092854072 -0.38131455838694539 0 -0.2515200820242332 -0.38503165109162768 0 -0.27240211809720483 -0.42274626951373889 0 -0.26128778130502001 -0.42990807672456272 0 -0.28287183737252458 -0.44063620751724181 0 -0.28965937719685242 -0.41774755506108252 0 -0.27240211809720483 -0.42274626951373889 0 -0.27021485565429731 -0.4090942432964485 0 -0.27240211809720483 -0.42274626951373889 0 -0.27021485565429731 -0.4090942432964485 0 -0.2614505393413295 -0.41835211995440769 0 -0.27021485565429731 -0.4090942432964485 0 -0.2614505393413295 -0.41835211995440769 0 -0.25367533682219767 -0.40933210928171387 0 -0.2614505393413295 -0.41835211995440769 0 -0.25367533682219767 -0.40933210928171387 0 -0.25068693301679851 -0.42139894143770651 0 -0.26128778130502001 -0.42990807672456272 0 -0.25860920452477998 -0.44480270346789702 0 -0.2417060554774825 -0.43151221845638471 0 -0.25068693301679851 -0.42139894143770651 0 -0.26128778130502001 -0.42990807672456272 0 -0.2417060554774825 -0.43151221845638471 0 -0.2614505393413295 -0.41835211995440769 0 -0.25068693301679851 -0.42139894143770651 0 -0.26128778130502001 -0.42990807672456272 0 -0.27240211809720483 -0.42274626951373889 0 -0.2614505393413295 -0.41835211995440769 0 -0.26128778130502001 -0.42990807672456272 0 -0.25860920452477998 -0.44480270346789702 0 -0.26310914512716171 -0.4713125360001531 0 -0.24266855827565889 -0.46290007739280969 0 -0.25860920452477998 -0.44480270346789702 0 -0.27684589589253322 -0.45720485355882168 0 -0.26310914512716171 -0.4713125360001531 0 -0.27684589589253322 -0.45720485355882168 0 -0.29061679755953113 -0.47212413353634169 0 -0.26310914512716171 -0.4713125360001531 0 -0.26128778130502001 -0.42990807672456272 0 -0.25860920452477998 -0.44480270346789702 0 -0.28287183737252458 -0.44063620751724181 0 -0.25860920452477998 -0.44480270346789702 0 -0.28287183737252458 -0.44063620751724181 0 -0.25860920452477998 -0.44480270346789702 0 -0.27684589589253322 -0.45720485355882168 0 -0.28287183737252458 -0.44063620751724181 0 -0.30713447022026907 -0.43646971156658648 0 -0.28287183737252458 -0.44063620751724181 0 -0.30713447022026907 -0.43646971156658648 0 -0.28287183737252458 -0.44063620751724181 0 -0.29699718595400881 -0.45348571450227843 0 -0.27684589589253322 -0.45720485355882168 0 -0.28287183737252458 -0.44063620751724181 0 -0.29699718595400881 -0.45348571450227843 0 -0.27684589589253322 -0.45720485355882168 0 -0.29699718595400881 -0.45348571450227843 0 -0.29061679755953113 -0.47212413353634169 0 -0.31666757606948909 -0.4586908698052079 0 -0.29699718595400881 -0.45348571450227843 0 -0.29061679755953113 -0.47212413353634169 0 -0.31666757606948909 -0.4586908698052079 0 -0.30713447022026907 -0.43646971156658648 0 -0.29699718595400881 -0.45348571450227843 0 -0.32133415733022669 -0.48103238346636779 0 -0.3068087846673212 -0.5 0 -0.29061679755953113 -0.47212413353634169 0 -0.31666757606948909 -0.4586908698052079 0 -0.32133415733022669 -0.48103238346636779 0 -0.29061679755953113 -0.47212413353634169 0 -0.3068087846673212 -0.5 0 -0.29061679755953113 -0.47212413353634169 0 -0.2790830100144408 -0.5 0 -0.29061679755953113 -0.47212413353634169 0 -0.2790830100144408 -0.5 0 -0.26310914512716171 -0.4713125360001531 0 -0.26310914512716171 -0.4713125360001531 0 -0.25135723536156052 -0.5 0 -0.2396069713285611 -0.4805627757435833 0 -0.2790830100144408 -0.5 0 -0.26310914512716171 -0.4713125360001531 0 -0.25135723536156052 -0.5 0 -0.25135723536156052 -0.5 0 -0.2396069713285611 -0.4805627757435833 0 -0.22264187471401251 -0.49603358565249089 0 -0.2396069713285611 -0.4805627757435833 0 -0.22981837856768231 -0.47217805744541769 0 -0.24266855827565889 -0.46290007739280969 0 -0.26310914512716171 -0.4713125360001531 0 -0.2396069713285611 -0.4805627757435833 0 -0.24266855827565889 -0.46290007739280969 0 -0.2396069713285611 -0.4805627757435833 0 -0.22659359082086639 -0.48196005532783359 0 -0.22981837856768231 -0.47217805744541769 0 -0.22659359082086639 -0.48196005532783359 0 -0.22264187471401251 -0.49603358565249089 0 -0.21632623791859729 -0.47466178604092801 0 -0.22981837856768231 -0.47217805744541769 0 -0.22389653449472779 -0.46080559272193361 0 -0.21632623791859729 -0.47466178604092801 0 -0.22659359082086639 -0.48196005532783359 0 -0.22981837856768231 -0.47217805744541769 0 -0.21632623791859729 -0.47466178604092801 0 -0.2396069713285611 -0.4805627757435833 0 -0.22659359082086639 -0.48196005532783359 0 -0.22264187471401251 -0.49603358565249089 0 -0.22264187471401251 -0.49603358565249089 0 -0.21632623791859729 -0.47466178604092801 0 -0.25135723536156052 -0.5 0 -0.22264187471401251 -0.49603358565249089 0 -0.22363146070868009 -0.50000000000000133 0 -0.25860920452477998 -0.44480270346789702 0 -0.23434657167703529 -0.44896919941855229 0 -0.2417060554774825 -0.43151221845638471 0 -0.25860920452477998 -0.44480270346789702 0 -0.23434657167703529 -0.44896919941855229 0 -0.23434657167703529 -0.44896919941855229 0 -0.23276061450875171 -0.437074726975063 0 -0.2417060554774825 -0.43151221845638471 0 -0.25860920452477998 -0.44480270346789702 0 -0.24266855827565889 -0.46290007739280969 0 -0.23434657167703529 -0.44896919941855229 0 -0.24266855827565889 -0.46290007739280969 0 -0.22389653449472779 -0.46080559272193361 0 -0.23434657167703529 -0.44896919941855229 0 -0.22389653449472779 -0.46080559272193361 0 -0.23434657167703529 -0.44896919941855229 0 -0.2100217633625879 -0.45319360482481591 0 -0.22981837856768231 -0.47217805744541769 0 -0.24266855827565889 -0.46290007739280969 0 -0.22389653449472779 -0.46080559272193361 0 -0.23434657167703529 -0.44896919941855229 0 -0.2100217633625879 -0.45319360482481591 0 -0.22257919020368841 -0.43689555183147899 0 -0.23434657167703529 -0.44896919941855229 0 -0.2100217633625879 -0.45319360482481591 0 -0.23434657167703529 -0.44896919941855229 0 -0.23276061450875171 -0.437074726975063 0 -0.22257919020368841 -0.43689555183147899 0 -0.2100217633625879 -0.45319360482481591 0 -0.21858226792869859 -0.43525654048600487 0 -0.2100217633625879 -0.45319360482481591 0 -0.21109743179597831 -0.43701126472663998 0 -0.21858226792869859 -0.43525654048600487 0 -0.2100217633625879 -0.45319360482481591 0 -0.21109743179597831 -0.43701126472663998 0 -0.20419794721361281 -0.43362025579240571 0 -0.2100217633625879 -0.45319360482481591 0 -0.21858226792869859 -0.43525654048600487 0 -0.22257919020368841 -0.43689555183147899 0 -0.2100217633625879 -0.45319360482481591 0 -0.20419794721361281 -0.43362025579240571 0 -0.2100217633625879 -0.45319360482481591 0 -0.20310216891710109 -0.46782424698432928 0 -0.21632623791859729 -0.47466178604092801 0 -0.22389653449472779 -0.46080559272193361 0 -0.2100217633625879 -0.45319360482481591 0 -0.21632623791859729 -0.47466178604092801 0 -0.2100217633625879 -0.45319360482481591 0 -0.21632623791859729 -0.47466178604092801 0 -0.2100217633625879 -0.45319360482481591 0 -0.20310216891710109 -0.46782424698432928 0 -0.2100217633625879 -0.45319360482481591 0 -0.20310216891710109 -0.46782424698432928 0 -0.18661123559382101 -0.45716654080940511 0 -0.2100217633625879 -0.45319360482481591 0 -0.18661123559382101 -0.45716654080940511 0 -0.20310216891710109 -0.46782424698432928 0 -0.19140746752590709 -0.46977938089353599 0 -0.18661123559382101 -0.45716654080940511 0 -0.2100217633625879 -0.45319360482481591 0 -0.19254049336618401 -0.4423971822330291 0 -0.18661123559382101 -0.45716654080940511 0 -0.2100217633625879 -0.45319360482481591 0 -0.19254049336618401 -0.4423971822330291 0 -0.20419794721361281 -0.43362025579240571 0 -0.22363146070868009 -0.50000000000000133 0 -0.20991259870985021 -0.49117925376964777 0 -0.19558678489574319 -0.5 0 -0.22264187471401251 -0.49603358565249089 0 -0.20991259870985021 -0.49117925376964777 0 -0.21632623791859729 -0.47466178604092801 0 -0.22264187471401251 -0.49603358565249089 0 -0.22363146070868009 -0.50000000000000133 0 -0.20991259870985021 -0.49117925376964777 0 -0.22363146070868009 -0.50000000000000133 0 -0.20991259870985021 -0.49117925376964777 0 -0.20991259870985021 -0.49117925376964777 0 -0.21632623791859729 -0.47466178604092801 0 -0.2063836855641423 -0.47900594858354961 0 -0.20310216891710109 -0.46782424698432928 0 -0.21632623791859729 -0.47466178604092801 0 -0.2063836855641423 -0.47900594858354961 0 -0.20991259870985021 -0.49117925376964777 0 -0.2063836855641423 -0.47900594858354961 0 -0.19619373671102061 -0.48235850753929371 0 -0.19619373671102061 -0.48235850753929371 0 -0.19495982497912151 -0.48495446478086057 0 -0.17972272888168561 -0.47176822824111619 0 -0.19619373671102061 -0.48235850753929371 0 -0.19140746752590709 -0.46977938089353599 0 -0.17972272888168561 -0.47176822824111619 0 -0.19619373671102061 -0.48235850753929371 0 -0.17972272888168561 -0.47176822824111619 0 -0.19619373671102061 -0.48235850753929371 0 -0.19495982497912151 -0.48495446478086057 0 -0.20310216891710109 -0.46782424698432928 0 -0.19619373671102061 -0.48235850753929371 0 -0.20310216891710109 -0.46782424698432928 0 -0.19619373671102061 -0.48235850753929371 0 -0.19140746752590709 -0.46977938089353599 0 -0.20310216891710109 -0.46782424698432928 0 -0.2063836855641423 -0.47900594858354961 0 -0.19619373671102061 -0.48235850753929371 0 -0.19495982497912151 -0.48495446478086057 0 -0.19558678489574319 -0.5 0 -0.17928648349474591 -0.48755096986548058 0 -0.20991259870985021 -0.49117925376964777 0 -0.19619373671102061 -0.48235850753929371 0 -0.19495982497912151 -0.48495446478086057 0 -0.20991259870985021 -0.49117925376964777 0 -0.19619373671102061 -0.48235850753929371 0 -0.20991259870985021 -0.49117925376964777 0 -0.19495982497912151 -0.48495446478086057 0 -0.19558678489574319 -0.5 0 -0.19558678489574319 -0.5 0 -0.17928648349474591 -0.48755096986548058 0 -0.1675421090828064 -0.5 0 -0.17928648349474591 -0.48755096986548058 0 -0.1675421090828064 -0.5 0 -0.15862096963437311 -0.48103215630542651 0 -0.15862096963437311 -0.48103215630542651 0 -0.17972272888168561 -0.47176822824111619 0 -0.1632517210523515 -0.46117794894293729 0 -0.17928648349474591 -0.48755096986548058 0 -0.15862096963437311 -0.48103215630542651 0 -0.17972272888168561 -0.47176822824111619 0 -0.19495982497912151 -0.48495446478086057 0 -0.17928648349474591 -0.48755096986548058 0 -0.17972272888168561 -0.47176822824111619 0 -0.18661123559382101 -0.45716654080940511 0 -0.1632517210523515 -0.46117794894293729 0 -0.18661123559382101 -0.45716654080940511 0 -0.17131221865042251 -0.44396646533894402 0 -0.1632517210523515 -0.46117794894293729 0 -0.17972272888168561 -0.47176822824111619 0 -0.18661123559382101 -0.45716654080940511 0 -0.1632517210523515 -0.46117794894293729 0 -0.19140746752590709 -0.46977938089353599 0 -0.17972272888168561 -0.47176822824111619 0 -0.18661123559382101 -0.45716654080940511 0 -0.19254049336618401 -0.4423971822330291 0 -0.17131221865042251 -0.44396646533894402 0 -0.17990370802357289 -0.43017910386515201 0 -0.19254049336618401 -0.4423971822330291 0 -0.18661123559382101 -0.45716654080940511 0 -0.17131221865042251 -0.44396646533894402 0 -0.17131221865042251 -0.44396646533894402 0 -0.1632517210523515 -0.46117794894293729 0 -0.15210064351192409 -0.44489406654167302 0 -0.17972272888168561 -0.47176822824111619 0 -0.1632517210523515 -0.46117794894293729 0 -0.1632517210523515 -0.46117794894293729 0 -0.14236895666157209 -0.46476403763407931 0 -0.14083136060357559 -0.44676244495080092 0 -0.1632517210523515 -0.46117794894293729 0 -0.14236895666157209 -0.46476403763407931 0 -0.1632517210523515 -0.46117794894293729 0 -0.14083136060357559 -0.44676244495080092 0 -0.1632517210523515 -0.46117794894293729 0 -0.15210064351192409 -0.44489406654167302 0 -0.14083136060357559 -0.44676244495080092 0 -0.15210064351192409 -0.44489406654167302 0 -0.14083136060357559 -0.44676244495080092 0 -0.1437910187846802 -0.42969386715983271 0 -0.14083136060357559 -0.44676244495080092 0 -0.1184110001548008 -0.43234694095866261 0 -0.14083136060357559 -0.44676244495080092 0 -0.1228399064619701 -0.45010157398010681 0 -0.1184110001548008 -0.43234694095866261 0 -0.14236895666157209 -0.46476403763407931 0 -0.12148619227079301 -0.46835012632522299 0 -0.14236895666157209 -0.46476403763407931 0 -0.14083136060357559 -0.44676244495080092 0 -0.1228399064619701 -0.45010157398010681 0 -0.14236895666157209 -0.46476403763407931 0 -0.12148619227079301 -0.46835012632522299 0 -0.1228399064619701 -0.45010157398010681 0 -0.13852546741967081 -0.4809857702993392 0 -0.1226346943328091 -0.48533339245354079 0 -0.12148619227079301 -0.46835012632522299 0 -0.14236895666157209 -0.46476403763407931 0 -0.13852546741967081 -0.4809857702993392 0 -0.12148619227079301 -0.46835012632522299 0 -0.13852546741967081 -0.4809857702993392 0 -0.13949743326986949 -0.5 0 -0.1226346943328091 -0.48533339245354079 0 -0.1675421090828064 -0.5 0 -0.15862096963437311 -0.48103215630542651 0 -0.13949743326986949 -0.5 0 -0.15862096963437311 -0.48103215630542651 0 -0.13852546741967081 -0.4809857702993392 0 -0.13949743326986949 -0.5 0 -0.15862096963437311 -0.48103215630542651 0 -0.1632517210523515 -0.46117794894293729 0 -0.14236895666157209 -0.46476403763407931 0 -0.15862096963437311 -0.48103215630542651 0 -0.14236895666157209 -0.46476403763407931 0 -0.13852546741967081 -0.4809857702993392 0 -0.14621088533489551 -0.40411469440624442 0 -0.1578066838399404 -0.41951265616044447 0 -0.1635127241679567 -0.39413124577921599 0 -0.14621088533489551 -0.40411469440624442 0 -0.1635127241679567 -0.39413124577921599 0 -0.1415333796211557 -0.37362514247251549 0 -0.12840811959989359 -0.39806301558833979 0 -0.1415333796211557 -0.37362514247251549 0 -0.1125719657568152 -0.38622125221252918 0 -0.14621088533489551 -0.40411469440624442 0 -0.12840811959989359 -0.39806301558833979 0 -0.12981618641440601 -0.41609917673097552 0 -0.14621088533489551 -0.40411469440624442 0 -0.12840811959989359 -0.39806301558833979 0 -0.1415333796211557 -0.37362514247251549 0 -0.14621088533489551 -0.40411469440624442 0 -0.12981618641440601 -0.41609917673097552 0 -0.1437910187846802 -0.42969386715983271 0 -0.14083136060357559 -0.44676244495080092 0 -0.1437910187846802 -0.42969386715983271 0 -0.1184110001548008 -0.43234694095866261 0 -0.12981618641440601 -0.41609917673097552 0 -0.1437910187846802 -0.42969386715983271 0 -0.1184110001548008 -0.43234694095866261 0 -0.15210064351192409 -0.44489406654167302 0 -0.1578066838399404 -0.41951265616044447 0 -0.15210064351192409 -0.44489406654167302 0 -0.1437910187846802 -0.42969386715983271 0 -0.1578066838399404 -0.41951265616044447 0 -0.14621088533489551 -0.40411469440624442 0 -0.1437910187846802 -0.42969386715983271 0 -0.1578066838399404 -0.41951265616044447 0 -0.1578066838399404 -0.41951265616044447 0 -0.1800829555080711 -0.41208475587670962 0 -0.1635127241679567 -0.39413124577921599 0 -0.1578066838399404 -0.41951265616044447 0 -0.1635127241679567 -0.39413124577921599 0 -0.17131221865042251 -0.44396646533894402 0 -0.15210064351192409 -0.44489406654167302 0 -0.1578066838399404 -0.41951265616044447 0 -0.17131221865042251 -0.44396646533894402 0 -0.1578066838399404 -0.41951265616044447 0 -0.17990370802357289 -0.43017910386515201 0 -0.17990370802357289 -0.43017910386515201 0 -0.1800829555080711 -0.41208475587670962 0 -0.192365784947683 -0.42638764748252578 0 -0.1578066838399404 -0.41951265616044447 0 -0.17990370802357289 -0.43017910386515201 0 -0.1800829555080711 -0.41208475587670962 0 -0.1800829555080711 -0.41208475587670962 0 -0.1635127241679567 -0.39413124577921599 0 -0.19265234137025741 -0.39455050202546782 0 -0.1635127241679567 -0.39413124577921599 0 -0.16921876449597301 -0.36874983539798761 0 -0.1635127241679567 -0.39413124577921599 0 -0.16921876449597301 -0.36874983539798761 0 -0.1415333796211557 -0.37362514247251549 0 -0.1635127241679567 -0.39413124577921599 0 -0.18687307669621139 -0.37625738481376392 0 -0.16921876449597301 -0.36874983539798761 0 -0.1635127241679567 -0.39413124577921599 0 -0.18687307669621139 -0.37625738481376392 0 -0.19265234137025741 -0.39455050202546782 0 -0.18687307669621139 -0.37625738481376392 0 -0.201318705438152 -0.38220237190901379 0 -0.19265234137025741 -0.39455050202546782 0 -0.18687307669621139 -0.37625738481376392 0 -0.201318705438152 -0.38220237190901379 0 -0.20385425482033731 -0.36733115229323737 0 -0.19265234137025741 -0.39455050202546782 0 -0.2098698256399307 -0.39644625638880993 0 -0.19842514429193511 -0.41408537890893671 0 -0.19265234137025741 -0.39455050202546782 0 -0.19842514429193511 -0.41408537890893671 0 -0.201318705438152 -0.38220237190901379 0 -0.19265234137025741 -0.39455050202546782 0 -0.2098698256399307 -0.39644625638880993 0 -0.201318705438152 -0.38220237190901379 0 -0.21640361343447309 -0.38236890800932138 0 -0.20385425482033731 -0.36733115229323737 0 -0.201318705438152 -0.38220237190901379 0 -0.2098698256399307 -0.39644625638880993 0 -0.21640361343447309 -0.38236890800932138 0 -0.19842514429193511 -0.41408537890893671 0 -0.20419794721361281 -0.43362025579240571 0 -0.192365784947683 -0.42638764748252578 0 -0.19842514429193511 -0.41408537890893671 0 -0.20419794721361281 -0.43362025579240571 0 -0.19254049336618401 -0.4423971822330291 0 -0.17990370802357289 -0.43017910386515201 0 -0.192365784947683 -0.42638764748252578 0 -0.19254049336618401 -0.4423971822330291 0 -0.192365784947683 -0.42638764748252578 0 -0.20419794721361281 -0.43362025579240571 0 -0.1800829555080711 -0.41208475587670962 0 -0.192365784947683 -0.42638764748252578 0 -0.19842514429193511 -0.41408537890893671 0 -0.1800829555080711 -0.41208475587670962 0 -0.19265234137025741 -0.39455050202546782 0 -0.19842514429193511 -0.41408537890893671 0 -0.2098698256399307 -0.39644625638880993 0 -0.19842514429193511 -0.41408537890893671 0 -0.21683830937561199 -0.41014834798164868 0 -0.19842514429193511 -0.41408537890893671 0 -0.21683830937561199 -0.41014834798164868 0 -0.21313554281572161 -0.42039314436041569 0 -0.21683830937561199 -0.41014834798164868 0 -0.21313554281572161 -0.42039314436041569 0 -0.21939873709256849 -0.41900370231898332 0 -0.21313554281572161 -0.42039314436041569 0 -0.21782556368801359 -0.42427121498285308 0 -0.21939873709256849 -0.41900370231898332 0 -0.19842514429193511 -0.41408537890893671 0 -0.21313554281572161 -0.42039314436041569 0 -0.21065446598974941 -0.42797839576283342 0 -0.19842514429193511 -0.41408537890893671 0 -0.21065446598974941 -0.42797839576283342 0 -0.20419794721361281 -0.43362025579240571 0 -0.21313554281572161 -0.42039314436041569 0 -0.21065446598974941 -0.42797839576283342 0 -0.21782556368801359 -0.42427121498285308 0 -0.21065446598974941 -0.42797839576283342 0 -0.21782556368801359 -0.42427121498285308 0 -0.21858226792869859 -0.43525654048600487 0 -0.21065446598974941 -0.42797839576283342 0 -0.21109743179597831 -0.43701126472663998 0 -0.21858226792869859 -0.43525654048600487 0 -0.21065446598974941 -0.42797839576283342 0 -0.21109743179597831 -0.43701126472663998 0 -0.20419794721361281 -0.43362025579240571 0 -0.21858226792869859 -0.43525654048600487 0 -0.22257919020368841 -0.43689555183147899 0 -0.2270805970281061 -0.41737738560280158 0 -0.22257919020368841 -0.43689555183147899 0 -0.2270805970281061 -0.41737738560280158 0 -0.22257919020368841 -0.43689555183147899 0 -0.22999742659196321 -0.4256989542191727 0 -0.2270805970281061 -0.41737738560280158 0 -0.21782556368801359 -0.42427121498285308 0 -0.21858226792869859 -0.43525654048600487 0 -0.2270805970281061 -0.41737738560280158 0 -0.21858226792869859 -0.43525654048600487 0 -0.2270805970281061 -0.41737738560280158 0 -0.23241064067680081 -0.43092193819383617 0 -0.22257919020368841 -0.43689555183147899 0 -0.22999742659196321 -0.4256989542191727 0 -0.23276061450875171 -0.437074726975063 0 -0.23241064067680081 -0.43092193819383617 0 -0.22257919020368841 -0.43689555183147899 0 -0.23241064067680081 -0.43092193819383617 0 -0.22999742659196321 -0.4256989542191727 0 -0.2355382344139561 -0.42540058915223999 0 -0.22999742659196321 -0.4256989542191727 0 -0.23293440003576471 -0.4180512098575121 0 -0.2355382344139561 -0.42540058915223999 0 -0.2270805970281061 -0.41737738560280158 0 -0.22897891919779589 -0.41338361274544438 0 -0.23262192245548599 -0.39335011700932437 0 -0.21683830937561199 -0.41014834798164868 0 -0.2270805970281061 -0.41737738560280158 0 -0.23262192245548599 -0.39335011700932437 0 -0.22999742659196321 -0.4256989542191727 0 -0.23293440003576471 -0.4180512098575121 0 -0.2270805970281061 -0.41737738560280158 0 -0.23293440003576471 -0.4180512098575121 0 -0.22897891919779589 -0.41338361274544438 0 -0.23769523586453711 -0.41483415490917991 0 -0.2270805970281061 -0.41737738560280158 0 -0.22897891919779589 -0.41338361274544438 0 -0.23293440003576471 -0.4180512098575121 0 -0.2270805970281061 -0.41737738560280158 0 -0.22897891919779589 -0.41338361274544438 0 -0.21782556368801359 -0.42427121498285308 0 -0.2270805970281061 -0.41737738560280158 0 -0.21939873709256849 -0.41900370231898332 0 -0.21683830937561199 -0.41014834798164868 0 -0.2270805970281061 -0.41737738560280158 0 -0.21939873709256849 -0.41900370231898332 0 -0.22897891919779589 -0.41338361274544438 0 -0.2406345201292433 -0.40713598791729178 0 -0.23769523586453711 -0.41483415490917991 0 -0.2406345201292433 -0.40713598791729178 0 -0.24528569067211231 -0.41478133899135672 0 -0.23769523586453711 -0.41483415490917991 0 -0.25367533682219767 -0.40933210928171387 0 -0.2406345201292433 -0.40713598791729178 0 -0.24528569067211231 -0.41478133899135672 0 -0.25367533682219767 -0.40933210928171387 0 -0.25068693301679851 -0.42139894143770651 0 -0.24528569067211231 -0.41478133899135672 0 -0.25068693301679851 -0.42139894143770651 0 -0.24528569067211231 -0.41478133899135672 0 -0.24064264928776921 -0.42081862503429462 0 -0.24528569067211231 -0.41478133899135672 0 -0.24064264928776921 -0.42081862503429462 0 -0.23769523586453711 -0.41483415490917991 0 -0.23293440003576471 -0.4180512098575121 0 -0.24064264928776921 -0.42081862503429462 0 -0.23769523586453711 -0.41483415490917991 0 -0.23293440003576471 -0.4180512098575121 0 -0.24064264928776921 -0.42081862503429462 0 -0.2355382344139561 -0.42540058915223999 0 -0.23241064067680081 -0.43092193819383617 0 -0.2355382344139561 -0.42540058915223999 0 -0.2417060554774825 -0.43151221845638471 0 -0.24064264928776921 -0.42081862503429462 0 -0.2355382344139561 -0.42540058915223999 0 -0.2417060554774825 -0.43151221845638471 0 -0.25068693301679851 -0.42139894143770651 0 -0.24064264928776921 -0.42081862503429462 0 -0.2417060554774825 -0.43151221845638471 0 -0.23276061450875171 -0.437074726975063 0 -0.23241064067680081 -0.43092193819383617 0 -0.2417060554774825 -0.43151221845638471 0 -0.21640361343447309 -0.38236890800932138 0 -0.23262192245548599 -0.39335011700932437 0 -0.2381632478828658 -0.36932284841584723 0 -0.2098698256399307 -0.39644625638880993 0 -0.21640361343447309 -0.38236890800932138 0 -0.23262192245548599 -0.39335011700932437 0 -0.2270805970281061 -0.41737738560280158 0 -0.23262192245548599 -0.39335011700932437 0 -0.2098698256399307 -0.39644625638880993 0 -0.21683830937561199 -0.41014834798164868 0 -0.23262192245548599 -0.39335011700932437 0 -0.22897891919779589 -0.41338361274544438 0 -0.2406345201292433 -0.40713598791729178 0 -0.23262192245548599 -0.39335011700932437 0 -0.2406345201292433 -0.40713598791729178 0 -0.23262192245548599 -0.39335011700932437 0 -0.2485496135030231 -0.3985239110419857 0 -0.2515200820242332 -0.38503165109162768 0 -0.23262192245548599 -0.39335011700932437 0 -0.2485496135030231 -0.3985239110419857 0 -0.25367533682219767 -0.40933210928171387 0 -0.2406345201292433 -0.40713598791729178 0 -0.2485496135030231 -0.3985239110419857 0 -0.2515200820242332 -0.38503165109162768 0 -0.23262192245548599 -0.39335011700932437 0 -0.2381632478828658 -0.36932284841584723 0 -0.23262192245548599 -0.39335011700932437 0 -0.2381632478828658 -0.36932284841584723 0 -0.25964335541429961 -0.36887273487009647 0 -0.2515200820242332 -0.38503165109162768 0 -0.2381632478828658 -0.36932284841584723 0 -0.21640361343447309 -0.38236890800932138 0 -0.2381632478828658 -0.36932284841584723 0 -0.21984680958951611 -0.36469159831064218 0 -0.2381632478828658 -0.36932284841584723 0 -0.21984680958951611 -0.36469159831064218 0 -0.2251617862106341 -0.34702438074185449 0 -0.2251617862106341 -0.34702438074185449 0 -0.24370457331024559 -0.34529557982237002 0 -0.25407894467253711 -0.35632097405549418 0 -0.2381632478828658 -0.36932284841584723 0 -0.24370457331024559 -0.34529557982237002 0 -0.2381632478828658 -0.36932284841584723 0 -0.24370457331024559 -0.34529557982237002 0 -0.2381632478828658 -0.36932284841584723 0 -0.2251617862106341 -0.34702438074185449 0 -0.24370457331024559 -0.34529557982237002 0 -0.24370457331024559 -0.34529557982237002 0 -0.24575613268857729 -0.33639998816931682 0 -0.24575613268857729 -0.33639998816931682 0 -0.239138411594193 -0.32289101279873389 0 -0.22339222684231819 -0.32535193297373599 0 -0.24575613268857729 -0.33639998816931682 0 -0.22339222684231819 -0.32535193297373599 0 -0.24370457331024559 -0.34529557982237002 0 -0.24575613268857729 -0.33639998816931682 0 -0.23091803802366709 -0.33817777407193561 0 -0.24575613268857729 -0.33639998816931682 0 -0.24987039731162189 -0.31856047622257549 0 -0.239138411594193 -0.32289101279873389 0 -0.24575613268857729 -0.33639998816931682 0 -0.24987039731162189 -0.31856047622257549 0 -0.24987039731162189 -0.31856047622257549 0 -0.239138411594193 -0.32289101279873389 0 -0.23559999063710221 -0.31274167965208233 0 -0.239138411594193 -0.32289101279873389 0 -0.23559999063710221 -0.31274167965208233 0 -0.22339222684231819 -0.32535193297373599 0 -0.23559999063710221 -0.31274167965208233 0 -0.22339222684231819 -0.32535193297373599 0 -0.2214482759290555 -0.31382357050766091 0 -0.2251617862106341 -0.34702438074185449 0 -0.24370457331024559 -0.34529557982237002 0 -0.23091803802366709 -0.33817777407193561 0 -0.24575613268857729 -0.33639998816931682 0 -0.22339222684231819 -0.32535193297373599 0 -0.23091803802366709 -0.33817777407193561 0 -0.22339222684231819 -0.32535193297373599 0 -0.23091803802366709 -0.33817777407193561 0 -0.21665142924972899 -0.33796484525241821 0 -0.2251617862106341 -0.34702438074185449 0 -0.23091803802366709 -0.33817777407193561 0 -0.21665142924972899 -0.33796484525241821 0 -0.22339222684231819 -0.32535193297373599 0 -0.21665142924972899 -0.33796484525241821 0 -0.20738224527577701 -0.32876613242421571 0 -0.21665142924972899 -0.33796484525241821 0 -0.20738224527577701 -0.32876613242421571 0 -0.2031536467669835 -0.33899966133179038 0 -0.21665142924972899 -0.33796484525241821 0 -0.2031536467669835 -0.33899966133179038 0 -0.2100829320186002 -0.3522240458110194 0 -0.22339222684231819 -0.32535193297373599 0 -0.20738224527577701 -0.32876613242421571 0 -0.2010283209960598 -0.31430387777815338 0 -0.22339222684231819 -0.32535193297373599 0 -0.20950693229181139 -0.31728332741617332 0 -0.2010283209960598 -0.31430387777815338 0 -0.22339222684231819 -0.32535193297373599 0 -0.2010283209960598 -0.31430387777815338 0 -0.22339222684231819 -0.32535193297373599 0 -0.2214482759290555 -0.31382357050766091 0 -0.20950693229181139 -0.31728332741617332 0 -0.2214482759290555 -0.31382357050766091 0 -0.20950693229181139 -0.31728332741617332 0 -0.21556776439855471 -0.30681771465312918 0 -0.2010283209960598 -0.31430387777815338 0 -0.19276156070696371 -0.32835820138499783 0 -0.1806308451520055 -0.31798701463553081 0 -0.20738224527577701 -0.32876613242421571 0 -0.2010283209960598 -0.31430387777815338 0 -0.19276156070696371 -0.32835820138499783 0 -0.2031536467669835 -0.33899966133179038 0 -0.19276156070696371 -0.32835820138499783 0 -0.1914579785892255 -0.35285261525372741 0 -0.20738224527577701 -0.32876613242421571 0 -0.2031536467669835 -0.33899966133179038 0 -0.19276156070696371 -0.32835820138499783 0 -0.2031536467669835 -0.33899966133179038 0 -0.1914579785892255 -0.35285261525372741 0 -0.2100829320186002 -0.3522240458110194 0 -0.1914579785892255 -0.35285261525372741 0 -0.20385425482033731 -0.36733115229323737 0 -0.2100829320186002 -0.3522240458110194 0 -0.18687307669621139 -0.37625738481376392 0 -0.1914579785892255 -0.35285261525372741 0 -0.20385425482033731 -0.36733115229323737 0 -0.21640361343447309 -0.38236890800932138 0 -0.21984680958951611 -0.36469159831064218 0 -0.20385425482033731 -0.36733115229323737 0 -0.21984680958951611 -0.36469159831064218 0 -0.20385425482033731 -0.36733115229323737 0 -0.2100829320186002 -0.3522240458110194 0 -0.21984680958951611 -0.36469159831064218 0 -0.2251617862106341 -0.34702438074185449 0 -0.2100829320186002 -0.3522240458110194 0 -0.2251617862106341 -0.34702438074185449 0 -0.21665142924972899 -0.33796484525241821 0 -0.2100829320186002 -0.3522240458110194 0 -0.22266169715777201 -0.25375765599846162 0 -0.234639290159884 -0.26685958449240138 0 -0.2214962352675125 -0.27602291290179898 0 -0.25331903158984048 -0.26654067686892091 0 -0.234639290159884 -0.26685958449240138 0 -0.24613954941868271 -0.24181674091805319 0 -0.22266169715777201 -0.25375765599846162 0 -0.234639290159884 -0.26685958449240138 0 -0.24613954941868271 -0.24181674091805319 0 -0.25494575038128747 -0.28739440028075108 0 -0.25331903158984048 -0.26654067686892091 0 -0.23762053656533749 -0.28089839982001941 0 -0.25331903158984048 -0.26654067686892091 0 -0.234639290159884 -0.26685958449240138 0 -0.23762053656533749 -0.28089839982001941 0 -0.234639290159884 -0.26685958449240138 0 -0.23762053656533749 -0.28089839982001941 0 -0.2214962352675125 -0.27602291290179898 0 -0.23762053656533749 -0.28089839982001941 0 -0.2214962352675125 -0.27602291290179898 0 -0.22197836937924759 -0.29133612555308452 0 -0.23762053656533749 -0.28089839982001941 0 -0.22197836937924759 -0.29133612555308452 0 -0.23934454261425289 -0.29723669882315978 0 -0.25338274497423868 -0.30402952519475901 0 -0.25494575038128747 -0.28739440028075108 0 -0.23934454261425289 -0.29723669882315978 0 -0.25494575038128747 -0.28739440028075108 0 -0.23762053656533749 -0.28089839982001941 0 -0.23934454261425289 -0.29723669882315978 0 -0.25338274497423868 -0.30402952519475901 0 -0.24987039731162189 -0.31856047622257549 0 -0.23559999063710221 -0.31274167965208233 0 -0.25338274497423868 -0.30402952519475901 0 -0.23559999063710221 -0.31274167965208233 0 -0.23934454261425289 -0.29723669882315978 0 -0.23559999063710221 -0.31274167965208233 0 -0.2214482759290555 -0.31382357050766091 0 -0.22491134322657549 -0.30446931540022643 0 -0.22197836937924759 -0.29133612555308452 0 -0.23934454261425289 -0.29723669882315978 0 -0.22491134322657549 -0.30446931540022643 0 -0.23559999063710221 -0.31274167965208233 0 -0.23934454261425289 -0.29723669882315978 0 -0.22491134322657549 -0.30446931540022643 0 -0.22197836937924759 -0.29133612555308452 0 -0.22491134322657549 -0.30446931540022643 0 -0.21723332506015869 -0.29973632662101379 0 -0.22491134322657549 -0.30446931540022643 0 -0.21556776439855471 -0.30681771465312918 0 -0.21723332506015869 -0.29973632662101379 0 -0.2214482759290555 -0.31382357050766091 0 -0.22491134322657549 -0.30446931540022643 0 -0.21556776439855471 -0.30681771465312918 0 -0.20950693229181139 -0.31728332741617332 0 -0.2010283209960598 -0.31430387777815338 0 -0.20821270098734149 -0.2938682684346583 0 -0.20950693229181139 -0.31728332741617332 0 -0.21556776439855471 -0.30681771465312918 0 -0.20821270098734149 -0.2938682684346583 0 -0.20950693229181139 -0.31728332741617332 0 -0.20821270098734149 -0.2938682684346583 0 -0.21556776439855471 -0.30681771465312918 0 -0.21723332506015869 -0.29973632662101379 0 -0.20821270098734149 -0.2938682684346583 0 -0.2010283209960598 -0.31430387777815338 0 -0.20821270098734149 -0.2938682684346583 0 -0.18447403556240791 -0.29823490657837509 0 -0.2010283209960598 -0.31430387777815338 0 -0.18447403556240791 -0.29823490657837509 0 -0.1806308451520055 -0.31798701463553081 0 -0.19013203428983749 -0.28232902972422041 0 -0.20821270098734149 -0.2938682684346583 0 -0.18447403556240791 -0.29823490657837509 0 -0.19013203428983749 -0.28232902972422041 0 -0.20821270098734149 -0.2938682684346583 0 -0.2069589773221627 -0.27118606822416419 0 -0.20821270098734149 -0.2938682684346583 0 -0.18447403556240791 -0.29823490657837509 0 -0.20821270098734149 -0.2938682684346583 0 -0.2069589773221627 -0.27118606822416419 0 -0.2214962352675125 -0.27602291290179898 0 -0.22197836937924759 -0.29133612555308452 0 -0.20821270098734149 -0.2938682684346583 0 -0.22197836937924759 -0.29133612555308452 0 -0.20821270098734149 -0.2938682684346583 0 -0.22197836937924759 -0.29133612555308452 0 -0.21723332506015869 -0.29973632662101379 0 -0.20821270098734149 -0.2938682684346583 0 -0.22266169715777201 -0.25375765599846162 0 -0.2214962352675125 -0.27602291290179898 0 -0.2069589773221627 -0.27118606822416419 0 -0.2214962352675125 -0.27602291290179898 0 -0.20821270098734149 -0.2938682684346583 0 -0.2069589773221627 -0.27118606822416419 0 -0.19013203428983749 -0.28232902972422041 0 -0.2069589773221627 -0.27118606822416419 0 -0.18938613547542621 -0.26491558219404021 0 -0.2069589773221627 -0.27118606822416419 0 -0.18938613547542621 -0.26491558219404021 0 -0.205705253656984 -0.24850386801367019 0 -0.18938613547542621 -0.26491558219404021 0 -0.18478090970842381 -0.24771052407825739 0 -0.205705253656984 -0.24850386801367019 0 -0.22266169715777201 -0.25375765599846162 0 -0.2069589773221627 -0.27118606822416419 0 -0.205705253656984 -0.24850386801367019 0 -0.2069589773221627 -0.27118606822416419 0 -0.205705253656984 -0.24850386801367019 0 -0.17271997040605941 -0.25860282223408909 0 -0.14493050638948829 -0.26630168056274722 0 -0.16393078608286479 -0.24650562829992281 0 -0.18938613547542621 -0.26491558219404021 0 -0.17271997040605941 -0.25860282223408909 0 -0.18478090970842381 -0.24771052407825739 0 -0.17271997040605941 -0.25860282223408909 0 -0.18478090970842381 -0.24771052407825739 0 -0.16393078608286479 -0.24650562829992281 0 -0.18938613547542621 -0.26491558219404021 0 -0.17271997040605941 -0.25860282223408909 0 -0.1717438078736806 -0.27372778139252341 0 -0.19013203428983749 -0.28232902972422041 0 -0.18938613547542621 -0.26491558219404021 0 -0.1717438078736806 -0.27372778139252341 0 -0.17271997040605941 -0.25860282223408909 0 -0.1717438078736806 -0.27372778139252341 0 -0.14493050638948829 -0.26630168056274722 0 -0.1705569048240628 -0.2892856356360769 0 -0.1607353701374741 -0.30260154472209078 0 -0.15181558677222631 -0.28749709300080267 0 -0.1717438078736806 -0.27372778139252341 0 -0.1705569048240628 -0.2892856356360769 0 -0.15181558677222631 -0.28749709300080267 0 -0.1705569048240628 -0.2892856356360769 0 -0.18447403556240791 -0.29823490657837509 0 -0.1607353701374741 -0.30260154472209078 0 -0.19013203428983749 -0.28232902972422041 0 -0.1705569048240628 -0.2892856356360769 0 -0.18447403556240791 -0.29823490657837509 0 -0.19013203428983749 -0.28232902972422041 0 -0.1717438078736806 -0.27372778139252341 0 -0.1705569048240628 -0.2892856356360769 0 -0.18447403556240791 -0.29823490657837509 0 -0.1607353701374741 -0.30260154472209078 0 -0.18447403556240791 -0.29823490657837509 0 -0.1607353701374741 -0.30260154472209078 0 -0.1806308451520055 -0.31798701463553081 0 -0.1607353701374741 -0.30260154472209078 0 -0.1369967047125403 -0.3069681828658064 0 -0.1607353701374741 -0.30260154472209078 0 -0.1369967047125403 -0.3069681828658064 0 -0.15464384642047599 -0.32756111071048222 0 -0.1607353701374741 -0.30260154472209078 0 -0.1369967047125403 -0.3069681828658064 0 -0.15181558677222631 -0.28749709300080267 0 -0.1369967047125403 -0.3069681828658064 0 -0.1132580392876066 -0.31133482100952209 0 -0.1369967047125403 -0.3069681828658064 0 -0.12593022669611181 -0.28609773282557149 0 -0.15181558677222631 -0.28749709300080267 0 -0.1717438078736806 -0.27372778139252341 0 -0.15181558677222631 -0.28749709300080267 0 -0.14493050638948829 -0.26630168056274722 0 -0.12593022669611181 -0.28609773282557149 0 -0.15181558677222631 -0.28749709300080267 0 -0.14493050638948829 -0.26630168056274722 0 -0.12593022669611181 -0.28609773282557149 0 -0.14493050638948829 -0.26630168056274722 0 -0.12593022669611181 -0.28609773282557149 0 -0.14493050638948829 -0.26630168056274722 0 -0.12492952334576481 -0.25997552798718271 0 -0.14493050638948829 -0.26630168056274722 0 -0.12492952334576481 -0.25997552798718271 0 -0.13882735349323549 -0.24106164698828261 0 -0.14493050638948829 -0.26630168056274722 0 -0.13882735349323549 -0.24106164698828261 0 -0.16393078608286479 -0.24650562829992281 0 -0.14493050638948829 -0.26630168056274722 0 -0.16393078608286479 -0.24650562829992281 0 -0.16921876449597301 -0.36874983539798761 0 -0.17492480482398931 -0.34336842501675918 0 -0.15231981834487929 -0.35550222076113519 0 -0.18687307669621139 -0.37625738481376392 0 -0.1914579785892255 -0.35285261525372741 0 -0.16921876449597301 -0.36874983539798761 0 -0.1914579785892255 -0.35285261525372741 0 -0.16921876449597301 -0.36874983539798761 0 -0.17492480482398931 -0.34336842501675918 0 -0.16921876449597301 -0.36874983539798761 0 -0.17492480482398931 -0.34336842501675918 0 -0.17492480482398931 -0.34336842501675918 0 -0.1806308451520055 -0.31798701463553081 0 -0.19276156070696371 -0.32835820138499783 0 -0.1914579785892255 -0.35285261525372741 0 -0.17492480482398931 -0.34336842501675918 0 -0.19276156070696371 -0.32835820138499783 0 -0.17492480482398931 -0.34336842501675918 0 -0.1806308451520055 -0.31798701463553081 0 -0.1607353701374741 -0.30260154472209078 0 -0.1806308451520055 -0.31798701463553081 0 -0.15464384642047599 -0.32756111071048222 0 -0.17492480482398931 -0.34336842501675918 0 -0.15464384642047599 -0.32756111071048222 0 -0.15231981834487929 -0.35550222076113519 0 -0.17492480482398931 -0.34336842501675918 0 -0.1806308451520055 -0.31798701463553081 0 -0.15464384642047599 -0.32756111071048222 0 -0.15464384642047599 -0.32756111071048222 0 -0.13998932138980319 -0.3413301938462574 0 -0.15231981834487929 -0.35550222076113519 0 -0.1369967047125403 -0.3069681828658064 0 -0.1260744971528088 -0.32706170138448148 0 -0.1132580392876066 -0.31133482100952209 0 -0.1369967047125403 -0.3069681828658064 0 -0.15464384642047599 -0.32756111071048222 0 -0.1260744971528088 -0.32706170138448148 0 -0.1260744971528088 -0.32706170138448148 0 -0.13998932138980319 -0.3413301938462574 0 -0.1252766957454349 -0.35068478538797659 0 -0.15464384642047599 -0.32756111071048222 0 -0.1260744971528088 -0.32706170138448148 0 -0.13998932138980319 -0.3413301938462574 0 -0.13998932138980319 -0.3413301938462574 0 -0.1252766957454349 -0.35068478538797659 0 -0.15231981834487929 -0.35550222076113519 0 -0.16921876449597301 -0.36874983539798761 0 -0.15231981834487929 -0.35550222076113519 0 -0.1415333796211557 -0.37362514247251549 0 -0.1252766957454349 -0.35068478538797659 0 -0.15231981834487929 -0.35550222076113519 0 -0.1415333796211557 -0.37362514247251549 0 -0.1252766957454349 -0.35068478538797659 0 -0.1415333796211557 -0.37362514247251549 0 -0.11442742970972029 -0.36617419393313738 0 -0.11442742970972029 -0.36617419393313738 0 -0.097527147386595348 -0.36839789869716788 0 -0.10381373531126779 -0.35396695505140119 0 -0.11442742970972029 -0.36617419393313738 0 -0.097527147386595348 -0.36839789869716788 0 -0.1125719657568152 -0.38622125221252918 0 -0.097527147386595348 -0.36839789869716788 0 -0.10381373531126779 -0.35396695505140119 0 -0.087771593061373929 -0.35604466098191367 0 -0.10381373531126779 -0.35396695505140119 0 -0.089782955189929778 -0.34050716226066008 0 -0.087771593061373929 -0.35604466098191367 0 -0.10381373531126779 -0.35396695505140119 0 -0.1095599402302936 -0.33884583343532809 0 -0.089782955189929778 -0.34050716226066008 0 -0.1252766957454349 -0.35068478538797659 0 -0.11442742970972029 -0.36617419393313738 0 -0.10381373531126779 -0.35396695505140119 0 -0.1252766957454349 -0.35068478538797659 0 -0.10381373531126779 -0.35396695505140119 0 -0.1095599402302936 -0.33884583343532809 0 -0.1260744971528088 -0.32706170138448148 0 -0.1252766957454349 -0.35068478538797659 0 -0.1095599402302936 -0.33884583343532809 0 -0.1260744971528088 -0.32706170138448148 0 -0.1095599402302936 -0.33884583343532809 0 -0.1132580392876066 -0.31133482100952209 0 -0.097636375651863894 -0.32512612961633569 0 -0.1132580392876066 -0.31133482100952209 0 -0.093626002893408972 -0.3085445723053884 0 -0.1095599402302936 -0.33884583343532809 0 -0.097636375651863894 -0.32512612961633569 0 -0.1132580392876066 -0.31133482100952209 0 -0.1095599402302936 -0.33884583343532809 0 -0.097636375651863894 -0.32512612961633569 0 -0.089782955189929778 -0.34050716226066008 0 -0.097636375651863894 -0.32512612961633569 0 -0.089782955189929778 -0.34050716226066008 0 -0.081954940658080608 -0.32639825907078007 0 -0.089782955189929778 -0.34050716226066008 0 -0.081954940658080608 -0.32639825907078007 0 -0.071890072988796475 -0.34360339679059188 0 -0.081954940658080608 -0.32639825907078007 0 -0.093626002893408972 -0.3085445723053884 0 -0.077054939709608028 -0.31097516285842303 0 -0.097636375651863894 -0.32512612961633569 0 -0.081954940658080608 -0.32639825907078007 0 -0.093626002893408972 -0.3085445723053884 0 -0.06825636370030376 -0.32266213876380317 0 -0.077054939709608028 -0.31097516285842303 0 -0.061262130124499208 -0.31287758791893211 0 -0.081954940658080608 -0.32639825907078007 0 -0.06825636370030376 -0.32266213876380317 0 -0.077054939709608028 -0.31097516285842303 0 -0.081954940658080608 -0.32639825907078007 0 -0.06825636370030376 -0.32266213876380317 0 -0.071890072988796475 -0.34360339679059188 0 -0.06825636370030376 -0.32266213876380317 0 -0.071890072988796475 -0.34360339679059188 0 -0.058304390987518523 -0.32941602488016353 0 -0.071890072988796475 -0.34360339679059188 0 -0.075376210553919909 -0.36575283847360063 0 -0.059777420490438188 -0.36147304631292282 0 -0.075376210553919909 -0.36575283847360063 0 -0.057884441907496448 -0.37492017849484832 0 -0.059777420490438188 -0.36147304631292282 0 -0.075376210553919909 -0.36575283847360063 0 -0.057884441907496448 -0.37492017849484832 0 -0.069672178880008651 -0.38378204106478808 0 -0.097527147386595348 -0.36839789869716788 0 -0.075376210553919909 -0.36575283847360063 0 -0.092004184538285377 -0.38560376656045381 0 -0.097527147386595348 -0.36839789869716788 0 -0.075376210553919909 -0.36575283847360063 0 -0.087771593061373929 -0.35604466098191367 0 -0.089782955189929778 -0.34050716226066008 0 -0.071890072988796475 -0.34360339679059188 0 -0.087771593061373929 -0.35604466098191367 0 -0.071890072988796475 -0.34360339679059188 0 -0.075376210553919909 -0.36575283847360063 0 -0.087771593061373929 -0.35604466098191367 0 -0.097913528590199625 -0.26357797666139088 0 -0.10878086241107481 -0.25345300724896019 0 -0.1110185166179951 -0.27406252195247749 0 -0.096802277181896712 -0.25047269806465983 0 -0.097913528590199625 -0.26357797666139088 0 -0.10878086241107481 -0.25345300724896019 0 -0.10878086241107481 -0.25345300724896019 0 -0.12492952334576481 -0.25997552798718271 0 -0.1171341615731636 -0.23838965339439949 0 -0.10878086241107481 -0.25345300724896019 0 -0.12492952334576481 -0.25997552798718271 0 -0.1110185166179951 -0.27406252195247749 0 -0.12593022669611181 -0.28609773282557149 0 -0.12492952334576481 -0.25997552798718271 0 -0.1110185166179951 -0.27406252195247749 0 -0.097913528590199625 -0.26357797666139088 0 -0.1110185166179951 -0.27406252195247749 0 -0.096610022070478821 -0.28639446296027732 0 -0.097913528590199625 -0.26357797666139088 0 -0.096610022070478821 -0.28639446296027732 0 -0.086825364573089703 -0.27178785321556143 0 -0.096610022070478821 -0.28639446296027732 0 -0.11194693659434091 -0.29487642403148268 0 -0.093626002893408972 -0.3085445723053884 0 -0.1110185166179951 -0.27406252195247749 0 -0.096610022070478821 -0.28639446296027732 0 -0.11194693659434091 -0.29487642403148268 0 -0.1369967047125403 -0.3069681828658064 0 -0.12593022669611181 -0.28609773282557149 0 -0.11194693659434091 -0.29487642403148268 0 -0.12593022669611181 -0.28609773282557149 0 -0.1110185166179951 -0.27406252195247749 0 -0.11194693659434091 -0.29487642403148268 0 -0.1369967047125403 -0.3069681828658064 0 -0.11194693659434091 -0.29487642403148268 0 -0.1132580392876066 -0.31133482100952209 0 -0.11194693659434091 -0.29487642403148268 0 -0.1132580392876066 -0.31133482100952209 0 -0.093626002893408972 -0.3085445723053884 0 -0.093626002893408972 -0.3085445723053884 0 -0.08405000884571931 -0.29770540631374581 0 -0.077054939709608028 -0.31097516285842303 0 -0.096610022070478821 -0.28639446296027732 0 -0.093626002893408972 -0.3085445723053884 0 -0.08405000884571931 -0.29770540631374581 0 -0.077054939709608028 -0.31097516285842303 0 -0.071771103458559915 -0.29866424303450489 0 -0.061262130124499208 -0.31287758791893211 0 -0.071771103458559915 -0.29866424303450489 0 -0.058232004970390008 -0.3000107243015912 0 -0.061262130124499208 -0.31287758791893211 0 -0.08405000884571931 -0.29770540631374581 0 -0.077054939709608028 -0.31097516285842303 0 -0.071771103458559915 -0.29866424303450489 0 -0.071771103458559915 -0.29866424303450489 0 -0.067341161350629328 -0.28471258953172962 0 -0.081187976096540826 -0.28394859041013509 0 -0.071771103458559915 -0.29866424303450489 0 -0.067341161350629328 -0.28471258953172962 0 -0.058232004970390008 -0.3000107243015912 0 -0.08405000884571931 -0.29770540631374581 0 -0.071771103458559915 -0.29866424303450489 0 -0.081187976096540826 -0.28394859041013509 0 -0.096610022070478821 -0.28639446296027732 0 -0.08405000884571931 -0.29770540631374581 0 -0.081187976096540826 -0.28394859041013509 0 -0.096610022070478821 -0.28639446296027732 0 -0.081187976096540826 -0.28394859041013509 0 -0.086825364573089703 -0.27178785321556143 0 -0.081187976096540826 -0.28394859041013509 0 -0.086825364573089703 -0.27178785321556143 0 -0.074951937629960552 -0.26933132071378812 0 -0.067341161350629328 -0.28471258953172962 0 -0.081187976096540826 -0.28394859041013509 0 -0.074951937629960552 -0.26933132071378812 0 -0.074951937629960552 -0.26933132071378812 0 -0.063837354597986048 -0.25516887162990298 0 -0.062354096676522613 -0.27253482554208441 0 -0.067341161350629328 -0.28471258953172962 0 -0.074951937629960552 -0.26933132071378812 0 -0.062354096676522613 -0.27253482554208441 0 -0.063837354597986048 -0.25516887162990298 0 -0.083463358478268676 -0.25568691533221571 0 -0.073645866817058162 -0.24170425137741011 0 -0.074951937629960552 -0.26933132071378812 0 -0.063837354597986048 -0.25516887162990298 0 -0.083463358478268676 -0.25568691533221571 0 -0.086825364573089703 -0.27178785321556143 0 -0.074951937629960552 -0.26933132071378812 0 -0.083463358478268676 -0.25568691533221571 0 -0.097913528590199625 -0.26357797666139088 0 -0.086825364573089703 -0.27178785321556143 0 -0.083463358478268676 -0.25568691533221571 0 -0.096802277181896712 -0.25047269806465983 0 -0.097913528590199625 -0.26357797666139088 0 -0.083463358478268676 -0.25568691533221571 0 -0.033931419553162992 -0.25243443967869411 0 -0.040355687393542339 -0.26545751599264228 0 -0.024496784770800691 -0.26545238102148061 0 -0.033931419553162992 -0.25243443967869411 0 -0.0479699143464224 -0.25594123721609341 0 -0.049807630765952113 -0.24433781378872521 0 -0.033931419553162992 -0.25243443967869411 0 -0.040355687393542339 -0.26545751599264228 0 -0.0479699143464224 -0.25594123721609341 0 -0.063837354597986048 -0.25516887162990298 0 -0.053018835755254082 -0.26543439994687451 0 -0.062354096676522613 -0.27253482554208441 0 -0.063837354597986048 -0.25516887162990298 0 -0.0479699143464224 -0.25594123721609341 0 -0.053018835755254082 -0.26543439994687451 0 -0.063837354597986048 -0.25516887162990298 0 -0.0479699143464224 -0.25594123721609341 0 -0.049807630765952113 -0.24433781378872521 0 -0.040355687393542339 -0.26545751599264228 0 -0.0479699143464224 -0.25594123721609341 0 -0.053018835755254082 -0.26543439994687451 0 -0.053018835755254082 -0.26543439994687451 0 -0.062354096676522613 -0.27253482554208441 0 -0.046041491585377542 -0.27638873221117288 0 -0.062354096676522613 -0.27253482554208441 0 -0.046041491585377542 -0.27638873221117288 0 -0.053131041592113112 -0.28744462798575571 0 -0.040355687393542339 -0.26545751599264228 0 -0.033599092354777427 -0.27747810350666979 0 -0.024496784770800691 -0.26545238102148061 0 -0.040355687393542339 -0.26545751599264228 0 -0.046041491585377542 -0.27638873221117288 0 -0.033599092354777427 -0.27747810350666979 0 -0.040355687393542339 -0.26545751599264228 0 -0.053018835755254082 -0.26543439994687451 0 -0.046041491585377542 -0.27638873221117288 0 -0.033599092354777427 -0.27747810350666979 0 -0.039302231122222447 -0.29006283646456832 0 -0.029518747989731892 -0.28708597692186161 0 -0.039302231122222447 -0.29006283646456832 0 -0.04549500361592717 -0.29998880776752651 0 -0.031785220204890142 -0.30012966687057469 0 -0.039302231122222447 -0.29006283646456832 0 -0.031785220204890142 -0.30012966687057469 0 -0.029518747989731892 -0.28708597692186161 0 -0.039302231122222447 -0.29006283646456832 0 -0.053131041592113112 -0.28744462798575571 0 -0.04549500361592717 -0.29998880776752651 0 -0.046041491585377542 -0.27638873221117288 0 -0.039302231122222447 -0.29006283646456832 0 -0.053131041592113112 -0.28744462798575571 0 -0.046041491585377542 -0.27638873221117288 0 -0.033599092354777427 -0.27747810350666979 0 -0.039302231122222447 -0.29006283646456832 0 -0.067341161350629328 -0.28471258953172962 0 -0.062354096676522613 -0.27253482554208441 0 -0.053131041592113112 -0.28744462798575571 0 -0.067341161350629328 -0.28471258953172962 0 -0.053131041592113112 -0.28744462798575571 0 -0.058232004970390008 -0.3000107243015912 0 -0.053131041592113112 -0.28744462798575571 0 -0.058232004970390008 -0.3000107243015912 0 -0.04549500361592717 -0.29998880776752651 0 -0.058232004970390008 -0.3000107243015912 0 -0.04549500361592717 -0.29998880776752651 0 -0.046451624885272928 -0.31292460837073771 0 -0.058232004970390008 -0.3000107243015912 0 -0.061262130124499208 -0.31287758791893211 0 -0.046451624885272928 -0.31292460837073771 0 -0.04549500361592717 -0.29998880776752651 0 -0.038279652417818888 -0.30739685680095391 0 -0.046451624885272928 -0.31292460837073771 0 -0.04549500361592717 -0.29998880776752651 0 -0.031785220204890142 -0.30012966687057469 0 -0.038279652417818888 -0.30739685680095391 0 -0.031785220204890142 -0.30012966687057469 0 -0.038279652417818888 -0.30739685680095391 0 -0.031389584557428948 -0.31290931140041223 0 -0.031785220204890142 -0.30012966687057469 0 -0.024953760930732909 -0.30748789046258379 0 -0.031389584557428948 -0.31290931140041223 0 -0.031785220204890142 -0.30012966687057469 0 -0.02006905777324075 -0.30160194142255531 0 -0.023750172863124159 -0.29421333752260531 0 -0.031785220204890142 -0.30012966687057469 0 -0.024953760930732909 -0.30748789046258379 0 -0.02006905777324075 -0.30160194142255531 0 -0.02006905777324075 -0.30160194142255531 0 -0.01466638490223281 -0.29658526055596968 0 -0.023750172863124159 -0.29421333752260531 0 -0.02006905777324075 -0.30160194142255531 0 -0.018464604443252559 -0.31233182418412331 0 -0.01132255391880823 -0.30560022420624389 0 -0.024953760930732909 -0.30748789046258379 0 -0.02006905777324075 -0.30160194142255531 0 -0.018464604443252559 -0.31233182418412331 0 -0.018464604443252559 -0.31233182418412331 0 -0.01132255391880823 -0.30560022420624389 0 -0.01055452582461943 -0.31590966665787001 0 -0.01132255391880823 -0.30560022420624389 0 -0.0034640868095865982 -0.31060087838599021 0 -0.01055452582461943 -0.31590966665787001 0 -0.01132255391880823 -0.30560022420624389 0 -0.0034640868095865982 -0.31060087838599021 0 -0.0034232451820304941 -0.30331653818697141 0 -0.0034640868095865982 -0.31060087838599021 0 -0.0034232451820304941 -0.30331653818697141 0 0.0010257972367942951 -0.30443570348051402 0 -0.0034640868095865982 -0.31060087838599021 0 0.00229542296049295 -0.31122964705265632 0 0.0010257972367942951 -0.30443570348051402 0 -0.01132255391880823 -0.30560022420624389 0 -0.0034232451820304941 -0.30331653818697141 0 -0.0081106099153279848 -0.29919863257814872 0 -0.0021474977539600809 -0.29714664822596559 0 -0.0034232451820304941 -0.30331653818697141 0 -0.0001018891203435732 -0.30094362704210798 0 -0.0034232451820304941 -0.30331653818697141 0 -0.0001018891203435732 -0.30094362704210798 0 0.0010257972367942951 -0.30443570348051402 0 -0.0021474977539600809 -0.29714664822596559 0 -0.0034232451820304941 -0.30331653818697141 0 -0.0081106099153279848 -0.29919863257814872 0 -0.01132255391880823 -0.30560022420624389 0 -0.0081106099153279848 -0.29919863257814872 0 -0.01466638490223281 -0.29658526055596968 0 -0.02006905777324075 -0.30160194142255531 0 -0.01132255391880823 -0.30560022420624389 0 -0.01466638490223281 -0.29658526055596968 0 -0.001934363279334723 -0.29061153365542308 0 -0.0087191888922782991 -0.28224006133233009 0 0.0071531630381951464 -0.28302568377767501 0 -0.01466638490223281 -0.29658526055596968 0 -0.0092336571537862903 -0.29168161589571229 0 -0.01804062767326561 -0.28853149607499767 0 -0.0081106099153279848 -0.29919863257814872 0 -0.01466638490223281 -0.29658526055596968 0 -0.0092336571537862903 -0.29168161589571229 0 -0.0021474977539600809 -0.29714664822596559 0 -0.001934363279334723 -0.29061153365542308 0 0.0039235629823402007 -0.29959465834849702 0 -0.0021474977539600809 -0.29714664822596559 0 -0.0081106099153279848 -0.29919863257814872 0 -0.0092336571537862903 -0.29168161589571229 0 -0.0021474977539600809 -0.29714664822596559 0 -0.0092336571537862903 -0.29168161589571229 0 -0.001934363279334723 -0.29061153365542308 0 -0.0092336571537862903 -0.29168161589571229 0 -0.001934363279334723 -0.29061153365542308 0 -0.0087191888922782991 -0.28224006133233009 0 -0.0092336571537862903 -0.29168161589571229 0 -0.0087191888922782991 -0.28224006133233009 0 -0.01804062767326561 -0.28853149607499767 0 -0.01804062767326561 -0.28853149607499767 0 -0.029518747989731892 -0.28708597692186161 0 -0.02117177046388647 -0.2803425829549539 0 -0.0087191888922782991 -0.28224006133233009 0 -0.01804062767326561 -0.28853149607499767 0 -0.02117177046388647 -0.2803425829549539 0 -0.01466638490223281 -0.29658526055596968 0 -0.01804062767326561 -0.28853149607499767 0 -0.023750172863124159 -0.29421333752260531 0 -0.031785220204890142 -0.30012966687057469 0 -0.023750172863124159 -0.29421333752260531 0 -0.029518747989731892 -0.28708597692186161 0 -0.01804062767326561 -0.28853149607499767 0 -0.023750172863124159 -0.29421333752260531 0 -0.029518747989731892 -0.28708597692186161 0 -0.033599092354777427 -0.27747810350666979 0 -0.029518747989731892 -0.28708597692186161 0 -0.02117177046388647 -0.2803425829549539 0 -0.033599092354777427 -0.27747810350666979 0 -0.02117177046388647 -0.2803425829549539 0 -0.024496784770800691 -0.26545238102148061 0 -0.01376838080126792 -0.27182322160885503 0 -0.0091696910790564305 -0.26246785701139191 0 -0.024496784770800691 -0.26545238102148061 0 -0.02117177046388647 -0.2803425829549539 0 -0.01376838080126792 -0.27182322160885503 0 -0.024496784770800691 -0.26545238102148061 0 -0.0087191888922782991 -0.28224006133233009 0 -0.0030813648392770988 -0.27223975344966711 0 -0.01376838080126792 -0.27182322160885503 0 -0.0087191888922782991 -0.28224006133233009 0 -0.0030813648392770988 -0.27223975344966711 0 0.0071531630381951464 -0.28302568377767501 0 -0.0030813648392770988 -0.27223975344966711 0 -0.0091696910790564305 -0.26246785701139191 0 0.0075336796531474334 -0.26372292552974141 0 -0.0087191888922782991 -0.28224006133233009 0 -0.02117177046388647 -0.2803425829549539 0 -0.01376838080126792 -0.27182322160885503 0 -0.0030813648392770988 -0.27223975344966711 0 -0.01376838080126792 -0.27182322160885503 0 -0.0091696910790564305 -0.26246785701139191 0 -0.0091696910790564305 -0.26246785701139191 0 -0.002950157048249026 -0.25282991239742242 0 0.0075336796531474334 -0.26372292552974141 0 -0.0091696910790564305 -0.26246785701139191 0 -0.002950157048249026 -0.25282991239742242 0 -0.016667998652543831 -0.2535907064639833 0 -0.033931419553162992 -0.25243443967869411 0 -0.016667998652543831 -0.2535907064639833 0 -0.024496784770800691 -0.26545238102148061 0 -0.0091696910790564305 -0.26246785701139191 0 -0.016667998652543831 -0.2535907064639833 0 -0.024496784770800691 -0.26545238102148061 0 -0.037474132798204621 -0.35332162499630598 0 -0.044253489425070222 -0.36807898565151542 0 -0.054281514083226991 -0.34729148282381339 0 -0.037474132798204621 -0.35332162499630598 0 -0.054281514083226991 -0.34729148282381339 0 -0.039311616741979381 -0.34019776531064289 0 -0.037474132798204621 -0.35332162499630598 0 -0.039311616741979381 -0.34019776531064289 0 -0.023588305220887611 -0.34910171688691488 0 -0.037474132798204621 -0.35332162499630598 0 -0.044253489425070222 -0.36807898565151542 0 -0.02593573851985892 -0.36193817430864322 0 -0.044253489425070222 -0.36807898565151542 0 -0.02872955835970244 -0.37468492499010853 0 -0.02593573851985892 -0.36193817430864322 0 -0.044253489425070222 -0.36807898565151542 0 -0.02872955835970244 -0.37468492499010853 0 -0.044253489425070222 -0.36807898565151542 0 -0.059777420490438188 -0.36147304631292282 0 -0.044253489425070222 -0.36807898565151542 0 -0.057884441907496448 -0.37492017849484832 0 -0.059777420490438188 -0.36147304631292282 0 -0.044253489425070222 -0.36807898565151542 0 -0.059777420490438188 -0.36147304631292282 0 -0.054281514083226991 -0.34729148282381339 0 -0.071890072988796475 -0.34360339679059188 0 -0.059777420490438188 -0.36147304631292282 0 -0.054281514083226991 -0.34729148282381339 0 -0.071890072988796475 -0.34360339679059188 0 -0.054281514083226991 -0.34729148282381339 0 -0.058304390987518523 -0.32941602488016353 0 -0.054281514083226991 -0.34729148282381339 0 -0.058304390987518523 -0.32941602488016353 0 -0.049154214821390617 -0.3360399027666644 0 -0.058304390987518523 -0.32941602488016353 0 -0.049154214821390617 -0.3360399027666644 0 -0.044719337472837621 -0.32725433805203791 0 -0.054281514083226991 -0.34729148282381339 0 -0.049154214821390617 -0.3360399027666644 0 -0.039311616741979381 -0.34019776531064289 0 -0.06825636370030376 -0.32266213876380317 0 -0.061262130124499208 -0.31287758791893211 0 -0.053581725618547883 -0.32043774983497852 0 -0.06825636370030376 -0.32266213876380317 0 -0.058304390987518523 -0.32941602488016353 0 -0.053581725618547883 -0.32043774983497852 0 -0.058304390987518523 -0.32941602488016353 0 -0.053581725618547883 -0.32043774983497852 0 -0.044719337472837621 -0.32725433805203791 0 -0.053581725618547883 -0.32043774983497852 0 -0.046451624885272928 -0.31292460837073771 0 -0.044719337472837621 -0.32725433805203791 0 -0.061262130124499208 -0.31287758791893211 0 -0.053581725618547883 -0.32043774983497852 0 -0.046451624885272928 -0.31292460837073771 0 -0.038279652417818888 -0.30739685680095391 0 -0.046451624885272928 -0.31292460837073771 0 -0.037749158146265338 -0.31869032214462051 0 -0.046451624885272928 -0.31292460837073771 0 -0.044719337472837621 -0.32725433805203791 0 -0.037749158146265338 -0.31869032214462051 0 -0.044719337472837621 -0.32725433805203791 0 -0.037749158146265338 -0.31869032214462051 0 -0.031077098774420581 -0.32548914904373139 0 -0.037749158146265338 -0.31869032214462051 0 -0.031389584557428948 -0.31290931140041223 0 -0.031077098774420581 -0.32548914904373139 0 -0.038279652417818888 -0.30739685680095391 0 -0.037749158146265338 -0.31869032214462051 0 -0.031389584557428948 -0.31290931140041223 0 -0.049154214821390617 -0.3360399027666644 0 -0.044719337472837621 -0.32725433805203791 0 -0.039311616741979381 -0.34019776531064289 0 -0.044719337472837621 -0.32725433805203791 0 -0.039311616741979381 -0.34019776531064289 0 -0.031077098774420581 -0.32548914904373139 0 -0.039311616741979381 -0.34019776531064289 0 -0.025950853777243821 -0.33685717584251917 0 -0.031077098774420581 -0.32548914904373139 0 -0.039311616741979381 -0.34019776531064289 0 -0.025950853777243821 -0.33685717584251917 0 -0.023588305220887611 -0.34910171688691488 0 -0.025950853777243821 -0.33685717584251917 0 -0.031077098774420581 -0.32548914904373139 0 -0.019151995326426152 -0.32383197416400522 0 -0.025950853777243821 -0.33685717584251917 0 -0.019151995326426152 -0.32383197416400522 0 -0.014029406448907419 -0.33411467320893617 0 -0.025950853777243821 -0.33685717584251917 0 -0.014029406448907419 -0.33411467320893617 0 -0.023588305220887611 -0.34910171688691488 0 -0.031389584557428948 -0.31290931140041223 0 -0.02480375262951845 -0.31831176930860838 0 -0.031077098774420581 -0.32548914904373139 0 -0.024953760930732909 -0.30748789046258379 0 -0.031389584557428948 -0.31290931140041223 0 -0.02480375262951845 -0.31831176930860838 0 -0.02480375262951845 -0.31831176930860838 0 -0.031077098774420581 -0.32548914904373139 0 -0.019151995326426152 -0.32383197416400522 0 -0.024953760930732909 -0.30748789046258379 0 -0.018464604443252559 -0.31233182418412331 0 -0.02480375262951845 -0.31831176930860838 0 -0.018464604443252559 -0.31233182418412331 0 -0.02480375262951845 -0.31831176930860838 0 -0.019151995326426152 -0.32383197416400522 0 -0.018464604443252559 -0.31233182418412331 0 -0.019151995326426152 -0.32383197416400522 0 -0.01055452582461943 -0.31590966665787001 0 -0.019151995326426152 -0.32383197416400522 0 -0.01055452582461943 -0.31590966665787001 0 -0.0086783628056537783 -0.32415273343016893 0 -0.019151995326426152 -0.32383197416400522 0 -0.0086783628056537783 -0.32415273343016893 0 -0.014029406448907419 -0.33411467320893617 0 -0.0086783628056537783 -0.32415273343016893 0 -0.0010326814487084379 -0.3197639796436984 0 -0.0032348283285651052 -0.33063069068097423 0 -0.01055452582461943 -0.31590966665787001 0 -0.0086783628056537783 -0.32415273343016893 0 -0.0010326814487084379 -0.3197639796436984 0 -0.0034640868095865982 -0.31060087838599021 0 -0.01055452582461943 -0.31590966665787001 0 -0.0010326814487084379 -0.3197639796436984 0 -0.0034640868095865982 -0.31060087838599021 0 -0.0010326814487084379 -0.3197639796436984 0 0.00229542296049295 -0.31122964705265632 0 -0.014029406448907419 -0.33411467320893617 0 -0.0067310561763213013 -0.34456988467537958 0 -0.023588305220887611 -0.34910171688691488 0 -0.014029406448907419 -0.33411467320893617 0 -0.0032348283285651052 -0.33063069068097423 0 -0.0067310561763213013 -0.34456988467537958 0 -0.0086783628056537783 -0.32415273343016893 0 -0.014029406448907419 -0.33411467320893617 0 -0.0032348283285651052 -0.33063069068097423 0 -0.0032348283285651052 -0.33063069068097423 0 -0.0067310561763213013 -0.34456988467537958 0 0.0061066593841971233 -0.33611247748115858 0 -0.0067310561763213013 -0.34456988467537958 0 -0.01147291546927998 -0.36358950995223982 0 0.005783727421145201 -0.35249409491437522 0 -0.0067310561763213013 -0.34456988467537958 0 -0.023588305220887611 -0.34910171688691488 0 -0.01147291546927998 -0.36358950995223982 0 -0.01147291546927998 -0.36358950995223982 0 0.005783727421145201 -0.35249409491437522 0 -0.023588305220887611 -0.34910171688691488 0 -0.02593573851985892 -0.36193817430864322 0 -0.01147291546927998 -0.36358950995223982 0 -0.037474132798204621 -0.35332162499630598 0 -0.023588305220887611 -0.34910171688691488 0 -0.02593573851985892 -0.36193817430864322 0 -0.02872955835970244 -0.37468492499010853 0 -0.01147291546927998 -0.36358950995223982 0 -0.02872955835970244 -0.37468492499010853 0 -0.02593573851985892 -0.36193817430864322 0 -0.01147291546927998 -0.36358950995223982 0 -0.02872955835970244 -0.37468492499010853 0 -0.01147291546927998 -0.36358950995223982 0 -0.0064145476522704794 -0.37079448180321728 0 -0.01147291546927998 -0.36358950995223982 0 -0.0064145476522704794 -0.37079448180321728 0 0.005783727421145201 -0.35249409491437522 0 -0.0064145476522704794 -0.37079448180321728 0 -0.0013738327214499069 -0.37718743810894501 0 0.0023036431624136882 -0.37201589625552062 0 -0.0013738327214499069 -0.37718743810894501 0 -0.0091041324141213614 -0.38303618426487851 0 0.003469052552645202 -0.38272666565252927 0 -0.02872955835970244 -0.37468492499010853 0 -0.0064145476522704794 -0.37079448180321728 0 -0.0091041324141213614 -0.38303618426487851 0 -0.0091041324141213614 -0.38303618426487851 0 -0.0052600663956949281 -0.39665458557681388 0 0.01052129353145956 -0.39138744353964888 0 -0.0064145476522704794 -0.37079448180321728 0 -0.0013738327214499069 -0.37718743810894501 0 -0.0091041324141213614 -0.38303618426487851 0 -0.0052600663956949281 -0.39665458557681388 0 -0.026398809331575651 -0.39644314001879177 0 -0.01074906716519978 -0.4088580781313354 0 -0.0091041324141213614 -0.38303618426487851 0 -0.0052600663956949281 -0.39665458557681388 0 -0.026398809331575651 -0.39644314001879177 0 -0.0052600663956949281 -0.39665458557681388 0 -0.01074906716519978 -0.4088580781313354 0 0.0041565920089453659 -0.40677442097444511 0 -0.02872955835970244 -0.37468492499010853 0 -0.0091041324141213614 -0.38303618426487851 0 -0.02872955835970244 -0.37468492499010853 0 -0.0091041324141213614 -0.38303618426487851 0 -0.026398809331575651 -0.39644314001879177 0 -0.044253489425070222 -0.36807898565151542 0 -0.02872955835970244 -0.37468492499010853 0 -0.051149918808476837 -0.3891004289822475 0 -0.02872955835970244 -0.37468492499010853 0 -0.051149918808476837 -0.3891004289822475 0 -0.02872955835970244 -0.37468492499010853 0 -0.026398809331575651 -0.39644314001879177 0 -0.051149918808476837 -0.3891004289822475 0 -0.026398809331575651 -0.39644314001879177 0 -0.051149918808476837 -0.3891004289822475 0 -0.055272657265987263 -0.40733124331174242 0 -0.051149918808476837 -0.3891004289822475 0 -0.073570279257251486 -0.40351593297438593 0 -0.051149918808476837 -0.3891004289822475 0 -0.055272657265987263 -0.40733124331174242 0 -0.073570279257251486 -0.40351593297438593 0 -0.044253489425070222 -0.36807898565151542 0 -0.057884441907496448 -0.37492017849484832 0 -0.051149918808476837 -0.3891004289822475 0 -0.057884441907496448 -0.37492017849484832 0 -0.051149918808476837 -0.3891004289822475 0 -0.069672178880008651 -0.38378204106478808 0 -0.05147194147581112 -0.43651553784270181 0 -0.04258790860908164 -0.42105919709286671 0 -0.070346077472481658 -0.4226880616113004 0 -0.055272657265987263 -0.40733124331174242 0 -0.04258790860908164 -0.42105919709286671 0 -0.070346077472481658 -0.4226880616113004 0 -0.026398809331575651 -0.39644314001879177 0 -0.055272657265987263 -0.40733124331174242 0 -0.04258790860908164 -0.42105919709286671 0 -0.04258790860908164 -0.42105919709286671 0 -0.035977082160774269 -0.43520867470807573 0 -0.022887918124319132 -0.42256777897096542 0 -0.05147194147581112 -0.43651553784270181 0 -0.04258790860908164 -0.42105919709286671 0 -0.035977082160774269 -0.43520867470807573 0 -0.022887918124319132 -0.42256777897096542 0 -0.0077384208787153784 -0.42454613935415131 0 -0.01907266337142445 -0.44162376069801029 0 -0.035977082160774269 -0.43520867470807573 0 -0.022887918124319132 -0.42256777897096542 0 -0.01907266337142445 -0.44162376069801029 0 -0.026398809331575651 -0.39644314001879177 0 -0.022887918124319132 -0.42256777897096542 0 -0.01074906716519978 -0.4088580781313354 0 -0.026398809331575651 -0.39644314001879177 0 -0.04258790860908164 -0.42105919709286671 0 -0.022887918124319132 -0.42256777897096542 0 -0.022887918124319132 -0.42256777897096542 0 -0.01074906716519978 -0.4088580781313354 0 -0.0077384208787153784 -0.42454613935415131 0 -0.01074906716519978 -0.4088580781313354 0 -0.0077384208787153784 -0.42454613935415131 0 0.0041565920089453659 -0.40677442097444511 0 -0.0077384208787153784 -0.42454613935415131 0 -0.01907266337142445 -0.44162376069801029 0 0.0061123916992451011 -0.43099409775433761 0 -0.01907266337142445 -0.44162376069801029 0 0.0061123916992451011 -0.43099409775433761 0 -0.0060416623437871027 -0.44784308303042869 0 -0.01907266337142445 -0.44162376069801029 0 0.0061123916992451011 -0.43099409775433761 0 -0.0060416623437871027 -0.44784308303042869 0 -0.0157286939033803 -0.45372763512147463 0 -0.01907266337142445 -0.44162376069801029 0 -0.0060416623437871027 -0.44784308303042869 0 -0.0043557217703525178 -0.459051300468168 0 0.0062368346562517631 -0.44763810525095771 0 -0.0043557217703525178 -0.459051300468168 0 -0.0157286939033803 -0.45372763512147463 0 -0.02580965427476218 -0.46121496748038709 0 -0.0043557217703525178 -0.459051300468168 0 -0.02580965427476218 -0.46121496748038709 0 -0.0049689105650129184 -0.47133880685411028 0 -0.02580965427476218 -0.46121496748038709 0 -0.0049689105650129184 -0.47133880685411028 0 -0.0043557217703525178 -0.459051300468168 0 -0.02580965427476218 -0.46121496748038709 0 -0.0043557217703525178 -0.459051300468168 0 -0.0049689105650129184 -0.47133880685411028 0 0.0068738434278103333 -0.46757890054221152 0 -0.0060416623437871027 -0.44784308303042869 0 -0.0043557217703525178 -0.459051300468168 0 -0.0157286939033803 -0.45372763512147463 0 -0.02580965427476218 -0.46121496748038709 0 -0.01907266337142445 -0.44162376069801029 0 -0.044257718442095043 -0.45225342364168059 0 -0.0157286939033803 -0.45372763512147463 0 -0.02580965427476218 -0.46121496748038709 0 -0.01907266337142445 -0.44162376069801029 0 -0.01367655667743602 -0.48561589414303941 0 0.0028177711664636798 -0.48327941428068377 0 0.00072594579481488619 -0.5 0 -0.01367655667743602 -0.48561589414303941 0 -0.027318730018121962 -0.5 0 0.00072594579481488619 -0.5 0 -0.01367655667743602 -0.48561589414303941 0 -0.0049689105650129184 -0.47133880685411028 0 0.0028177711664636798 -0.48327941428068377 0 -0.01367655667743602 -0.48561589414303941 0 -0.0049689105650129184 -0.47133880685411028 0 -0.018979960316175049 -0.47464661974753691 0 -0.02580965427476218 -0.46121496748038709 0 -0.018979960316175049 -0.47464661974753691 0 -0.031464719747489059 -0.48041681051261098 0 -0.02580965427476218 -0.46121496748038709 0 -0.0049689105650129184 -0.47133880685411028 0 -0.018979960316175049 -0.47464661974753691 0 -0.01367655667743602 -0.48561589414303941 0 -0.018979960316175049 -0.47464661974753691 0 -0.031464719747489059 -0.48041681051261098 0 -0.01367655667743602 -0.48561589414303941 0 -0.027318730018121962 -0.5 0 -0.031464719747489059 -0.48041681051261098 0 -0.027318730018121962 -0.5 0 -0.031464719747489059 -0.48041681051261098 0 -0.055363405831058872 -0.5 0 -0.046127716902370969 -0.4799725956897623 0 -0.031464719747489059 -0.48041681051261098 0 -0.055363405831058872 -0.5 0 -0.046127716902370969 -0.4799725956897623 0 -0.031464719747489059 -0.48041681051261098 0 -0.040839990103981129 -0.46273080341440792 0 -0.046127716902370969 -0.4799725956897623 0 -0.056842751926954808 -0.47674276883203021 0 -0.040839990103981129 -0.46273080341440792 0 -0.056842751926954808 -0.47674276883203021 0 -0.055363405831058872 -0.5 0 -0.073813198869208591 -0.48261213079940429 0 -0.046127716902370969 -0.4799725956897623 0 -0.056842751926954808 -0.47674276883203021 0 -0.055363405831058872 -0.5 0 -0.035977082160774269 -0.43520867470807573 0 -0.01907266337142445 -0.44162376069801029 0 -0.044257718442095043 -0.45225342364168059 0 -0.01907266337142445 -0.44162376069801029 0 -0.044257718442095043 -0.45225342364168059 0 -0.05147194147581112 -0.43651553784270181 0 -0.035977082160774269 -0.43520867470807573 0 -0.044257718442095043 -0.45225342364168059 0 -0.02580965427476218 -0.46121496748038709 0 -0.044257718442095043 -0.45225342364168059 0 -0.02580965427476218 -0.46121496748038709 0 -0.044257718442095043 -0.45225342364168059 0 -0.040839990103981129 -0.46273080341440792 0 -0.02580965427476218 -0.46121496748038709 0 -0.031464719747489059 -0.48041681051261098 0 -0.040839990103981129 -0.46273080341440792 0 -0.02580965427476218 -0.46121496748038709 0 -0.040839990103981129 -0.46273080341440792 0 -0.044257718442095043 -0.45225342364168059 0 -0.040839990103981129 -0.46273080341440792 0 -0.070383377072332387 -0.46328007991230241 0 -0.044257718442095043 -0.45225342364168059 0 -0.070383377072332387 -0.46328007991230241 0 -0.056842751926954808 -0.47674276883203021 0 -0.040839990103981129 -0.46273080341440792 0 -0.070383377072332387 -0.46328007991230241 0 -0.05147194147581112 -0.43651553784270181 0 -0.044257718442095043 -0.45225342364168059 0 -0.066076068945151181 -0.44165469074765079 0 -0.044257718442095043 -0.45225342364168059 0 -0.066076068945151181 -0.44165469074765079 0 -0.070383377072332387 -0.46328007991230241 0 -0.044257718442095043 -0.45225342364168059 0 -0.066076068945151181 -0.44165469074765079 0 -0.066076068945151181 -0.44165469074765079 0 -0.070383377072332387 -0.46328007991230241 0 -0.087084930714866782 -0.44948006075562691 0 -0.070383377072332387 -0.46328007991230241 0 -0.087084930714866782 -0.44948006075562691 0 -0.096509035702570745 -0.47430673618292157 0 -0.087084930714866782 -0.44948006075562691 0 -0.10042928813774191 -0.43607082047996859 0 -0.087894419448207972 -0.43105595785362261 0 -0.066076068945151181 -0.44165469074765079 0 -0.087084930714866782 -0.44948006075562691 0 -0.087894419448207972 -0.43105595785362261 0 -0.055363405831058872 -0.5 0 -0.073813198869208591 -0.48261213079940429 0 -0.083408081643995713 -0.5 0 -0.056842751926954808 -0.47674276883203021 0 -0.070383377072332387 -0.46328007991230241 0 -0.073813198869208591 -0.48261213079940429 0 -0.070383377072332387 -0.46328007991230241 0 -0.096509035702570745 -0.47430673618292157 0 -0.070383377072332387 -0.46328007991230241 0 -0.073813198869208591 -0.48261213079940429 0 -0.096509035702570745 -0.47430673618292157 0 -0.073813198869208591 -0.48261213079940429 0 -0.083408081643995713 -0.5 0 -0.096509035702570745 -0.47430673618292157 0 -0.083408081643995713 -0.5 0 -0.096509035702570745 -0.47430673618292157 0 -0.1114527574569326 -0.5 0 -0.096509035702570745 -0.47430673618292157 0 -0.1226346943328091 -0.48533339245354079 0 -0.12148619227079301 -0.46835012632522299 0 -0.096509035702570745 -0.47430673618292157 0 -0.1226346943328091 -0.48533339245354079 0 -0.13949743326986949 -0.5 0 -0.1226346943328091 -0.48533339245354079 0 -0.1114527574569326 -0.5 0 -0.096509035702570745 -0.47430673618292157 0 -0.1226346943328091 -0.48533339245354079 0 -0.1114527574569326 -0.5 0 -0.1076011216590774 -0.45160030399385731 0 -0.1184110001548008 -0.43234694095866261 0 -0.10042928813774191 -0.43607082047996859 0 -0.087084930714866782 -0.44948006075562691 0 -0.1076011216590774 -0.45160030399385731 0 -0.10042928813774191 -0.43607082047996859 0 -0.096509035702570745 -0.47430673618292157 0 -0.1076011216590774 -0.45160030399385731 0 -0.12148619227079301 -0.46835012632522299 0 -0.087084930714866782 -0.44948006075562691 0 -0.096509035702570745 -0.47430673618292157 0 -0.1076011216590774 -0.45160030399385731 0 -0.1076011216590774 -0.45160030399385731 0 -0.12148619227079301 -0.46835012632522299 0 -0.1228399064619701 -0.45010157398010681 0 -0.1076011216590774 -0.45160030399385731 0 -0.1228399064619701 -0.45010157398010681 0 -0.1184110001548008 -0.43234694095866261 0 -0.1184110001548008 -0.43234694095866261 0 -0.10042928813774191 -0.43607082047996859 0 -0.095990639706026212 -0.41793143696652418 0 -0.10042928813774191 -0.43607082047996859 0 -0.095990639706026212 -0.41793143696652418 0 -0.087894419448207972 -0.43105595785362261 0 -0.1184110001548008 -0.43234694095866261 0 -0.095990639706026212 -0.41793143696652418 0 -0.1184110001548008 -0.43234694095866261 0 -0.095990639706026212 -0.41793143696652418 0 -0.11284199289691731 -0.40624326413390938 0 -0.12840811959989359 -0.39806301558833979 0 -0.12981618641440601 -0.41609917673097552 0 -0.11284199289691731 -0.40624326413390938 0 -0.12981618641440601 -0.41609917673097552 0 -0.1184110001548008 -0.43234694095866261 0 -0.11284199289691731 -0.40624326413390938 0 -0.095990639706026212 -0.41793143696652418 0 -0.11284199289691731 -0.40624326413390938 0 -0.092004184538285377 -0.38560376656045381 0 -0.12840811959989359 -0.39806301558833979 0 -0.11284199289691731 -0.40624326413390938 0 -0.1125719657568152 -0.38622125221252918 0 -0.1415333796211557 -0.37362514247251549 0 -0.11442742970972029 -0.36617419393313738 0 -0.1125719657568152 -0.38622125221252918 0 -0.097527147386595348 -0.36839789869716788 0 -0.1125719657568152 -0.38622125221252918 0 -0.092004184538285377 -0.38560376656045381 0 -0.11284199289691731 -0.40624326413390938 0 -0.1125719657568152 -0.38622125221252918 0 -0.092004184538285377 -0.38560376656045381 0 -0.092004184538285377 -0.38560376656045381 0 -0.069672178880008651 -0.38378204106478808 0 -0.073570279257251486 -0.40351593297438593 0 -0.095990639706026212 -0.41793143696652418 0 -0.092004184538285377 -0.38560376656045381 0 -0.073570279257251486 -0.40351593297438593 0 -0.075376210553919909 -0.36575283847360063 0 -0.092004184538285377 -0.38560376656045381 0 -0.069672178880008651 -0.38378204106478808 0 -0.051149918808476837 -0.3891004289822475 0 -0.069672178880008651 -0.38378204106478808 0 -0.073570279257251486 -0.40351593297438593 0 -0.055272657265987263 -0.40733124331174242 0 -0.073570279257251486 -0.40351593297438593 0 -0.070346077472481658 -0.4226880616113004 0 -0.066076068945151181 -0.44165469074765079 0 -0.087894419448207972 -0.43105595785362261 0 -0.05147194147581112 -0.43651553784270181 0 -0.066076068945151181 -0.44165469074765079 0 -0.070346077472481658 -0.4226880616113004 0 -0.066076068945151181 -0.44165469074765079 0 -0.070346077472481658 -0.4226880616113004 0 -0.087894419448207972 -0.43105595785362261 0 -0.095990639706026212 -0.41793143696652418 0 -0.070346077472481658 -0.4226880616113004 0 -0.087894419448207972 -0.43105595785362261 0 -0.095990639706026212 -0.41793143696652418 0 -0.073570279257251486 -0.40351593297438593 0 -0.070346077472481658 -0.4226880616113004 0 -0.095990639706026212 -0.41793143696652418 0 -0.073570279257251486 -0.40351593297438593 0 -0.090863316895174712 -0.087050544743528746 0 -0.067205781126149083 -0.082194967041249081 0 -0.090863316895174712 -0.087050544743528746 0 -0.067205781126149083 -0.082194967041249081 0 -0.077891993757698688 -0.097016132115362808 0 -0.090863316895174712 -0.087050544743528746 0 -0.087358501235196825 -0.065127692327583461 0 -0.067205781126149083 -0.082194967041249081 0 -0.087358501235196825 -0.065127692327583461 0 -0.067205781126149083 -0.082194967041249081 0 -0.065055316169906369 -0.053945705618353039 0 -0.067205781126149083 -0.082194967041249081 0 -0.065055316169906369 -0.053945705618353039 0 -0.067205781126149083 -0.082194967041249081 0 -0.068542655937565741 -0.099756623150879103 0 -0.077891993757698688 -0.097016132115362808 0 -0.067205781126149083 -0.082194967041249081 0 -0.068542655937565741 -0.099756623150879103 0 -0.067205781126149083 -0.082194967041249081 0 -0.068542655937565741 -0.099756623150879103 0 -0.052123654667948847 -0.095379626281394181 0 -0.068542655937565741 -0.099756623150879103 0 -0.076261901028473869 -0.10751299863610619 0 -0.069879530748981331 -0.1173182792605092 0 -0.068542655937565741 -0.099756623150879103 0 -0.069879530748981331 -0.1173182792605092 0 -0.068542655937565741 -0.099756623150879103 0 -0.076261901028473869 -0.10751299863610619 0 -0.077891993757698688 -0.097016132115362808 0 -0.059898573951802481 -0.11325556709576701 0 -0.080068129834039492 -0.1257904236908339 0 -0.068025095322454779 -0.1319399044817792 0 -0.069879530748981331 -0.1173182792605092 0 -0.059898573951802481 -0.11325556709576701 0 -0.080068129834039492 -0.1257904236908339 0 -0.068542655937565741 -0.099756623150879103 0 -0.069879530748981331 -0.1173182792605092 0 -0.059898573951802481 -0.11325556709576701 0 -0.059898573951802481 -0.11325556709576701 0 -0.080068129834039492 -0.1257904236908339 0 -0.059898573951802481 -0.11325556709576701 0 -0.068025095322454779 -0.1319399044817792 0 -0.069879530748981331 -0.1173182792605092 0 -0.078100377918237165 -0.1144934430062757 0 -0.078825923273236176 -0.1194100429831919 0 -0.076261901028473869 -0.10751299863610619 0 -0.069879530748981331 -0.1173182792605092 0 -0.078100377918237165 -0.1144934430062757 0 -0.069879530748981331 -0.1173182792605092 0 -0.078825923273236176 -0.1194100429831919 0 -0.080068129834039492 -0.1257904236908339 0 -0.083519995364105273 -0.1240278130506613 0 -0.082404244225256218 -0.1166600345164516 0 -0.08747711551536777 -0.114680046463552 0 -0.083519995364105273 -0.1240278130506613 0 -0.078825923273236176 -0.1194100429831919 0 -0.080068129834039492 -0.1257904236908339 0 -0.083519995364105273 -0.1240278130506613 0 -0.080068129834039492 -0.1257904236908339 0 -0.083519995364105273 -0.1240278130506613 0 -0.078825923273236176 -0.1194100429831919 0 -0.082404244225256218 -0.1166600345164516 0 -0.082404244225256218 -0.1166600345164516 0 -0.082919117146023361 -0.1114604256958641 0 -0.08747711551536777 -0.114680046463552 0 -0.078100377918237165 -0.1144934430062757 0 -0.082404244225256218 -0.1166600345164516 0 -0.082919117146023361 -0.1114604256958641 0 -0.078100377918237165 -0.1144934430062757 0 -0.078825923273236176 -0.1194100429831919 0 -0.082404244225256218 -0.1166600345164516 0 -0.076261901028473869 -0.10751299863610619 0 -0.078100377918237165 -0.1144934430062757 0 -0.082919117146023361 -0.1114604256958641 0 -0.088317837547908326 -0.1100354038052201 0 -0.09296658117563561 -0.1119904271548587 0 -0.08747711551536777 -0.114680046463552 0 -0.082919117146023361 -0.1114604256958641 0 -0.088317837547908326 -0.1100354038052201 0 -0.08747711551536777 -0.114680046463552 0 -0.088317837547908326 -0.1100354038052201 0 -0.09296658117563561 -0.1119904271548587 0 -0.094143861010201849 -0.1062988037826937 0 -0.09296658117563561 -0.1119904271548587 0 -0.08747711551536777 -0.114680046463552 0 -0.09115717055638814 -0.117223578091773 0 -0.083519995364105273 -0.1240278130506613 0 -0.08747711551536777 -0.114680046463552 0 -0.09115717055638814 -0.117223578091773 0 -0.083519995364105273 -0.1240278130506613 0 -0.097673337184180004 -0.11680075548750821 0 -0.083519995364105273 -0.1240278130506613 0 -0.092575504128851183 -0.12448010836379519 0 -0.097673337184180004 -0.11680075548750821 0 -0.083519995364105273 -0.1240278130506613 0 -0.09115717055638814 -0.117223578091773 0 -0.097673337184180004 -0.11680075548750821 0 -0.090863316895174712 -0.087050544743528746 0 -0.077891993757698688 -0.097016132115362808 0 -0.08401015108298554 -0.1054618388127805 0 -0.090863316895174712 -0.087050544743528746 0 -0.08401015108298554 -0.1054618388127805 0 -0.094143861010201849 -0.1062988037826937 0 -0.076261901028473869 -0.10751299863610619 0 -0.077891993757698688 -0.097016132115362808 0 -0.08401015108298554 -0.1054618388127805 0 -0.076261901028473869 -0.10751299863610619 0 -0.082919117146023361 -0.1114604256958641 0 -0.08401015108298554 -0.1054618388127805 0 -0.082919117146023361 -0.1114604256958641 0 -0.088317837547908326 -0.1100354038052201 0 -0.08401015108298554 -0.1054618388127805 0 -0.088317837547908326 -0.1100354038052201 0 -0.08401015108298554 -0.1054618388127805 0 -0.094143861010201849 -0.1062988037826937 0 -0.1035832189317937 -0.10004170585998121 0 -0.1089837484145684 -0.11102537084238071 0 -0.11452085266420101 -0.091906122445804567 0 -0.090863316895174712 -0.087050544743528746 0 -0.094143861010201849 -0.1062988037826937 0 -0.1035832189317937 -0.10004170585998121 0 -0.094143861010201849 -0.1062988037826937 0 -0.1035832189317937 -0.10004170585998121 0 -0.0990165515171465 -0.1104267977317745 0 -0.1035832189317937 -0.10004170585998121 0 -0.0990165515171465 -0.1104267977317745 0 -0.1089837484145684 -0.11102537084238071 0 -0.092575504128851183 -0.12448010836379519 0 -0.097673337184180004 -0.11680075548750821 0 -0.1062453270689438 -0.12048095548755471 0 -0.09296658117563561 -0.1119904271548587 0 -0.09115717055638814 -0.117223578091773 0 -0.097673337184180004 -0.11680075548750821 0 -0.09296658117563561 -0.1119904271548587 0 -0.094143861010201849 -0.1062988037826937 0 -0.0990165515171465 -0.1104267977317745 0 -0.09296658117563561 -0.1119904271548587 0 -0.097673337184180004 -0.11680075548750821 0 -0.0990165515171465 -0.1104267977317745 0 -0.097673337184180004 -0.11680075548750821 0 -0.1089837484145684 -0.11102537084238071 0 -0.097673337184180004 -0.11680075548750821 0 -0.1089837484145684 -0.11102537084238071 0 -0.1062453270689438 -0.12048095548755471 0 -0.1089837484145684 -0.11102537084238071 0 -0.1062453270689438 -0.12048095548755471 0 -0.097673337184180004 -0.11680075548750821 0 -0.0990165515171465 -0.1104267977317745 0 -0.1089837484145684 -0.11102537084238071 0 -0.097673337184180004 -0.11680075548750821 0 -0.1062453270689438 -0.12048095548755471 0 -0.1089837484145684 -0.11102537084238071 0 -0.1062453270689438 -0.12048095548755471 0 -0.1266901189146723 -0.11636094711718201 0 -0.1062453270689438 -0.12048095548755471 0 -0.13376864667402091 -0.13229750242399019 0 -0.1266901189146723 -0.11636094711718201 0 -0.1089837484145684 -0.11102537084238071 0 -0.11452085266420101 -0.091906122445804567 0 -0.1089837484145684 -0.11102537084238071 0 -0.1358712595175208 -0.09729592143451464 0 -0.1089837484145684 -0.11102537084238071 0 -0.11452085266420101 -0.091906122445804567 0 -0.1358712595175208 -0.09729592143451464 0 -0.1089837484145684 -0.11102537084238071 0 -0.1358712595175208 -0.09729592143451464 0 -0.1266901189146723 -0.11636094711718201 0 -0.1164221566124615 -0.08534104784627447 0 -0.11452085266420101 -0.091906122445804567 0 -0.12532025114402709 -0.088793788438863611 0 -0.1164221566124615 -0.08534104784627447 0 -0.1144321571001687 -0.074063281498452871 0 -0.12558292430317611 -0.07834756572090365 0 -0.1164221566124615 -0.08534104784627447 0 -0.12558292430317611 -0.07834756572090365 0 -0.12532025114402709 -0.088793788438863611 0 -0.1164221566124615 -0.08534104784627447 0 -0.103312357151124 -0.081256261555363557 0 -0.1144321571001687 -0.074063281498452871 0 -0.1164221566124615 -0.08534104784627447 0 -0.11452085266420101 -0.091906122445804567 0 -0.103312357151124 -0.081256261555363557 0 -0.1164221566124615 -0.08534104784627447 0 -0.11452085266420101 -0.091906122445804567 0 -0.090863316895174712 -0.087050544743528746 0 -0.1035832189317937 -0.10004170585998121 0 -0.11452085266420101 -0.091906122445804567 0 -0.090863316895174712 -0.087050544743528746 0 -0.11452085266420101 -0.091906122445804567 0 -0.090863316895174712 -0.087050544743528746 0 -0.11452085266420101 -0.091906122445804567 0 -0.103312357151124 -0.081256261555363557 0 -0.090863316895174712 -0.087050544743528746 0 -0.087358501235196825 -0.065127692327583461 0 -0.103312357151124 -0.081256261555363557 0 -0.103312357151124 -0.081256261555363557 0 -0.1053414356116788 -0.063624858386974348 0 -0.1144321571001687 -0.074063281498452871 0 -0.087358501235196825 -0.065127692327583461 0 -0.103312357151124 -0.081256261555363557 0 -0.1053414356116788 -0.063624858386974348 0 -0.1053414356116788 -0.063624858386974348 0 -0.1144321571001687 -0.074063281498452871 0 -0.1194328917565281 -0.064170440014843233 0 -0.1144321571001687 -0.074063281498452871 0 -0.1194328917565281 -0.064170440014843233 0 -0.12558292430317611 -0.07834756572090365 0 -0.1194328917565281 -0.064170440014843233 0 -0.12188488863174129 -0.053265039890056341 0 -0.1290982905329128 -0.059632400421765042 0 -0.1194328917565281 -0.064170440014843233 0 -0.11170820235931039 -0.053470077601310798 0 -0.12188488863174129 -0.053265039890056341 0 -0.1053414356116788 -0.063624858386974348 0 -0.1194328917565281 -0.064170440014843233 0 -0.11170820235931039 -0.053470077601310798 0 -0.11170820235931039 -0.053470077601310798 0 -0.12188488863174129 -0.053265039890056341 0 -0.1163916171099672 -0.04304002481377546 0 -0.12188488863174129 -0.053265039890056341 0 -0.1163916171099672 -0.04304002481377546 0 -0.1268240780369419 -0.046076455732373602 0 -0.1163916171099672 -0.04304002481377546 0 -0.1252816462006961 -0.038091455574512302 0 -0.1268240780369419 -0.046076455732373602 0 -0.11882269097568 -0.032900057960112639 0 -0.1163916171099672 -0.04304002481377546 0 -0.1252816462006961 -0.038091455574512302 0 -0.11882269097568 -0.032900057960112639 0 -0.125941384420133 -0.028209853202777729 0 -0.1252816462006961 -0.038091455574512302 0 -0.11882269097568 -0.032900057960112639 0 -0.1163916171099672 -0.04304002481377546 0 -0.1082598270502081 -0.03107499512626195 0 -0.099510893492082364 -0.046660074296084 0 -0.1082598270502081 -0.03107499512626195 0 -0.095133149957980848 -0.028083677438991862 0 -0.1163916171099672 -0.04304002481377546 0 -0.099510893492082364 -0.046660074296084 0 -0.1082598270502081 -0.03107499512626195 0 -0.087358501235196825 -0.065127692327583461 0 -0.1053414356116788 -0.063624858386974348 0 -0.099510893492082364 -0.046660074296084 0 -0.1053414356116788 -0.063624858386974348 0 -0.11170820235931039 -0.053470077601310798 0 -0.099510893492082364 -0.046660074296084 0 -0.11170820235931039 -0.053470077601310798 0 -0.1163916171099672 -0.04304002481377546 0 -0.099510893492082364 -0.046660074296084 0 -0.1181101929107005 -0.01205589487452241 0 -0.10535663015721609 -0.0040785661226313266 0 -0.1220156274706712 0.0019540870090877772 0 -0.1181101929107005 -0.01205589487452241 0 -0.12971617288639531 -0.0048886410824493919 0 -0.1220156274706712 0.0019540870090877772 0 -0.1181101929107005 -0.01205589487452241 0 -0.1149251264817667 -0.02442930281721329 0 -0.125941384420133 -0.028209853202777729 0 -0.1181101929107005 -0.01205589487452241 0 -0.125941384420133 -0.028209853202777729 0 -0.12910209615565699 -0.024012301780688989 0 -0.1181101929107005 -0.01205589487452241 0 -0.1149251264817667 -0.02442930281721329 0 -0.1031115079677508 -0.01794531633225151 0 -0.11882269097568 -0.032900057960112639 0 -0.1149251264817667 -0.02442930281721329 0 -0.125941384420133 -0.028209853202777729 0 -0.11882269097568 -0.032900057960112639 0 -0.1149251264817667 -0.02442930281721329 0 -0.1082598270502081 -0.03107499512626195 0 -0.095133149957980848 -0.028083677438991862 0 -0.1031115079677508 -0.01794531633225151 0 -0.087014999526487571 -0.015349776798960491 0 -0.1149251264817667 -0.02442930281721329 0 -0.1082598270502081 -0.03107499512626195 0 -0.1031115079677508 -0.01794531633225151 0 -0.1082598270502081 -0.03107499512626195 0 -0.095133149957980848 -0.028083677438991862 0 -0.1031115079677508 -0.01794531633225151 0 -0.1181101929107005 -0.01205589487452241 0 -0.093136072529625635 -0.0001400556527918449 0 -0.1181101929107005 -0.01205589487452241 0 -0.1031115079677508 -0.01794531633225151 0 -0.093136072529625635 -0.0001400556527918449 0 -0.1181101929107005 -0.01205589487452241 0 -0.10535663015721609 -0.0040785661226313266 0 -0.093136072529625635 -0.0001400556527918449 0 -0.1031115079677508 -0.01794531633225151 0 -0.093136072529625635 -0.0001400556527918449 0 -0.087014999526487571 -0.015349776798960491 0 -0.093136072529625635 -0.0001400556527918449 0 -0.087014999526487571 -0.015349776798960491 0 -0.076424423994879476 -0.003132457239380148 0 -0.087014999526487571 -0.015349776798960491 0 -0.073341747925620523 -0.01406173783103015 0 -0.076424423994879476 -0.003132457239380148 0 -0.087014999526487571 -0.015349776798960491 0 -0.079712762934880332 -0.025217179089156931 0 -0.073341747925620523 -0.01406173783103015 0 -0.095133149957980848 -0.028083677438991862 0 -0.087014999526487571 -0.015349776798960491 0 -0.079712762934880332 -0.025217179089156931 0 -0.079712762934880332 -0.025217179089156931 0 -0.062904851213662585 -0.025696444195457049 0 -0.073341747925620523 -0.01406173783103015 0 -0.079712762934880332 -0.025217179089156931 0 -0.062904851213662585 -0.025696444195457049 0 -0.080220408200263174 -0.041161434651527613 0 -0.062904851213662585 -0.025696444195457049 0 -0.073341747925620523 -0.01406173783103015 0 -0.060754386257418823 0.0025528172274389281 0 -0.073341747925620523 -0.01406173783103015 0 -0.076424423994879476 -0.003132457239380148 0 -0.060754386257418823 0.0025528172274389281 0 -0.087358501235196825 -0.065127692327583461 0 -0.099510893492082364 -0.046660074296084 0 -0.080220408200263174 -0.041161434651527613 0 -0.095133149957980848 -0.028083677438991862 0 -0.079712762934880332 -0.025217179089156931 0 -0.080220408200263174 -0.041161434651527613 0 -0.099510893492082364 -0.046660074296084 0 -0.095133149957980848 -0.028083677438991862 0 -0.080220408200263174 -0.041161434651527613 0 -0.062904851213662585 -0.025696444195457049 0 -0.065055316169906369 -0.053945705618353039 0 -0.062904851213662585 -0.025696444195457049 0 -0.080220408200263174 -0.041161434651527613 0 -0.065055316169906369 -0.053945705618353039 0 -0.087358501235196825 -0.065127692327583461 0 -0.080220408200263174 -0.041161434651527613 0 -0.065055316169906369 -0.053945705618353039 0 -0.065055316169906369 -0.053945705618353039 0 -0.047894605280251877 -0.054340058651941803 0 -0.048929668687345503 -0.03900248772134815 0 -0.065055316169906369 -0.053945705618353039 0 -0.047894605280251877 -0.054340058651941803 0 -0.053004971159974698 -0.066189882034686634 0 -0.062904851213662585 -0.025696444195457049 0 -0.065055316169906369 -0.053945705618353039 0 -0.048929668687345503 -0.03900248772134815 0 -0.048929668687345503 -0.03900248772134815 0 -0.03275369178043732 -0.032312294903841292 0 -0.035351394645226693 -0.047839064434689549 0 -0.048929668687345503 -0.03900248772134815 0 -0.03275369178043732 -0.032312294903841292 0 -0.046129727701333521 -0.02248458507507458 0 -0.035351394645226693 -0.047839064434689549 0 -0.021908808482846751 -0.057090181928296853 0 -0.038657251529640897 -0.064417938231102978 0 -0.047894605280251877 -0.054340058651941803 0 -0.035351394645226693 -0.047839064434689549 0 -0.038657251529640897 -0.064417938231102978 0 -0.047894605280251877 -0.054340058651941803 0 -0.038657251529640897 -0.064417938231102978 0 -0.053004971159974698 -0.066189882034686634 0 -0.047894605280251877 -0.054340058651941803 0 -0.048929668687345503 -0.03900248772134815 0 -0.035351394645226693 -0.047839064434689549 0 -0.062904851213662585 -0.025696444195457049 0 -0.060754386257418823 0.0025528172274389281 0 -0.062904851213662585 -0.025696444195457049 0 -0.051335033538331562 -0.009168731427739359 0 -0.060754386257418823 0.0025528172274389281 0 -0.051335033538331562 -0.009168731427739359 0 -0.060754386257418823 0.0025528172274389281 0 -0.048704724972793469 0.0044012681014438436 0 -0.062904851213662585 -0.025696444195457049 0 -0.051335033538331562 -0.009168731427739359 0 -0.046129727701333521 -0.02248458507507458 0 -0.062904851213662585 -0.025696444195457049 0 -0.048929668687345503 -0.03900248772134815 0 -0.046129727701333521 -0.02248458507507458 0 -0.03275369178043732 -0.032312294903841292 0 -0.046129727701333521 -0.02248458507507458 0 -0.026176507965860671 -0.017277770419762039 0 -0.046129727701333521 -0.02248458507507458 0 -0.037153593021232917 -0.0041909662260797122 0 -0.026176507965860671 -0.017277770419762039 0 -0.051335033538331562 -0.009168731427739359 0 -0.046129727701333521 -0.02248458507507458 0 -0.037153593021232917 -0.0041909662260797122 0 -0.051335033538331562 -0.009168731427739359 0 -0.037153593021232917 -0.0041909662260797122 0 -0.048704724972793469 0.0044012681014438436 0 -0.037153593021232917 -0.0041909662260797122 0 -0.026176507965860671 -0.017277770419762039 0 -0.01210134886455932 0.0019878388550685811 0 -0.026176507965860671 -0.017277770419762039 0 -0.0095215086785958962 -0.017551244150769529 0 -0.01210134886455932 0.0019878388550685811 0 -0.026176507965860671 -0.017277770419762039 0 -0.01837129322378861 -0.028689624046907461 0 -0.0095215086785958962 -0.017551244150769529 0 -0.03275369178043732 -0.032312294903841292 0 -0.026176507965860671 -0.017277770419762039 0 -0.01837129322378861 -0.028689624046907461 0 -0.0095215086785958962 -0.017551244150769529 0 -0.0058690393437316642 -0.036918505388539302 0 0.01017072979538342 -0.016746828848781731 0 -0.01837129322378861 -0.028689624046907461 0 -0.0095215086785958962 -0.017551244150769529 0 -0.0058690393437316642 -0.036918505388539302 0 -0.0095215086785958962 -0.017551244150769529 0 -0.01210134886455932 0.0019878388550685811 0 0.01017072979538342 -0.016746828848781731 0 -0.01210134886455932 0.0019878388550685811 0 0.01017072979538342 -0.016746828848781731 0 -0.035351394645226693 -0.047839064434689549 0 -0.021908808482846751 -0.057090181928296853 0 -0.022440173209047839 -0.040604213471996969 0 -0.03275369178043732 -0.032312294903841292 0 -0.035351394645226693 -0.047839064434689549 0 -0.022440173209047839 -0.040604213471996969 0 -0.021908808482846751 -0.057090181928296853 0 -0.022440173209047839 -0.040604213471996969 0 -0.0058690393437316642 -0.036918505388539302 0 -0.03275369178043732 -0.032312294903841292 0 -0.01837129322378861 -0.028689624046907461 0 -0.022440173209047839 -0.040604213471996969 0 -0.01837129322378861 -0.028689624046907461 0 -0.022440173209047839 -0.040604213471996969 0 -0.0058690393437316642 -0.036918505388539302 0 -0.021908808482846751 -0.057090181928296853 0 -0.0058690393437316642 -0.036918505388539302 0 -0.0023445621031648492 -0.046493714565991447 0 -0.0058690393437316642 -0.036918505388539302 0 -0.0023445621031648492 -0.046493714565991447 0 0.004820284750702987 -0.03667376296375658 0 -0.021908808482846751 -0.057090181928296853 0 -0.0092003180421990557 -0.067620420789558502 0 0.0010188698430845979 -0.055986475845041232 0 -0.021908808482846751 -0.057090181928296853 0 -0.0023445621031648492 -0.046493714565991447 0 0.0010188698430845979 -0.055986475845041232 0 -0.021908808482846751 -0.057090181928296853 0 -0.0058690393437316642 -0.036918505388539302 0 -0.0092003180421990557 -0.067620420789558502 0 0.0080700504204770651 -0.071014827416368193 0 0.0010188698430845979 -0.055986475845041232 0 -0.010213971945732019 -0.082377873766006179 0 0.0080700504204770651 -0.071014827416368193 0 -0.0092003180421990557 -0.067620420789558502 0 -0.010213971945732019 -0.082377873766006179 0 0.0080700504204770651 -0.071014827416368193 0 -0.0092003180421990557 -0.067620420789558502 0 -0.010213971945732019 -0.082377873766006179 0 -0.021991894853867058 -0.07330033546964429 0 -0.010213971945732019 -0.082377873766006179 0 -0.001063838671142459 -0.094957297204889449 0 0.01075992232450191 -0.087804584712857237 0 -0.010213971945732019 -0.082377873766006179 0 -0.030199880580540121 -0.082985137635087691 0 -0.021991894853867058 -0.07330033546964429 0 -0.010213971945732019 -0.082377873766006179 0 -0.028497994311941079 -0.093740920115644139 0 -0.010213971945732019 -0.082377873766006179 0 -0.030199880580540121 -0.082985137635087691 0 -0.028497994311941079 -0.093740920115644139 0 -0.010213971945732019 -0.082377873766006179 0 -0.028497994311941079 -0.093740920115644139 0 -0.017194440580496871 -0.1049168989353247 0 -0.021908808482846751 -0.057090181928296853 0 -0.037948577621961778 -0.077261858468054362 0 -0.021908808482846751 -0.057090181928296853 0 -0.0092003180421990557 -0.067620420789558502 0 -0.021991894853867058 -0.07330033546964429 0 -0.030199880580540121 -0.082985137635087691 0 -0.021991894853867058 -0.07330033546964429 0 -0.037948577621961778 -0.077261858468054362 0 -0.021908808482846751 -0.057090181928296853 0 -0.021991894853867058 -0.07330033546964429 0 -0.037948577621961778 -0.077261858468054362 0 -0.021908808482846751 -0.057090181928296853 0 -0.038657251529640897 -0.064417938231102978 0 -0.037948577621961778 -0.077261858468054362 0 -0.038657251529640897 -0.064417938231102978 0 -0.044348735384096977 -0.077503685467020605 0 -0.053004971159974698 -0.066189882034686634 0 -0.038657251529640897 -0.064417938231102978 0 -0.044348735384096977 -0.077503685467020605 0 -0.042543024469576522 -0.077133073339919409 0 -0.038657251529640897 -0.064417938231102978 0 -0.042543024469576522 -0.077133073339919409 0 -0.037948577621961778 -0.077261858468054362 0 -0.038657251529640897 -0.064417938231102978 0 -0.044348735384096977 -0.077503685467020605 0 -0.044348735384096977 -0.077503685467020605 0 -0.042543024469576522 -0.077133073339919409 0 -0.030199880580540121 -0.082985137635087691 0 -0.037948577621961778 -0.077261858468054362 0 -0.04041554962020668 -0.08325329559493079 0 -0.030199880580540121 -0.082985137635087691 0 -0.0386064186570617 -0.090592661122599921 0 -0.04041554962020668 -0.08325329559493079 0 -0.030199880580540121 -0.082985137635087691 0 -0.028497994311941079 -0.093740920115644139 0 -0.0386064186570617 -0.090592661122599921 0 -0.0386064186570617 -0.090592661122599921 0 -0.044606321335321573 -0.089183764262061607 0 -0.047537248347293407 -0.099189552844363746 0 -0.0386064186570617 -0.090592661122599921 0 -0.044606321335321573 -0.089183764262061607 0 -0.04041554962020668 -0.08325329559493079 0 -0.044348735384096977 -0.077503685467020605 0 -0.044606321335321573 -0.089183764262061607 0 -0.04041554962020668 -0.08325329559493079 0 -0.042543024469576522 -0.077133073339919409 0 -0.037948577621961778 -0.077261858468054362 0 -0.04041554962020668 -0.08325329559493079 0 -0.044348735384096977 -0.077503685467020605 0 -0.042543024469576522 -0.077133073339919409 0 -0.04041554962020668 -0.08325329559493079 0 -0.067205781126149083 -0.082194967041249081 0 -0.044348735384096977 -0.077503685467020605 0 -0.044348735384096977 -0.077503685467020605 0 -0.044606321335321573 -0.089183764262061607 0 -0.052123654667948847 -0.095379626281394181 0 -0.067205781126149083 -0.082194967041249081 0 -0.044348735384096977 -0.077503685467020605 0 -0.052123654667948847 -0.095379626281394181 0 -0.044348735384096977 -0.077503685467020605 0 -0.052123654667948847 -0.095379626281394181 0 -0.067205781126149083 -0.082194967041249081 0 -0.044348735384096977 -0.077503685467020605 0 -0.053004971159974698 -0.066189882034686634 0 -0.067205781126149083 -0.082194967041249081 0 -0.065055316169906369 -0.053945705618353039 0 -0.053004971159974698 -0.066189882034686634 0 -0.059898573951802481 -0.11325556709576701 0 -0.056770408704823 -0.12508197542173599 0 -0.068025095322454779 -0.1319399044817792 0 -0.050600280783225593 -0.1152297950263053 0 -0.059898573951802481 -0.11325556709576701 0 -0.046782016678150747 -0.105103966465281 0 -0.050600280783225593 -0.1152297950263053 0 -0.046782016678150747 -0.105103966465281 0 -0.044527226245596921 -0.1137164528467873 0 -0.050600280783225593 -0.1152297950263053 0 -0.044527226245596921 -0.1137164528467873 0 -0.045600985079070219 -0.12093449970778709 0 -0.050600280783225593 -0.1152297950263053 0 -0.045600985079070219 -0.12093449970778709 0 -0.056770408704823 -0.12508197542173599 0 -0.050600280783225593 -0.1152297950263053 0 -0.059898573951802481 -0.11325556709576701 0 -0.056770408704823 -0.12508197542173599 0 -0.059898573951802481 -0.11325556709576701 0 -0.052123654667948847 -0.095379626281394181 0 -0.048217634836739992 -0.10511304316497271 0 -0.068542655937565741 -0.099756623150879103 0 -0.059898573951802481 -0.11325556709576701 0 -0.052123654667948847 -0.095379626281394181 0 -0.059898573951802481 -0.11325556709576701 0 -0.052123654667948847 -0.095379626281394181 0 -0.044606321335321573 -0.089183764262061607 0 -0.052123654667948847 -0.095379626281394181 0 -0.047537248347293407 -0.099189552844363746 0 -0.052123654667948847 -0.095379626281394181 0 -0.047537248347293407 -0.099189552844363746 0 -0.048217634836739992 -0.10511304316497271 0 -0.059898573951802481 -0.11325556709576701 0 -0.046782016678150747 -0.105103966465281 0 -0.059898573951802481 -0.11325556709576701 0 -0.048217634836739992 -0.10511304316497271 0 -0.046782016678150747 -0.105103966465281 0 -0.047537248347293407 -0.099189552844363746 0 -0.048217634836739992 -0.10511304316497271 0 -0.046782016678150747 -0.105103966465281 0 -0.048217634836739992 -0.10511304316497271 0 -0.046782016678150747 -0.105103966465281 0 -0.028497994311941079 -0.093740920115644139 0 -0.047537248347293407 -0.099189552844363746 0 -0.046782016678150747 -0.105103966465281 0 -0.046782016678150747 -0.105103966465281 0 -0.035125622441941118 -0.11359755018777599 0 -0.017194440580496871 -0.1049168989353247 0 -0.028497994311941079 -0.093740920115644139 0 -0.0386064186570617 -0.090592661122599921 0 -0.047537248347293407 -0.099189552844363746 0 -0.028497994311941079 -0.093740920115644139 0 -0.046782016678150747 -0.105103966465281 0 -0.046782016678150747 -0.105103966465281 0 -0.017194440580496871 -0.1049168989353247 0 -0.035125622441941118 -0.11359755018777599 0 -0.044527226245596921 -0.1137164528467873 0 -0.045600985079070219 -0.12093449970778709 0 -0.046782016678150747 -0.105103966465281 0 -0.035125622441941118 -0.11359755018777599 0 -0.044527226245596921 -0.1137164528467873 0 -0.035125622441941118 -0.11359755018777599 0 -0.045600985079070219 -0.12093449970778709 0 -0.032379243433970292 -0.12468195852329481 0 -0.02426070907452978 -0.11675661835985671 0 -0.017194440580496871 -0.1049168989353247 0 -0.012343529841710841 -0.1238300657930313 0 -0.032379243433970292 -0.12468195852329481 0 -0.02426070907452978 -0.11675661835985671 0 -0.012343529841710841 -0.1238300657930313 0 -0.035125622441941118 -0.11359755018777599 0 -0.032379243433970292 -0.12468195852329481 0 -0.02426070907452978 -0.11675661835985671 0 -0.035125622441941118 -0.11359755018777599 0 -0.02426070907452978 -0.11675661835985671 0 -0.017194440580496871 -0.1049168989353247 0 -0.028497994311941079 -0.093740920115644139 0 -0.046782016678150747 -0.105103966465281 0 -0.017194440580496871 -0.1049168989353247 0 -0.017194440580496871 -0.1049168989353247 0 -0.001063838671142459 -0.094957297204889449 0 0.01239313551715715 -0.1047298314053698 0 -0.017194440580496871 -0.1049168989353247 0 -0.0014550555111774201 -0.1139112530899648 0 0.01239313551715715 -0.1047298314053698 0 -0.010213971945732019 -0.082377873766006179 0 -0.017194440580496871 -0.1049168989353247 0 -0.001063838671142459 -0.094957297204889449 0 -0.017194440580496871 -0.1049168989353247 0 0.01239313551715715 -0.1047298314053698 0 -0.017194440580496871 -0.1049168989353247 0 -0.012343529841710841 -0.1238300657930313 0 -0.0014550555111774201 -0.1139112530899648 0 -0.012343529841710841 -0.1238300657930313 0 -0.0014550555111774201 -0.1139112530899648 0 0.0070693487391517221 -0.1259227580274058 0 -0.012343529841710841 -0.1238300657930313 0 -0.00381057756564823 -0.13881115303130631 0 -0.016566936872562828 -0.14546743768385589 0 -0.012343529841710841 -0.1238300657930313 0 -0.00381057756564823 -0.13881115303130631 0 0.0070693487391517221 -0.1259227580274058 0 -0.032379243433970292 -0.12468195852329481 0 -0.012343529841710841 -0.1238300657930313 0 -0.029469495912781859 -0.13872591108130611 0 -0.012343529841710841 -0.1238300657930313 0 -0.029469495912781859 -0.13872591108130611 0 -0.016566936872562828 -0.14546743768385589 0 -0.0292270739544549 -0.1537995698564954 0 -0.016566936872562828 -0.14546743768385589 0 -0.010182590445576289 -0.1584724389503685 0 -0.029469495912781859 -0.13872591108130611 0 -0.0292270739544549 -0.1537995698564954 0 -0.016566936872562828 -0.14546743768385589 0 -0.00381057756564823 -0.13881115303130631 0 -0.016566936872562828 -0.14546743768385589 0 -0.010182590445576289 -0.1584724389503685 0 -0.00381057756564823 -0.13881115303130631 0 -0.010182590445576289 -0.1584724389503685 0 0.0098523375760143639 -0.1461025862696651 0 -0.010182590445576289 -0.1584724389503685 0 -0.01297221461876409 -0.18517992099496211 0 0.009367802249035646 -0.1706819815227007 0 -0.01297221461876409 -0.18517992099496211 0 -0.025375782479776 -0.1703830094249093 0 -0.036232641864642097 -0.18273266130428359 0 -0.0292270739544549 -0.1537995698564954 0 -0.010182590445576289 -0.1584724389503685 0 -0.025375782479776 -0.1703830094249093 0 -0.010182590445576289 -0.1584724389503685 0 -0.01297221461876409 -0.18517992099496211 0 -0.025375782479776 -0.1703830094249093 0 -0.0292270739544549 -0.1537995698564954 0 -0.025375782479776 -0.1703830094249093 0 -0.046443237821030117 -0.1666616636309044 0 -0.046443237821030117 -0.1666616636309044 0 -0.036232641864642097 -0.18273266130428359 0 -0.056687002549577009 -0.18544334016044969 0 -0.025375782479776 -0.1703830094249093 0 -0.046443237821030117 -0.1666616636309044 0 -0.036232641864642097 -0.18273266130428359 0 -0.046443237821030117 -0.1666616636309044 0 -0.056687002549577009 -0.18544334016044969 0 -0.060570824692343428 -0.16910891475416401 0 -0.046443237821030117 -0.1666616636309044 0 -0.060570824692343428 -0.16910891475416401 0 -0.060932322909960972 -0.1585462574386366 0 -0.060932322909960972 -0.1585462574386366 0 -0.046604662515852747 -0.14287772417757491 0 -0.068870367979083802 -0.14860034083089249 0 -0.046443237821030117 -0.1666616636309044 0 -0.060932322909960972 -0.1585462574386366 0 -0.046604662515852747 -0.14287772417757491 0 -0.046604662515852747 -0.14287772417757491 0 -0.070239497201191867 -0.13703121353314371 0 -0.068870367979083802 -0.14860034083089249 0 -0.056770408704823 -0.12508197542173599 0 -0.046604662515852747 -0.14287772417757491 0 -0.068025095322454779 -0.1319399044817792 0 -0.046604662515852747 -0.14287772417757491 0 -0.068025095322454779 -0.1319399044817792 0 -0.070239497201191867 -0.13703121353314371 0 -0.045600985079070219 -0.12093449970778709 0 -0.056770408704823 -0.12508197542173599 0 -0.046604662515852747 -0.14287772417757491 0 -0.046604662515852747 -0.14287772417757491 0 -0.068025095322454779 -0.1319399044817792 0 -0.045600985079070219 -0.12093449970778709 0 -0.032379243433970292 -0.12468195852329481 0 -0.046604662515852747 -0.14287772417757491 0 -0.032379243433970292 -0.12468195852329481 0 -0.029469495912781859 -0.13872591108130611 0 -0.046604662515852747 -0.14287772417757491 0 -0.0292270739544549 -0.1537995698564954 0 -0.046443237821030117 -0.1666616636309044 0 -0.046604662515852747 -0.14287772417757491 0 -0.029469495912781859 -0.13872591108130611 0 -0.0292270739544549 -0.1537995698564954 0 -0.046604662515852747 -0.14287772417757491 0 -0.033931419553162992 -0.25243443967869411 0 -0.021034020291300609 -0.24182918951964291 0 -0.031774297013784841 -0.23497656571417069 0 -0.033931419553162992 -0.25243443967869411 0 -0.016667998652543831 -0.2535907064639833 0 -0.021034020291300609 -0.24182918951964291 0 -0.016667998652543831 -0.2535907064639833 0 -0.021034020291300609 -0.24182918951964291 0 -0.0091768495658898688 -0.24338301083334629 0 -0.021034020291300609 -0.24182918951964291 0 -0.0091768495658898688 -0.24338301083334629 0 -0.01361953667112153 -0.22476122490802031 0 -0.01361953667112153 -0.22476122490802031 0 0.0079141962681041587 -0.2444201672818079 0 -0.002950157048249026 -0.25282991239742242 0 -0.016667998652543831 -0.2535907064639833 0 -0.0091768495658898688 -0.24338301083334629 0 -0.0091768495658898688 -0.24338301083334629 0 -0.01361953667112153 -0.22476122490802031 0 0.0079141962681041587 -0.2444201672818079 0 -0.002950157048249026 -0.25282991239742242 0 -0.0091768495658898688 -0.24338301083334629 0 0.0079141962681041587 -0.2444201672818079 0 -0.01361953667112153 -0.22476122490802031 0 -0.035153269610349307 -0.20510228253423499 0 -0.031774297013784841 -0.23497656571417069 0 -0.021034020291300609 -0.24182918951964291 0 -0.01361953667112153 -0.22476122490802031 0 -0.031774297013784841 -0.23497656571417069 0 -0.01361953667112153 -0.22476122490802031 0 -0.035153269610349307 -0.20510228253423499 0 -0.01361953667112153 -0.22476122490802031 0 -0.0084393550421175672 -0.20623500431534419 0 -0.035153269610349307 -0.20510228253423499 0 -0.01361953667112153 -0.22476122490802031 0 -0.0084393550421175672 -0.20623500431534419 0 0.008398731595078205 -0.21984077202877211 0 -0.01297221461876409 -0.18517992099496211 0 -0.0084393550421175672 -0.20623500431534419 0 0.0088832669220569264 -0.19526137677573641 0 -0.01297221461876409 -0.18517992099496211 0 -0.036232641864642097 -0.18273266130428359 0 -0.035153269610349307 -0.20510228253423499 0 -0.01297221461876409 -0.18517992099496211 0 -0.0084393550421175672 -0.20623500431534419 0 -0.035153269610349307 -0.20510228253423499 0 -0.036232641864642097 -0.18273266130428359 0 -0.056687002549577009 -0.18544334016044969 0 -0.035153269610349307 -0.20510228253423499 0 -0.056687002549577009 -0.18544334016044969 0 -0.035153269610349307 -0.20510228253423499 0 -0.056687002549577009 -0.18544334016044969 0 -0.06035188063312568 -0.20230109626797341 0 -0.035153269610349307 -0.20510228253423499 0 -0.06035188063312568 -0.20230109626797341 0 -0.056258402668821053 -0.2163765145418908 0 -0.035153269610349307 -0.20510228253423499 0 -0.056258402668821053 -0.2163765145418908 0 -0.035153269610349307 -0.20510228253423499 0 -0.049007985759082023 -0.22961030573120669 0 -0.035153269610349307 -0.20510228253423499 0 -0.049007985759082023 -0.22961030573120669 0 -0.031774297013784841 -0.23497656571417069 0 -0.056258402668821053 -0.2163765145418908 0 -0.049007985759082023 -0.22961030573120669 0 -0.064899788998583008 -0.22911420536043969 0 -0.049007985759082023 -0.22961030573120669 0 -0.061377056948709673 -0.24181230716576871 0 -0.064899788998583008 -0.22911420536043969 0 -0.049007985759082023 -0.22961030573120669 0 -0.061377056948709673 -0.24181230716576871 0 -0.049807630765952113 -0.24433781378872521 0 -0.063837354597986048 -0.25516887162990298 0 -0.061377056948709673 -0.24181230716576871 0 -0.049807630765952113 -0.24433781378872521 0 -0.033931419553162992 -0.25243443967869411 0 -0.049807630765952113 -0.24433781378872521 0 -0.031774297013784841 -0.23497656571417069 0 -0.049007985759082023 -0.22961030573120669 0 -0.049807630765952113 -0.24433781378872521 0 -0.031774297013784841 -0.23497656571417069 0 -0.089834384669079642 -0.23857642899715339 0 -0.073645866817058162 -0.24170425137741011 0 -0.078345847243283057 -0.22803705971669361 0 -0.083463358478268676 -0.25568691533221571 0 -0.089834384669079642 -0.23857642899715339 0 -0.073645866817058162 -0.24170425137741011 0 -0.096802277181896712 -0.25047269806465983 0 -0.083463358478268676 -0.25568691533221571 0 -0.089834384669079642 -0.23857642899715339 0 -0.063837354597986048 -0.25516887162990298 0 -0.061377056948709673 -0.24181230716576871 0 -0.073645866817058162 -0.24170425137741011 0 -0.061377056948709673 -0.24181230716576871 0 -0.073645866817058162 -0.24170425137741011 0 -0.064899788998583008 -0.22911420536043969 0 -0.073645866817058162 -0.24170425137741011 0 -0.064899788998583008 -0.22911420536043969 0 -0.078345847243283057 -0.22803705971669361 0 -0.056258402668821053 -0.2163765145418908 0 -0.064899788998583008 -0.22911420536043969 0 -0.071879088342965261 -0.2157546828155992 0 -0.078345847243283057 -0.22803705971669361 0 -0.083993017435262107 -0.21748677113090131 0 -0.071879088342965261 -0.2157546828155992 0 -0.064899788998583008 -0.22911420536043969 0 -0.078345847243283057 -0.22803705971669361 0 -0.071879088342965261 -0.2157546828155992 0 -0.078345847243283057 -0.22803705971669361 0 -0.090800718000585243 -0.22473062294136051 0 -0.083993017435262107 -0.21748677113090131 0 -0.089834384669079642 -0.23857642899715339 0 -0.078345847243283057 -0.22803705971669361 0 -0.090800718000585243 -0.22473062294136051 0 -0.081485931507977838 -0.20597348236400931 0 -0.093790249856704186 -0.1990202889443714 0 -0.097453502081499097 -0.21293800781684369 0 -0.081485931507977838 -0.20597348236400931 0 -0.083993017435262107 -0.21748677113090131 0 -0.097453502081499097 -0.21293800781684369 0 -0.090800718000585243 -0.22473062294136051 0 -0.083993017435262107 -0.21748677113090131 0 -0.097453502081499097 -0.21293800781684369 0 -0.081485931507977838 -0.20597348236400931 0 -0.083993017435262107 -0.21748677113090131 0 -0.071879088342965261 -0.2157546828155992 0 -0.081485931507977838 -0.20597348236400931 0 -0.071879088342965261 -0.2157546828155992 0 -0.075049911915885448 -0.19076954030113211 0 -0.071879088342965261 -0.2157546828155992 0 -0.075049911915885448 -0.19076954030113211 0 -0.06035188063312568 -0.20230109626797341 0 -0.056258402668821053 -0.2163765145418908 0 -0.071879088342965261 -0.2157546828155992 0 -0.056687002549577009 -0.18544334016044969 0 -0.06035188063312568 -0.20230109626797341 0 -0.075049911915885448 -0.19076954030113211 0 -0.06035188063312568 -0.20230109626797341 0 -0.071879088342965261 -0.2157546828155992 0 -0.075049911915885448 -0.19076954030113211 0 -0.081485931507977838 -0.20597348236400931 0 -0.093790249856704186 -0.1990202889443714 0 -0.087151295875610324 -0.18641136041026041 0 -0.081485931507977838 -0.20597348236400931 0 -0.075049911915885448 -0.19076954030113211 0 -0.087151295875610324 -0.18641136041026041 0 -0.081485931507977838 -0.20597348236400931 0 -0.087151295875610324 -0.18641136041026041 0 -0.099726791202246853 -0.18966149380611191 0 -0.093790249856704186 -0.1990202889443714 0 -0.087151295875610324 -0.18641136041026041 0 -0.099726791202246853 -0.18966149380611191 0 -0.093790249856704186 -0.1990202889443714 0 -0.1061850985527374 -0.20154409204954249 0 -0.099726791202246853 -0.18966149380611191 0 -0.1061850985527374 -0.20154409204954249 0 -0.1136088609244944 -0.18972333928780799 0 -0.1136088609244944 -0.18972333928780799 0 -0.1204680589688355 -0.2000694149225376 0 -0.12818043582608571 -0.18821346595889371 0 -0.1061850985527374 -0.20154409204954249 0 -0.1136088609244944 -0.18972333928780799 0 -0.1204680589688355 -0.2000694149225376 0 -0.1061850985527374 -0.20154409204954249 0 -0.1204680589688355 -0.2000694149225376 0 -0.1152094845488187 -0.2105528084927 0 -0.1204680589688355 -0.2000694149225376 0 -0.1152094845488187 -0.2105528084927 0 -0.13133896320757771 -0.20736648349470299 0 -0.1152094845488187 -0.2105528084927 0 -0.1261997592058175 -0.2236346186630925 0 -0.13133896320757771 -0.20736648349470299 0 -0.1061850985527374 -0.20154409204954249 0 -0.1152094845488187 -0.2105528084927 0 -0.097453502081499097 -0.21293800781684369 0 -0.1152094845488187 -0.2105528084927 0 -0.097453502081499097 -0.21293800781684369 0 -0.11290223528196749 -0.22219343093613331 0 -0.093790249856704186 -0.1990202889443714 0 -0.1061850985527374 -0.20154409204954249 0 -0.097453502081499097 -0.21293800781684369 0 -0.097453502081499097 -0.21293800781684369 0 -0.1022849576054347 -0.22924006292471411 0 -0.11290223528196749 -0.22219343093613331 0 -0.090800718000585243 -0.22473062294136051 0 -0.097453502081499097 -0.21293800781684369 0 -0.1022849576054347 -0.22924006292471411 0 -0.089834384669079642 -0.23857642899715339 0 -0.090800718000585243 -0.22473062294136051 0 -0.1022849576054347 -0.22924006292471411 0 -0.1022849576054347 -0.22924006292471411 0 -0.11290223528196749 -0.22219343093613331 0 -0.1171341615731636 -0.23838965339439949 0 -0.11290223528196749 -0.22219343093613331 0 -0.1171341615731636 -0.23838965339439949 0 -0.1261997592058175 -0.2236346186630925 0 -0.1152094845488187 -0.2105528084927 0 -0.11290223528196749 -0.22219343093613331 0 -0.1261997592058175 -0.2236346186630925 0 -0.10878086241107481 -0.25345300724896019 0 -0.1171341615731636 -0.23838965339439949 0 -0.1040192517608609 -0.24106916208357901 0 -0.096802277181896712 -0.25047269806465983 0 -0.10878086241107481 -0.25345300724896019 0 -0.1040192517608609 -0.24106916208357901 0 -0.1022849576054347 -0.22924006292471411 0 -0.1171341615731636 -0.23838965339439949 0 -0.1040192517608609 -0.24106916208357901 0 -0.089834384669079642 -0.23857642899715339 0 -0.1022849576054347 -0.22924006292471411 0 -0.1040192517608609 -0.24106916208357901 0 -0.096802277181896712 -0.25047269806465983 0 -0.089834384669079642 -0.23857642899715339 0 -0.1040192517608609 -0.24106916208357901 0 -0.080640523345950912 -0.14671719235086331 0 -0.078220735488805121 -0.16578439778666501 0 -0.098482024610874158 -0.1472871165027623 0 -0.080640523345950912 -0.14671719235086331 0 -0.092378549823930151 -0.13344103087818929 0 -0.098482024610874158 -0.1472871165027623 0 -0.080640523345950912 -0.14671719235086331 0 -0.083060311203096121 -0.12764998691506149 0 -0.080640523345950912 -0.14671719235086331 0 -0.092378549823930151 -0.13344103087818929 0 -0.083060311203096121 -0.12764998691506149 0 -0.080640523345950912 -0.14671719235086331 0 -0.083060311203096121 -0.12764998691506149 0 -0.077418497486261159 -0.13339099501147361 0 -0.092378549823930151 -0.13344103087818929 0 -0.083060311203096121 -0.12764998691506149 0 -0.092575504128851183 -0.12448010836379519 0 -0.092378549823930151 -0.13344103087818929 0 -0.083060311203096121 -0.12764998691506149 0 -0.083519995364105273 -0.1240278130506613 0 -0.092575504128851183 -0.12448010836379519 0 -0.083060311203096121 -0.12764998691506149 0 -0.083519995364105273 -0.1240278130506613 0 -0.083060311203096121 -0.12764998691506149 0 -0.080068129834039492 -0.1257904236908339 0 -0.083519995364105273 -0.1240278130506613 0 -0.083060311203096121 -0.12764998691506149 0 -0.083060311203096121 -0.12764998691506149 0 -0.080068129834039492 -0.1257904236908339 0 -0.077418497486261159 -0.13339099501147361 0 -0.083060311203096121 -0.12764998691506149 0 -0.080068129834039492 -0.1257904236908339 0 -0.077418497486261159 -0.13339099501147361 0 -0.068025095322454779 -0.1319399044817792 0 -0.070239497201191867 -0.13703121353314371 0 -0.080640523345950912 -0.14671719235086331 0 -0.077418497486261159 -0.13339099501147361 0 -0.074947148620155862 -0.1412093137935585 0 -0.077418497486261159 -0.13339099501147361 0 -0.070239497201191867 -0.13703121353314371 0 -0.074947148620155862 -0.1412093137935585 0 -0.080068129834039492 -0.1257904236908339 0 -0.068025095322454779 -0.1319399044817792 0 -0.080068129834039492 -0.1257904236908339 0 -0.077418497486261159 -0.13339099501147361 0 -0.068025095322454779 -0.1319399044817792 0 -0.068025095322454779 -0.1319399044817792 0 -0.070239497201191867 -0.13703121353314371 0 -0.080640523345950912 -0.14671719235086331 0 -0.068870367979083802 -0.14860034083089249 0 -0.078220735488805121 -0.16578439778666501 0 -0.070239497201191867 -0.13703121353314371 0 -0.074947148620155862 -0.1412093137935585 0 -0.068870367979083802 -0.14860034083089249 0 -0.080640523345950912 -0.14671719235086331 0 -0.074947148620155862 -0.1412093137935585 0 -0.068870367979083802 -0.14860034083089249 0 -0.060570824692343428 -0.16910891475416401 0 -0.060932322909960972 -0.1585462574386366 0 -0.078220735488805121 -0.16578439778666501 0 -0.060932322909960972 -0.1585462574386366 0 -0.068870367979083802 -0.14860034083089249 0 -0.078220735488805121 -0.16578439778666501 0 -0.075049911915885448 -0.19076954030113211 0 -0.078220735488805121 -0.16578439778666501 0 -0.056687002549577009 -0.18544334016044969 0 -0.078220735488805121 -0.16578439778666501 0 -0.056687002549577009 -0.18544334016044969 0 -0.075049911915885448 -0.19076954030113211 0 -0.078220735488805121 -0.16578439778666501 0 -0.056687002549577009 -0.18544334016044969 0 -0.060570824692343428 -0.16910891475416401 0 -0.078220735488805121 -0.16578439778666501 0 -0.087151295875610324 -0.18641136041026041 0 -0.09281666024324281 -0.16684923845651151 0 -0.09782226460960175 -0.17869746297737199 0 -0.087151295875610324 -0.18641136041026041 0 -0.078220735488805121 -0.16578439778666501 0 -0.09281666024324281 -0.16684923845651151 0 -0.075049911915885448 -0.19076954030113211 0 -0.087151295875610324 -0.18641136041026041 0 -0.078220735488805121 -0.16578439778666501 0 -0.087151295875610324 -0.18641136041026041 0 -0.09281666024324281 -0.16684923845651151 0 -0.080640523345950912 -0.14671719235086331 0 -0.078220735488805121 -0.16578439778666501 0 -0.078220735488805121 -0.16578439778666501 0 -0.098482024610874158 -0.1472871165027623 0 -0.078220735488805121 -0.16578439778666501 0 -0.09281666024324281 -0.16684923845651151 0 -0.098482024610874158 -0.1472871165027623 0 -0.09281666024324281 -0.16684923845651151 0 -0.098482024610874158 -0.1472871165027623 0 -0.09281666024324281 -0.16684923845651151 0 -0.10800341727814761 -0.17057248207326289 0 -0.1101999503197772 -0.15425804835977339 0 -0.099726791202246853 -0.18966149380611191 0 -0.09782226460960175 -0.17869746297737199 0 -0.10681524379206379 -0.18153592774745139 0 -0.099726791202246853 -0.18966149380611191 0 -0.087151295875610324 -0.18641136041026041 0 -0.09782226460960175 -0.17869746297737199 0 -0.09281666024324281 -0.16684923845651151 0 -0.10800341727814761 -0.17057248207326289 0 -0.09782226460960175 -0.17869746297737199 0 -0.10800341727814761 -0.17057248207326289 0 -0.09782226460960175 -0.17869746297737199 0 -0.10681524379206379 -0.18153592774745139 0 -0.099726791202246853 -0.18966149380611191 0 -0.1136088609244944 -0.18972333928780799 0 -0.10681524379206379 -0.18153592774745139 0 -0.1136088609244944 -0.18972333928780799 0 -0.10681524379206379 -0.18153592774745139 0 -0.1181783987624356 -0.1774357369677671 0 -0.10800341727814761 -0.17057248207326289 0 -0.10681524379206379 -0.18153592774745139 0 -0.1181783987624356 -0.1774357369677671 0 -0.1136088609244944 -0.18972333928780799 0 -0.1181783987624356 -0.1774357369677671 0 -0.12818043582608571 -0.18821346595889371 0 -0.120088847499203 -0.16477857365615839 0 -0.1101999503197772 -0.15425804835977339 0 -0.12678476152627699 -0.153271567209292 0 -0.10800341727814761 -0.17057248207326289 0 -0.120088847499203 -0.16477857365615839 0 -0.1101999503197772 -0.15425804835977339 0 -0.10800341727814761 -0.17057248207326289 0 -0.1181783987624356 -0.1774357369677671 0 -0.120088847499203 -0.16477857365615839 0 -0.1181783987624356 -0.1774357369677671 0 -0.120088847499203 -0.16477857365615839 0 -0.13237358725461901 -0.16979063308302811 0 -0.11887397517068379 -0.14109556395341491 0 -0.1101999503197772 -0.15425804835977339 0 -0.12678476152627699 -0.153271567209292 0 -0.11887397517068379 -0.14109556395341491 0 -0.1101999503197772 -0.15425804835977339 0 -0.10456741117886451 -0.14173154171226979 0 -0.09281666024324281 -0.16684923845651151 0 -0.1101999503197772 -0.15425804835977339 0 -0.098482024610874158 -0.1472871165027623 0 -0.1101999503197772 -0.15425804835977339 0 -0.10456741117886451 -0.14173154171226979 0 -0.098482024610874158 -0.1472871165027623 0 -0.10456741117886451 -0.14173154171226979 0 -0.098482024610874158 -0.1472871165027623 0 -0.1062453270689438 -0.12048095548755471 0 -0.092378549823930151 -0.13344103087818929 0 -0.098482024610874158 -0.1472871165027623 0 -0.1062453270689438 -0.12048095548755471 0 -0.098482024610874158 -0.1472871165027623 0 -0.1062453270689438 -0.12048095548755471 0 -0.10456741117886451 -0.14173154171226979 0 -0.098482024610874158 -0.1472871165027623 0 -0.092575504128851183 -0.12448010836379519 0 -0.1062453270689438 -0.12048095548755471 0 -0.092378549823930151 -0.13344103087818929 0 -0.1062453270689438 -0.12048095548755471 0 -0.11887397517068379 -0.14109556395341491 0 -0.13376864667402091 -0.13229750242399019 0 -0.1062453270689438 -0.12048095548755471 0 -0.11887397517068379 -0.14109556395341491 0 -0.10456741117886451 -0.14173154171226979 0 -0.1062453270689438 -0.12048095548755471 0 -0.13376864667402091 -0.13229750242399019 0 -0.13376864667402091 -0.13229750242399019 0 -0.1612919662790977 -0.14411404936042599 0 -0.1612919662790977 -0.14411404936042599 0 -0.1485816128983081 -0.1207049853974709 0 -0.13376864667402091 -0.13229750242399019 0 -0.1612919662790977 -0.14411404936042599 0 -0.1485816128983081 -0.1207049853974709 0 -0.14540356223935841 -0.15740908177938709 0 -0.1571479287386543 -0.15981501019160971 0 -0.1612919662790977 -0.14411404936042599 0 -0.13376864667402091 -0.13229750242399019 0 -0.14540356223935841 -0.15740908177938709 0 -0.1612919662790977 -0.14411404936042599 0 -0.13376864667402091 -0.13229750242399019 0 -0.12678476152627699 -0.153271567209292 0 -0.14540356223935841 -0.15740908177938709 0 -0.11887397517068379 -0.14109556395341491 0 -0.13376864667402091 -0.13229750242399019 0 -0.12678476152627699 -0.153271567209292 0 -0.12678476152627699 -0.153271567209292 0 -0.13237358725461901 -0.16979063308302811 0 -0.14540356223935841 -0.15740908177938709 0 -0.120088847499203 -0.16477857365615839 0 -0.12678476152627699 -0.153271567209292 0 -0.13237358725461901 -0.16979063308302811 0 -0.14946375986723651 -0.1774778365047853 0 -0.12818043582608571 -0.18821346595889371 0 -0.14272344783918589 -0.1961386324160489 0 -0.1181783987624356 -0.1774357369677671 0 -0.13237358725461901 -0.16979063308302811 0 -0.12818043582608571 -0.18821346595889371 0 -0.13237358725461901 -0.16979063308302811 0 -0.14946375986723651 -0.1774778365047853 0 -0.12818043582608571 -0.18821346595889371 0 -0.14946375986723651 -0.1774778365047853 0 -0.14540356223935841 -0.15740908177938709 0 -0.1571479287386543 -0.15981501019160971 0 -0.13237358725461901 -0.16979063308302811 0 -0.14946375986723651 -0.1774778365047853 0 -0.14540356223935841 -0.15740908177938709 0 -0.14946375986723651 -0.1774778365047853 0 -0.1571479287386543 -0.15981501019160971 0 -0.16444780893899841 -0.1693625524286308 0 -0.16444780893899841 -0.1693625524286308 0 -0.17722471411959981 -0.16192638402783771 0 -0.16579143825890089 -0.15240087067996291 0 -0.1571479287386543 -0.15981501019160971 0 -0.16444780893899841 -0.1693625524286308 0 -0.16579143825890089 -0.15240087067996291 0 -0.14946375986723651 -0.1774778365047853 0 -0.16420381359076161 -0.182379273854156 0 -0.16093014052739221 -0.1975551867897602 0 -0.14946375986723651 -0.1774778365047853 0 -0.16444780893899841 -0.1693625524286308 0 -0.16420381359076161 -0.182379273854156 0 -0.16444780893899841 -0.1693625524286308 0 -0.16420381359076161 -0.182379273854156 0 -0.17912683133848051 -0.18352078136425801 0 -0.17912683133848051 -0.18352078136425801 0 -0.17722471411959981 -0.16192638402783771 0 -0.19239889323963941 -0.17147075577025081 0 -0.17912683133848051 -0.18352078136425801 0 -0.17722471411959981 -0.16192638402783771 0 -0.17722471411959981 -0.16192638402783771 0 -0.18600437187716279 -0.1547237906580505 0 -0.16579143825890089 -0.15240087067996291 0 -0.16444780893899841 -0.1693625524286308 0 -0.17912683133848051 -0.18352078136425801 0 -0.17722471411959981 -0.16192638402783771 0 -0.17722471411959981 -0.16192638402783771 0 -0.18600437187716279 -0.1547237906580505 0 -0.19239889323963941 -0.17147075577025081 0 -0.18600437187716279 -0.1547237906580505 0 -0.17808474545803271 -0.13926311859666551 0 -0.19096882045603861 -0.13814824474411641 0 -0.18600437187716279 -0.1547237906580505 0 -0.17808474545803271 -0.13926311859666551 0 -0.1612919662790977 -0.14411404936042599 0 -0.18600437187716279 -0.1547237906580505 0 -0.1612919662790977 -0.14411404936042599 0 -0.18349579613772041 -0.12680997936755911 0 -0.17808474545803271 -0.13926311859666551 0 -0.19096882045603861 -0.13814824474411641 0 -0.18349579613772041 -0.12680997936755911 0 -0.17808474545803271 -0.13926311859666551 0 -0.16880128043931711 -0.12819777995409951 0 -0.16880128043931711 -0.12819777995409951 0 -0.1612919662790977 -0.14411404936042599 0 -0.1485816128983081 -0.1207049853974709 0 -0.17808474545803271 -0.13926311859666551 0 -0.16880128043931711 -0.12819777995409951 0 -0.1612919662790977 -0.14411404936042599 0 -0.1612919662790977 -0.14411404936042599 0 -0.16579143825890089 -0.15240087067996291 0 -0.18600437187716279 -0.1547237906580505 0 -0.1612919662790977 -0.14411404936042599 0 -0.16579143825890089 -0.15240087067996291 0 -0.1571479287386543 -0.15981501019160971 0 -0.1612919662790977 -0.14411404936042599 0 -0.16579143825890089 -0.15240087067996291 0 -0.13882735349323549 -0.24106164698828261 0 -0.15371528247998029 -0.23143054953621539 0 -0.16393078608286479 -0.24650562829992281 0 -0.12492952334576481 -0.25997552798718271 0 -0.1171341615731636 -0.23838965339439949 0 -0.13882735349323549 -0.24106164698828261 0 -0.1171341615731636 -0.23838965339439949 0 -0.13882735349323549 -0.24106164698828261 0 -0.1261997592058175 -0.2236346186630925 0 -0.13882735349323549 -0.24106164698828261 0 -0.1261997592058175 -0.2236346186630925 0 -0.14178635713014201 -0.2222436886723366 0 -0.13882735349323549 -0.24106164698828261 0 -0.14178635713014201 -0.2222436886723366 0 -0.15371528247998029 -0.23143054953621539 0 -0.14178635713014201 -0.2222436886723366 0 -0.15371528247998029 -0.23143054953621539 0 -0.1563864530595738 -0.2180278181231981 0 -0.14579617732844941 -0.20878459830860729 0 -0.16093014052739221 -0.1975551867897602 0 -0.1563864530595738 -0.2180278181231981 0 -0.14178635713014201 -0.2222436886723366 0 -0.14579617732844941 -0.20878459830860729 0 -0.1563864530595738 -0.2180278181231981 0 -0.1261997592058175 -0.2236346186630925 0 -0.14178635713014201 -0.2222436886723366 0 -0.13133896320757771 -0.20736648349470299 0 -0.14178635713014201 -0.2222436886723366 0 -0.14579617732844941 -0.20878459830860729 0 -0.13133896320757771 -0.20736648349470299 0 -0.14579617732844941 -0.20878459830860729 0 -0.13133896320757771 -0.20736648349470299 0 -0.14272344783918589 -0.1961386324160489 0 -0.13133896320757771 -0.20736648349470299 0 -0.12818043582608571 -0.18821346595889371 0 -0.14272344783918589 -0.1961386324160489 0 -0.1204680589688355 -0.2000694149225376 0 -0.13133896320757771 -0.20736648349470299 0 -0.12818043582608571 -0.18821346595889371 0 -0.14946375986723651 -0.1774778365047853 0 -0.14272344783918589 -0.1961386324160489 0 -0.16093014052739221 -0.1975551867897602 0 -0.14579617732844941 -0.20878459830860729 0 -0.14272344783918589 -0.1961386324160489 0 -0.16093014052739221 -0.1975551867897602 0 -0.16420381359076161 -0.182379273854156 0 -0.17912683133848051 -0.18352078136425801 0 -0.16093014052739221 -0.1975551867897602 0 -0.17912683133848051 -0.18352078136425801 0 -0.16093014052739221 -0.1975551867897602 0 -0.1810289485573611 -0.2051151787006783 0 -0.17912683133848051 -0.18352078136425801 0 -0.1810289485573611 -0.2051151787006783 0 -0.17912683133848051 -0.18352078136425801 0 -0.1810289485573611 -0.2051151787006783 0 -0.19292147054622291 -0.19204770238689151 0 -0.1810289485573611 -0.2051151787006783 0 -0.18293106577624141 -0.22670957603709871 0 -0.1810289485573611 -0.2051151787006783 0 -0.17057176224496121 -0.21527097262310221 0 -0.18293106577624141 -0.22670957603709871 0 -0.16093014052739221 -0.1975551867897602 0 -0.1810289485573611 -0.2051151787006783 0 -0.17057176224496121 -0.21527097262310221 0 -0.16093014052739221 -0.1975551867897602 0 -0.17057176224496121 -0.21527097262310221 0 -0.1563864530595738 -0.2180278181231981 0 -0.16559139993116059 -0.22760776226289789 0 -0.18293106577624141 -0.22670957603709871 0 -0.16393078608286479 -0.24650562829992281 0 -0.15371528247998029 -0.23143054953621539 0 -0.1563864530595738 -0.2180278181231981 0 -0.16559139993116059 -0.22760776226289789 0 -0.17057176224496121 -0.21527097262310221 0 -0.1563864530595738 -0.2180278181231981 0 -0.16559139993116059 -0.22760776226289789 0 -0.17057176224496121 -0.21527097262310221 0 -0.16559139993116059 -0.22760776226289789 0 -0.18293106577624141 -0.22670957603709871 0 -0.18293106577624141 -0.22670957603709871 0 -0.18478090970842381 -0.24771052407825739 0 -0.19446718978336361 -0.2371864089830506 0 -0.18293106577624141 -0.22670957603709871 0 -0.16393078608286479 -0.24650562829992281 0 -0.18293106577624141 -0.22670957603709871 0 -0.18478090970842381 -0.24771052407825739 0 -0.18293106577624141 -0.22670957603709871 0 -0.18478090970842381 -0.24771052407825739 0 -0.16393078608286479 -0.24650562829992281 0 -0.15371528247998029 -0.23143054953621539 0 -0.16559139993116059 -0.22760776226289789 0 -0.16393078608286479 -0.24650562829992281 0 -0.205705253656984 -0.24850386801367019 0 -0.20445152999180541 -0.22582166780317611 0 -0.22219861934884089 -0.2345698281173674 0 -0.205705253656984 -0.24850386801367019 0 -0.20445152999180541 -0.22582166780317611 0 -0.22266169715777201 -0.25375765599846162 0 -0.205705253656984 -0.24850386801367019 0 -0.22219861934884089 -0.2345698281173674 0 -0.18478090970842381 -0.24771052407825739 0 -0.205705253656984 -0.24850386801367019 0 -0.19446718978336361 -0.2371864089830506 0 -0.205705253656984 -0.24850386801367019 0 -0.19446718978336361 -0.2371864089830506 0 -0.20445152999180541 -0.22582166780317611 0 -0.18293106577624141 -0.22670957603709871 0 -0.19446718978336361 -0.2371864089830506 0 -0.20445152999180541 -0.22582166780317611 0 -0.18293106577624141 -0.22670957603709871 0 -0.20445152999180541 -0.22582166780317611 0 -0.19882685186361421 -0.21014804024802231 0 -0.20445152999180541 -0.22582166780317611 0 -0.215883391475167 -0.21373889299014509 0 -0.22219861934884089 -0.2345698281173674 0 -0.20445152999180541 -0.22582166780317611 0 -0.215883391475167 -0.21373889299014509 0 -0.19882685186361421 -0.21014804024802231 0 -0.215883391475167 -0.21373889299014509 0 -0.19882685186361421 -0.21014804024802231 0 -0.21322582773201931 -0.18998375585124769 0 -0.1810289485573611 -0.2051151787006783 0 -0.18293106577624141 -0.22670957603709871 0 -0.19882685186361421 -0.21014804024802231 0 -0.18293106577624141 -0.22670957603709871 0 -0.19882685186361421 -0.21014804024802231 0 -0.19882685186361421 -0.21014804024802231 0 -0.19292147054622291 -0.19204770238689151 0 -0.21322582773201931 -0.18998375585124769 0 -0.1810289485573611 -0.2051151787006783 0 -0.19882685186361421 -0.21014804024802231 0 -0.19292147054622291 -0.19204770238689151 0 -0.24771049473209261 -0.19768117856553941 0 -0.23069094287863989 -0.20755926791230031 0 -0.235429183073292 -0.17594327325330181 0 -0.21322582773201931 -0.18998375585124769 0 -0.23069094287863989 -0.20755926791230031 0 -0.235429183073292 -0.17594327325330181 0 -0.24771049473209261 -0.19768117856553941 0 -0.23069094287863989 -0.20755926791230031 0 -0.25675186192423449 -0.21294858151105589 0 -0.23069094287863989 -0.20755926791230031 0 -0.2393233671183744 -0.22376497838463641 0 -0.25675186192423449 -0.21294858151105589 0 -0.215883391475167 -0.21373889299014509 0 -0.21322582773201931 -0.18998375585124769 0 -0.23069094287863989 -0.20755926791230031 0 -0.215883391475167 -0.21373889299014509 0 -0.23069094287863989 -0.20755926791230031 0 -0.2393233671183744 -0.22376497838463641 0 -0.215883391475167 -0.21373889299014509 0 -0.2393233671183744 -0.22376497838463641 0 -0.22219861934884089 -0.2345698281173674 0 -0.2393233671183744 -0.22376497838463641 0 -0.24613954941868271 -0.24181674091805319 0 -0.22219861934884089 -0.2345698281173674 0 -0.22266169715777201 -0.25375765599846162 0 -0.24613954941868271 -0.24181674091805319 0 -0.22219861934884089 -0.2345698281173674 0 -0.20856856095162679 -0.1452288614530487 0 -0.21071677747522741 -0.1653335319556761 0 -0.22542699401948171 -0.15671967513077431 0 -0.20856856095162679 -0.1452288614530487 0 -0.2004025489538257 -0.12783764387353741 0 -0.22082910684220561 -0.12892698991843229 0 -0.18349579613772041 -0.12680997936755911 0 -0.2004025489538257 -0.12783764387353741 0 -0.19096882045603861 -0.13814824474411641 0 -0.20856856095162679 -0.1452288614530487 0 -0.2004025489538257 -0.12783764387353741 0 -0.19096882045603861 -0.13814824474411641 0 -0.18600437187716279 -0.1547237906580505 0 -0.20856856095162679 -0.1452288614530487 0 -0.19096882045603861 -0.13814824474411641 0 -0.18600437187716279 -0.1547237906580505 0 -0.20856856095162679 -0.1452288614530487 0 -0.21071677747522741 -0.1653335319556761 0 -0.18600437187716279 -0.1547237906580505 0 -0.21071677747522741 -0.1653335319556761 0 -0.18600437187716279 -0.1547237906580505 0 -0.19239889323963941 -0.17147075577025081 0 -0.21071677747522741 -0.1653335319556761 0 -0.17912683133848051 -0.18352078136425801 0 -0.19292147054622291 -0.19204770238689151 0 -0.19239889323963941 -0.17147075577025081 0 -0.19292147054622291 -0.19204770238689151 0 -0.21322582773201931 -0.18998375585124769 0 -0.19239889323963941 -0.17147075577025081 0 -0.21322582773201931 -0.18998375585124769 0 -0.19239889323963941 -0.17147075577025081 0 -0.21071677747522741 -0.1653335319556761 0 -0.21071677747522741 -0.1653335319556761 0 -0.22542699401948171 -0.15671967513077431 0 -0.235429183073292 -0.17594327325330181 0 -0.21071677747522741 -0.1653335319556761 0 -0.235429183073292 -0.17594327325330181 0 -0.21322582773201931 -0.18998375585124769 0 -0.21071677747522741 -0.1653335319556761 0 -0.235429183073292 -0.17594327325330181 0 -0.24771049473209261 -0.19768117856553941 0 -0.235429183073292 -0.17594327325330181 0 -0.26014158867135673 -0.1865530145509276 0 -0.235429183073292 -0.17594327325330181 0 -0.26014158867135673 -0.1865530145509276 0 -0.235429183073292 -0.17594327325330181 0 -0.24329735308453859 -0.15473057364303339 0 -0.26063647979420768 -0.16748750478630181 0 -0.22542699401948171 -0.15671967513077431 0 -0.235429183073292 -0.17594327325330181 0 -0.24329735308453859 -0.15473057364303339 0 -0.24312827046847521 -0.14110956805416841 0 -0.25177498087438482 -0.14470540750455441 0 -0.25092318259372781 -0.13795402302542531 0 -0.24329735308453859 -0.15473057364303339 0 -0.24312827046847521 -0.14110956805416841 0 -0.25177498087438482 -0.14470540750455441 0 -0.24329735308453859 -0.15473057364303339 0 -0.24312827046847521 -0.14110956805416841 0 -0.2291230955127235 -0.1423621353488112 0 -0.22542699401948171 -0.15671967513077431 0 -0.24329735308453859 -0.15473057364303339 0 -0.2291230955127235 -0.1423621353488112 0 -0.20856856095162679 -0.1452288614530487 0 -0.22542699401948171 -0.15671967513077431 0 -0.2291230955127235 -0.1423621353488112 0 -0.20856856095162679 -0.1452288614530487 0 -0.2291230955127235 -0.1423621353488112 0 -0.22082910684220561 -0.12892698991843229 0 -0.22082910684220561 -0.12892698991843229 0 -0.2359580234661727 -0.13173543435754481 0 -0.23991785209883271 -0.11433772565505559 0 -0.2291230955127235 -0.1423621353488112 0 -0.22082910684220561 -0.12892698991843229 0 -0.2359580234661727 -0.13173543435754481 0 -0.24547060127154391 -0.13178575194574621 0 -0.23991785209883271 -0.11433772565505559 0 -0.25717849632168299 -0.13345303375459991 0 -0.2359580234661727 -0.13173543435754481 0 -0.24547060127154391 -0.13178575194574621 0 -0.23991785209883271 -0.11433772565505559 0 -0.24312827046847521 -0.14110956805416841 0 -0.2359580234661727 -0.13173543435754481 0 -0.24547060127154391 -0.13178575194574621 0 -0.24312827046847521 -0.14110956805416841 0 -0.2291230955127235 -0.1423621353488112 0 -0.2359580234661727 -0.13173543435754481 0 -0.24312827046847521 -0.14110956805416841 0 -0.24547060127154391 -0.13178575194574621 0 -0.25092318259372781 -0.13795402302542531 0 -0.23991785209883271 -0.11433772565505559 0 -0.25717849632168299 -0.13345303375459991 0 -0.23991785209883271 -0.11433772565505559 0 -0.222657207875983 -0.095222417555510655 0 -0.25028935766715599 -0.093711477972156232 0 -0.23991785209883271 -0.11433772565505559 0 -0.25028935766715599 -0.093711477972156232 0 -0.25510649943842822 -0.1163175323995409 0 -0.23991785209883271 -0.11433772565505559 0 -0.222657207875983 -0.095222417555510655 0 -0.23991785209883271 -0.11433772565505559 0 -0.222657207875983 -0.095222417555510655 0 -0.21029645478954009 -0.1146191552318005 0 -0.22082910684220561 -0.12892698991843229 0 -0.23991785209883271 -0.11433772565505559 0 -0.21029645478954009 -0.1146191552318005 0 -0.222657207875983 -0.095222417555510655 0 -0.2383179812864358 -0.070647222862611617 0 -0.25028935766715599 -0.093711477972156232 0 -0.222657207875983 -0.095222417555510655 0 -0.2383179812864358 -0.070647222862611617 0 -0.222657207875983 -0.095222417555510655 0 -0.2383179812864358 -0.070647222862611617 0 -0.20772210750560541 -0.078682534026747658 0 -0.2383179812864358 -0.070647222862611617 0 -0.20772210750560541 -0.078682534026747658 0 -0.22319065822084361 -0.059970866644831131 0 -0.20879572910939709 -0.062585566031013548 0 -0.20772210750560541 -0.078682534026747658 0 -0.22319065822084361 -0.059970866644831131 0 -0.222657207875983 -0.095222417555510655 0 -0.20772210750560541 -0.078682534026747658 0 -0.19823213469292611 -0.097446389573982509 0 -0.222657207875983 -0.095222417555510655 0 -0.20772210750560541 -0.078682534026747658 0 -0.20772210750560541 -0.078682534026747658 0 -0.19295657669441341 -0.086144780299409682 0 -0.19181588680325609 -0.076097132743495527 0 -0.20772210750560541 -0.078682534026747658 0 -0.19295657669441341 -0.086144780299409682 0 -0.19823213469292611 -0.097446389573982509 0 -0.19295657669441341 -0.086144780299409682 0 -0.19823213469292611 -0.097446389573982509 0 -0.18308162116347779 -0.091190759075587338 0 -0.19295657669441341 -0.086144780299409682 0 -0.19181588680325609 -0.076097132743495527 0 -0.1836808600411394 -0.082281109201002664 0 -0.20772210750560541 -0.078682534026747658 0 -0.19181588680325609 -0.076097132743495527 0 -0.19278700713523131 -0.062142650497981657 0 -0.20879572910939709 -0.062585566031013548 0 -0.20772210750560541 -0.078682534026747658 0 -0.19278700713523131 -0.062142650497981657 0 -0.20772210750560541 -0.078682534026747658 0 -0.19278700713523131 -0.062142650497981657 0 -0.19181588680325609 -0.076097132743495527 0 -0.1792823984775776 -0.072083767134113505 0 -0.19278700713523131 -0.062142650497981657 0 -0.2004025489538257 -0.12783764387353741 0 -0.22082910684220561 -0.12892698991843229 0 -0.21029645478954009 -0.1146191552318005 0 -0.222657207875983 -0.095222417555510655 0 -0.21029645478954009 -0.1146191552318005 0 -0.222657207875983 -0.095222417555510655 0 -0.21029645478954009 -0.1146191552318005 0 -0.19823213469292611 -0.097446389573982509 0 -0.19823213469292611 -0.097446389573982509 0 -0.1904903517473045 -0.1129726906388742 0 -0.17840918950284079 -0.1029530493569398 0 -0.21029645478954009 -0.1146191552318005 0 -0.19823213469292611 -0.097446389573982509 0 -0.1904903517473045 -0.1129726906388742 0 -0.18349579613772041 -0.12680997936755911 0 -0.2004025489538257 -0.12783764387353741 0 -0.1904903517473045 -0.1129726906388742 0 -0.2004025489538257 -0.12783764387353741 0 -0.21029645478954009 -0.1146191552318005 0 -0.1904903517473045 -0.1129726906388742 0 -0.18349579613772041 -0.12680997936755911 0 -0.1904903517473045 -0.1129726906388742 0 -0.17791905285696941 -0.11601825971995811 0 -0.1904903517473045 -0.1129726906388742 0 -0.17791905285696941 -0.11601825971995811 0 -0.17840918950284079 -0.1029530493569398 0 -0.17791905285696941 -0.11601825971995811 0 -0.1661078290104977 -0.1141111939221352 0 -0.17840918950284079 -0.1029530493569398 0 -0.18349579613772041 -0.12680997936755911 0 -0.16880128043931711 -0.12819777995409951 0 -0.17791905285696941 -0.11601825971995811 0 -0.16880128043931711 -0.12819777995409951 0 -0.1661078290104977 -0.1141111939221352 0 -0.1485816128983081 -0.1207049853974709 0 -0.16880128043931711 -0.12819777995409951 0 -0.17791905285696941 -0.11601825971995811 0 -0.1661078290104977 -0.1141111939221352 0 -0.1661078290104977 -0.1141111939221352 0 -0.16085102632032161 -0.1062756979040386 0 -0.1485816128983081 -0.1207049853974709 0 -0.16123777644918619 -0.095946155627980881 0 -0.16085102632032161 -0.1062756979040386 0 -0.15382855044866409 -0.099973808901125241 0 -0.16123777644918619 -0.095946155627980881 0 -0.16085102632032161 -0.1062756979040386 0 -0.16758359835058101 -0.10070937112754 0 -0.1661078290104977 -0.1141111939221352 0 -0.16085102632032161 -0.1062756979040386 0 -0.16758359835058101 -0.10070937112754 0 -0.1661078290104977 -0.1141111939221352 0 -0.16758359835058101 -0.10070937112754 0 -0.17840918950284079 -0.1029530493569398 0 -0.16123777644918619 -0.095946155627980881 0 -0.16758359835058101 -0.10070937112754 0 -0.17033424969989791 -0.092354607373493408 0 -0.17840918950284079 -0.1029530493569398 0 -0.18308162116347779 -0.091190759075587338 0 -0.17033424969989791 -0.092354607373493408 0 -0.16758359835058101 -0.10070937112754 0 -0.17840918950284079 -0.1029530493569398 0 -0.17033424969989791 -0.092354607373493408 0 -0.19823213469292611 -0.097446389573982509 0 -0.17840918950284079 -0.1029530493569398 0 -0.18308162116347779 -0.091190759075587338 0 -0.18308162116347779 -0.091190759075587338 0 -0.1836808600411394 -0.082281109201002664 0 -0.1748245760859698 -0.084917540132814301 0 -0.19295657669441341 -0.086144780299409682 0 -0.18308162116347779 -0.091190759075587338 0 -0.1836808600411394 -0.082281109201002664 0 -0.1748245760859698 -0.084917540132814301 0 -0.1792823984775776 -0.072083767134113505 0 -0.17023674349563461 -0.079748028219419703 0 -0.1836808600411394 -0.082281109201002664 0 -0.1748245760859698 -0.084917540132814301 0 -0.1792823984775776 -0.072083767134113505 0 -0.18308162116347779 -0.091190759075587338 0 -0.1748245760859698 -0.084917540132814301 0 -0.17033424969989791 -0.092354607373493408 0 -0.1792823984775776 -0.072083767134113505 0 -0.1838168841505512 -0.062422911905507257 0 -0.19278700713523131 -0.062142650497981657 0 -0.1792823984775776 -0.072083767134113505 0 -0.19278700713523131 -0.062142650497981657 0 -0.1792823984775776 -0.072083767134113505 0 -0.17725866411134289 -0.060905890986584783 0 -0.1838168841505512 -0.062422911905507257 0 -0.19181588680325609 -0.076097132743495527 0 -0.1836808600411394 -0.082281109201002664 0 -0.1792823984775776 -0.072083767134113505 0 -0.1792823984775776 -0.072083767134113505 0 -0.16577778981992439 -0.082024883770246027 0 -0.1792823984775776 -0.072083767134113505 0 -0.16937431881547441 -0.066484784626385018 0 -0.1704722266458944 -0.072408771487773041 0 -0.1792823984775776 -0.072083767134113505 0 -0.1704722266458944 -0.072408771487773041 0 -0.16818268740968159 -0.075997965900709077 0 -0.1792823984775776 -0.072083767134113505 0 -0.16937431881547441 -0.066484784626385018 0 -0.17725866411134289 -0.060905890986584783 0 -0.16937431881547441 -0.066484784626385018 0 -0.16168846610501969 -0.064631781037457606 0 -0.16578606193432979 -0.059716706801597852 0 -0.16937431881547441 -0.066484784626385018 0 -0.16687211868026749 -0.072442188877017685 0 -0.16280625542420071 -0.07092395216889151 0 -0.16937431881547441 -0.066484784626385018 0 -0.16280625542420071 -0.07092395216889151 0 -0.16168846610501969 -0.064631781037457606 0 -0.1792823984775776 -0.072083767134113505 0 -0.17023674349563461 -0.079748028219419703 0 -0.16577778981992439 -0.082024883770246027 0 -0.1792823984775776 -0.072083767134113505 0 -0.16818268740968159 -0.075997965900709077 0 -0.16577778981992439 -0.082024883770246027 0 -0.16687211868026749 -0.072442188877017685 0 -0.1635251051060862 -0.076395470201329835 0 -0.16280625542420071 -0.07092395216889151 0 -0.16937431881547441 -0.066484784626385018 0 -0.16687211868026749 -0.072442188877017685 0 -0.1704722266458944 -0.072408771487773041 0 -0.16687211868026749 -0.072442188877017685 0 -0.1704722266458944 -0.072408771487773041 0 -0.16818268740968159 -0.075997965900709077 0 -0.16687211868026749 -0.072442188877017685 0 -0.16818268740968159 -0.075997965900709077 0 -0.1635251051060862 -0.076395470201329835 0 -0.16818268740968159 -0.075997965900709077 0 -0.1635251051060862 -0.076395470201329835 0 -0.1640466803919621 -0.079319168834338469 0 -0.1635251051060862 -0.076395470201329835 0 -0.1609779379606823 -0.077914536584715019 0 -0.1640466803919621 -0.079319168834338469 0 -0.1635251051060862 -0.076395470201329835 0 -0.1609779379606823 -0.077914536584715019 0 -0.1596350243551013 -0.074573230741499269 0 -0.1596350243551013 -0.074573230741499269 0 -0.15769910470421181 -0.07839858457045186 0 -0.15561437901635189 -0.074789011495980731 0 -0.1609779379606823 -0.077914536584715019 0 -0.1596350243551013 -0.074573230741499269 0 -0.15769910470421181 -0.07839858457045186 0 -0.1596350243551013 -0.074573230741499269 0 -0.15695052835450909 -0.069682659804194982 0 -0.15561437901635189 -0.074789011495980731 0 -0.1596350243551013 -0.074573230741499269 0 -0.16280625542420071 -0.07092395216889151 0 -0.15695052835450909 -0.069682659804194982 0 -0.1635251051060862 -0.076395470201329835 0 -0.1596350243551013 -0.074573230741499269 0 -0.16280625542420071 -0.07092395216889151 0 -0.16280625542420071 -0.07092395216889151 0 -0.15695052835450909 -0.069682659804194982 0 -0.16168846610501969 -0.064631781037457606 0 -0.15695052835450909 -0.069682659804194982 0 -0.16168846610501969 -0.064631781037457606 0 -0.1554468906404714 -0.062580098380443899 0 -0.16123777644918619 -0.095946155627980881 0 -0.17033424969989791 -0.092354607373493408 0 -0.16340142275143801 -0.088607049288168149 0 -0.16812929731740589 -0.086633728791118039 0 -0.16554447714405421 -0.08557494538960625 0 -0.16340142275143801 -0.088607049288168149 0 -0.17033424969989791 -0.092354607373493408 0 -0.16812929731740589 -0.086633728791118039 0 -0.16340142275143801 -0.088607049288168149 0 -0.1748245760859698 -0.084917540132814301 0 -0.17033424969989791 -0.092354607373493408 0 -0.16812929731740589 -0.086633728791118039 0 -0.1748245760859698 -0.084917540132814301 0 -0.16812929731740589 -0.086633728791118039 0 -0.16918413831637891 -0.083191220654166231 0 -0.1748245760859698 -0.084917540132814301 0 -0.16918413831637891 -0.083191220654166231 0 -0.17023674349563461 -0.079748028219419703 0 -0.16812929731740589 -0.086633728791118039 0 -0.16918413831637891 -0.083191220654166231 0 -0.1666125897004451 -0.084088767034835671 0 -0.17023674349563461 -0.079748028219419703 0 -0.16577778981992439 -0.082024883770246027 0 -0.16918413831637891 -0.083191220654166231 0 -0.17023674349563461 -0.079748028219419703 0 -0.16577778981992439 -0.082024883770246027 0 -0.16818268740968159 -0.075997965900709077 0 -0.16577778981992439 -0.082024883770246027 0 -0.1640466803919621 -0.079319168834338469 0 -0.16577778981992439 -0.082024883770246027 0 -0.16554447714405421 -0.08557494538960625 0 -0.16340142275143801 -0.088607049288168149 0 -0.16812929731740589 -0.086633728791118039 0 -0.1666125897004451 -0.084088767034835671 0 -0.16554447714405421 -0.08557494538960625 0 -0.16918413831637891 -0.083191220654166231 0 -0.16577778981992439 -0.082024883770246027 0 -0.1666125897004451 -0.084088767034835671 0 -0.16577778981992439 -0.082024883770246027 0 -0.1666125897004451 -0.084088767034835671 0 -0.16554447714405421 -0.08557494538960625 0 -0.16577778981992439 -0.082024883770246027 0 -0.1515283862093936 -0.089300992935350321 0 -0.1556507103636659 -0.082798060432107259 0 -0.16577778981992439 -0.082024883770246027 0 -0.1515283862093936 -0.089300992935350321 0 -0.16577778981992439 -0.082024883770246027 0 -0.1606988305398844 -0.080400743139762476 0 -0.1556507103636659 -0.082798060432107259 0 -0.16577778981992439 -0.082024883770246027 0 -0.1640466803919621 -0.079319168834338469 0 -0.1606988305398844 -0.080400743139762476 0 -0.1609779379606823 -0.077914536584715019 0 -0.1640466803919621 -0.079319168834338469 0 -0.1606988305398844 -0.080400743139762476 0 -0.1606988305398844 -0.080400743139762476 0 -0.15769910470421181 -0.07839858457045186 0 -0.1556507103636659 -0.082798060432107259 0 -0.1609779379606823 -0.077914536584715019 0 -0.1606988305398844 -0.080400743139762476 0 -0.15769910470421181 -0.07839858457045186 0 -0.16577778981992439 -0.082024883770246027 0 -0.16340142275143801 -0.088607049288168149 0 -0.1515283862093936 -0.089300992935350321 0 -0.16123777644918619 -0.095946155627980881 0 -0.16340142275143801 -0.088607049288168149 0 -0.1515283862093936 -0.089300992935350321 0 -0.1515283862093936 -0.089300992935350321 0 -0.1358712595175208 -0.09729592143451464 0 -0.1515283862093936 -0.089300992935350321 0 -0.14272633938449189 -0.088026257350921497 0 -0.1358712595175208 -0.09729592143451464 0 -0.1515283862093936 -0.089300992935350321 0 -0.1556507103636659 -0.082798060432107259 0 -0.14844969208011341 -0.081411100445493281 0 -0.1556507103636659 -0.082798060432107259 0 -0.15359177496470211 -0.078405473518974589 0 -0.14844969208011341 -0.081411100445493281 0 -0.15769910470421181 -0.07839858457045186 0 -0.1556507103636659 -0.082798060432107259 0 -0.15359177496470211 -0.078405473518974589 0 -0.14844969208011341 -0.081411100445493281 0 -0.14319437227947099 -0.07445657074242143 0 -0.1389882770241494 -0.081925351716253023 0 -0.14844969208011341 -0.081411100445493281 0 -0.14272633938449189 -0.088026257350921497 0 -0.1389882770241494 -0.081925351716253023 0 -0.1515283862093936 -0.089300992935350321 0 -0.14844969208011341 -0.081411100445493281 0 -0.14272633938449189 -0.088026257350921497 0 -0.15173431432118831 -0.066653962292980054 0 -0.14692815013612279 -0.064150417229905804 0 -0.1504156128528043 -0.0595734635186854 0 -0.15695052835450909 -0.069682659804194982 0 -0.1554468906404714 -0.062580098380443899 0 -0.15173431432118831 -0.066653962292980054 0 -0.1554468906404714 -0.062580098380443899 0 -0.15173431432118831 -0.066653962292980054 0 -0.1504156128528043 -0.0595734635186854 0 -0.15695052835450909 -0.069682659804194982 0 -0.15173431432118831 -0.066653962292980054 0 -0.15104984916914049 -0.073321647180650915 0 -0.15173431432118831 -0.066653962292980054 0 -0.15104984916914049 -0.073321647180650915 0 -0.1466162888707512 -0.06925695061353547 0 -0.15359177496470211 -0.078405473518974589 0 -0.14844969208011341 -0.081411100445493281 0 -0.15104984916914049 -0.073321647180650915 0 -0.15695052835450909 -0.069682659804194982 0 -0.15104984916914049 -0.073321647180650915 0 -0.15561437901635189 -0.074789011495980731 0 -0.15769910470421181 -0.07839858457045186 0 -0.15359177496470211 -0.078405473518974589 0 -0.15561437901635189 -0.074789011495980731 0 -0.15359177496470211 -0.078405473518974589 0 -0.15104984916914049 -0.073321647180650915 0 -0.15561437901635189 -0.074789011495980731 0 -0.14844969208011341 -0.081411100445493281 0 -0.15104984916914049 -0.073321647180650915 0 -0.14319437227947099 -0.07445657074242143 0 -0.15104984916914049 -0.073321647180650915 0 -0.14319437227947099 -0.07445657074242143 0 -0.1466162888707512 -0.06925695061353547 0 -0.14319437227947099 -0.07445657074242143 0 -0.1466162888707512 -0.06925695061353547 0 -0.1402287119846983 -0.066090492945792181 0 -0.1466162888707512 -0.06925695061353547 0 -0.14692815013612279 -0.064150417229905804 0 -0.1402287119846983 -0.066090492945792181 0 -0.15173431432118831 -0.066653962292980054 0 -0.1466162888707512 -0.06925695061353547 0 -0.14692815013612279 -0.064150417229905804 0 -0.14692815013612279 -0.064150417229905804 0 -0.1402287119846983 -0.066090492945792181 0 -0.1453592624539882 -0.059047387169355418 0 -0.1402287119846983 -0.066090492945792181 0 -0.13088220118532959 -0.067514101794340448 0 -0.13530042878379961 -0.061768860165916817 0 -0.1402287119846983 -0.066090492945792181 0 -0.13577529735536489 -0.073666816583942141 0 -0.13088220118532959 -0.067514101794340448 0 -0.14319437227947099 -0.07445657074242143 0 -0.13577529735536489 -0.073666816583942141 0 -0.1389882770241494 -0.081925351716253023 0 -0.14319437227947099 -0.07445657074242143 0 -0.1402287119846983 -0.066090492945792181 0 -0.13577529735536489 -0.073666816583942141 0 -0.13577529735536489 -0.073666816583942141 0 -0.1389882770241494 -0.081925351716253023 0 -0.12558292430317611 -0.07834756572090365 0 -0.13577529735536489 -0.073666816583942141 0 -0.13088220118532959 -0.067514101794340448 0 -0.12558292430317611 -0.07834756572090365 0 -0.1194328917565281 -0.064170440014843233 0 -0.13088220118532959 -0.067514101794340448 0 -0.1290982905329128 -0.059632400421765042 0 -0.13088220118532959 -0.067514101794340448 0 -0.1290982905329128 -0.059632400421765042 0 -0.13530042878379961 -0.061768860165916817 0 -0.1194328917565281 -0.064170440014843233 0 -0.13088220118532959 -0.067514101794340448 0 -0.12558292430317611 -0.07834756572090365 0 -0.13666188852096681 -0.089534531866608563 0 -0.12558292430317611 -0.07834756572090365 0 -0.1358712595175208 -0.09729592143451464 0 -0.11452085266420101 -0.091906122445804567 0 -0.12532025114402709 -0.088793788438863611 0 -0.1358712595175208 -0.09729592143451464 0 -0.12558292430317611 -0.07834756572090365 0 -0.1358712595175208 -0.09729592143451464 0 -0.12558292430317611 -0.07834756572090365 0 -0.12532025114402709 -0.088793788438863611 0 -0.1358712595175208 -0.09729592143451464 0 -0.14272633938449189 -0.088026257350921497 0 -0.13666188852096681 -0.089534531866608563 0 -0.1358712595175208 -0.09729592143451464 0 -0.14272633938449189 -0.088026257350921497 0 -0.13666188852096681 -0.089534531866608563 0 -0.1389882770241494 -0.081925351716253023 0 -0.13666188852096681 -0.089534531866608563 0 -0.1389882770241494 -0.081925351716253023 0 -0.12558292430317611 -0.07834756572090365 0 -0.11452085266420101 -0.091906122445804567 0 -0.1358712595175208 -0.09729592143451464 0 -0.1358712595175208 -0.09729592143451464 0 -0.1266901189146723 -0.11636094711718201 0 -0.1485816128983081 -0.1207049853974709 0 -0.13376864667402091 -0.13229750242399019 0 -0.1266901189146723 -0.11636094711718201 0 -0.1485816128983081 -0.1207049853974709 0 -0.1358712595175208 -0.09729592143451464 0 -0.1485816128983081 -0.1207049853974709 0 -0.1358712595175208 -0.09729592143451464 0 -0.15382855044866409 -0.099973808901125241 0 -0.1515283862093936 -0.089300992935350321 0 -0.1358712595175208 -0.09729592143451464 0 -0.15382855044866409 -0.099973808901125241 0 -0.1358712595175208 -0.09729592143451464 0 -0.1485816128983081 -0.1207049853974709 0 -0.15382855044866409 -0.099973808901125241 0 -0.16085102632032161 -0.1062756979040386 0 -0.1485816128983081 -0.1207049853974709 0 -0.15382855044866409 -0.099973808901125241 0 -0.16123777644918619 -0.095946155627980881 0 -0.1515283862093936 -0.089300992935350321 0 -0.15382855044866409 -0.099973808901125241 0 -0.14308431329177551 -0.023971734096252969 0 -0.15491621355604601 -0.028342290844696159 0 -0.16827496409620421 -0.018118988986463431 0 -0.14308431329177551 -0.023971734096252969 0 -0.15559412394961231 -0.01117502074595471 0 -0.16827496409620421 -0.018118988986463431 0 -0.14308431329177551 -0.023971734096252969 0 -0.16827496409620421 -0.018118988986463431 0 -0.14456699450207319 -0.01618984286763369 0 -0.14308431329177551 -0.023971734096252969 0 -0.15559412394961231 -0.01117502074595471 0 -0.14456699450207319 -0.01618984286763369 0 -0.1420907176151476 -0.019882644313020649 0 -0.13871301577969811 -0.017416387504943599 0 -0.14456699450207319 -0.01618984286763369 0 -0.1420907176151476 -0.019882644313020649 0 -0.14308431329177551 -0.023971734096252969 0 -0.1420907176151476 -0.019882644313020649 0 -0.14308431329177551 -0.023971734096252969 0 -0.13871301577969811 -0.017416387504943599 0 -0.14114525679035961 -0.02656400985667437 0 -0.14433502610495719 -0.027281026786138259 0 -0.14308431329177551 -0.023971734096252969 0 -0.14114525679035961 -0.02656400985667437 0 -0.14433502610495719 -0.027281026786138259 0 -0.14039804783369161 -0.029773723878892169 0 -0.14433502610495719 -0.027281026786138259 0 -0.14039804783369161 -0.029773723878892169 0 -0.14488296584367791 -0.033422935658971219 0 -0.14433502610495719 -0.027281026786138259 0 -0.1476905260696732 -0.028401883884601971 0 -0.14488296584367791 -0.033422935658971219 0 -0.14433502610495719 -0.027281026786138259 0 -0.14308431329177551 -0.023971734096252969 0 -0.1476905260696732 -0.028401883884601971 0 -0.14308431329177551 -0.023971734096252969 0 -0.1476905260696732 -0.028401883884601971 0 -0.15491621355604601 -0.028342290844696159 0 -0.1476905260696732 -0.028401883884601971 0 -0.15491621355604601 -0.028342290844696159 0 -0.1503568692848041 -0.033454827167633767 0 -0.15559412394961231 -0.01117502074595471 0 -0.14863338206775739 -0.002425641076573675 0 -0.15749918475220409 0.0018061885736658111 0 -0.15559412394961231 -0.01117502074595471 0 -0.14863338206775739 -0.002425641076573675 0 -0.14337578284730279 -0.0097953960770113119 0 -0.14863338206775739 -0.002425641076573675 0 -0.14337578284730279 -0.0097953960770113119 0 -0.138196097687317 -0.0012428439792985841 0 -0.14456699450207319 -0.01618984286763369 0 -0.15559412394961231 -0.01117502074595471 0 -0.14337578284730279 -0.0097953960770113119 0 -0.14456699450207319 -0.01618984286763369 0 -0.14337578284730279 -0.0097953960770113119 0 -0.13871301577969811 -0.017416387504943599 0 -0.1363442009302363 -0.0086984780369898807 0 -0.13203880739597959 -0.01454911171992147 0 -0.13871301577969811 -0.017416387504943599 0 -0.14337578284730279 -0.0097953960770113119 0 -0.1363442009302363 -0.0086984780369898807 0 -0.13871301577969811 -0.017416387504943599 0 -0.138196097687317 -0.0012428439792985841 0 -0.12971617288639531 -0.0048886410824493919 0 -0.1314233852820951 0.0045994308721778159 0 -0.14337578284730279 -0.0097953960770113119 0 -0.1363442009302363 -0.0086984780369898807 0 -0.138196097687317 -0.0012428439792985841 0 -0.1363442009302363 -0.0086984780369898807 0 -0.138196097687317 -0.0012428439792985841 0 -0.12971617288639531 -0.0048886410824493919 0 -0.1181101929107005 -0.01205589487452241 0 -0.12971617288639531 -0.0048886410824493919 0 -0.13203880739597959 -0.01454911171992147 0 -0.1363442009302363 -0.0086984780369898807 0 -0.12971617288639531 -0.0048886410824493919 0 -0.13203880739597959 -0.01454911171992147 0 -0.1181101929107005 -0.01205589487452241 0 -0.14308431329177551 -0.023971734096252969 0 -0.13676363993101401 -0.02522955466541409 0 -0.1181101929107005 -0.01205589487452241 0 -0.14308431329177551 -0.023971734096252969 0 -0.13203880739597959 -0.01454911171992147 0 -0.1181101929107005 -0.01205589487452241 0 -0.14308431329177551 -0.023971734096252969 0 -0.1181101929107005 -0.01205589487452241 0 -0.13676363993101401 -0.02522955466541409 0 -0.12910209615565699 -0.024012301780688989 0 -0.14308431329177551 -0.023971734096252969 0 -0.13203880739597959 -0.01454911171992147 0 -0.13871301577969811 -0.017416387504943599 0 -0.14039804783369161 -0.029773723878892169 0 -0.13676363993101401 -0.02522955466541409 0 -0.13559316736078031 -0.030553904380041741 0 -0.14114525679035961 -0.02656400985667437 0 -0.14308431329177551 -0.023971734096252969 0 -0.13676363993101401 -0.02522955466541409 0 -0.14114525679035961 -0.02656400985667437 0 -0.14039804783369161 -0.029773723878892169 0 -0.13676363993101401 -0.02522955466541409 0 -0.13676363993101401 -0.02522955466541409 0 -0.13559316736078031 -0.030553904380041741 0 -0.12910209615565699 -0.024012301780688989 0 -0.13559316736078031 -0.030553904380041741 0 -0.125941384420133 -0.028209853202777729 0 -0.12910209615565699 -0.024012301780688989 0 -0.125941384420133 -0.028209853202777729 0 -0.1321170444800274 -0.035898679257747597 0 -0.1252816462006961 -0.038091455574512302 0 -0.13559316736078031 -0.030553904380041741 0 -0.125941384420133 -0.028209853202777729 0 -0.1321170444800274 -0.035898679257747597 0 -0.1321170444800274 -0.035898679257747597 0 -0.1252816462006961 -0.038091455574512302 0 -0.13100757443455999 -0.04160296113813744 0 -0.1252816462006961 -0.038091455574512302 0 -0.1268240780369419 -0.046076455732373602 0 -0.13100757443455999 -0.04160296113813744 0 -0.1268240780369419 -0.046076455732373602 0 -0.13100757443455999 -0.04160296113813744 0 -0.13427326012248189 -0.046800784895764287 0 -0.1321170444800274 -0.035898679257747597 0 -0.13100757443455999 -0.04160296113813744 0 -0.13654184333265279 -0.041147430230289411 0 -0.13100757443455999 -0.04160296113813744 0 -0.13654184333265279 -0.041147430230289411 0 -0.13427326012248189 -0.046800784895764287 0 -0.13654184333265279 -0.041147430230289411 0 -0.13427326012248189 -0.046800784895764287 0 -0.14116113641593739 -0.04616818029369902 0 -0.13654184333265279 -0.041147430230289411 0 -0.14250594739751399 -0.040216270959863749 0 -0.14116113641593739 -0.04616818029369902 0 -0.13654184333265279 -0.041147430230289411 0 -0.1387815647559015 -0.035217355619417592 0 -0.14250594739751399 -0.040216270959863749 0 -0.14039804783369161 -0.029773723878892169 0 -0.13559316736078031 -0.030553904380041741 0 -0.1387815647559015 -0.035217355619417592 0 -0.13559316736078031 -0.030553904380041741 0 -0.1321170444800274 -0.035898679257747597 0 -0.1387815647559015 -0.035217355619417592 0 -0.1321170444800274 -0.035898679257747597 0 -0.13654184333265279 -0.041147430230289411 0 -0.1387815647559015 -0.035217355619417592 0 -0.12188488863174129 -0.053265039890056341 0 -0.1290982905329128 -0.059632400421765042 0 -0.13178342031206339 -0.052524490303700391 0 -0.1290982905329128 -0.059632400421765042 0 -0.13178342031206339 -0.052524490303700391 0 -0.13497239916844819 -0.056947206475452421 0 -0.12188488863174129 -0.053265039890056341 0 -0.1268240780369419 -0.046076455732373602 0 -0.13178342031206339 -0.052524490303700391 0 -0.1268240780369419 -0.046076455732373602 0 -0.13427326012248189 -0.046800784895764287 0 -0.13178342031206339 -0.052524490303700391 0 -0.13427326012248189 -0.046800784895764287 0 -0.13178342031206339 -0.052524490303700391 0 -0.1387753232174416 -0.052331228112925073 0 -0.13427326012248189 -0.046800784895764287 0 -0.1387753232174416 -0.052331228112925073 0 -0.14116113641593739 -0.04616818029369902 0 -0.13178342031206339 -0.052524490303700391 0 -0.1387753232174416 -0.052331228112925073 0 -0.13497239916844819 -0.056947206475452421 0 -0.1387753232174416 -0.052331228112925073 0 -0.13497239916844819 -0.056947206475452421 0 -0.13990453299602371 -0.058479053372954802 0 -0.1402287119846983 -0.066090492945792181 0 -0.13990453299602371 -0.058479053372954802 0 -0.13530042878379961 -0.061768860165916817 0 -0.13497239916844819 -0.056947206475452421 0 -0.13990453299602371 -0.058479053372954802 0 -0.13530042878379961 -0.061768860165916817 0 -0.1290982905329128 -0.059632400421765042 0 -0.13497239916844819 -0.056947206475452421 0 -0.13530042878379961 -0.061768860165916817 0 -0.14692815013612279 -0.064150417229905804 0 -0.1453592624539882 -0.059047387169355418 0 -0.1504156128528043 -0.0595734635186854 0 -0.1402287119846983 -0.066090492945792181 0 -0.13990453299602371 -0.058479053372954802 0 -0.1453592624539882 -0.059047387169355418 0 -0.1387753232174416 -0.052331228112925073 0 -0.13990453299602371 -0.058479053372954802 0 -0.1436786286228236 -0.054950019672129258 0 -0.13990453299602371 -0.058479053372954802 0 -0.1453592624539882 -0.059047387169355418 0 -0.1436786286228236 -0.054950019672129258 0 -0.1453592624539882 -0.059047387169355418 0 -0.14777281876968429 -0.055763385739752369 0 -0.1504156128528043 -0.0595734635186854 0 -0.1453592624539882 -0.059047387169355418 0 -0.1436786286228236 -0.054950019672129258 0 -0.14777281876968429 -0.055763385739752369 0 -0.1436786286228236 -0.054950019672129258 0 -0.14750284961956811 -0.052133604437530817 0 -0.1434757021530253 -0.050648334227280753 0 -0.1436786286228236 -0.054950019672129258 0 -0.14777281876968429 -0.055763385739752369 0 -0.14750284961956811 -0.052133604437530817 0 -0.1387753232174416 -0.052331228112925073 0 -0.1436786286228236 -0.054950019672129258 0 -0.1434757021530253 -0.050648334227280753 0 -0.1434757021530253 -0.050648334227280753 0 -0.14678373392531949 -0.04789407001204149 0 -0.14116113641593739 -0.04616818029369902 0 -0.1387753232174416 -0.052331228112925073 0 -0.1434757021530253 -0.050648334227280753 0 -0.14116113641593739 -0.04616818029369902 0 -0.14750284961956811 -0.052133604437530817 0 -0.1434757021530253 -0.050648334227280753 0 -0.14678373392531949 -0.04789407001204149 0 -0.14750284961956811 -0.052133604437530817 0 -0.14678373392531949 -0.04789407001204149 0 -0.1520908508355536 -0.049375516506006738 0 -0.14678373392531949 -0.04789407001204149 0 -0.1520908508355536 -0.049375516506006738 0 -0.15089909941618271 -0.044231585246554309 0 -0.1520908508355536 -0.049375516506006738 0 -0.15613318195710851 -0.046206408850295068 0 -0.15810232597501231 -0.051869761897790419 0 -0.151694464637224 -0.054129498214665367 0 -0.15502344731774381 -0.057214922513829883 0 -0.15810232597501231 -0.051869761897790419 0 -0.1520908508355536 -0.049375516506006738 0 -0.151694464637224 -0.054129498214665367 0 -0.15810232597501231 -0.051869761897790419 0 -0.14777281876968429 -0.055763385739752369 0 -0.14750284961956811 -0.052133604437530817 0 -0.151694464637224 -0.054129498214665367 0 -0.14750284961956811 -0.052133604437530817 0 -0.1520908508355536 -0.049375516506006738 0 -0.151694464637224 -0.054129498214665367 0 -0.14777281876968429 -0.055763385739752369 0 -0.151694464637224 -0.054129498214665367 0 -0.1504156128528043 -0.0595734635186854 0 -0.151694464637224 -0.054129498214665367 0 -0.15502344731774381 -0.057214922513829883 0 -0.1504156128528043 -0.0595734635186854 0 -0.1554468906404714 -0.062580098380443899 0 -0.15502344731774381 -0.057214922513829883 0 -0.1504156128528043 -0.0595734635186854 0 -0.14488296584367791 -0.033422935658971219 0 -0.14250594739751399 -0.040216270959863749 0 -0.14860057267275581 -0.039043725642993021 0 -0.14488296584367791 -0.033422935658971219 0 -0.14860057267275581 -0.039043725642993021 0 -0.1503568692848041 -0.033454827167633767 0 -0.1476905260696732 -0.028401883884601971 0 -0.14488296584367791 -0.033422935658971219 0 -0.1503568692848041 -0.033454827167633767 0 -0.14039804783369161 -0.029773723878892169 0 -0.1387815647559015 -0.035217355619417592 0 -0.14488296584367791 -0.033422935658971219 0 -0.1387815647559015 -0.035217355619417592 0 -0.14488296584367791 -0.033422935658971219 0 -0.14250594739751399 -0.040216270959863749 0 -0.14250594739751399 -0.040216270959863749 0 -0.14116113641593739 -0.04616818029369902 0 -0.1459814905075594 -0.043555608627632268 0 -0.14678373392531949 -0.04789407001204149 0 -0.14116113641593739 -0.04616818029369902 0 -0.1459814905075594 -0.043555608627632268 0 -0.14678373392531949 -0.04789407001204149 0 -0.1459814905075594 -0.043555608627632268 0 -0.15089909941618271 -0.044231585246554309 0 -0.14250594739751399 -0.040216270959863749 0 -0.1459814905075594 -0.043555608627632268 0 -0.14860057267275581 -0.039043725642993021 0 -0.1459814905075594 -0.043555608627632268 0 -0.15089909941618271 -0.044231585246554309 0 -0.14860057267275581 -0.039043725642993021 0 -0.15089909941618271 -0.044231585246554309 0 -0.15613318195710851 -0.046206408850295068 0 -0.15569406828186749 -0.038063299806906488 0 -0.15089909941618271 -0.044231585246554309 0 -0.15569406828186749 -0.038063299806906488 0 -0.14860057267275581 -0.039043725642993021 0 -0.1520908508355536 -0.049375516506006738 0 -0.15089909941618271 -0.044231585246554309 0 -0.15613318195710851 -0.046206408850295068 0 -0.15491621355604601 -0.028342290844696159 0 -0.15569406828186749 -0.038063299806906488 0 -0.1503568692848041 -0.033454827167633767 0 -0.15569406828186749 -0.038063299806906488 0 -0.14860057267275581 -0.039043725642993021 0 -0.1503568692848041 -0.033454827167633767 0 -0.15569406828186749 -0.038063299806906488 0 -0.16253076256383539 -0.043990828500743803 0 -0.165801617998204 -0.032463579720955392 0 -0.15491621355604601 -0.028342290844696159 0 -0.15569406828186749 -0.038063299806906488 0 -0.165801617998204 -0.032463579720955392 0 -0.15613318195710851 -0.046206408850295068 0 -0.15569406828186749 -0.038063299806906488 0 -0.16253076256383539 -0.043990828500743803 0 -0.16253076256383539 -0.043990828500743803 0 -0.16666311580671939 -0.052090923024296923 0 -0.17250926479887349 -0.042521611809744883 0 -0.16253076256383539 -0.043990828500743803 0 -0.165801617998204 -0.032463579720955392 0 -0.17250926479887349 -0.042521611809744883 0 -0.16168846610501969 -0.064631781037457606 0 -0.15976674146113259 -0.0584024844432324 0 -0.16578606193432979 -0.059716706801597852 0 -0.1554468906404714 -0.062580098380443899 0 -0.15502344731774381 -0.057214922513829883 0 -0.15976674146113259 -0.0584024844432324 0 -0.16168846610501969 -0.064631781037457606 0 -0.1554468906404714 -0.062580098380443899 0 -0.15976674146113259 -0.0584024844432324 0 -0.15502344731774381 -0.057214922513829883 0 -0.15976674146113259 -0.0584024844432324 0 -0.15810232597501231 -0.051869761897790419 0 -0.15976674146113259 -0.0584024844432324 0 -0.15810232597501231 -0.051869761897790419 0 -0.16666311580671939 -0.052090923024296923 0 -0.16253076256383539 -0.043990828500743803 0 -0.15810232597501231 -0.051869761897790419 0 -0.16666311580671939 -0.052090923024296923 0 -0.15613318195710851 -0.046206408850295068 0 -0.16253076256383539 -0.043990828500743803 0 -0.15810232597501231 -0.051869761897790419 0 -0.16666311580671939 -0.052090923024296923 0 -0.1713862973278896 -0.056871219959289371 0 -0.17637710970242251 -0.051739276777619803 0 -0.16666311580671939 -0.052090923024296923 0 -0.17637710970242251 -0.051739276777619803 0 -0.17250926479887349 -0.042521611809744883 0 -0.16937431881547441 -0.066484784626385018 0 -0.1713862973278896 -0.056871219959289371 0 -0.16578606193432979 -0.059716706801597852 0 -0.16666311580671939 -0.052090923024296923 0 -0.1713862973278896 -0.056871219959289371 0 -0.16578606193432979 -0.059716706801597852 0 -0.15976674146113259 -0.0584024844432324 0 -0.16666311580671939 -0.052090923024296923 0 -0.16578606193432979 -0.059716706801597852 0 -0.1713862973278896 -0.056871219959289371 0 -0.17725866411134289 -0.060905890986584783 0 -0.17637710970242251 -0.051739276777619803 0 -0.16937431881547441 -0.066484784626385018 0 -0.1713862973278896 -0.056871219959289371 0 -0.17725866411134289 -0.060905890986584783 0 -0.17637710970242251 -0.051739276777619803 0 -0.18593946687805299 -0.054559339003349111 0 -0.1845058492916567 -0.043486675882453793 0 -0.17725866411134289 -0.060905890986584783 0 -0.17637710970242251 -0.051739276777619803 0 -0.18593946687805299 -0.054559339003349111 0 -0.17725866411134289 -0.060905890986584783 0 -0.18593946687805299 -0.054559339003349111 0 -0.1838168841505512 -0.062422911905507257 0 -0.17250926479887349 -0.042521611809744883 0 -0.1845058492916567 -0.043486675882453793 0 -0.17958778334171399 -0.030481023530066188 0 -0.165801617998204 -0.032463579720955392 0 -0.17250926479887349 -0.042521611809744883 0 -0.17958778334171399 -0.030481023530066188 0 -0.17637710970242251 -0.051739276777619803 0 -0.17250926479887349 -0.042521611809744883 0 -0.1845058492916567 -0.043486675882453793 0 -0.1845058492916567 -0.043486675882453793 0 -0.17958778334171399 -0.030481023530066188 0 -0.19332062821392351 -0.032993112263536697 0 -0.16827496409620421 -0.018118988986463431 0 -0.19311437565142209 -0.013302172517242951 0 -0.17958778334171399 -0.030481023530066188 0 -0.16827496409620421 -0.018118988986463431 0 -0.19311437565142209 -0.013302172517242951 0 -0.165801617998204 -0.032463579720955392 0 -0.17958778334171399 -0.030481023530066188 0 -0.16827496409620421 -0.018118988986463431 0 -0.15491621355604601 -0.028342290844696159 0 -0.165801617998204 -0.032463579720955392 0 -0.16827496409620421 -0.018118988986463431 0 -0.15559412394961231 -0.01117502074595471 0 -0.16572219389092219 -0.0044745056804275131 0 -0.15749918475220409 0.0018061885736658111 0 -0.15559412394961231 -0.01117502074595471 0 -0.16827496409620421 -0.018118988986463431 0 -0.16572219389092219 -0.0044745056804275131 0 -0.16572219389092219 -0.0044745056804275131 0 -0.19311437565142209 -0.013302172517242951 0 -0.17501020970268871 0.0078973388405579065 0 -0.16827496409620421 -0.018118988986463431 0 -0.16572219389092219 -0.0044745056804275131 0 -0.19311437565142209 -0.013302172517242951 0 -0.19311437565142209 -0.013302172517242951 0 -0.21076781800065181 -0.02895003026051501 0 -0.19332062821392351 -0.032993112263536697 0 -0.17958778334171399 -0.030481023530066188 0 -0.19311437565142209 -0.013302172517242951 0 -0.19332062821392351 -0.032993112263536697 0 -0.21076781800065181 -0.02895003026051501 0 -0.21795378720663991 -0.0084853560480224882 0 -0.22325102172674111 -0.022705289248269159 0 -0.19311437565142209 -0.013302172517242951 0 -0.21076781800065181 -0.02895003026051501 0 -0.21795378720663991 -0.0084853560480224882 0 -0.19311437565142209 -0.013302172517242951 0 -0.21795378720663991 -0.0084853560480224882 0 -0.19311437565142209 -0.013302172517242951 0 -0.21795378720663991 -0.0084853560480224882 0 -0.20649512966498809 0.002680520641606109 0 -0.19278700713523131 -0.062142650497981657 0 -0.19736546007108399 -0.046140820297086209 0 -0.21233167396692709 -0.047755279674161169 0 -0.19278700713523131 -0.062142650497981657 0 -0.21233167396692709 -0.047755279674161169 0 -0.18593946687805299 -0.054559339003349111 0 -0.19278700713523131 -0.062142650497981657 0 -0.19736546007108399 -0.046140820297086209 0 -0.18593946687805299 -0.054559339003349111 0 -0.1838168841505512 -0.062422911905507257 0 -0.19278700713523131 -0.062142650497981657 0 -0.18593946687805299 -0.054559339003349111 0 -0.19278700713523131 -0.062142650497981657 0 -0.18593946687805299 -0.054559339003349111 0 -0.1845058492916567 -0.043486675882453793 0 -0.19736546007108399 -0.046140820297086209 0 -0.21076781800065181 -0.02895003026051501 0 -0.19736546007108399 -0.046140820297086209 0 -0.19332062821392351 -0.032993112263536697 0 -0.1845058492916567 -0.043486675882453793 0 -0.19736546007108399 -0.046140820297086209 0 -0.19332062821392351 -0.032993112263536697 0 -0.21076781800065181 -0.02895003026051501 0 -0.21233167396692709 -0.047755279674161169 0 -0.23187634079862321 -0.033367908850340952 0 -0.21076781800065181 -0.02895003026051501 0 -0.19736546007108399 -0.046140820297086209 0 -0.21233167396692709 -0.047755279674161169 0 -0.20879572910939709 -0.062585566031013548 0 -0.19278700713523131 -0.062142650497981657 0 -0.21233167396692709 -0.047755279674161169 0 -0.20879572910939709 -0.062585566031013548 0 -0.21233167396692709 -0.047755279674161169 0 -0.22319065822084361 -0.059970866644831131 0 -0.2383179812864358 -0.070647222862611617 0 -0.22319065822084361 -0.059970866644831131 0 -0.236798190100525 -0.049041478622994898 0 -0.21233167396692709 -0.047755279674161169 0 -0.22319065822084361 -0.059970866644831131 0 -0.236798190100525 -0.049041478622994898 0 -0.21233167396692709 -0.047755279674161169 0 -0.23187634079862321 -0.033367908850340952 0 -0.236798190100525 -0.049041478622994898 0 -0.21233167396692709 -0.047755279674161169 0 -0.23187634079862321 -0.033367908850340952 0 -0.23187634079862321 -0.033367908850340952 0 -0.2434059839486323 -0.039174342349729108 0 -0.236798190100525 -0.049041478622994898 0 -0.2434059839486323 -0.039174342349729108 0 -0.236798190100525 -0.049041478622994898 0 -0.25397875469688569 -0.046072028169710767 0 -0.23187634079862321 -0.033367908850340952 0 -0.23934806356187821 -0.032391267798351622 0 -0.2434059839486323 -0.039174342349729108 0 -0.23934806356187821 -0.032391267798351622 0 -0.2434059839486323 -0.039174342349729108 0 -0.25301782550142482 -0.03095043801419535 0 -0.2383179812864358 -0.070647222862611617 0 -0.236798190100525 -0.049041478622994898 0 -0.25397875469688569 -0.046072028169710767 0 -0.2383179812864358 -0.070647222862611617 0 -0.25397875469688569 -0.046072028169710767 0 -0.21795378720663991 -0.0084853560480224882 0 -0.23254598001128921 -0.015377222249962449 0 -0.2427931987618577 -0.0036685395788020412 0 -0.21795378720663991 -0.0084853560480224882 0 -0.2427931987618577 -0.0036685395788020412 0 -0.23139089929136741 0.001727276763001965 0 -0.21795378720663991 -0.0084853560480224882 0 -0.2427931987618577 -0.0036685395788020412 0 -0.21795378720663991 -0.0084853560480224882 0 -0.23254598001128921 -0.015377222249962449 0 -0.22325102172674111 -0.022705289248269159 0 -0.21076781800065181 -0.02895003026051501 0 -0.23187634079862321 -0.033367908850340952 0 -0.22325102172674111 -0.022705289248269159 0 -0.23187634079862321 -0.033367908850340952 0 -0.22325102172674111 -0.022705289248269159 0 -0.23664461369281631 -0.02310166667895729 0 -0.23254598001128921 -0.015377222249962449 0 -0.22325102172674111 -0.022705289248269159 0 -0.23664461369281631 -0.02310166667895729 0 -0.23254598001128921 -0.015377222249962449 0 -0.23664461369281631 -0.02310166667895729 0 -0.2427933681454067 -0.0149111404838984 0 -0.23187634079862321 -0.033367908850340952 0 -0.23934806356187821 -0.032391267798351622 0 -0.23664461369281631 -0.02310166667895729 0 -0.23934806356187821 -0.032391267798351622 0 -0.2507697294239819 -0.021690373034311119 0 -0.23934806356187821 -0.032391267798351622 0 -0.23664461369281631 -0.02310166667895729 0 -0.2507697294239819 -0.021690373034311119 0 -0.23934806356187821 -0.032391267798351622 0 -0.25301782550142482 -0.03095043801419535 0 -0.2507697294239819 -0.021690373034311119 0 -0.23664461369281631 -0.02310166667895729 0 -0.2427933681454067 -0.0149111404838984 0 -0.2507697294239819 -0.021690373034311119 0 -0.2427933681454067 -0.0149111404838984 0 -0.25121331883708858 -0.01071790087745911 0 -0.2507697294239819 -0.021690373034311119 0 -0.2427933681454067 -0.0149111404838984 0 -0.2427931987618577 -0.0036685395788020412 0 -0.25121331883708858 -0.01071790087745911 0 -0.2427931987618577 -0.0036685395788020412 0 -0.25121331883708858 -0.01071790087745911 0 -0.24196154155457791 0.0090568506027661339 0 -0.23254598001128921 -0.015377222249962449 0 -0.2427933681454067 -0.0149111404838984 0 -0.2427931987618577 -0.0036685395788020412 0 -0.2621913952860857 -0.010989478270270549 0 -0.24196154155457791 0.0090568506027661339 0 -0.25121331883708858 -0.01071790087745911 0 -0.2621913952860857 -0.010989478270270549 0 -0.24196154155457791 0.0090568506027661339 0 -0.25121331883708858 -0.01071790087745911 0 -0.2621913952860857 -0.010989478270270549 0 -0.2507697294239819 -0.021690373034311119 0 -0.2621913952860857 -0.010989478270270549 0 -0.26553989178459259 -0.007852290658508938 0 -0.26830175130390849 -0.017044401251441979 0 -0.2621913952860857 -0.010989478270270549 0 -0.26166178156387648 -0.018052789538581981 0 -0.26830175130390849 -0.017044401251441979 0 -0.2621913952860857 -0.010989478270270549 0 -0.26830175130390849 -0.017044401251441979 0 -0.2621913952860857 -0.010989478270270549 0 -0.26553989178459259 -0.007852290658508938 0 -0.2621913952860857 -0.010989478270270549 0 -0.26553989178459259 -0.007852290658508938 0 -0.25679381805211909 0.0022949629822342789 0 -0.25301782550142482 -0.03095043801419535 0 -0.259959520727923 -0.022853488109733588 0 -0.26963952810733283 -0.02149683347680818 0 -0.25301782550142482 -0.03095043801419535 0 -0.2507697294239819 -0.021690373034311119 0 -0.259959520727923 -0.022853488109733588 0 -0.2621913952860857 -0.010989478270270549 0 -0.2507697294239819 -0.021690373034311119 0 -0.2507697294239819 -0.021690373034311119 0 -0.26166178156387648 -0.018052789538581981 0 -0.259959520727923 -0.022853488109733588 0 -0.26489064542576068 -0.019861878094141951 0 -0.259959520727923 -0.022853488109733588 0 -0.26963952810733283 -0.02149683347680818 0 -0.2621913952860857 -0.010989478270270549 0 -0.2507697294239819 -0.021690373034311119 0 -0.26166178156387648 -0.018052789538581981 0 -0.26166178156387648 -0.018052789538581981 0 -0.26489064542576068 -0.019861878094141951 0 -0.26830175130390849 -0.017044401251441979 0 -0.26166178156387648 -0.018052789538581981 0 -0.26489064542576068 -0.019861878094141951 0 -0.259959520727923 -0.022853488109733588 0 -0.27637570348944729 -0.025045106692250969 0 -0.27435209609309302 -0.014101778793480371 0 -0.29039201699024653 -0.028814715035008098 0 -0.27086086062795822 -0.019580294383087251 0 -0.26963952810733283 -0.02149683347680818 0 -0.27637570348944729 -0.025045106692250969 0 -0.27086086062795822 -0.019580294383087251 0 -0.26963952810733283 -0.02149683347680818 0 -0.26489064542576068 -0.019861878094141951 0 -0.26963952810733283 -0.02149683347680818 0 -0.26830175130390849 -0.017044401251441979 0 -0.26963952810733283 -0.02149683347680818 0 -0.26830175130390849 -0.017044401251441979 0 -0.27086086062795822 -0.019580294383087251 0 -0.26963952810733283 -0.02149683347680818 0 -0.26830175130390849 -0.017044401251441979 0 -0.27086086062795822 -0.019580294383087251 0 -0.27435209609309302 -0.014101778793480371 0 -0.27086086062795822 -0.019580294383087251 0 -0.26830175130390849 -0.017044401251441979 0 -0.27435209609309302 -0.014101778793480371 0 -0.27086086062795822 -0.019580294383087251 0 -0.26830175130390849 -0.017044401251441979 0 -0.27086086062795822 -0.019580294383087251 0 -0.27637570348944729 -0.025045106692250969 0 -0.27435209609309302 -0.014101778793480371 0 -0.27086086062795822 -0.019580294383087251 0 -0.27637570348944729 -0.025045106692250969 0 -0.26553989178459259 -0.007852290658508938 0 -0.28168073443546571 -0.0026015348797602121 0 -0.28230244522562142 0.0078524517595137365 0 -0.26553989178459259 -0.007852290658508938 0 -0.26830175130390849 -0.017044401251441979 0 -0.28168073443546571 -0.0026015348797602121 0 -0.26553989178459259 -0.007852290658508938 0 -0.26830175130390849 -0.017044401251441979 0 -0.26830175130390849 -0.017044401251441979 0 -0.27435209609309302 -0.014101778793480371 0 -0.28168073443546571 -0.0026015348797602121 0 -0.27435209609309302 -0.014101778793480371 0 -0.28168073443546571 -0.0026015348797602121 0 -0.28168073443546571 -0.0026015348797602121 0 -0.29052273526160982 -0.003781870298680645 0 -0.28889415719885048 -0.01475841409220589 0 -0.29052273526160982 -0.003781870298680645 0 -0.30080245369001019 -0.010013860695974279 0 -0.29857306936404171 0.0039812830147901244 0 -0.29052273526160982 -0.003781870298680645 0 -0.28889415719885048 -0.01475841409220589 0 -0.30080245369001019 -0.010013860695974279 0 -0.28889415719885048 -0.01475841409220589 0 -0.29814624210129048 -0.021141605701404931 0 -0.30080245369001019 -0.010013860695974279 0 -0.27435209609309302 -0.014101778793480371 0 -0.28168073443546571 -0.0026015348797602121 0 -0.28889415719885048 -0.01475841409220589 0 -0.27435209609309302 -0.014101778793480371 0 -0.29039201699024653 -0.028814715035008098 0 -0.27435209609309302 -0.014101778793480371 0 -0.28889415719885048 -0.01475841409220589 0 -0.29039201699024653 -0.028814715035008098 0 -0.28889415719885048 -0.01475841409220589 0 -0.29039201699024653 -0.028814715035008098 0 -0.29814624210129048 -0.021141605701404931 0 -0.29814624210129048 -0.021141605701404931 0 -0.3121640781458131 -0.0207877614999991 0 -0.30080245369001019 -0.010013860695974279 0 -0.29039201699024653 -0.028814715035008098 0 -0.29814624210129048 -0.021141605701404931 0 -0.30398827266858058 -0.029781004722873611 0 -0.30398827266858058 -0.029781004722873611 0 -0.3121640781458131 -0.0207877614999991 0 -0.31321876659637132 -0.034895636010774139 0 -0.29814624210129048 -0.021141605701404931 0 -0.30398827266858058 -0.029781004722873611 0 -0.3121640781458131 -0.0207877614999991 0 -0.3121640781458131 -0.0207877614999991 0 -0.30080245369001019 -0.010013860695974279 0 -0.31256906955991631 0.00065829470475784694 0 -0.30080245369001019 -0.010013860695974279 0 -0.29857306936404171 0.0039812830147901244 0 -0.31256906955991631 0.00065829470475784694 0 -0.30220815593739242 -0.048803260210823797 0 -0.30525195933905808 -0.056838771867699728 0 -0.32164850202811662 -0.057715895699355597 0 -0.30525195933905808 -0.056838771867699728 0 -0.3089166211012494 -0.065579794225842383 0 -0.32164850202811662 -0.057715895699355597 0 -0.30220815593739242 -0.048803260210823797 0 -0.3060202595091816 -0.043265305367181782 0 -0.32164850202811662 -0.057715895699355597 0 -0.30220815593739242 -0.048803260210823797 0 -0.32164850202811662 -0.057715895699355597 0 -0.30220815593739242 -0.048803260210823797 0 -0.29860074632309769 -0.054009883921686083 0 -0.30525195933905808 -0.056838771867699728 0 -0.29720807756325401 -0.060045269545997447 0 -0.30525195933905808 -0.056838771867699728 0 -0.3089166211012494 -0.065579794225842383 0 -0.29860074632309769 -0.054009883921686083 0 -0.29720807756325401 -0.060045269545997447 0 -0.30525195933905808 -0.056838771867699728 0 -0.29039201699024653 -0.028814715035008098 0 -0.3060202595091816 -0.043265305367181782 0 -0.29485705110252441 -0.039662031513040333 0 -0.29039201699024653 -0.028814715035008098 0 -0.30398827266858058 -0.029781004722873611 0 -0.3060202595091816 -0.043265305367181782 0 -0.29039201699024653 -0.028814715035008098 0 -0.3060202595091816 -0.043265305367181782 0 -0.30398827266858058 -0.029781004722873611 0 -0.3060202595091816 -0.043265305367181782 0 -0.31321876659637132 -0.034895636010774139 0 -0.30220815593739242 -0.048803260210823797 0 -0.3060202595091816 -0.043265305367181782 0 -0.29485705110252441 -0.039662031513040333 0 -0.30220815593739242 -0.048803260210823797 0 -0.28276780984666822 -0.039890624722291823 0 -0.28973479245268668 -0.050352234062223333 0 -0.30220815593739242 -0.048803260210823797 0 -0.28276780984666822 -0.039890624722291823 0 -0.30220815593739242 -0.048803260210823797 0 -0.29485705110252441 -0.039662031513040333 0 -0.28276780984666822 -0.039890624722291823 0 -0.29039201699024653 -0.028814715035008098 0 -0.29485705110252441 -0.039662031513040333 0 -0.28276780984666822 -0.039890624722291823 0 -0.27637570348944729 -0.025045106692250969 0 -0.29039201699024653 -0.028814715035008098 0 -0.28276780984666822 -0.039890624722291823 0 -0.28276780984666822 -0.039890624722291823 0 -0.28973479245268668 -0.050352234062223333 0 -0.27747571718658293 -0.047577492590679962 0 -0.29720807756325401 -0.060045269545997447 0 -0.28973479245268668 -0.050352234062223333 0 -0.28531190626583502 -0.073658151704551075 0 -0.28973479245268668 -0.050352234062223333 0 -0.27747571718658293 -0.047577492590679962 0 -0.28531190626583502 -0.073658151704551075 0 -0.27747571718658293 -0.047577492590679962 0 -0.28531190626583502 -0.073658151704551075 0 -0.30220815593739242 -0.048803260210823797 0 -0.29860074632309769 -0.054009883921686083 0 -0.28973479245268668 -0.050352234062223333 0 -0.29860074632309769 -0.054009883921686083 0 -0.29720807756325401 -0.060045269545997447 0 -0.28973479245268668 -0.050352234062223333 0 -0.26963952810733283 -0.02149683347680818 0 -0.27637570348944729 -0.025045106692250969 0 -0.27747571718658293 -0.047577492590679962 0 -0.26963952810733283 -0.02149683347680818 0 -0.27747571718658293 -0.047577492590679962 0 -0.25397875469688569 -0.046072028169710767 0 -0.26963952810733283 -0.02149683347680818 0 -0.27747571718658293 -0.047577492590679962 0 -0.27637570348944729 -0.025045106692250969 0 -0.28276780984666822 -0.039890624722291823 0 -0.27747571718658293 -0.047577492590679962 0 -0.25301782550142482 -0.03095043801419535 0 -0.26963952810733283 -0.02149683347680818 0 -0.25397875469688569 -0.046072028169710767 0 -0.26963952810733283 -0.02149683347680818 0 -0.25397875469688569 -0.046072028169710767 0 -0.2434059839486323 -0.039174342349729108 0 -0.25301782550142482 -0.03095043801419535 0 -0.25397875469688569 -0.046072028169710767 0 -0.27747571718658293 -0.047577492590679962 0 -0.25397875469688569 -0.046072028169710767 0 -0.26153501122081002 -0.069228150368101704 0 -0.2383179812864358 -0.070647222862611617 0 -0.25397875469688569 -0.046072028169710767 0 -0.26153501122081002 -0.069228150368101704 0 -0.2383179812864358 -0.070647222862611617 0 -0.26153501122081002 -0.069228150368101704 0 -0.25028935766715599 -0.093711477972156232 0 -0.26153501122081002 -0.069228150368101704 0 -0.25028935766715599 -0.093711477972156232 0 -0.26980884739660882 -0.087486941326767625 0 -0.26980884739660882 -0.087486941326767625 0 -0.2880486303194944 -0.1004414747847087 0 -0.28531190626583502 -0.073658151704551075 0 -0.26153501122081002 -0.069228150368101704 0 -0.26980884739660882 -0.087486941326767625 0 -0.28531190626583502 -0.073658151704551075 0 -0.27747571718658293 -0.047577492590679962 0 -0.26153501122081002 -0.069228150368101704 0 -0.28531190626583502 -0.073658151704551075 0 -0.23991785209883271 -0.11433772565505559 0 -0.25510649943842822 -0.1163175323995409 0 -0.25717849632168299 -0.13345303375459991 0 -0.26420647881487769 -0.1184031212040365 0 -0.25510649943842822 -0.1163175323995409 0 -0.25928079930920672 -0.13105489523489711 0 -0.26420647881487769 -0.1184031212040365 0 -0.25510649943842822 -0.1163175323995409 0 -0.26550487719623928 -0.1050852594706911 0 -0.25028935766715599 -0.093711477972156232 0 -0.25510649943842822 -0.1163175323995409 0 -0.26550487719623928 -0.1050852594706911 0 -0.25028935766715599 -0.093711477972156232 0 -0.26980884739660882 -0.087486941326767625 0 -0.26550487719623928 -0.1050852594706911 0 -0.26550487719623928 -0.1050852594706911 0 -0.27693373931563697 -0.1211547977110168 0 -0.2880486303194944 -0.1004414747847087 0 -0.26980884739660882 -0.087486941326767625 0 -0.26550487719623928 -0.1050852594706911 0 -0.2880486303194944 -0.1004414747847087 0 -0.26420647881487769 -0.1184031212040365 0 -0.27693373931563697 -0.1211547977110168 0 -0.25928079930920672 -0.13105489523489711 0 -0.26420647881487769 -0.1184031212040365 0 -0.26550487719623928 -0.1050852594706911 0 -0.27693373931563697 -0.1211547977110168 0 -0.27693373931563697 -0.1211547977110168 0 -0.2880486303194944 -0.1004414747847087 0 -0.30131057499860497 -0.1235232674229986 0 -0.2880486303194944 -0.1004414747847087 0 -0.304348831870417 -0.1028044102051673 0 -0.30131057499860497 -0.1235232674229986 0 -0.2880486303194944 -0.1004414747847087 0 -0.304348831870417 -0.1028044102051673 0 -0.30361449078967889 -0.089589274641349664 0 -0.304348831870417 -0.1028044102051673 0 -0.30361449078967889 -0.089589274641349664 0 -0.31628394201180521 -0.1002566270027429 0 -0.304348831870417 -0.1028044102051673 0 -0.31504874911728448 -0.10867380746926671 0 -0.31628394201180521 -0.1002566270027429 0 -0.30131057499860497 -0.1235232674229986 0 -0.31504874911728448 -0.10867380746926671 0 -0.31244693683324182 -0.1264037698354499 0 -0.304348831870417 -0.1028044102051673 0 -0.30131057499860497 -0.1235232674229986 0 -0.31504874911728448 -0.10867380746926671 0 -0.30131057499860497 -0.1235232674229986 0 -0.31504874911728448 -0.10867380746926671 0 -0.29720807756325401 -0.060045269545997447 0 -0.28531190626583502 -0.073658151704551075 0 -0.30159495028192002 -0.07346678408070377 0 -0.2880486303194944 -0.1004414747847087 0 -0.28531190626583502 -0.073658151704551075 0 -0.30361449078967889 -0.089589274641349664 0 -0.28531190626583502 -0.073658151704551075 0 -0.30361449078967889 -0.089589274641349664 0 -0.30159495028192002 -0.07346678408070377 0 -0.30361449078967889 -0.089589274641349664 0 -0.30159495028192002 -0.07346678408070377 0 -0.31292365568958258 -0.078461430285778247 0 -0.30361449078967889 -0.089589274641349664 0 -0.31292365568958258 -0.078461430285778247 0 -0.31795975855011122 -0.088822421645711747 0 -0.30159495028192002 -0.07346678408070377 0 -0.3089166211012494 -0.065579794225842383 0 -0.31292365568958258 -0.078461430285778247 0 -0.29720807756325401 -0.060045269545997447 0 -0.30159495028192002 -0.07346678408070377 0 -0.3089166211012494 -0.065579794225842383 0 -0.3089166211012494 -0.065579794225842383 0 -0.32213375803632133 -0.070792570542837246 0 -0.32164850202811662 -0.057715895699355597 0 -0.33324244542127102 -0.06843618789509627 0 -0.32164850202811662 -0.057715895699355597 0 -0.32213375803632133 -0.070792570542837246 0 -0.33324244542127102 -0.06843618789509627 0 -0.32164850202811662 -0.057715895699355597 0 -0.32213375803632133 -0.070792570542837246 0 -0.32639800910313399 -0.081526408041497078 0 -0.32909520443829088 -0.074617287331914126 0 -0.32213375803632133 -0.070792570542837246 0 -0.31292365568958258 -0.078461430285778247 0 -0.32639800910313399 -0.081526408041497078 0 -0.3089166211012494 -0.065579794225842383 0 -0.32213375803632133 -0.070792570542837246 0 -0.31292365568958258 -0.078461430285778247 0 -0.31292365568958258 -0.078461430285778247 0 -0.31795975855011122 -0.088822421645711747 0 -0.32639800910313399 -0.081526408041497078 0 -0.30361449078967889 -0.089589274641349664 0 -0.31795975855011122 -0.088822421645711747 0 -0.31628394201180521 -0.1002566270027429 0 -0.31795975855011122 -0.088822421645711747 0 -0.32639800910313399 -0.081526408041497078 0 -0.32778316645364708 -0.094909298544217036 0 -0.32639800910313399 -0.081526408041497078 0 -0.33412689081513369 -0.078192120643494331 0 -0.33676258481273308 -0.087523075980169951 0 -0.32639800910313399 -0.081526408041497078 0 -0.33676258481273308 -0.087523075980169951 0 -0.32778316645364708 -0.094909298544217036 0 -0.33676258481273308 -0.087523075980169951 0 -0.34581629338487663 -0.1010166214404483 0 -0.34659755722300661 -0.088633541307406069 0 -0.33676258481273308 -0.087523075980169951 0 -0.34483638881442508 -0.079156480090837006 0 -0.34659755722300661 -0.088633541307406069 0 -0.33412689081513369 -0.078192120643494331 0 -0.33676258481273308 -0.087523075980169951 0 -0.34483638881442508 -0.079156480090837006 0 -0.3398084835726678 -0.066041534308345376 0 -0.33324244542127102 -0.06843618789509627 0 -0.34483638881442508 -0.079156480090837006 0 -0.33412689081513369 -0.078192120643494331 0 -0.33324244542127102 -0.06843618789509627 0 -0.34483638881442508 -0.079156480090837006 0 -0.33324244542127102 -0.06843618789509627 0 -0.34483638881442508 -0.079156480090837006 0 -0.3398084835726678 -0.066041534308345376 0 -0.33324244542127102 -0.06843618789509627 0 -0.32164850202811662 -0.057715895699355597 0 -0.33412689081513369 -0.078192120643494331 0 -0.33324244542127102 -0.06843618789509627 0 -0.32909520443829088 -0.074617287331914126 0 -0.32213375803632133 -0.070792570542837246 0 -0.33324244542127102 -0.06843618789509627 0 -0.32909520443829088 -0.074617287331914126 0 -0.32639800910313399 -0.081526408041497078 0 -0.33412689081513369 -0.078192120643494331 0 -0.32909520443829088 -0.074617287331914126 0 -0.324584061510792 -0.1201952021537029 0 -0.31504874911728448 -0.10867380746926671 0 -0.31244693683324182 -0.1264037698354499 0 -0.31504874911728448 -0.10867380746926671 0 -0.31244693683324182 -0.1264037698354499 0 -0.324584061510792 -0.1201952021537029 0 -0.31504874911728448 -0.10867380746926671 0 -0.33024475049304691 -0.10939742536589581 0 -0.31504874911728448 -0.10867380746926671 0 -0.32778316645364708 -0.094909298544217036 0 -0.31504874911728448 -0.10867380746926671 0 -0.32778316645364708 -0.094909298544217036 0 -0.33024475049304691 -0.10939742536589581 0 -0.31504874911728448 -0.10867380746926671 0 -0.31628394201180521 -0.1002566270027429 0 -0.31504874911728448 -0.10867380746926671 0 -0.31628394201180521 -0.1002566270027429 0 -0.32778316645364708 -0.094909298544217036 0 -0.31795975855011122 -0.088822421645711747 0 -0.31628394201180521 -0.1002566270027429 0 -0.32778316645364708 -0.094909298544217036 0 -0.33676258481273308 -0.087523075980169951 0 -0.32778316645364708 -0.094909298544217036 0 -0.34581629338487663 -0.1010166214404483 0 -0.32778316645364708 -0.094909298544217036 0 -0.33024475049304691 -0.10939742536589581 0 -0.34581629338487663 -0.1010166214404483 0 -0.34069005289087823 -0.12365443832935 0 -0.33024475049304691 -0.10939742536589581 0 -0.34581629338487663 -0.1010166214404483 0 -0.324584061510792 -0.1201952021537029 0 -0.34069005289087823 -0.12365443832935 0 -0.33024475049304691 -0.10939742536589581 0 -0.34069005289087823 -0.12365443832935 0 -0.35737677730458528 -0.1140014441006437 0 -0.36329858314069979 -0.1348006158317121 0 -0.34069005289087823 -0.12365443832935 0 -0.35737677730458528 -0.1140014441006437 0 -0.34581629338487663 -0.1010166214404483 0 -0.35737677730458528 -0.1140014441006437 0 -0.34581629338487663 -0.1010166214404483 0 -0.36874708710513993 -0.1001892893914957 0 -0.34581629338487663 -0.1010166214404483 0 -0.36874708710513993 -0.1001892893914957 0 -0.35493857293934078 -0.090589029896099904 0 -0.35737677730458528 -0.1140014441006437 0 -0.36874708710513993 -0.1001892893914957 0 -0.37288382958077038 -0.11810123941290331 0 -0.35737677730458528 -0.1140014441006437 0 -0.37288382958077038 -0.11810123941290331 0 -0.36329858314069979 -0.1348006158317121 0 -0.35796846511721919 -0.074367172917335023 0 -0.36367793920817831 -0.053335638607415511 0 -0.35279965631024118 -0.061673237185267543 0 -0.3398084835726678 -0.066041534308345376 0 -0.35796846511721919 -0.074367172917335023 0 -0.35279965631024118 -0.061673237185267543 0 -0.3398084835726678 -0.066041534308345376 0 -0.35796846511721919 -0.074367172917335023 0 -0.34483638881442508 -0.079156480090837006 0 -0.3398084835726678 -0.066041534308345376 0 -0.35796846511721919 -0.074367172917335023 0 -0.34483638881442508 -0.079156480090837006 0 -0.34659755722300661 -0.088633541307406069 0 -0.35292786471497062 -0.082813826168346927 0 -0.34659755722300661 -0.088633541307406069 0 -0.35493857293934078 -0.090589029896099904 0 -0.35292786471497062 -0.082813826168346927 0 -0.34581629338487663 -0.1010166214404483 0 -0.34659755722300661 -0.088633541307406069 0 -0.35493857293934078 -0.090589029896099904 0 -0.35493857293934078 -0.090589029896099904 0 -0.35292786471497062 -0.082813826168346927 0 -0.36015890060666589 -0.084944356474546637 0 -0.35796846511721919 -0.074367172917335023 0 -0.35292786471497062 -0.082813826168346927 0 -0.36015890060666589 -0.084944356474546637 0 -0.35796846511721919 -0.074367172917335023 0 -0.34483638881442508 -0.079156480090837006 0 -0.35292786471497062 -0.082813826168346927 0 -0.36874708710513993 -0.1001892893914957 0 -0.36621251315665898 -0.076762463999455632 0 -0.38058469026443592 -0.091032756250012045 0 -0.35796846511721919 -0.074367172917335023 0 -0.36015890060666589 -0.084944356474546637 0 -0.36621251315665898 -0.076762463999455632 0 -0.36874708710513993 -0.1001892893914957 0 -0.36015890060666589 -0.084944356474546637 0 -0.36621251315665898 -0.076762463999455632 0 -0.36874708710513993 -0.1001892893914957 0 -0.36621251315665898 -0.076762463999455632 0 -0.36874708710513993 -0.1001892893914957 0 -0.35493857293934078 -0.090589029896099904 0 -0.36015890060666589 -0.084944356474546637 0 -0.36621251315665898 -0.076762463999455632 0 -0.37458905474278831 -0.065745233018988755 0 -0.36367793920817831 -0.053335638607415511 0 -0.36621251315665898 -0.076762463999455632 0 -0.36367793920817831 -0.053335638607415511 0 -0.35796846511721919 -0.074367172917335023 0 -0.36621251315665898 -0.076762463999455632 0 -0.36367793920817831 -0.053335638607415511 0 -0.36621251315665898 -0.076762463999455632 0 -0.37458905474278831 -0.065745233018988755 0 -0.38155676203276417 -0.077550547564278649 0 -0.37458905474278831 -0.065745233018988755 0 -0.36367793920817831 -0.053335638607415511 0 -0.38053965791724742 -0.053640745891621502 0 -0.36367793920817831 -0.053335638607415511 0 -0.37412605306959601 -0.039207828396772851 0 -0.38053965791724742 -0.053640745891621502 0 -0.36367793920817831 -0.053335638607415511 0 -0.35279965631024118 -0.061673237185267543 0 -0.35042912746364058 -0.042775018917502718 0 -0.35279965631024118 -0.061673237185267543 0 -0.35042912746364058 -0.042775018917502718 0 -0.34274989679977202 -0.055576664180614972 0 -0.3398084835726678 -0.066041534308345376 0 -0.35279965631024118 -0.061673237185267543 0 -0.34274989679977202 -0.055576664180614972 0 -0.35042912746364058 -0.042775018917502718 0 -0.36114336525969748 -0.029908813215375359 0 -0.34383355108506641 -0.021670382847445799 0 -0.36367793920817831 -0.053335638607415511 0 -0.35042912746364058 -0.042775018917502718 0 -0.36114336525969748 -0.029908813215375359 0 -0.36367793920817831 -0.053335638607415511 0 -0.37412605306959601 -0.039207828396772851 0 -0.36114336525969748 -0.029908813215375359 0 -0.36367793920817831 -0.053335638607415511 0 -0.36114336525969748 -0.029908813215375359 0 -0.36114336525969748 -0.029908813215375359 0 -0.37020677946765818 -0.02074076752593464 0 -0.35860879131121398 -0.0064819878233355072 0 -0.37412605306959601 -0.039207828396772851 0 -0.36114336525969748 -0.029908813215375359 0 -0.37020677946765818 -0.02074076752593464 0 -0.36114336525969748 -0.029908813215375359 0 -0.35860879131121398 -0.0064819878233355072 0 -0.35860879131121398 -0.0064819878233355072 0 -0.37586866045171891 -0.009158814210925393 0 -0.35860879131121398 -0.0064819878233355072 0 -0.37586866045171891 -0.009158814210925393 0 -0.37263177327601882 0.002071410791005375 0 -0.37020677946765818 -0.02074076752593464 0 -0.35860879131121398 -0.0064819878233355072 0 -0.37586866045171891 -0.009158814210925393 0 -0.35860879131121398 -0.0064819878233355072 0 -0.34383355108506641 -0.021670382847445799 0 -0.33558893043556498 -0.0029118465592891719 0 -0.35860879131121398 -0.0064819878233355072 0 -0.33558893043556498 -0.0029118465592891719 0 -0.35860879131121398 -0.0064819878233355072 0 -0.33558893043556498 -0.0029118465592891719 0 -0.34751463929860937 0.0059074409526803321 0 -0.36114336525969748 -0.029908813215375359 0 -0.35860879131121398 -0.0064819878233355072 0 -0.34383355108506641 -0.021670382847445799 0 -0.34383355108506641 -0.021670382847445799 0 -0.32654477697791678 -0.015856904039209991 0 -0.329455344980571 -0.032059999498342547 0 -0.34383355108506641 -0.021670382847445799 0 -0.33558893043556498 -0.0029118465592891719 0 -0.32654477697791678 -0.015856904039209991 0 -0.3121640781458131 -0.0207877614999991 0 -0.32654477697791678 -0.015856904039209991 0 -0.31256906955991631 0.00065829470475784694 0 -0.33558893043556498 -0.0029118465592891719 0 -0.31256906955991631 0.00065829470475784694 0 -0.33558893043556498 -0.0029118465592891719 0 -0.32654477697791678 -0.015856904039209991 0 -0.31256906955991631 0.00065829470475784694 0 -0.3121640781458131 -0.0207877614999991 0 -0.31321876659637132 -0.034895636010774139 0 -0.329455344980571 -0.032059999498342547 0 -0.3121640781458131 -0.0207877614999991 0 -0.32654477697791678 -0.015856904039209991 0 -0.329455344980571 -0.032059999498342547 0 -0.31321876659637132 -0.034895636010774139 0 -0.3207919229161868 -0.043220732765276937 0 -0.329455344980571 -0.032059999498342547 0 -0.3207919229161868 -0.043220732765276937 0 -0.33361674146669362 -0.048166827250730612 0 -0.329455344980571 -0.032059999498342547 0 -0.3060202595091816 -0.043265305367181782 0 -0.31321876659637132 -0.034895636010774139 0 -0.3207919229161868 -0.043220732765276937 0 -0.3060202595091816 -0.043265305367181782 0 -0.3207919229161868 -0.043220732765276937 0 -0.32164850202811662 -0.057715895699355597 0 -0.3060202595091816 -0.043265305367181782 0 -0.32164850202811662 -0.057715895699355597 0 -0.3207919229161868 -0.043220732765276937 0 -0.32164850202811662 -0.057715895699355597 0 -0.33361674146669362 -0.048166827250730612 0 -0.32164850202811662 -0.057715895699355597 0 -0.33361674146669362 -0.048166827250730612 0 -0.33445590596681252 -0.056875230359761643 0 -0.3398084835726678 -0.066041534308345376 0 -0.32164850202811662 -0.057715895699355597 0 -0.3398084835726678 -0.066041534308345376 0 -0.32164850202811662 -0.057715895699355597 0 -0.33445590596681252 -0.056875230359761643 0 -0.35042912746364058 -0.042775018917502718 0 -0.33361674146669362 -0.048166827250730612 0 -0.34274989679977202 -0.055576664180614972 0 -0.3398084835726678 -0.066041534308345376 0 -0.33445590596681252 -0.056875230359761643 0 -0.34274989679977202 -0.055576664180614972 0 -0.33361674146669362 -0.048166827250730612 0 -0.33445590596681252 -0.056875230359761643 0 -0.34274989679977202 -0.055576664180614972 0 -0.35042912746364058 -0.042775018917502718 0 -0.33361674146669362 -0.048166827250730612 0 -0.329455344980571 -0.032059999498342547 0 -0.35042912746364058 -0.042775018917502718 0 -0.34383355108506641 -0.021670382847445799 0 -0.329455344980571 -0.032059999498342547 0 -0.30143001487116627 -0.24532242953246711 0 -0.30991410283423559 -0.23358833148243691 0 -0.29664167226999799 -0.230288768957983 0 -0.31189878498660473 -0.25853362302682459 0 -0.30143001487116627 -0.24532242953246711 0 -0.31500916105078952 -0.2439033222451335 0 -0.30143001487116627 -0.24532242953246711 0 -0.30991410283423559 -0.23358833148243691 0 -0.31500916105078952 -0.2439033222451335 0 -0.30991410283423559 -0.23358833148243691 0 -0.30865727259013082 -0.21969396536894739 0 -0.29664167226999799 -0.230288768957983 0 -0.30865727259013082 -0.21969396536894739 0 -0.29664167226999799 -0.230288768957983 0 -0.29243212223922022 -0.21424700407933189 0 -0.28239546525664388 -0.22586104403231341 0 -0.29664167226999799 -0.230288768957983 0 -0.29243212223922022 -0.21424700407933189 0 -0.28239546525664388 -0.22586104403231341 0 -0.29664167226999799 -0.230288768957983 0 -0.28474250388175992 -0.24335367980098499 0 -0.30143001487116627 -0.24532242953246711 0 -0.29664167226999799 -0.230288768957983 0 -0.28474250388175992 -0.24335367980098499 0 -0.26627459532923292 -0.2530800747220297 0 -0.28474250388175992 -0.24335367980098499 0 -0.26475042304936142 -0.23051013317757341 0 -0.26627459532923292 -0.2530800747220297 0 -0.24613954941868271 -0.24181674091805319 0 -0.26475042304936142 -0.23051013317757341 0 -0.26627459532923292 -0.2530800747220297 0 -0.24613954941868271 -0.24181674091805319 0 -0.2393233671183744 -0.22376497838463641 0 -0.26475042304936142 -0.23051013317757341 0 -0.25675186192423449 -0.21294858151105589 0 -0.26475042304936142 -0.23051013317757341 0 -0.2749559761054251 -0.21362967297275409 0 -0.25675186192423449 -0.21294858151105589 0 -0.2393233671183744 -0.22376497838463641 0 -0.24613954941868271 -0.24181674091805319 0 -0.26475042304936142 -0.23051013317757341 0 -0.28239546525664388 -0.22586104403231341 0 -0.28474250388175992 -0.24335367980098499 0 -0.26475042304936142 -0.23051013317757341 0 -0.28239546525664388 -0.22586104403231341 0 -0.26475042304936142 -0.23051013317757341 0 -0.2749559761054251 -0.21362967297275409 0 -0.2749559761054251 -0.21362967297275409 0 -0.26855198989366952 -0.20104851918769681 0 -0.28485399426942137 -0.19716275584855331 0 -0.2749559761054251 -0.21362967297275409 0 -0.25675186192423449 -0.21294858151105589 0 -0.26855198989366952 -0.20104851918769681 0 -0.24771049473209261 -0.19768117856553941 0 -0.25675186192423449 -0.21294858151105589 0 -0.26855198989366952 -0.20104851918769681 0 -0.24771049473209261 -0.19768117856553941 0 -0.26855198989366952 -0.20104851918769681 0 -0.26014158867135673 -0.1865530145509276 0 -0.26855198989366952 -0.20104851918769681 0 -0.28485399426942137 -0.19716275584855331 0 -0.26014158867135673 -0.1865530145509276 0 -0.28485399426942137 -0.19716275584855331 0 -0.26014158867135673 -0.1865530145509276 0 -0.28485399426942137 -0.19716275584855331 0 -0.30366522825430048 -0.18624642780516301 0 -0.28978312534763101 -0.18224754205012961 0 -0.28485399426942137 -0.19716275584855331 0 -0.29243212223922022 -0.21424700407933189 0 -0.3056442293596412 -0.20360994127998289 0 -0.2749559761054251 -0.21362967297275409 0 -0.28485399426942137 -0.19716275584855331 0 -0.29243212223922022 -0.21424700407933189 0 -0.28239546525664388 -0.22586104403231341 0 -0.2749559761054251 -0.21362967297275409 0 -0.29243212223922022 -0.21424700407933189 0 -0.30865727259013082 -0.21969396536894739 0 -0.29243212223922022 -0.21424700407933189 0 -0.3056442293596412 -0.20360994127998289 0 -0.30865727259013082 -0.21969396536894739 0 -0.3056442293596412 -0.20360994127998289 0 -0.31978008413957482 -0.21349369555540329 0 -0.28485399426942137 -0.19716275584855331 0 -0.3056442293596412 -0.20360994127998289 0 -0.30366522825430048 -0.18624642780516301 0 -0.3056442293596412 -0.20360994127998289 0 -0.30366522825430048 -0.18624642780516301 0 -0.32239828164258738 -0.19355617483046139 0 -0.30366522825430048 -0.18624642780516301 0 -0.30675517640174937 -0.16519008000339799 0 -0.30366522825430048 -0.18624642780516301 0 -0.30675517640174937 -0.16519008000339799 0 -0.32613588949027422 -0.1730889894067541 0 -0.30366522825430048 -0.18624642780516301 0 -0.30675517640174937 -0.16519008000339799 0 -0.29119805201868237 -0.16870507702865559 0 -0.30675517640174937 -0.16519008000339799 0 -0.29119805201868237 -0.16870507702865559 0 -0.29398604696721209 -0.1527711314363846 0 -0.29119805201868237 -0.16870507702865559 0 -0.28656377980401643 -0.1611688649627675 0 -0.29398604696721209 -0.1527711314363846 0 -0.28656377980401643 -0.1611688649627675 0 -0.28208984516192559 -0.16560083138424669 0 -0.27898117506824582 -0.15759842000178309 0 -0.28656377980401643 -0.1611688649627675 0 -0.27898117506824582 -0.15759842000178309 0 -0.29398604696721209 -0.1527711314363846 0 -0.29119805201868237 -0.16870507702865559 0 -0.28208984516192559 -0.16560083138424669 0 -0.27785754653315181 -0.1774736968844873 0 -0.29119805201868237 -0.16870507702865559 0 -0.28656377980401643 -0.1611688649627675 0 -0.28208984516192559 -0.16560083138424669 0 -0.28485399426942137 -0.19716275584855331 0 -0.28978312534763101 -0.18224754205012961 0 -0.27785754653315181 -0.1774736968844873 0 -0.30366522825430048 -0.18624642780516301 0 -0.29119805201868237 -0.16870507702865559 0 -0.28978312534763101 -0.18224754205012961 0 -0.29119805201868237 -0.16870507702865559 0 -0.28978312534763101 -0.18224754205012961 0 -0.27785754653315181 -0.1774736968844873 0 -0.28485399426942137 -0.19716275584855331 0 -0.27785754653315181 -0.1774736968844873 0 -0.26014158867135673 -0.1865530145509276 0 -0.27785754653315181 -0.1774736968844873 0 -0.26014158867135673 -0.1865530145509276 0 -0.26063647979420768 -0.16748750478630181 0 -0.235429183073292 -0.17594327325330181 0 -0.26014158867135673 -0.1865530145509276 0 -0.26063647979420768 -0.16748750478630181 0 -0.24329735308453859 -0.15473057364303339 0 -0.26063647979420768 -0.16748750478630181 0 -0.25622011080169887 -0.15247070537693069 0 -0.26063647979420768 -0.16748750478630181 0 -0.27443914054453328 -0.15256834185414411 0 -0.27785754653315181 -0.1774736968844873 0 -0.26063647979420768 -0.16748750478630181 0 -0.27472632074709119 -0.16434818109086721 0 -0.26063647979420768 -0.16748750478630181 0 -0.27472632074709119 -0.16434818109086721 0 -0.27443914054453328 -0.15256834185414411 0 -0.28208984516192559 -0.16560083138424669 0 -0.27785754653315181 -0.1774736968844873 0 -0.27472632074709119 -0.16434818109086721 0 -0.28208984516192559 -0.16560083138424669 0 -0.27472632074709119 -0.16434818109086721 0 -0.27898117506824582 -0.15759842000178309 0 -0.27472632074709119 -0.16434818109086721 0 -0.27898117506824582 -0.15759842000178309 0 -0.27443914054453328 -0.15256834185414411 0 -0.27443914054453328 -0.15256834185414411 0 -0.26811972507041931 -0.14092399701753591 0 -0.25717849632168299 -0.13345303375459991 0 -0.27443914054453328 -0.15256834185414411 0 -0.26811972507041931 -0.14092399701753591 0 -0.28757240087992508 -0.13837272737673029 0 -0.27898117506824582 -0.15759842000178309 0 -0.27443914054453328 -0.15256834185414411 0 -0.28757240087992508 -0.13837272737673029 0 -0.27443914054453328 -0.15256834185414411 0 -0.25717849632168299 -0.13345303375459991 0 -0.26063647979420768 -0.16748750478630181 0 -0.27443914054453328 -0.15256834185414411 0 -0.26453372519605189 -0.14859750889521359 0 -0.27898117506824582 -0.15759842000178309 0 -0.27443914054453328 -0.15256834185414411 0 -0.27443914054453328 -0.15256834185414411 0 -0.28757240087992508 -0.13837272737673029 0 -0.27443914054453328 -0.15256834185414411 0 -0.26453372519605189 -0.14859750889521359 0 -0.25717849632168299 -0.13345303375459991 0 -0.26063647979420768 -0.16748750478630181 0 -0.26453372519605189 -0.14859750889521359 0 -0.25622011080169887 -0.15247070537693069 0 -0.26453372519605189 -0.14859750889521359 0 -0.25860984825090461 -0.14254429834240509 0 -0.25622011080169887 -0.15247070537693069 0 -0.26453372519605189 -0.14859750889521359 0 -0.25860984825090461 -0.14254429834240509 0 -0.25717849632168299 -0.13345303375459991 0 -0.25860984825090461 -0.14254429834240509 0 -0.25177498087438482 -0.14470540750455441 0 -0.25622011080169887 -0.15247070537693069 0 -0.25860984825090461 -0.14254429834240509 0 -0.25177498087438482 -0.14470540750455441 0 -0.25462162701017499 -0.1396641906567461 0 -0.25177498087438482 -0.14470540750455441 0 -0.25092318259372781 -0.13795402302542531 0 -0.25462162701017499 -0.1396641906567461 0 -0.24329735308453859 -0.15473057364303339 0 -0.25177498087438482 -0.14470540750455441 0 -0.25622011080169887 -0.15247070537693069 0 -0.25510649943842822 -0.1163175323995409 0 -0.25717849632168299 -0.13345303375459991 0 -0.25928079930920672 -0.13105489523489711 0 -0.24547060127154391 -0.13178575194574621 0 -0.25092318259372781 -0.13795402302542531 0 -0.25717849632168299 -0.13345303375459991 0 -0.25860984825090461 -0.14254429834240509 0 -0.25462162701017499 -0.1396641906567461 0 -0.25717849632168299 -0.13345303375459991 0 -0.25092318259372781 -0.13795402302542531 0 -0.25462162701017499 -0.1396641906567461 0 -0.25717849632168299 -0.13345303375459991 0 -0.26811972507041931 -0.14092399701753591 0 -0.25717849632168299 -0.13345303375459991 0 -0.26438684298387832 -0.1363758180411645 0 -0.25717849632168299 -0.13345303375459991 0 -0.26438684298387832 -0.1363758180411645 0 -0.25928079930920672 -0.13105489523489711 0 -0.27693373931563697 -0.1211547977110168 0 -0.25928079930920672 -0.13105489523489711 0 -0.28757240087992508 -0.13837272737673029 0 -0.26438684298387832 -0.1363758180411645 0 -0.25928079930920672 -0.13105489523489711 0 -0.28757240087992508 -0.13837272737673029 0 -0.26811972507041931 -0.14092399701753591 0 -0.26438684298387832 -0.1363758180411645 0 -0.28757240087992508 -0.13837272737673029 0 -0.25928079930920672 -0.13105489523489711 0 -0.28757240087992508 -0.13837272737673029 0 -0.27693373931563697 -0.1211547977110168 0 -0.30131057499860497 -0.1235232674229986 0 -0.28757240087992508 -0.13837272737673029 0 -0.30131057499860497 -0.1235232674229986 0 -0.28757240087992508 -0.13837272737673029 0 -0.27898117506824582 -0.15759842000178309 0 -0.28757240087992508 -0.13837272737673029 0 -0.29398604696721209 -0.1527711314363846 0 -0.30675517640174937 -0.16519008000339799 0 -0.30984512454919538 -0.14413373220163259 0 -0.28757240087992508 -0.13837272737673029 0 -0.29398604696721209 -0.1527711314363846 0 -0.30984512454919538 -0.14413373220163259 0 -0.30675517640174937 -0.16519008000339799 0 -0.29398604696721209 -0.1527711314363846 0 -0.30984512454919538 -0.14413373220163259 0 -0.30675517640174937 -0.16519008000339799 0 -0.30984512454919538 -0.14413373220163259 0 -0.32007941916172472 -0.1584301872604795 0 -0.28757240087992508 -0.13837272737673029 0 -0.30984512454919538 -0.14413373220163259 0 -0.30984512454919538 -0.14413373220163259 0 -0.31244693683324182 -0.1264037698354499 0 -0.30131057499860497 -0.1235232674229986 0 -0.28757240087992508 -0.13837272737673029 0 -0.30361318683010491 -0.13368643914280939 0 -0.30984512454919538 -0.14413373220163259 0 -0.31244693683324182 -0.1264037698354499 0 -0.30361318683010491 -0.13368643914280939 0 -0.28757240087992508 -0.13837272737673029 0 -0.30984512454919538 -0.14413373220163259 0 -0.30361318683010491 -0.13368643914280939 0 -0.30131057499860497 -0.1235232674229986 0 -0.31244693683324182 -0.1264037698354499 0 -0.30361318683010491 -0.13368643914280939 0 -0.30984512454919538 -0.14413373220163259 0 -0.31244693683324182 -0.1264037698354499 0 -0.32448981821950879 -0.13284656976855261 0 -0.324584061510792 -0.1201952021537029 0 -0.31244693683324182 -0.1264037698354499 0 -0.32448981821950879 -0.13284656976855261 0 -0.30984512454919538 -0.14413373220163259 0 -0.33758148620567691 -0.15130794743013279 0 -0.32007941916172472 -0.1584301872604795 0 -0.30984512454919538 -0.14413373220163259 0 -0.32448981821950879 -0.13284656976855261 0 -0.33758148620567691 -0.15130794743013279 0 -0.30984512454919538 -0.14413373220163259 0 -0.33758148620567691 -0.15130794743013279 0 -0.324584061510792 -0.1201952021537029 0 -0.34069005289087823 -0.12365443832935 0 -0.32448981821950879 -0.13284656976855261 0 -0.34069005289087823 -0.12365443832935 0 -0.32448981821950879 -0.13284656976855261 0 -0.33758148620567691 -0.15130794743013279 0 -0.34069005289087823 -0.12365443832935 0 -0.33758148620567691 -0.15130794743013279 0 -0.36329858314069979 -0.1348006158317121 0 -0.37288382958077038 -0.11810123941290331 0 -0.36329858314069979 -0.1348006158317121 0 -0.38548482967476339 -0.12942260471501629 0 -0.36329858314069979 -0.1348006158317121 0 -0.36531784786215821 -0.1584821626586326 0 -0.38503850301795067 -0.15040183141974681 0 -0.33758148620567691 -0.15130794743013279 0 -0.36329858314069979 -0.1348006158317121 0 -0.36531784786215821 -0.1584821626586326 0 -0.33758148620567691 -0.15130794743013279 0 -0.36531784786215821 -0.1584821626586326 0 -0.33758148620567691 -0.15130794743013279 0 -0.34705807563218211 -0.17007071835350909 0 -0.36531784786215821 -0.1584821626586326 0 -0.34705807563218211 -0.17007071835350909 0 -0.36531784786215821 -0.1584821626586326 0 -0.36157567543845037 -0.1815030516979686 0 -0.36531784786215821 -0.1584821626586326 0 -0.36157567543845037 -0.1815030516979686 0 -0.38049632685186402 -0.174613309568632 0 -0.36157567543845037 -0.1815030516979686 0 -0.37762060284018439 -0.19196521992464449 0 -0.38049632685186402 -0.174613309568632 0 -0.34705807563218211 -0.17007071835350909 0 -0.36157567543845037 -0.1815030516979686 0 -0.34311059919407499 -0.19056688355171331 0 -0.34705807563218211 -0.17007071835350909 0 -0.32613588949027422 -0.1730889894067541 0 -0.34311059919407499 -0.19056688355171331 0 -0.32613588949027422 -0.1730889894067541 0 -0.32239828164258738 -0.19355617483046139 0 -0.34311059919407499 -0.19056688355171331 0 -0.33758148620567691 -0.15130794743013279 0 -0.34705807563218211 -0.17007071835350909 0 -0.32613588949027422 -0.1730889894067541 0 -0.33758148620567691 -0.15130794743013279 0 -0.32007941916172472 -0.1584301872604795 0 -0.32613588949027422 -0.1730889894067541 0 -0.30675517640174937 -0.16519008000339799 0 -0.32007941916172472 -0.1584301872604795 0 -0.32613588949027422 -0.1730889894067541 0 -0.30366522825430048 -0.18624642780516301 0 -0.32613588949027422 -0.1730889894067541 0 -0.32239828164258738 -0.19355617483046139 0 -0.32239828164258738 -0.19355617483046139 0 -0.31978008413957482 -0.21349369555540329 0 -0.33368674429787942 -0.2054205922940027 0 -0.3056442293596412 -0.20360994127998289 0 -0.32239828164258738 -0.19355617483046139 0 -0.31978008413957482 -0.21349369555540329 0 -0.31978008413957482 -0.21349369555540329 0 -0.33368674429787942 -0.2054205922940027 0 -0.33595371368399068 -0.22034934978897941 0 -0.33368674429787942 -0.2054205922940027 0 -0.34895649543785839 -0.21033468974758401 0 -0.33595371368399068 -0.22034934978897941 0 -0.32239828164258738 -0.19355617483046139 0 -0.33368674429787942 -0.2054205922940027 0 -0.34311059919407499 -0.19056688355171331 0 -0.33368674429787942 -0.2054205922940027 0 -0.34311059919407499 -0.19056688355171331 0 -0.34895649543785839 -0.21033468974758401 0 -0.34311059919407499 -0.19056688355171331 0 -0.3614155844504004 -0.1998963131783148 0 -0.34895649543785839 -0.21033468974758401 0 -0.36157567543845037 -0.1815030516979686 0 -0.34311059919407499 -0.19056688355171331 0 -0.3614155844504004 -0.1998963131783148 0 -0.3614155844504004 -0.1998963131783148 0 -0.375267749307928 -0.2082807771005612 0 -0.37762060284018439 -0.19196521992464449 0 -0.36157567543845037 -0.1815030516979686 0 -0.3614155844504004 -0.1998963131783148 0 -0.37762060284018439 -0.19196521992464449 0 -0.36219190627343362 -0.21525920125792161 0 -0.37254354953930102 -0.22046827523500459 0 -0.375267749307928 -0.2082807771005612 0 -0.3614155844504004 -0.1998963131783148 0 -0.36219190627343362 -0.21525920125792161 0 -0.375267749307928 -0.2082807771005612 0 -0.36219190627343362 -0.21525920125792161 0 -0.34895649543785839 -0.21033468974758401 0 -0.35797683302992178 -0.22963494963043049 0 -0.3614155844504004 -0.1998963131783148 0 -0.36219190627343362 -0.21525920125792161 0 -0.34895649543785839 -0.21033468974758401 0 -0.35797683302992178 -0.22963494963043049 0 -0.33595371368399068 -0.22034934978897941 0 -0.34895649543785839 -0.21033468974758401 0 -0.35797683302992178 -0.22963494963043049 0 -0.33595371368399068 -0.22034934978897941 0 -0.35797683302992178 -0.22963494963043049 0 -0.34150357883167121 -0.24285447295938989 0 -0.33595371368399068 -0.22034934978897941 0 -0.35797683302992178 -0.22963494963043049 0 -0.37999995237585271 -0.23892054947188149 0 -0.37726219555477819 -0.22810444450516851 0 -0.35797683302992178 -0.22963494963043049 0 -0.37254354953930102 -0.22046827523500459 0 -0.37726219555477819 -0.22810444450516851 0 -0.36219190627343362 -0.21525920125792161 0 -0.35797683302992178 -0.22963494963043049 0 -0.37254354953930102 -0.22046827523500459 0 -0.35797683302992178 -0.22963494963043049 0 -0.37999995237585271 -0.23892054947188149 0 -0.35797683302992178 -0.22963494963043049 0 -0.36501681307239509 -0.24237634289844559 0 -0.37999995237585271 -0.23892054947188149 0 -0.37464738056692998 -0.25325066522078848 0 -0.36501681307239509 -0.24237634289844559 0 -0.37999995237585271 -0.23892054947188149 0 -0.35797683302992178 -0.22963494963043049 0 -0.36501681307239509 -0.24237634289844559 0 -0.34150357883167121 -0.24285447295938989 0 -0.35952592661323601 -0.25556234700535002 0 -0.36501681307239509 -0.24237634289844559 0 -0.34150357883167121 -0.24285447295938989 0 -0.35952592661323601 -0.25556234700535002 0 -0.34150357883167121 -0.24285447295938989 0 -0.32832167151183378 -0.25192562827051029 0 -0.34150357883167121 -0.24285447295938989 0 -0.32348123105010718 -0.2301465989134284 0 -0.34150357883167121 -0.24285447295938989 0 -0.32348123105010718 -0.2301465989134284 0 -0.34150357883167121 -0.24285447295938989 0 -0.33595371368399068 -0.22034934978897941 0 -0.32348123105010718 -0.2301465989134284 0 -0.31978008413957482 -0.21349369555540329 0 -0.33595371368399068 -0.22034934978897941 0 -0.32348123105010718 -0.2301465989134284 0 -0.31978008413957482 -0.21349369555540329 0 -0.32348123105010718 -0.2301465989134284 0 -0.30865727259013082 -0.21969396536894739 0 -0.31978008413957482 -0.21349369555540329 0 -0.32348123105010718 -0.2301465989134284 0 -0.30865727259013082 -0.21969396536894739 0 -0.32348123105010718 -0.2301465989134284 0 -0.30991410283423559 -0.23358833148243691 0 -0.30865727259013082 -0.21969396536894739 0 -0.32348123105010718 -0.2301465989134284 0 -0.32832167151183378 -0.25192562827051029 0 -0.32348123105010718 -0.2301465989134284 0 -0.31500916105078952 -0.2439033222451335 0 -0.32832167151183378 -0.25192562827051029 0 -0.32348123105010718 -0.2301465989134284 0 -0.30991410283423559 -0.23358833148243691 0 -0.32348123105010718 -0.2301465989134284 0 -0.31500916105078952 -0.2439033222451335 0 -0.42404619106771452 -0.25749174915478329 0 -0.42676110867520961 -0.23826997303335631 0 -0.41979712658233131 -0.2429622629323285 0 -0.42404619106771452 -0.25749174915478329 0 -0.42676110867520961 -0.23826997303335631 0 -0.42404619106771452 -0.25749174915478329 0 -0.42676110867520961 -0.23826997303335631 0 -0.4400130151743441 -0.24738943500130309 0 -0.42676110867520961 -0.23826997303335631 0 -0.44029951056761663 -0.22914787800199221 0 -0.4400130151743441 -0.24738943500130309 0 -0.42676110867520961 -0.23826997303335631 0 -0.41979712658233131 -0.2429622629323285 0 -0.42676110867520961 -0.23826997303335631 0 -0.42896533677492987 -0.2226639086222417 0 -0.44029951056761663 -0.22914787800199221 0 -0.42676110867520961 -0.23826997303335631 0 -0.44029951056761663 -0.22914787800199221 0 -0.42676110867520961 -0.23826997303335631 0 -0.42896533677492987 -0.2226639086222417 0 -0.41860803769028782 -0.23421898566685931 0 -0.42676110867520961 -0.23826997303335631 0 -0.42896533677492987 -0.2226639086222417 0 -0.40838120271664002 -0.22762984077988091 0 -0.40418435221305749 -0.21159008675821839 0 -0.41698208293555661 -0.2181367877900231 0 -0.42896533677492987 -0.2226639086222417 0 -0.40838120271664002 -0.22762984077988091 0 -0.42896533677492987 -0.2226639086222417 0 -0.40838120271664002 -0.22762984077988091 0 -0.41698208293555661 -0.2181367877900231 0 -0.42896533677492987 -0.2226639086222417 0 -0.41860803769028782 -0.23421898566685931 0 -0.40838120271664002 -0.22762984077988091 0 -0.41860803769028782 -0.23421898566685931 0 -0.40838120271664002 -0.22762984077988091 0 -0.40935481668771861 -0.23812690275644671 0 -0.40935481668771861 -0.23812690275644671 0 -0.41979712658233131 -0.2429622629323285 0 -0.40202307172178348 -0.24820614931333251 0 -0.42404619106771452 -0.25749174915478329 0 -0.41979712658233131 -0.2429622629323285 0 -0.40202307172178348 -0.24820614931333251 0 -0.41860803769028782 -0.23421898566685931 0 -0.40935481668771861 -0.23812690275644671 0 -0.41979712658233131 -0.2429622629323285 0 -0.42676110867520961 -0.23826997303335631 0 -0.41860803769028782 -0.23421898566685931 0 -0.41979712658233131 -0.2429622629323285 0 -0.40202307172178348 -0.24820614931333251 0 -0.37999995237585271 -0.23892054947188149 0 -0.40202307172178348 -0.24820614931333251 0 -0.39764077165934941 -0.2372448236341039 0 -0.37999995237585271 -0.23892054947188149 0 -0.40935481668771861 -0.23812690275644671 0 -0.40202307172178348 -0.24820614931333251 0 -0.39764077165934941 -0.2372448236341039 0 -0.39764077165934941 -0.2372448236341039 0 -0.37999995237585271 -0.23892054947188149 0 -0.38779706865835029 -0.23259577293752121 0 -0.38530828728861949 -0.25088579952195222 0 -0.40202307172178348 -0.24820614931333251 0 -0.37999995237585271 -0.23892054947188149 0 -0.38530828728861949 -0.25088579952195222 0 -0.37464738056692998 -0.25325066522078848 0 -0.37999995237585271 -0.23892054947188149 0 -0.37254354953930102 -0.22046827523500459 0 -0.37726219555477819 -0.22810444450516851 0 -0.38799357417046548 -0.21890267525100501 0 -0.37999995237585271 -0.23892054947188149 0 -0.37726219555477819 -0.22810444450516851 0 -0.38779706865835029 -0.23259577293752121 0 -0.37726219555477819 -0.22810444450516851 0 -0.38779706865835029 -0.23259577293752121 0 -0.38799357417046548 -0.21890267525100501 0 -0.40838120271664002 -0.22762984077988091 0 -0.38799357417046548 -0.21890267525100501 0 -0.40418435221305749 -0.21159008675821839 0 -0.40838120271664002 -0.22762984077988091 0 -0.38779706865835029 -0.23259577293752121 0 -0.40838120271664002 -0.22762984077988091 0 -0.39764077165934941 -0.2372448236341039 0 -0.38779706865835029 -0.23259577293752121 0 -0.40838120271664002 -0.22762984077988091 0 -0.38779706865835029 -0.23259577293752121 0 -0.38799357417046548 -0.21890267525100501 0 -0.40838120271664002 -0.22762984077988091 0 -0.40935481668771861 -0.23812690275644671 0 -0.39764077165934941 -0.2372448236341039 0 -0.38799357417046548 -0.21890267525100501 0 -0.40418435221305749 -0.21159008675821839 0 -0.39043768687633379 -0.202312128972335 0 -0.40418435221305749 -0.21159008675821839 0 -0.39043768687633379 -0.202312128972335 0 -0.40669197459022238 -0.19706068266461971 0 -0.38799357417046548 -0.21890267525100501 0 -0.375267749307928 -0.2082807771005612 0 -0.39043768687633379 -0.202312128972335 0 -0.37254354953930102 -0.22046827523500459 0 -0.38799357417046548 -0.21890267525100501 0 -0.375267749307928 -0.2082807771005612 0 -0.375267749307928 -0.2082807771005612 0 -0.39043768687633379 -0.202312128972335 0 -0.37762060284018439 -0.19196521992464449 0 -0.39043768687633379 -0.202312128972335 0 -0.37762060284018439 -0.19196521992464449 0 -0.39517666523199951 -0.1850533447423223 0 -0.39043768687633379 -0.202312128972335 0 -0.40669197459022238 -0.19706068266461971 0 -0.39517666523199951 -0.1850533447423223 0 -0.40669197459022238 -0.19706068266461971 0 -0.41276190899413362 -0.18272632239194 0 -0.39517666523199951 -0.1850533447423223 0 -0.4192091988402884 -0.1925012248280856 0 -0.40669197459022238 -0.19706068266461971 0 -0.41276190899413362 -0.18272632239194 0 -0.4192091988402884 -0.1925012248280856 0 -0.40669197459022238 -0.19706068266461971 0 -0.41750486623137101 -0.2064880999797801 0 -0.40418435221305749 -0.21159008675821839 0 -0.40669197459022238 -0.19706068266461971 0 -0.41750486623137101 -0.2064880999797801 0 -0.42896533677492987 -0.2226639086222417 0 -0.41698208293555661 -0.2181367877900231 0 -0.41750486623137101 -0.2064880999797801 0 -0.40418435221305749 -0.21159008675821839 0 -0.41698208293555661 -0.2181367877900231 0 -0.41750486623137101 -0.2064880999797801 0 -0.42896533677492987 -0.2226639086222417 0 -0.41750486623137101 -0.2064880999797801 0 -0.43308174066589661 -0.19351952729768901 0 -0.42896533677492987 -0.2226639086222417 0 -0.43308174066589661 -0.19351952729768901 0 -0.44241634500343868 -0.2051342459518555 0 -0.42896533677492987 -0.2226639086222417 0 -0.43308174066589661 -0.19351952729768901 0 -0.4192091988402884 -0.1925012248280856 0 -0.43308174066589661 -0.19351952729768901 0 -0.42532897399653219 -0.18264438217295309 0 -0.4192091988402884 -0.1925012248280856 0 -0.41750486623137101 -0.2064880999797801 0 -0.43308174066589661 -0.19351952729768901 0 -0.42532897399653219 -0.18264438217295309 0 -0.42161645094168121 -0.16832163388015389 0 -0.43862251109409012 -0.1760189832000045 0 -0.43308174066589661 -0.19351952729768901 0 -0.42532897399653219 -0.18264438217295309 0 -0.43862251109409012 -0.1760189832000045 0 -0.42161645094168121 -0.16832163388015389 0 -0.4280726822374688 -0.15045236848491661 0 -0.43862251109409012 -0.1760189832000045 0 -0.40428450454466652 -0.16253283902677429 0 -0.4280726822374688 -0.15045236848491661 0 -0.42161645094168121 -0.16832163388015389 0 -0.40428450454466652 -0.16253283902677429 0 -0.4280726822374688 -0.15045236848491661 0 -0.42161645094168121 -0.16832163388015389 0 -0.41276190899413362 -0.18272632239194 0 -0.40428450454466652 -0.16253283902677429 0 -0.42532897399653219 -0.18264438217295309 0 -0.42161645094168121 -0.16832163388015389 0 -0.41276190899413362 -0.18272632239194 0 -0.4192091988402884 -0.1925012248280856 0 -0.42532897399653219 -0.18264438217295309 0 -0.41276190899413362 -0.18272632239194 0 -0.39517666523199951 -0.1850533447423223 0 -0.38049632685186402 -0.174613309568632 0 -0.40428450454466652 -0.16253283902677429 0 -0.41276190899413362 -0.18272632239194 0 -0.39517666523199951 -0.1850533447423223 0 -0.40428450454466652 -0.16253283902677429 0 -0.37762060284018439 -0.19196521992464449 0 -0.39517666523199951 -0.1850533447423223 0 -0.38049632685186402 -0.174613309568632 0 -0.38049632685186402 -0.174613309568632 0 -0.40428450454466652 -0.16253283902677429 0 -0.38503850301795067 -0.15040183141974681 0 -0.36531784786215821 -0.1584821626586326 0 -0.38049632685186402 -0.174613309568632 0 -0.38503850301795067 -0.15040183141974681 0 -0.38049632685186402 -0.174613309568632 0 -0.40428450454466652 -0.16253283902677429 0 -0.40428450454466652 -0.16253283902677429 0 -0.38503850301795067 -0.15040183141974681 0 -0.40755586106180008 -0.13398956668594031 0 -0.36329858314069979 -0.1348006158317121 0 -0.38503850301795067 -0.15040183141974681 0 -0.38548482967476339 -0.12942260471501629 0 -0.38503850301795067 -0.15040183141974681 0 -0.38548482967476339 -0.12942260471501629 0 -0.40755586106180008 -0.13398956668594031 0 -0.40755586106180008 -0.13398956668594031 0 -0.4280726822374688 -0.15045236848491661 0 -0.42838096355141869 -0.1239088316752147 0 -0.40428450454466652 -0.16253283902677429 0 -0.40755586106180008 -0.13398956668594031 0 -0.4280726822374688 -0.15045236848491661 0 -0.4280726822374688 -0.15045236848491661 0 -0.45186085993027109 -0.13837189794305901 0 -0.42838096355141869 -0.1239088316752147 0 -0.4280726822374688 -0.15045236848491661 0 -0.45186085993027109 -0.13837189794305901 0 -0.45033575787093238 -0.16066039328155191 0 -0.4280726822374688 -0.15045236848491661 0 -0.45186085993027109 -0.13837189794305901 0 -0.45186085993027109 -0.13837189794305901 0 -0.4733777502741579 -0.15680969484552801 0 -0.45033575787093238 -0.16066039328155191 0 -0.45186085993027109 -0.13837189794305901 0 -0.47912957624999608 -0.12679962983891141 0 -0.4733777502741579 -0.15680969484552801 0 -0.45186085993027109 -0.13837189794305901 0 -0.47912957624999608 -0.12679962983891141 0 -0.46515070087259258 -0.1118654906176961 0 -0.47912957624999608 -0.12679962983891141 0 -0.5 -0.1377905076184319 0 -0.4733777502741579 -0.15680969484552801 0 -0.47912957624999608 -0.12679962983891141 0 -0.5 -0.1377905076184319 0 -0.5 -0.11222474056681341 0 -0.5 -0.1377905076184319 0 -0.4733777502741579 -0.15680969484552801 0 -0.5 -0.16335627467005051 0 -0.4733777502741579 -0.15680969484552801 0 -0.5 -0.16335627467005051 0 -0.48076263907274508 -0.18065938934866449 0 -0.5 -0.16335627467005051 0 -0.48076263907274508 -0.18065938934866449 0 -0.49999999999999961 -0.18892204172166899 0 -0.4733777502741579 -0.15680969484552801 0 -0.48076263907274508 -0.18065938934866449 0 -0.4597449858186739 -0.18164902193425139 0 -0.48076263907274508 -0.18065938934866449 0 -0.4597449858186739 -0.18164902193425139 0 -0.47064737199533468 -0.19136427326565791 0 -0.4733777502741579 -0.15680969484552801 0 -0.4597449858186739 -0.18164902193425139 0 -0.45033575787093238 -0.16066039328155191 0 -0.4280726822374688 -0.15045236848491661 0 -0.45033575787093238 -0.16066039328155191 0 -0.43862251109409012 -0.1760189832000045 0 -0.4597449858186739 -0.18164902193425139 0 -0.45033575787093238 -0.16066039328155191 0 -0.43862251109409012 -0.1760189832000045 0 -0.43308174066589661 -0.19351952729768901 0 -0.43862251109409012 -0.1760189832000045 0 -0.44645671881382859 -0.19100764785336671 0 -0.4597449858186739 -0.18164902193425139 0 -0.43862251109409012 -0.1760189832000045 0 -0.44645671881382859 -0.19100764785336671 0 -0.44645671881382859 -0.19100764785336671 0 -0.44241634500343868 -0.2051342459518555 0 -0.45841801148704381 -0.1987164608830331 0 -0.43308174066589661 -0.19351952729768901 0 -0.44645671881382859 -0.19100764785336671 0 -0.44241634500343868 -0.2051342459518555 0 -0.42896533677492987 -0.2226639086222417 0 -0.44241634500343868 -0.2051342459518555 0 -0.45166168806375939 -0.21718840305046569 0 -0.44241634500343868 -0.2051342459518555 0 -0.45384751962760428 -0.20861202814748961 0 -0.45841801148704381 -0.1987164608830331 0 -0.44241634500343868 -0.2051342459518555 0 -0.45166168806375939 -0.21718840305046569 0 -0.45166168806375939 -0.21718840305046569 0 -0.45383791246002331 -0.22002578297062761 0 -0.44241634500343868 -0.2051342459518555 0 -0.45166168806375939 -0.21718840305046569 0 -0.45384751962760428 -0.20861202814748961 0 -0.45384751962760428 -0.20861202814748961 0 -0.46161145269660853 -0.2147880175879901 0 -0.45841801148704381 -0.1987164608830331 0 -0.46310918772850979 -0.21442668829730899 0 -0.46161145269660853 -0.2147880175879901 0 -0.48080572634830421 -0.2018550296548299 0 -0.46161145269660853 -0.2147880175879901 0 -0.45841801148704381 -0.1987164608830331 0 -0.48080572634830421 -0.2018550296548299 0 -0.45166168806375939 -0.21718840305046569 0 -0.45384751962760428 -0.20861202814748961 0 -0.46161145269660853 -0.2147880175879901 0 -0.45166168806375939 -0.21718840305046569 0 -0.46161145269660853 -0.2147880175879901 0 -0.45166168806375939 -0.21718840305046569 0 -0.46161145269660853 -0.2147880175879901 0 -0.45383791246002331 -0.22002578297062761 0 -0.46161145269660853 -0.2147880175879901 0 -0.45383791246002331 -0.22002578297062761 0 -0.46310918772850979 -0.21442668829730899 0 -0.47482918262419571 -0.2164667293797215 0 -0.46683273848732643 -0.21956812486011351 0 -0.46310918772850979 -0.21442668829730899 0 -0.46161145269660853 -0.2147880175879901 0 -0.46683273848732643 -0.21956812486011351 0 -0.46310918772850979 -0.21442668829730899 0 -0.46161145269660853 -0.2147880175879901 0 -0.4597449858186739 -0.18164902193425139 0 -0.45841801148704381 -0.1987164608830331 0 -0.47064737199533468 -0.19136427326565791 0 -0.4597449858186739 -0.18164902193425139 0 -0.44645671881382859 -0.19100764785336671 0 -0.45841801148704381 -0.1987164608830331 0 -0.48076263907274508 -0.18065938934866449 0 -0.48080572634830421 -0.2018550296548299 0 -0.47064737199533468 -0.19136427326565791 0 -0.45841801148704381 -0.1987164608830331 0 -0.48080572634830421 -0.2018550296548299 0 -0.47064737199533468 -0.19136427326565791 0 -0.48080572634830421 -0.2018550296548299 0 -0.49999999999999961 -0.18892204172166899 0 -0.48076263907274508 -0.18065938934866449 0 -0.48080572634830421 -0.2018550296548299 0 -0.49999999999999961 -0.18892204172166899 0 -0.48080572634830421 -0.2018550296548299 0 -0.49999999999999961 -0.18892204172166899 0 -0.5 -0.2103222643355295 0 -0.48080572634830421 -0.2018550296548299 0 -0.5 -0.2103222643355295 0 -0.48744682901395181 -0.2193069001216699 0 -0.46161145269660853 -0.2147880175879901 0 -0.48080572634830421 -0.2018550296548299 0 -0.46310918772850979 -0.21442668829730899 0 -0.48080572634830421 -0.2018550296548299 0 -0.47482918262419571 -0.2164667293797215 0 -0.48080572634830421 -0.2018550296548299 0 -0.47482918262419571 -0.2164667293797215 0 -0.48744682901395181 -0.2193069001216699 0 -0.47482918262419571 -0.2164667293797215 0 -0.4752055484410127 -0.2248706599927692 0 -0.46683273848732643 -0.21956812486011351 0 -0.4752055484410127 -0.2248706599927692 0 -0.48744682901395181 -0.2193069001216699 0 -0.47970416047315168 -0.2402056193030136 0 -0.47970416047315168 -0.2402056193030136 0 -0.45940832094630418 -0.22728852904277649 0 -0.4752055484410127 -0.2248706599927692 0 -0.47970416047315168 -0.2402056193030136 0 -0.45940832094630418 -0.22728852904277649 0 -0.47482918262419571 -0.2164667293797215 0 -0.4752055484410127 -0.2248706599927692 0 -0.48744682901395181 -0.2193069001216699 0 -0.5 -0.2103222643355295 0 -0.5 -0.23172248694938999 0 -0.48744682901395181 -0.2193069001216699 0 -0.5 -0.23172248694938999 0 -0.48744682901395181 -0.2193069001216699 0 -0.47970416047315168 -0.2402056193030136 0 -0.49999999999999922 -0.25312270956325039 0 -0.5 -0.23172248694938999 0 -0.47970416047315168 -0.2402056193030136 0 -0.49999999999999922 -0.25312270956325039 0 -0.47970416047315168 -0.2402056193030136 0 -0.48535690813609511 -0.26112051823255888 0 -0.47970416047315168 -0.2402056193030136 0 -0.47071381627218861 -0.2420287302280229 0 -0.47970416047315168 -0.2402056193030136 0 -0.47445349868370063 -0.23915113893857601 0 -0.45940832094630418 -0.22728852904277649 0 -0.47970416047315168 -0.2402056193030136 0 -0.47445349868370063 -0.23915113893857601 0 -0.47071381627218861 -0.2420287302280229 0 -0.47445349868370063 -0.23915113893857601 0 -0.47071381627218861 -0.2420287302280229 0 -0.45707957377796588 -0.25251993593009492 0 -0.47071381627218861 -0.2420287302280229 0 -0.45941806376043959 -0.24102612885422739 0 -0.45707957377796588 -0.25251993593009492 0 -0.47071381627218861 -0.2420287302280229 0 -0.45707957377796588 -0.25251993593009492 0 -0.45941806376043959 -0.24102612885422739 0 -0.450263860093297 -0.24078475508455921 0 -0.45707957377796588 -0.25251993593009492 0 -0.45941806376043959 -0.24102612885422739 0 -0.45941806376043959 -0.24102612885422739 0 -0.45367789809375658 -0.23105467764518209 0 -0.450263860093297 -0.24078475508455921 0 -0.47445349868370063 -0.23915113893857601 0 -0.47071381627218861 -0.2420287302280229 0 -0.45940832094630418 -0.22728852904277649 0 -0.47071381627218861 -0.2420287302280229 0 -0.45941806376043959 -0.24102612885422739 0 -0.45940832094630418 -0.22728852904277649 0 -0.47071381627218861 -0.2420287302280229 0 -0.45940832094630418 -0.22728852904277649 0 -0.4752055484410127 -0.2248706599927692 0 -0.46683273848732643 -0.21956812486011351 0 -0.45940832094630418 -0.22728852904277649 0 -0.46161145269660853 -0.2147880175879901 0 -0.46683273848732643 -0.21956812486011351 0 -0.45940832094630418 -0.22728852904277649 0 -0.46161145269660853 -0.2147880175879901 0 -0.45383791246002331 -0.22002578297062761 0 -0.45940832094630418 -0.22728852904277649 0 -0.45383791246002331 -0.22002578297062761 0 -0.45367789809375658 -0.23105467764518209 0 -0.45940832094630418 -0.22728852904277649 0 -0.45383791246002331 -0.22002578297062761 0 -0.45940832094630418 -0.22728852904277649 0 -0.45941806376043959 -0.24102612885422739 0 -0.45367789809375658 -0.23105467764518209 0 -0.45940832094630418 -0.22728852904277649 0 -0.42896533677492987 -0.2226639086222417 0 -0.45166168806375939 -0.21718840305046569 0 -0.44029951056761663 -0.22914787800199221 0 -0.42896533677492987 -0.2226639086222417 0 -0.45166168806375939 -0.21718840305046569 0 -0.45367789809375658 -0.23105467764518209 0 -0.44029951056761663 -0.22914787800199221 0 -0.450263860093297 -0.24078475508455921 0 -0.45383791246002331 -0.22002578297062761 0 -0.45367789809375658 -0.23105467764518209 0 -0.44029951056761663 -0.22914787800199221 0 -0.45166168806375939 -0.21718840305046569 0 -0.45383791246002331 -0.22002578297062761 0 -0.44029951056761663 -0.22914787800199221 0 -0.45383791246002331 -0.22002578297062761 0 -0.44029951056761663 -0.22914787800199221 0 -0.44029951056761663 -0.22914787800199221 0 -0.4400130151743441 -0.24738943500130309 0 -0.450263860093297 -0.24078475508455921 0 -0.45707957377796588 -0.25251993593009492 0 -0.4400130151743441 -0.24738943500130309 0 -0.450263860093297 -0.24078475508455921 0 -0.40645377700048502 -0.046099934008430397 0 -0.41935073062637562 -0.034360663014878209 0 -0.42223049105544641 -0.053421777165396568 0 -0.40645377700048502 -0.046099934008430397 0 -0.41935073062637562 -0.034360663014878209 0 -0.40129806197700002 -0.0290946846532768 0 -0.40645377700048502 -0.046099934008430397 0 -0.40985813427674411 -0.062404149449965918 0 -0.42223049105544641 -0.053421777165396568 0 -0.40985813427674411 -0.062404149449965918 0 -0.42223049105544641 -0.053421777165396568 0 -0.42411163334247581 -0.068794899106338431 0 -0.42223049105544641 -0.053421777165396568 0 -0.43652076069394019 -0.059917073900074141 0 -0.43673539363399272 -0.04376896655128798 0 -0.42223049105544641 -0.053421777165396568 0 -0.43652076069394019 -0.059917073900074141 0 -0.42411163334247581 -0.068794899106338431 0 -0.41935073062637562 -0.034360663014878209 0 -0.42223049105544641 -0.053421777165396568 0 -0.43673539363399272 -0.04376896655128798 0 -0.41935073062637562 -0.034360663014878209 0 -0.43673539363399272 -0.04376896655128798 0 -0.43591733803119692 -0.020549967349385651 0 -0.41935073062637562 -0.034360663014878209 0 -0.43591733803119692 -0.020549967349385651 0 -0.41540848272085762 -0.015970835062762759 0 -0.43591733803119692 -0.020549967349385651 0 -0.41540848272085762 -0.015970835062762759 0 -0.43923930586208748 0.0014332665366015491 0 -0.41540848272085762 -0.015970835062762759 0 -0.43923930586208748 0.0014332665366015491 0 -0.41540848272085762 -0.015970835062762759 0 -0.43923930586208748 0.0014332665366015491 0 -0.4239567801011877 0.001931537256989172 0 -0.41540848272085762 -0.015970835062762759 0 -0.4239567801011877 0.001931537256989172 0 -0.41224790211783308 0.0051401219645459736 0 -0.41540848272085762 -0.015970835062762759 0 -0.40076948451177719 -0.0011867406769139081 0 -0.41224790211783308 0.0051401219645459736 0 -0.41935073062637562 -0.034360663014878209 0 -0.41540848272085762 -0.015970835062762759 0 -0.40129806197700002 -0.0290946846532768 0 -0.40129806197700002 -0.0290946846532768 0 -0.39312852959222389 -0.01183564059851459 0 -0.38355662940726548 -0.024979526678285562 0 -0.41540848272085762 -0.015970835062762759 0 -0.40129806197700002 -0.0290946846532768 0 -0.39312852959222389 -0.01183564059851459 0 -0.41540848272085762 -0.015970835062762759 0 -0.40076948451177719 -0.0011867406769139081 0 -0.39312852959222389 -0.01183564059851459 0 -0.40076948451177719 -0.0011867406769139081 0 -0.39312852959222389 -0.01183564059851459 0 -0.3860161448010509 0.00020277506578310361 0 -0.39312852959222389 -0.01183564059851459 0 -0.37586866045171891 -0.009158814210925393 0 -0.38355662940726548 -0.024979526678285562 0 -0.39312852959222389 -0.01183564059851459 0 -0.37586866045171891 -0.009158814210925393 0 -0.39312852959222389 -0.01183564059851459 0 -0.37586866045171891 -0.009158814210925393 0 -0.3860161448010509 0.00020277506578310361 0 -0.37586866045171891 -0.009158814210925393 0 -0.3860161448010509 0.00020277506578310361 0 -0.37263177327601882 0.002071410791005375 0 -0.37412605306959601 -0.039207828396772851 0 -0.37020677946765818 -0.02074076752593464 0 -0.38355662940726548 -0.024979526678285562 0 -0.37020677946765818 -0.02074076752593464 0 -0.37586866045171891 -0.009158814210925393 0 -0.38355662940726548 -0.024979526678285562 0 -0.37412605306959601 -0.039207828396772851 0 -0.38989022251479277 -0.041321508556789323 0 -0.38053965791724742 -0.053640745891621502 0 -0.37412605306959601 -0.039207828396772851 0 -0.38355662940726548 -0.024979526678285562 0 -0.38989022251479277 -0.041321508556789323 0 -0.40645377700048502 -0.046099934008430397 0 -0.40129806197700002 -0.0290946846532768 0 -0.38989022251479277 -0.041321508556789323 0 -0.40129806197700002 -0.0290946846532768 0 -0.38355662940726548 -0.024979526678285562 0 -0.38989022251479277 -0.041321508556789323 0 -0.40645377700048502 -0.046099934008430397 0 -0.40985813427674411 -0.062404149449965918 0 -0.39554669252653829 -0.05666492306346356 0 -0.40645377700048502 -0.046099934008430397 0 -0.38989022251479277 -0.041321508556789323 0 -0.39554669252653829 -0.05666492306346356 0 -0.39554669252653829 -0.05666492306346356 0 -0.38053965791724742 -0.053640745891621502 0 -0.38540798544159077 -0.065569343706299008 0 -0.38989022251479277 -0.041321508556789323 0 -0.39554669252653829 -0.05666492306346356 0 -0.38053965791724742 -0.053640745891621502 0 -0.37458905474278831 -0.065745233018988755 0 -0.38053965791724742 -0.053640745891621502 0 -0.38540798544159077 -0.065569343706299008 0 -0.37458905474278831 -0.065745233018988755 0 -0.38540798544159077 -0.065569343706299008 0 -0.38155676203276417 -0.077550547564278649 0 -0.38540798544159077 -0.065569343706299008 0 -0.38155676203276417 -0.077550547564278649 0 -0.39630516082583978 -0.070998862510366911 0 -0.36621251315665898 -0.076762463999455632 0 -0.38155676203276417 -0.077550547564278649 0 -0.38058469026443592 -0.091032756250012045 0 -0.38155676203276417 -0.077550547564278649 0 -0.38058469026443592 -0.091032756250012045 0 -0.39394680123955139 -0.08615783648039968 0 -0.38155676203276417 -0.077550547564278649 0 -0.39394680123955139 -0.08615783648039968 0 -0.39630516082583978 -0.070998862510366911 0 -0.39394680123955139 -0.08615783648039968 0 -0.40932703249427049 -0.094559316931132606 0 -0.40990438089183839 -0.077978394080531671 0 -0.39394680123955139 -0.08615783648039968 0 -0.39630516082583978 -0.070998862510366911 0 -0.40990438089183839 -0.077978394080531671 0 -0.40985813427674411 -0.062404149449965918 0 -0.39630516082583978 -0.070998862510366911 0 -0.40990438089183839 -0.077978394080531671 0 -0.40985813427674411 -0.062404149449965918 0 -0.39554669252653829 -0.05666492306346356 0 -0.39630516082583978 -0.070998862510366911 0 -0.39554669252653829 -0.05666492306346356 0 -0.38540798544159077 -0.065569343706299008 0 -0.39630516082583978 -0.070998862510366911 0 -0.37288382958077038 -0.11810123941290331 0 -0.38548482967476339 -0.12942260471501629 0 -0.39121616102202322 -0.1082133729850899 0 -0.36874708710513993 -0.1001892893914957 0 -0.38058469026443592 -0.091032756250012045 0 -0.39121616102202322 -0.1082133729850899 0 -0.36874708710513993 -0.1001892893914957 0 -0.37288382958077038 -0.11810123941290331 0 -0.39121616102202322 -0.1082133729850899 0 -0.38058469026443592 -0.091032756250012045 0 -0.39394680123955139 -0.08615783648039968 0 -0.39121616102202322 -0.1082133729850899 0 -0.39121616102202322 -0.1082133729850899 0 -0.41392502384570262 -0.1125217674628267 0 -0.40932703249427049 -0.094559316931132606 0 -0.39394680123955139 -0.08615783648039968 0 -0.39121616102202322 -0.1082133729850899 0 -0.40932703249427049 -0.094559316931132606 0 -0.40755586106180008 -0.13398956668594031 0 -0.39121616102202322 -0.1082133729850899 0 -0.41392502384570262 -0.1125217674628267 0 -0.38548482967476339 -0.12942260471501629 0 -0.40755586106180008 -0.13398956668594031 0 -0.39121616102202322 -0.1082133729850899 0 -0.40755586106180008 -0.13398956668594031 0 -0.41392502384570262 -0.1125217674628267 0 -0.42838096355141869 -0.1239088316752147 0 -0.41392502384570262 -0.1125217674628267 0 -0.40932703249427049 -0.094559316931132606 0 -0.42776360154518478 -0.099743631680904818 0 -0.42776360154518478 -0.099743631680904818 0 -0.42838096355141869 -0.1239088316752147 0 -0.44110775268808511 -0.108373757793641 0 -0.41392502384570262 -0.1125217674628267 0 -0.42776360154518478 -0.099743631680904818 0 -0.42838096355141869 -0.1239088316752147 0 -0.40990438089183839 -0.077978394080531671 0 -0.42672270312383159 -0.083330229620231358 0 -0.42411163334247581 -0.068794899106338431 0 -0.40985813427674411 -0.062404149449965918 0 -0.40990438089183839 -0.077978394080531671 0 -0.42411163334247581 -0.068794899106338431 0 -0.40932703249427049 -0.094559316931132606 0 -0.42776360154518478 -0.099743631680904818 0 -0.42672270312383159 -0.083330229620231358 0 -0.40932703249427049 -0.094559316931132606 0 -0.40990438089183839 -0.077978394080531671 0 -0.42672270312383159 -0.083330229620231358 0 -0.42776360154518478 -0.099743631680904818 0 -0.42672270312383159 -0.083330229620231358 0 -0.45224318034029748 -0.0835308457189292 0 -0.42672270312383159 -0.083330229620231358 0 -0.42411163334247581 -0.068794899106338431 0 -0.43893367425506652 -0.072180555416527598 0 -0.43652076069394019 -0.059917073900074141 0 -0.42411163334247581 -0.068794899106338431 0 -0.43893367425506652 -0.072180555416527598 0 -0.43893367425506652 -0.072180555416527598 0 -0.45224318034029748 -0.0835308457189292 0 -0.45024059446496112 -0.058532920011690748 0 -0.43652076069394019 -0.059917073900074141 0 -0.43893367425506652 -0.072180555416527598 0 -0.45024059446496112 -0.058532920011690748 0 -0.42672270312383159 -0.083330229620231358 0 -0.43893367425506652 -0.072180555416527598 0 -0.45224318034029748 -0.0835308457189292 0 -0.45224318034029748 -0.0835308457189292 0 -0.46816212022686382 -0.067529710283271663 0 -0.4730829984807019 -0.089594151781555914 0 -0.45224318034029748 -0.0835308457189292 0 -0.45562214798200029 -0.099962504904473684 0 -0.4730829984807019 -0.089594151781555914 0 -0.45224318034029748 -0.0835308457189292 0 -0.46816212022686382 -0.067529710283271663 0 -0.45024059446496112 -0.058532920011690748 0 -0.45224318034029748 -0.0835308457189292 0 -0.46816212022686382 -0.067529710283271663 0 -0.45186085993027109 -0.13837189794305901 0 -0.44110775268808511 -0.108373757793641 0 -0.46515070087259258 -0.1118654906176961 0 -0.45186085993027109 -0.13837189794305901 0 -0.42838096355141869 -0.1239088316752147 0 -0.44110775268808511 -0.108373757793641 0 -0.42776360154518478 -0.099743631680904818 0 -0.45224318034029748 -0.0835308457189292 0 -0.44110775268808511 -0.108373757793641 0 -0.45224318034029748 -0.0835308457189292 0 -0.44110775268808511 -0.108373757793641 0 -0.45562214798200029 -0.099962504904473684 0 -0.44110775268808511 -0.108373757793641 0 -0.45562214798200029 -0.099962504904473684 0 -0.46515070087259258 -0.1118654906176961 0 -0.45562214798200029 -0.099962504904473684 0 -0.46515070087259258 -0.1118654906176961 0 -0.4730829984807019 -0.089594151781555914 0 -0.47912957624999608 -0.12679962983891141 0 -0.46515070087259258 -0.1118654906176961 0 -0.48392105902382421 -0.1045992993919882 0 -0.46515070087259258 -0.1118654906176961 0 -0.48392105902382421 -0.1045992993919882 0 -0.4730829984807019 -0.089594151781555914 0 -0.48392105902382421 -0.1045992993919882 0 -0.5 -0.11222474056681341 0 -0.5 -0.086658973515194915 0 -0.47912957624999608 -0.12679962983891141 0 -0.48392105902382421 -0.1045992993919882 0 -0.5 -0.11222474056681341 0 -0.46816212022686382 -0.067529710283271663 0 -0.48566868121845258 -0.072930329562584259 0 -0.48408106011343011 -0.051528574847614167 0 -0.46816212022686382 -0.067529710283271663 0 -0.4730829984807019 -0.089594151781555914 0 -0.48566868121845258 -0.072930329562584259 0 -0.4730829984807019 -0.089594151781555914 0 -0.5 -0.086658973515194915 0 -0.48566868121845258 -0.072930329562584259 0 -0.48392105902382421 -0.1045992993919882 0 -0.4730829984807019 -0.089594151781555914 0 -0.5 -0.086658973515194915 0 -0.5 -0.086658973515194915 0 -0.48566868121845258 -0.072930329562584259 0 -0.5 -0.06109320646357641 0 -0.5 -0.06109320646357641 0 -0.49999999999999761 -0.035527439411957892 0 -0.48408106011343011 -0.051528574847614167 0 -0.48566868121845258 -0.072930329562584259 0 -0.5 -0.06109320646357641 0 -0.48408106011343011 -0.051528574847614167 0 -0.49999999999999761 -0.035527439411957892 0 -0.47617685631312612 -0.0344514560738476 0 -0.48408106011343011 -0.051528574847614167 0 -0.49999999999999761 -0.035527439411957892 0 -0.48408106011343011 -0.051528574847614167 0 -0.47617685631312612 -0.0344514560738476 0 -0.48408106011343011 -0.051528574847614167 0 -0.46695037544485207 -0.049394777894274357 0 -0.46816212022686382 -0.067529710283271663 0 -0.48408106011343011 -0.051528574847614167 0 -0.46816212022686382 -0.067529710283271663 0 -0.48408106011343011 -0.051528574847614167 0 -0.46695037544485207 -0.049394777894274357 0 -0.46695037544485207 -0.049394777894274357 0 -0.45213865665971542 -0.033408510317470289 0 -0.45024059446496112 -0.058532920011690748 0 -0.46816212022686382 -0.067529710283271663 0 -0.46695037544485207 -0.049394777894274357 0 -0.45024059446496112 -0.058532920011690748 0 -0.47617685631312612 -0.0344514560738476 0 -0.46695037544485207 -0.049394777894274357 0 -0.45213865665971542 -0.033408510317470289 0 -0.43673539363399272 -0.04376896655128798 0 -0.43591733803119692 -0.020549967349385651 0 -0.45213865665971542 -0.033408510317470289 0 -0.43673539363399272 -0.04376896655128798 0 -0.45213865665971542 -0.033408510317470289 0 -0.45024059446496112 -0.058532920011690748 0 -0.43652076069394019 -0.059917073900074141 0 -0.43673539363399272 -0.04376896655128798 0 -0.45024059446496112 -0.058532920011690748 0 -0.43591733803119692 -0.020549967349385651 0 -0.4499731671260816 -0.011830963018967749 0 -0.43923930586208748 0.0014332665366015491 0 -0.4499731671260816 -0.011830963018967749 0 -0.45997819796244033 -0.001199423327771409 0 -0.43923930586208748 0.0014332665366015491 0 -0.43591733803119692 -0.020549967349385651 0 -0.45213865665971542 -0.033408510317470289 0 -0.4499731671260816 -0.011830963018967749 0 -0.47617685631312612 -0.0344514560738476 0 -0.45213865665971542 -0.033408510317470289 0 -0.46718353640221139 -0.015689286155589208 0 -0.45213865665971542 -0.033408510317470289 0 -0.4499731671260816 -0.011830963018967749 0 -0.46718353640221139 -0.015689286155589208 0 -0.4499731671260816 -0.011830963018967749 0 -0.46718353640221139 -0.015689286155589208 0 -0.45997819796244033 -0.001199423327771409 0 -0.46718353640221139 -0.015689286155589208 0 -0.48475704882676829 -0.018566265174777209 0 -0.48042485141850388 0.0012524978631325049 0 -0.46718353640221139 -0.015689286155589208 0 -0.45997819796244033 -0.001199423327771409 0 -0.48042485141850388 0.0012524978631325049 0 -0.47617685631312612 -0.0344514560738476 0 -0.46718353640221139 -0.015689286155589208 0 -0.48475704882676829 -0.018566265174777209 0 -0.49999999999999761 -0.035527439411957892 0 -0.48475704882676829 -0.018566265174777209 0 -0.5 -0.0084156420956238431 0 -0.49999999999999761 -0.035527439411957892 0 -0.47617685631312612 -0.0344514560738476 0 -0.48475704882676829 -0.018566265174777209 0 -0.48475704882676829 -0.018566265174777209 0 -0.5 -0.0084156420956238431 0 -0.48042485141850388 0.0012524978631325049 0 -0.5 -0.0084156420956238431 0 -0.5 0.018696155220710161 0 -0.48042485141850388 0.0012524978631325049 0 -0.5 0.018696155220710161 0 -0.48153432131500729 0.01857240419258821 0 -0.48042485141850388 0.0012524978631325049 0 -0.49082296565134559 0.025507155722552331 0 -0.48153432131500729 0.01857240419258821 0 -0.48690095214454621 0.03624146973533153 0 -0.5 0.018696155220710161 0 -0.49082296565134559 0.025507155722552331 0 -0.48153432131500729 0.01857240419258821 0 -0.5 0.018696155220710161 0 -0.49082296565134559 0.025507155722552331 0 -0.49787480444062387 0.034500445274352101 0 -0.48153432131500729 0.01857240419258821 0 -0.48690095214454621 0.03624146973533153 0 -0.46307012900331729 0.01883736813596586 0 -0.48690095214454621 0.03624146973533153 0 -0.46307012900331729 0.01883736813596586 0 -0.48153432131500729 0.01857240419258821 0 -0.48042485141850388 0.0012524978631325049 0 -0.46307012900331729 0.01883736813596586 0 -0.49999999999999839 0.053603259824170191 0 -0.47494187664643028 0.047858792523580017 0 -0.49999999999999839 0.053603259824170191 0 -0.50000000000000089 0.045807952537044297 0 -0.47494187664643028 0.047858792523580017 0 -0.49999999999999839 0.053603259824170191 0 -0.47494187664643028 0.047858792523580017 0 -0.48560992992263302 0.067160017987693776 0 -0.50000000000000089 0.045807952537044297 0 -0.48690095214454621 0.03624146973533153 0 -0.47494187664643028 0.047858792523580017 0 -0.5 0.018696155220710161 0 -0.50000000000000089 0.045807952537044297 0 -0.49787480444062387 0.034500445274352101 0 -0.50000000000000089 0.045807952537044297 0 -0.48690095214454621 0.03624146973533153 0 -0.50000000000000089 0.045807952537044297 0 -0.49787480444062387 0.034500445274352101 0 -0.48690095214454621 0.03624146973533153 0 -0.49787480444062387 0.034500445274352101 0 -0.48690095214454621 0.03624146973533153 0 -0.49082296565134559 0.025507155722552331 0 -0.49787480444062387 0.034500445274352101 0 -0.48690095214454621 0.03624146973533153 0 -0.48690095214454621 0.03624146973533153 0 -0.46839235271870427 0.039177897479161707 0 -0.48690095214454621 0.03624146973533153 0 -0.46839235271870427 0.039177897479161707 0 -0.46307012900331729 0.01883736813596586 0 -0.48690095214454621 0.03624146973533153 0 -0.47494187664643028 0.047858792523580017 0 -0.46839235271870427 0.039177897479161707 0 -0.47494187664643028 0.047858792523580017 0 -0.46789434568741461 0.069800718235507986 0 -0.48560992992263302 0.067160017987693776 0 -0.47494187664643028 0.047858792523580017 0 -0.45747595246537492 0.057667711656659758 0 -0.46789434568741461 0.069800718235507986 0 -0.47494187664643028 0.047858792523580017 0 -0.45747595246537492 0.057667711656659758 0 -0.44988375329286212 0.042114325222990127 0 -0.47494187664643028 0.047858792523580017 0 -0.44988375329286212 0.042114325222990127 0 -0.46839235271870427 0.039177897479161707 0 -0.44988375329286212 0.042114325222990127 0 -0.47494187664643028 0.047858792523580017 0 -0.46839235271870427 0.039177897479161707 0 -0.44988375329286212 0.042114325222990127 0 -0.46839235271870427 0.039177897479161707 0 -0.44988375329286212 0.042114325222990127 0 -0.46307012900331729 0.01883736813596586 0 -0.44988375329286212 0.042114325222990127 0 -0.43010200772320661 0.037579444898150433 0 -0.44988375329286212 0.042114325222990127 0 -0.4305371584169887 0.045183702685599708 0 -0.44988375329286212 0.042114325222990127 0 -0.44274704296702377 0.025426223796042161 0 -0.43010200772320661 0.037579444898150433 0 -0.44988375329286212 0.042114325222990127 0 -0.44338494329703793 0.056236284988157199 0 -0.4305371584169887 0.045183702685599708 0 -0.45747595246537492 0.057667711656659758 0 -0.44988375329286212 0.042114325222990127 0 -0.44338494329703793 0.056236284988157199 0 -0.45997819796244033 -0.001199423327771409 0 -0.46307012900331729 0.01883736813596586 0 -0.43923930586208748 0.0014332665366015491 0 -0.45997819796244033 -0.001199423327771409 0 -0.48042485141850388 0.0012524978631325049 0 -0.46307012900331729 0.01883736813596586 0 -0.44988375329286212 0.042114325222990127 0 -0.46307012900331729 0.01883736813596586 0 -0.44274704296702377 0.025426223796042161 0 -0.46307012900331729 0.01883736813596586 0 -0.44274704296702377 0.025426223796042161 0 -0.43923930586208748 0.0014332665366015491 0 -0.46307012900331729 0.01883736813596586 0 -0.43923930586208748 0.0014332665366015491 0 -0.44274704296702377 0.025426223796042161 0 -0.43923930586208748 0.0014332665366015491 0 -0.42893142970397269 0.017123595589571921 0 -0.43923930586208748 0.0014332665366015491 0 -0.4239567801011877 0.001931537256989172 0 -0.42893142970397269 0.017123595589571921 0 -0.41224790211783308 0.0051401219645459736 0 -0.41633692431226782 0.022315136277664311 0 -0.42893142970397269 0.017123595589571921 0 -0.4239567801011877 0.001931537256989172 0 -0.41224790211783308 0.0051401219645459736 0 -0.42893142970397269 0.017123595589571921 0 -0.41224790211783308 0.0051401219645459736 0 -0.41633692431226782 0.022315136277664311 0 -0.40419705113486892 0.021887668920138621 0 -0.41633692431226782 0.022315136277664311 0 -0.41241033933349402 0.032962472543453449 0 -0.40419705113486892 0.021887668920138621 0 -0.41633692431226782 0.022315136277664311 0 -0.42103042441332078 0.031395208041491103 0 -0.41241033933349402 0.032962472543453449 0 -0.42893142970397269 0.017123595589571921 0 -0.43010200772320661 0.037579444898150433 0 -0.42893142970397269 0.017123595589571921 0 -0.43010200772320661 0.037579444898150433 0 -0.42667411085030188 0.0367936142428235 0 -0.42893142970397269 0.017123595589571921 0 -0.42667411085030188 0.0367936142428235 0 -0.42103042441332078 0.031395208041491103 0 -0.44274704296702377 0.025426223796042161 0 -0.42893142970397269 0.017123595589571921 0 -0.43010200772320661 0.037579444898150433 0 -0.41633692431226782 0.022315136277664311 0 -0.42893142970397269 0.017123595589571921 0 -0.42103042441332078 0.031395208041491103 0 -0.44988375329286212 0.042114325222990127 0 -0.43010200772320661 0.037579444898150433 0 -0.4305371584169887 0.045183702685599708 0 -0.4305371584169887 0.045183702685599708 0 -0.42439138815003491 0.042319181342993589 0 -0.41348569563082782 0.047888952674868847 0 -0.4305371584169887 0.045183702685599708 0 -0.41348569563082782 0.047888952674868847 0 -0.43010200772320661 0.037579444898150433 0 -0.4305371584169887 0.045183702685599708 0 -0.43010200772320661 0.037579444898150433 0 -0.4305371584169887 0.045183702685599708 0 -0.42439138815003491 0.042319181342993589 0 -0.42439138815003491 0.042319181342993589 0 -0.42268237287845262 0.037921963816246601 0 -0.42667411085030188 0.0367936142428235 0 -0.42268237287845262 0.037921963816246601 0 -0.42667411085030188 0.0367936142428235 0 -0.42103042441332078 0.031395208041491103 0 -0.43010200772320661 0.037579444898150433 0 -0.42439138815003491 0.042319181342993589 0 -0.42667411085030188 0.0367936142428235 0 -0.43010200772320661 0.037579444898150433 0 -0.42667411085030188 0.0367936142428235 0 -0.4305371584169887 0.045183702685599708 0 -0.43170310375113968 0.065558595828562466 0 -0.44338494329703793 0.056236284988157199 0 -0.4305371584169887 0.045183702685599708 0 -0.43170310375113968 0.065558595828562466 0 -0.4305371584169887 0.045183702685599708 0 -0.42513470939984849 0.05571366268459578 0 -0.43170310375113968 0.065558595828562466 0 -0.4305371584169887 0.045183702685599708 0 -0.42225619273702658 0.051550584051887047 0 -0.41527113579141622 0.049173293533371902 0 -0.4305371584169887 0.045183702685599708 0 -0.42225619273702658 0.051550584051887047 0 -0.42513470939984849 0.05571366268459578 0 -0.42513470939984849 0.05571366268459578 0 -0.42200433939089271 0.063726954990463172 0 -0.43170310375113968 0.065558595828562466 0 -0.41527113579141622 0.049173293533371902 0 -0.41348569563082782 0.047888952674868847 0 -0.39458940402921278 0.050622443890411678 0 -0.4305371584169887 0.045183702685599708 0 -0.41527113579141622 0.049173293533371902 0 -0.41348569563082782 0.047888952674868847 0 -0.41808176733985292 0.056131677303980977 0 -0.41347723534161229 0.062586531163550188 0 -0.42200433939089271 0.063726954990463172 0 -0.42513470939984849 0.05571366268459578 0 -0.41808176733985292 0.056131677303980977 0 -0.42200433939089271 0.063726954990463172 0 -0.41808176733985292 0.056131677303980977 0 -0.41302354817906622 0.05563825396104391 0 -0.41347723534161229 0.062586531163550188 0 -0.41808176733985292 0.056131677303980977 0 -0.41527113579141622 0.049173293533371902 0 -0.41302354817906622 0.05563825396104391 0 -0.42225619273702658 0.051550584051887047 0 -0.41808176733985292 0.056131677303980977 0 -0.41527113579141622 0.049173293533371902 0 -0.42225619273702658 0.051550584051887047 0 -0.42513470939984849 0.05571366268459578 0 -0.41808176733985292 0.056131677303980977 0 -0.41527113579141622 0.049173293533371902 0 -0.41302354817906622 0.05563825396104391 0 -0.40526405424338352 0.054661513843272592 0 -0.41302354817906622 0.05563825396104391 0 -0.40526405424338352 0.054661513843272592 0 -0.41347723534161229 0.062586531163550188 0 -0.42268237287845262 0.037921963816246601 0 -0.42103042441332078 0.031395208041491103 0 -0.41841066331588112 0.039675148054412059 0 -0.42103042441332078 0.031395208041491103 0 -0.41841066331588112 0.039675148054412059 0 -0.41241033933349402 0.032962472543453449 0 -0.41841066331588112 0.039675148054412059 0 -0.41641231106898591 0.042935730147593817 0 -0.40936149717919978 0.041859638518100768 0 -0.42439138815003491 0.042319181342993589 0 -0.42268237287845262 0.037921963816246601 0 -0.41841066331588112 0.039675148054412059 0 -0.42439138815003491 0.042319181342993589 0 -0.41841066331588112 0.039675148054412059 0 -0.41641231106898591 0.042935730147593817 0 -0.42439138815003491 0.042319181342993589 0 -0.41348569563082782 0.047888952674868847 0 -0.41641231106898591 0.042935730147593817 0 -0.41348569563082782 0.047888952674868847 0 -0.41641231106898591 0.042935730147593817 0 -0.40936149717919978 0.041859638518100768 0 -0.41841066331588112 0.039675148054412059 0 -0.40936149717919978 0.041859638518100768 0 -0.41241033933349402 0.032962472543453449 0 -0.40936149717919978 0.041859638518100768 0 -0.41241033933349402 0.032962472543453449 0 -0.3988514426795462 0.03511888763473299 0 -0.41348569563082782 0.047888952674868847 0 -0.40936149717919978 0.041859638518100768 0 -0.39458940402921278 0.050622443890411678 0 -0.40936149717919978 0.041859638518100768 0 -0.3988514426795462 0.03511888763473299 0 -0.39458940402921278 0.050622443890411678 0 -0.3988514426795462 0.03511888763473299 0 -0.39458940402921278 0.050622443890411678 0 -0.38593009604561329 0.037912945761706819 0 -0.3988514426795462 0.03511888763473299 0 -0.38593009604561329 0.037912945761706819 0 -0.38903223848078428 0.024680300516709511 0 -0.41527113579141622 0.049173293533371902 0 -0.39458940402921278 0.050622443890411678 0 -0.41527113579141622 0.049173293533371902 0 -0.40526405424338352 0.054661513843272592 0 -0.39458940402921278 0.050622443890411678 0 -0.40526405424338352 0.054661513843272592 0 -0.39458940402921278 0.050622443890411678 0 -0.39107649560465108 0.065841262823590208 0 -0.39458940402921278 0.050622443890411678 0 -0.37390767226700949 0.052071594247451433 0 -0.39458940402921278 0.050622443890411678 0 -0.39107649560465108 0.065841262823590208 0 -0.37390767226700949 0.052071594247451433 0 -0.39458940402921278 0.050622443890411678 0 -0.38593009604561329 0.037912945761706819 0 -0.37390767226700949 0.052071594247451433 0 -0.38593009604561329 0.037912945761706819 0 -0.37326972277151371 0.027071502519228491 0 -0.37390767226700949 0.052071594247451433 0 -0.38593009604561329 0.037912945761706819 0 -0.38903223848078428 0.024680300516709511 0 -0.37326972277151371 0.027071502519228491 0 -0.38903223848078428 0.024680300516709511 0 -0.38284116549057812 0.01275684276630641 0 -0.37326972277151371 0.027071502519228491 0 -0.38903223848078428 0.024680300516709511 0 -0.38284116549057812 0.01275684276630641 0 -0.39496930000890468 0.010607248235280481 0 -0.38284116549057812 0.01275684276630641 0 -0.37326972277151371 0.027071502519228491 0 -0.37263177327601882 0.002071410791005375 0 -0.3860161448010509 0.00020277506578310361 0 -0.38284116549057812 0.01275684276630641 0 -0.37263177327601882 0.002071410791005375 0 -0.3860161448010509 0.00020277506578310361 0 -0.38284116549057812 0.01275684276630641 0 -0.39496930000890468 0.010607248235280481 0 -0.40076948451177719 -0.0011867406769139081 0 -0.41224790211783308 0.0051401219645459736 0 -0.39496930000890468 0.010607248235280481 0 -0.41224790211783308 0.0051401219645459736 0 -0.39496930000890468 0.010607248235280481 0 -0.40419705113486892 0.021887668920138621 0 -0.40076948451177719 -0.0011867406769139081 0 -0.3860161448010509 0.00020277506578310361 0 -0.39496930000890468 0.010607248235280481 0 -0.41241033933349402 0.032962472543453449 0 -0.3988514426795462 0.03511888763473299 0 -0.40419705113486892 0.021887668920138621 0 -0.3988514426795462 0.03511888763473299 0 -0.38903223848078428 0.024680300516709511 0 -0.40419705113486892 0.021887668920138621 0 -0.38903223848078428 0.024680300516709511 0 -0.39496930000890468 0.010607248235280481 0 -0.40419705113486892 0.021887668920138621 0 -0.40295385196546152 0.1044021345467499 0 -0.39245173141735562 0.088331111097984 0 -0.4103079169315445 0.091091278895061578 0 -0.40295385196546152 0.1044021345467499 0 -0.38757985658338179 0.10770634767205189 0 -0.39245173141735562 0.088331111097984 0 -0.40569382605704463 0.12247102304972091 0 -0.38976653468499939 0.12187379656807421 0 -0.38757985658338179 0.10770634767205189 0 -0.40569382605704463 0.12247102304972091 0 -0.38757985658338179 0.10770634767205189 0 -0.40295385196546152 0.1044021345467499 0 -0.40569382605704463 0.12247102304972091 0 -0.38757985658338179 0.10770634767205189 0 -0.37567358259866401 0.121274439593311 0 -0.37508494582144558 0.098206824478024424 0 -0.38976653468499939 0.12187379656807421 0 -0.37567358259866401 0.121274439593311 0 -0.38757985658338179 0.10770634767205189 0 -0.37567358259866401 0.121274439593311 0 -0.37508494582144558 0.098206824478024424 0 -0.38757985658338179 0.10770634767205189 0 -0.37508494582144558 0.098206824478024424 0 -0.38757985658338179 0.10770634767205189 0 -0.39245173141735562 0.088331111097984 0 -0.37508494582144558 0.098206824478024424 0 -0.39245173141735562 0.088331111097984 0 -0.37449630904422698 0.075139209362737963 0 -0.39107649560465108 0.065841262823590208 0 -0.39245173141735562 0.088331111097984 0 -0.37449630904422698 0.075139209362737963 0 -0.39107649560465108 0.065841262823590208 0 -0.37390767226700949 0.052071594247451433 0 -0.37449630904422698 0.075139209362737963 0 -0.40526405424338352 0.054661513843272592 0 -0.39107649560465108 0.065841262823590208 0 -0.40574980262671789 0.074221704499683572 0 -0.39107649560465108 0.065841262823590208 0 -0.40574980262671789 0.074221704499683572 0 -0.39245173141735562 0.088331111097984 0 -0.40574980262671789 0.074221704499683572 0 -0.39245173141735562 0.088331111097984 0 -0.4103079169315445 0.091091278895061578 0 -0.40574980262671789 0.074221704499683572 0 -0.4103079169315445 0.091091278895061578 0 -0.42067700986907308 0.075359550859695909 0 -0.4103079169315445 0.091091278895061578 0 -0.42067700986907308 0.075359550859695909 0 -0.42424077109743591 0.095382877918467279 0 -0.40526405424338352 0.054661513843272592 0 -0.40574980262671789 0.074221704499683572 0 -0.41347723534161229 0.062586531163550188 0 -0.40574980262671789 0.074221704499683572 0 -0.41347723534161229 0.062586531163550188 0 -0.42067700986907308 0.075359550859695909 0 -0.41347723534161229 0.062586531163550188 0 -0.42067700986907308 0.075359550859695909 0 -0.42200433939089271 0.063726954990463172 0 -0.42067700986907308 0.075359550859695909 0 -0.43170310375113968 0.065558595828562466 0 -0.43286904908528873 0.085933488971525376 0 -0.43170310375113968 0.065558595828562466 0 -0.43286904908528873 0.085933488971525376 0 -0.42067700986907308 0.075359550859695909 0 -0.42200433939089271 0.063726954990463172 0 -0.43170310375113968 0.065558595828562466 0 -0.42067700986907308 0.075359550859695909 0 -0.43286904908528873 0.085933488971525376 0 -0.42424077109743591 0.095382877918467279 0 -0.43286904908528873 0.085933488971525376 0 -0.4340349944194376 0.1063083821144883 0 -0.43286904908528873 0.085933488971525376 0 -0.42424077109743591 0.095382877918467279 0 -0.4340349944194376 0.1063083821144883 0 -0.42424077109743591 0.095382877918467279 0 -0.4340349944194376 0.1063083821144883 0 -0.41873592883798122 0.11241091201893121 0 -0.4103079169315445 0.091091278895061578 0 -0.42424077109743591 0.095382877918467279 0 -0.41873592883798122 0.11241091201893121 0 -0.40295385196546152 0.1044021345467499 0 -0.4103079169315445 0.091091278895061578 0 -0.41873592883798122 0.11241091201893121 0 -0.40295385196546152 0.1044021345467499 0 -0.40569382605704463 0.12247102304972091 0 -0.41873592883798122 0.11241091201893121 0 -0.40569382605704463 0.12247102304972091 0 -0.41873592883798122 0.11241091201893121 0 -0.42380779553070752 0.13723569842738989 0 -0.4340349944194376 0.1063083821144883 0 -0.43085635428100472 0.12056819187782369 0 -0.44429041509177192 0.12631031149942401 0 -0.41873592883798122 0.11241091201893121 0 -0.43085635428100472 0.12056819187782369 0 -0.42380779553070752 0.13723569842738989 0 -0.4340349944194376 0.1063083821144883 0 -0.41873592883798122 0.11241091201893121 0 -0.43085635428100472 0.12056819187782369 0 -0.4340349944194376 0.1063083821144883 0 -0.4466590651791727 0.1006202491937898 0 -0.44429041509177192 0.12631031149942401 0 -0.4466590651791727 0.1006202491937898 0 -0.46149406112986802 0.10285664320061801 0 -0.44429041509177192 0.12631031149942401 0 -0.4466590651791727 0.1006202491937898 0 -0.44429041509177192 0.12631031149942401 0 -0.43286904908528873 0.085933488971525376 0 -0.4340349944194376 0.1063083821144883 0 -0.4466590651791727 0.1006202491937898 0 -0.4466590651791727 0.1006202491937898 0 -0.46149406112986802 0.10285664320061801 0 -0.45985876798403569 0.086801508141956973 0 -0.46708704082076102 0.1163840800372237 0 -0.44429041509177192 0.12631031149942401 0 -0.45939382023367847 0.1306614178189264 0 -0.46149406112986802 0.10285664320061801 0 -0.46708704082076102 0.1163840800372237 0 -0.44429041509177192 0.12631031149942401 0 -0.44338494329703793 0.056236284988157199 0 -0.43170310375113968 0.065558595828562466 0 -0.44902771526657348 0.074930186888155503 0 -0.43170310375113968 0.065558595828562466 0 -0.43286904908528873 0.085933488971525376 0 -0.44902771526657348 0.074930186888155503 0 -0.45747595246537492 0.057667711656659758 0 -0.44338494329703793 0.056236284988157199 0 -0.44902771526657348 0.074930186888155503 0 -0.4466590651791727 0.1006202491937898 0 -0.44902771526657348 0.074930186888155503 0 -0.45985876798403569 0.086801508141956973 0 -0.4466590651791727 0.1006202491937898 0 -0.44902771526657348 0.074930186888155503 0 -0.43286904908528873 0.085933488971525376 0 -0.4466590651791727 0.1006202491937898 0 -0.44902771526657348 0.074930186888155503 0 -0.45985876798403569 0.086801508141956973 0 -0.46789434568741461 0.069800718235507986 0 -0.47539952478827291 0.086610668018059681 0 -0.46149406112986802 0.10285664320061801 0 -0.45985876798403569 0.086801508141956973 0 -0.47539952478827291 0.086610668018059681 0 -0.45747595246537492 0.057667711656659758 0 -0.44902771526657348 0.074930186888155503 0 -0.46789434568741461 0.069800718235507986 0 -0.44902771526657348 0.074930186888155503 0 -0.45985876798403569 0.086801508141956973 0 -0.46789434568741461 0.069800718235507986 0 -0.46789434568741461 0.069800718235507986 0 -0.47539952478827291 0.086610668018059681 0 -0.48560992992263302 0.067160017987693776 0 -0.47539952478827291 0.086610668018059681 0 -0.5 0.079896151205903765 0 -0.48184649147694247 0.1038495649790189 0 -0.47539952478827291 0.086610668018059681 0 -0.5 0.079896151205903765 0 -0.48560992992263302 0.067160017987693776 0 -0.49999999999999839 0.053603259824170191 0 -0.5 0.079896151205903765 0 -0.48560992992263302 0.067160017987693776 0 -0.46708704082076102 0.1163840800372237 0 -0.48349898502088179 0.1240506358609005 0 -0.48184649147694247 0.1038495649790189 0 -0.46149406112986802 0.10285664320061801 0 -0.46708704082076102 0.1163840800372237 0 -0.48184649147694247 0.1038495649790189 0 -0.46149406112986802 0.10285664320061801 0 -0.47539952478827291 0.086610668018059681 0 -0.48184649147694247 0.1038495649790189 0 -0.5 0.079896151205903765 0 -0.48184649147694247 0.1038495649790189 0 -0.5 0.1061890425876373 0 -0.48349898502088179 0.1240506358609005 0 -0.5 0.1061890425876373 0 -0.5 0.13248193396937069 0 -0.48349898502088179 0.1240506358609005 0 -0.48184649147694247 0.1038495649790189 0 -0.5 0.1061890425876373 0 -0.48349898502088179 0.1240506358609005 0 -0.5 0.13248193396937069 0 -0.48290020328139183 0.1521716943424955 0 -0.46708704082076102 0.1163840800372237 0 -0.48349898502088179 0.1240506358609005 0 -0.47118379632761792 0.13807452459009029 0 -0.48349898502088179 0.1240506358609005 0 -0.47118379632761792 0.13807452459009029 0 -0.48290020328139183 0.1521716943424955 0 -0.47118379632761792 0.13807452459009029 0 -0.48290020328139183 0.1521716943424955 0 -0.46312544166059127 0.15481367686333561 0 -0.5 0.13248193396937069 0 -0.48290020328139183 0.1521716943424955 0 -0.5 0.15877482535110421 0 -0.48290020328139183 0.1521716943424955 0 -0.48490568017365882 0.1696780441596652 0 -0.5 0.15877482535110421 0 -0.48490568017365882 0.1696780441596652 0 -0.5 0.15877482535110421 0 -0.50000000000000355 0.18506771673283759 0 -0.48490568017365882 0.1696780441596652 0 -0.50000000000000355 0.18506771673283759 0 -0.47178110560718012 0.18562912271494861 0 -0.50000000000000355 0.18506771673283759 0 -0.47178110560718012 0.18562912271494861 0 -0.48490568017365882 0.1696780441596652 0 -0.47178110560718012 0.18562912271494861 0 -0.46984709197972152 0.16674686165694011 0 -0.48290020328139183 0.1521716943424955 0 -0.48490568017365882 0.1696780441596652 0 -0.46984709197972152 0.16674686165694011 0 -0.48290020328139183 0.1521716943424955 0 -0.46984709197972152 0.16674686165694011 0 -0.46312544166059127 0.15481367686333561 0 -0.46984709197972152 0.16674686165694011 0 -0.45020484607274719 0.1667286505635743 0 -0.46312544166059127 0.15481367686333561 0 -0.46984709197972152 0.16674686165694011 0 -0.45884881371850128 0.17632379090813061 0 -0.45020484607274719 0.1667286505635743 0 -0.45109405739266129 0.15947669862602559 0 -0.45020484607274719 0.1667286505635743 0 -0.46312544166059127 0.15481367686333561 0 -0.47178110560718012 0.18562912271494861 0 -0.46984709197972152 0.16674686165694011 0 -0.45884881371850128 0.17632379090813061 0 -0.47178110560718012 0.18562912271494861 0 -0.45884881371850128 0.17632379090813061 0 -0.44356221121435652 0.18619052869705841 0 -0.47178110560718012 0.18562912271494861 0 -0.44356221121435652 0.18619052869705841 0 -0.45884881371850128 0.17632379090813061 0 -0.44356221121435652 0.18619052869705841 0 -0.45020484607274719 0.1667286505635743 0 -0.43876059000143131 0.18628605543298471 0 -0.44034117750290031 0.16914321461902149 0 -0.44356221121435652 0.18619052869705841 0 -0.45020484607274719 0.1667286505635743 0 -0.44034117750290031 0.16914321461902149 0 -0.43876059000143131 0.18628605543298471 0 -0.44034117750290031 0.16914321461902149 0 -0.43484610710641108 0.17576675932208929 0 -0.44356221121435652 0.18619052869705841 0 -0.45020484607274719 0.1667286505635743 0 -0.43876059000143131 0.18628605543298471 0 -0.44356221121435652 0.18619052869705841 0 -0.44034117750290031 0.16914321461902149 0 -0.43876059000143131 0.18628605543298471 0 -0.44356221121435652 0.18619052869705841 0 -0.45109405739266129 0.15947669862602559 0 -0.44034117750290031 0.16914321461902149 0 -0.44192176500437069 0.15200037380505829 0 -0.44034117750290031 0.16914321461902149 0 -0.44192176500437069 0.15200037380505829 0 -0.45109405739266129 0.15947669862602559 0 -0.45020484607274719 0.1667286505635743 0 -0.44034117750290031 0.16914321461902149 0 -0.45109405739266129 0.15947669862602559 0 -0.44192176500437069 0.15200037380505829 0 -0.44192176500437069 0.15200037380505829 0 -0.45278882318804659 0.1520418761108468 0 -0.45501402869456342 0.14187675514896769 0 -0.45109405739266129 0.15947669862602559 0 -0.44192176500437069 0.15200037380505829 0 -0.45278882318804659 0.1520418761108468 0 -0.44192176500437069 0.15200037380505829 0 -0.44429041509177192 0.12631031149942401 0 -0.44192176500437069 0.15200037380505829 0 -0.44429041509177192 0.12631031149942401 0 -0.45501402869456342 0.14187675514896769 0 -0.44429041509177192 0.12631031149942401 0 -0.45939382023367847 0.1306614178189264 0 -0.45501402869456342 0.14187675514896769 0 -0.47118379632761792 0.13807452459009029 0 -0.45939382023367847 0.1306614178189264 0 -0.45501402869456342 0.14187675514896769 0 -0.46708704082076102 0.1163840800372237 0 -0.47118379632761792 0.13807452459009029 0 -0.45939382023367847 0.1306614178189264 0 -0.47118379632761792 0.13807452459009029 0 -0.46312544166059127 0.15481367686333561 0 -0.45501402869456342 0.14187675514896769 0 -0.45109405739266129 0.15947669862602559 0 -0.45278882318804659 0.1520418761108468 0 -0.46312544166059127 0.15481367686333561 0 -0.45278882318804659 0.1520418761108468 0 -0.46312544166059127 0.15481367686333561 0 -0.45501402869456342 0.14187675514896769 0 -0.47026877103223552 0.24615879961802731 0 -0.47711565953545021 0.23340965923046891 0 -0.46780022683569172 0.23260767789613021 0 -0.47026877103223552 0.24615879961802731 0 -0.48575737648544182 0.24366876600517251 0 -0.47711565953545021 0.23340965923046891 0 -0.48575737648544182 0.24366876600517251 0 -0.5 0.2349927065907719 0 -0.499999999999994 0.259955201519739 0 -0.48575737648544182 0.24366876600517251 0 -0.49713041384465678 0.21810326647355341 0 -0.48575737648544182 0.24366876600517251 0 -0.5 0.2349927065907719 0 -0.49713041384465678 0.21810326647355341 0 -0.5 0.2349927065907719 0 -0.49713041384465678 0.21810326647355341 0 -0.5 0.21003021166180469 0 -0.48575737648544182 0.24366876600517251 0 -0.48284766927952932 0.2227972730204342 0 -0.49713041384465678 0.21810326647355341 0 -0.48575737648544182 0.24366876600517251 0 -0.48284766927952932 0.2227972730204342 0 -0.47711565953545021 0.23340965923046891 0 -0.48284766927952932 0.2227972730204342 0 -0.47711565953545021 0.23340965923046891 0 -0.47177369648791162 0.22383433601103739 0 -0.47711565953545021 0.23340965923046891 0 -0.47177369648791162 0.22383433601103739 0 -0.46780022683569172 0.23260767789613021 0 -0.48284766927952932 0.2227972730204342 0 -0.47177369648791162 0.22383433601103739 0 -0.4733101837023469 0.2138739022724786 0 -0.4733101837023469 0.2138739022724786 0 -0.46899483553113158 0.2032753165977626 0 -0.48567701437719102 0.20720103182853619 0 -0.47177369648791162 0.22383433601103739 0 -0.4733101837023469 0.2138739022724786 0 -0.46526943998852011 0.2179242949437111 0 -0.48284766927952932 0.2227972730204342 0 -0.4733101837023469 0.2138739022724786 0 -0.48567701437719102 0.20720103182853619 0 -0.48284766927952932 0.2227972730204342 0 -0.49713041384465678 0.21810326647355341 0 -0.48567701437719102 0.20720103182853619 0 -0.49713041384465678 0.21810326647355341 0 -0.5 0.21003021166180469 0 -0.48567701437719102 0.20720103182853619 0 -0.50000000000000355 0.18506771673283759 0 -0.47178110560718012 0.18562912271494861 0 -0.48567701437719102 0.20720103182853619 0 -0.50000000000000355 0.18506771673283759 0 -0.5 0.21003021166180469 0 -0.48567701437719102 0.20720103182853619 0 -0.47178110560718012 0.18562912271494861 0 -0.46899483553113158 0.2032753165977626 0 -0.48567701437719102 0.20720103182853619 0 -0.47178110560718012 0.18562912271494861 0 -0.46899483553113158 0.2032753165977626 0 -0.45042723949665953 0.2045542175982922 0 -0.47178110560718012 0.18562912271494861 0 -0.44356221121435652 0.18619052869705841 0 -0.45042723949665953 0.2045542175982922 0 -0.44356221121435652 0.18619052869705841 0 -0.45042723949665953 0.2045542175982922 0 -0.43746402370164139 0.20405726151280859 0 -0.44356221121435652 0.18619052869705841 0 -0.43823854337431001 0.19194810338531151 0 -0.43746402370164139 0.20405726151280859 0 -0.44356221121435652 0.18619052869705841 0 -0.43746402370164139 0.20405726151280859 0 -0.43876059000143131 0.18628605543298471 0 -0.43823854337431001 0.19194810338531151 0 -0.43876059000143131 0.18628605543298471 0 -0.44356221121435652 0.18619052869705841 0 -0.43823854337431001 0.19194810338531151 0 -0.45042723949665953 0.2045542175982922 0 -0.44300870671030729 0.21944522996574661 0 -0.4321849991450552 0.2239800885118246 0 -0.45042723949665953 0.2045542175982922 0 -0.4321849991450552 0.2239800885118246 0 -0.45042723949665953 0.2045542175982922 0 -0.43136583618892999 0.22192399432856 0 -0.43746402370164139 0.20405726151280859 0 -0.45042723949665953 0.2045542175982922 0 -0.4321849991450552 0.2239800885118246 0 -0.43136583618892999 0.22192399432856 0 -0.45042723949665953 0.2045542175982922 0 -0.45185703628860269 0.21535026039930691 0 -0.44300870671030729 0.21944522996574661 0 -0.45185703628860269 0.21535026039930691 0 -0.4609360394137032 0.21113860216557559 0 -0.45688374026626538 0.21897867943358079 0 -0.46899483553113158 0.2032753165977626 0 -0.45042723949665953 0.2045542175982922 0 -0.4609360394137032 0.21113860216557559 0 -0.45042723949665953 0.2045542175982922 0 -0.45185703628860269 0.21535026039930691 0 -0.4609360394137032 0.21113860216557559 0 -0.4733101837023469 0.2138739022724786 0 -0.46899483553113158 0.2032753165977626 0 -0.4609360394137032 0.21113860216557559 0 -0.4609360394137032 0.21113860216557559 0 -0.46526943998852011 0.2179242949437111 0 -0.45688374026626538 0.21897867943358079 0 -0.4733101837023469 0.2138739022724786 0 -0.4609360394137032 0.21113860216557559 0 -0.46526943998852011 0.2179242949437111 0 -0.46526943998852011 0.2179242949437111 0 -0.46258646846425022 0.2237017125377484 0 -0.45688374026626538 0.21897867943358079 0 -0.47177369648791162 0.22383433601103739 0 -0.46526943998852011 0.2179242949437111 0 -0.46258646846425022 0.2237017125377484 0 -0.46258646846425022 0.2237017125377484 0 -0.46780022683569172 0.23260767789613021 0 -0.46058905100275532 0.2311621955772179 0 -0.47177369648791162 0.22383433601103739 0 -0.46258646846425022 0.2237017125377484 0 -0.46780022683569172 0.23260767789613021 0 -0.46780022683569172 0.23260767789613021 0 -0.46058905100275532 0.2311621955772179 0 -0.46138612572925802 0.23823286436343591 0 -0.46258646846425022 0.2237017125377484 0 -0.46058905100275532 0.2311621955772179 0 -0.45466178528059698 0.22634383521772319 0 -0.46058905100275532 0.2311621955772179 0 -0.45338782491118917 0.23313919239504041 0 -0.46138612572925802 0.23823286436343591 0 -0.46058905100275532 0.2311621955772179 0 -0.45338782491118917 0.23313919239504041 0 -0.45466178528059698 0.22634383521772319 0 -0.46258646846425022 0.2237017125377484 0 -0.45466178528059698 0.22634383521772319 0 -0.45688374026626538 0.21897867943358079 0 -0.45466178528059698 0.22634383521772319 0 -0.45688374026626538 0.21897867943358079 0 -0.44802945555607809 0.22263457283333909 0 -0.45185703628860269 0.21535026039930691 0 -0.44802945555607809 0.22263457283333909 0 -0.44300870671030729 0.21944522996574661 0 -0.45185703628860269 0.21535026039930691 0 -0.45688374026626538 0.21897867943358079 0 -0.44802945555607809 0.22263457283333909 0 -0.45466178528059698 0.22634383521772319 0 -0.44802945555607809 0.22263457283333909 0 -0.447003924409481 0.22934036848966219 0 -0.44802945555607809 0.22263457283333909 0 -0.44192692675223211 0.22694249191416871 0 -0.447003924409481 0.22934036848966219 0 -0.44300870671030729 0.21944522996574661 0 -0.43784066035930469 0.22532238259284629 0 -0.4321849991450552 0.2239800885118246 0 -0.44802945555607809 0.22263457283333909 0 -0.44300870671030729 0.21944522996574661 0 -0.44192692675223211 0.22694249191416871 0 -0.44300870671030729 0.21944522996574661 0 -0.43784066035930469 0.22532238259284629 0 -0.44192692675223211 0.22694249191416871 0 -0.43869109235026049 0.23110645191680659 0 -0.44310945261795248 0.23182768492287081 0 -0.44137055083437748 0.23694588032048311 0 -0.43784066035930469 0.22532238259284629 0 -0.43869109235026049 0.23110645191680659 0 -0.44192692675223211 0.22694249191416871 0 -0.43869109235026049 0.23110645191680659 0 -0.44192692675223211 0.22694249191416871 0 -0.44310945261795248 0.23182768492287081 0 -0.44192692675223211 0.22694249191416871 0 -0.44310945261795248 0.23182768492287081 0 -0.447003924409481 0.22934036848966219 0 -0.44310945261795248 0.23182768492287081 0 -0.447003924409481 0.22934036848966219 0 -0.44687846183633362 0.2353641987373235 0 -0.45338782491118917 0.23313919239504041 0 -0.447003924409481 0.22934036848966219 0 -0.44687846183633362 0.2353641987373235 0 -0.45338782491118917 0.23313919239504041 0 -0.45466178528059698 0.22634383521772319 0 -0.447003924409481 0.22934036848966219 0 -0.45338782491118917 0.23313919239504041 0 -0.44687846183633362 0.2353641987373235 0 -0.45344735345273279 0.24053725749249891 0 -0.43899511158466897 0.24107343052613761 0 -0.44620888291724248 0.24330324602737369 0 -0.44743166308731919 0.26224912498565223 0 -0.44687846183633362 0.2353641987373235 0 -0.44620888291724248 0.24330324602737369 0 -0.45344735345273279 0.24053725749249891 0 -0.43869109235026049 0.23110645191680659 0 -0.43899511158466897 0.24107343052613761 0 -0.44137055083437748 0.23694588032048311 0 -0.44687846183633362 0.2353641987373235 0 -0.44137055083437748 0.23694588032048311 0 -0.44620888291724248 0.24330324602737369 0 -0.44310945261795248 0.23182768492287081 0 -0.44687846183633362 0.2353641987373235 0 -0.44137055083437748 0.23694588032048311 0 -0.43899511158466897 0.24107343052613761 0 -0.44137055083437748 0.23694588032048311 0 -0.44620888291724248 0.24330324602737369 0 -0.43899511158466897 0.24107343052613761 0 -0.44137055083437748 0.23694588032048311 0 -0.44620888291724248 0.24330324602737369 0 -0.45193420450290589 0.24577266785640839 0 -0.45344735345273279 0.24053725749249891 0 -0.45193420450290589 0.24577266785640839 0 -0.46088862081946791 0.24741137557541151 0 -0.45344735345273279 0.24053725749249891 0 -0.45338782491118917 0.23313919239504041 0 -0.45344735345273279 0.24053725749249891 0 -0.46138612572925802 0.23823286436343591 0 -0.46088862081946791 0.24741137557541151 0 -0.45344735345273279 0.24053725749249891 0 -0.46138612572925802 0.23823286436343591 0 -0.47026877103223552 0.24615879961802731 0 -0.46780022683569172 0.23260767789613021 0 -0.46138612572925802 0.23823286436343591 0 -0.47026877103223552 0.24615879961802731 0 -0.46088862081946791 0.24741137557541151 0 -0.46138612572925802 0.23823286436343591 0 -0.41250559953305471 0.24493636740905761 0 -0.42979560990843441 0.22652451101575799 0 -0.42080115542961871 0.25287685171722729 0 -0.41250559953305471 0.24493636740905761 0 -0.41614375554798932 0.23539424802518191 0 -0.42979560990843441 0.22652451101575799 0 -0.41250559953305471 0.24493636740905761 0 -0.42979560990843441 0.22652451101575799 0 -0.41250559953305471 0.24493636740905761 0 -0.40971498697481412 0.23607919598879079 0 -0.39745898753380948 0.24392228279588579 0 -0.41250559953305471 0.24493636740905761 0 -0.40971498697481412 0.23607919598879079 0 -0.41614375554798932 0.23539424802518191 0 -0.40971498697481412 0.23607919598879079 0 -0.40950540577307892 0.23418015474711151 0 -0.40971498697481412 0.23607919598879079 0 -0.41348112390505748 0.23443547495787709 0 -0.40950540577307892 0.23418015474711151 0 -0.40971498697481412 0.23607919598879079 0 -0.41348112390505748 0.23443547495787709 0 -0.41614375554798932 0.23539424802518191 0 -0.43899511158466897 0.24107343052613761 0 -0.42979560990843441 0.22652451101575799 0 -0.42080115542961871 0.25287685171722729 0 -0.42979560990843441 0.22652451101575799 0 -0.42080115542961871 0.25287685171722729 0 -0.43899511158466897 0.24107343052613761 0 -0.4321849991450552 0.2239800885118246 0 -0.42979560990843441 0.22652451101575799 0 -0.41614375554798932 0.23539424802518191 0 -0.42979560990843441 0.22652451101575799 0 -0.42090096009245032 0.22895926640549999 0 -0.43869109235026049 0.23110645191680659 0 -0.43899511158466897 0.24107343052613761 0 -0.4321849991450552 0.2239800885118246 0 -0.43899511158466897 0.24107343052613761 0 -0.4321849991450552 0.2239800885118246 0 -0.43784066035930469 0.22532238259284629 0 -0.43869109235026049 0.23110645191680659 0 -0.4321849991450552 0.2239800885118246 0 -0.42979560990843441 0.22652451101575799 0 -0.43136583618892999 0.22192399432856 0 -0.4321849991450552 0.2239800885118246 0 -0.42979560990843441 0.22652451101575799 0 -0.43136583618892999 0.22192399432856 0 -0.4321849991450552 0.2239800885118246 0 -0.43136583618892999 0.22192399432856 0 -0.4321849991450552 0.2239800885118246 0 -0.42979560990843441 0.22652451101575799 0 -0.42979560990843441 0.22652451101575799 0 -0.42388298158525251 0.22238884141593779 0 -0.42090096009245032 0.22895926640549999 0 -0.42979560990843441 0.22652451101575799 0 -0.43136583618892999 0.22192399432856 0 -0.42388298158525251 0.22238884141593779 0 -0.41716598707411312 0.22014954323920921 0 -0.42090096009245032 0.22895926640549999 0 -0.41402834912050451 0.2259442889281679 0 -0.42388298158525251 0.22238884141593779 0 -0.41716598707411312 0.22014954323920921 0 -0.42090096009245032 0.22895926640549999 0 -0.40950540577307892 0.23418015474711151 0 -0.41402834912050451 0.2259442889281679 0 -0.40690040744080119 0.21057594202863369 0 -0.40950540577307892 0.23418015474711151 0 -0.40690040744080119 0.21057594202863369 0 -0.41614375554798932 0.23539424802518191 0 -0.42090096009245032 0.22895926640549999 0 -0.41584744424335168 0.23107712127949351 0 -0.41348112390505748 0.23443547495787709 0 -0.41614375554798932 0.23539424802518191 0 -0.41584744424335168 0.23107712127949351 0 -0.41348112390505748 0.23443547495787709 0 -0.41584744424335168 0.23107712127949351 0 -0.41321558076049808 0.2314092599781625 0 -0.41584744424335168 0.23107712127949351 0 -0.41321558076049808 0.2314092599781625 0 -0.41402834912050451 0.2259442889281679 0 -0.42090096009245032 0.22895926640549999 0 -0.41584744424335168 0.23107712127949351 0 -0.41402834912050451 0.2259442889281679 0 -0.41321558076049808 0.2314092599781625 0 -0.40950540577307892 0.23418015474711151 0 -0.41402834912050451 0.2259442889281679 0 -0.41348112390505748 0.23443547495787709 0 -0.40950540577307892 0.23418015474711151 0 -0.41348112390505748 0.23443547495787709 0 -0.41321558076049808 0.2314092599781625 0 -0.40950540577307892 0.23418015474711151 0 -0.41716598707411312 0.22014954323920921 0 -0.41402834912050451 0.2259442889281679 0 -0.40690040744080119 0.21057594202863369 0 -0.41716598707411312 0.22014954323920921 0 -0.40690040744080119 0.21057594202863369 0 -0.4243515312728629 0.20431813040396651 0 -0.42388298158525251 0.22238884141593779 0 -0.41716598707411312 0.22014954323920921 0 -0.4243515312728629 0.20431813040396651 0 -0.40690040744080119 0.21057594202863369 0 -0.4243515312728629 0.20431813040396651 0 -0.4128848347613211 0.197968056308406 0 -0.43136583618892999 0.22192399432856 0 -0.43746402370164139 0.20405726151280859 0 -0.4243515312728629 0.20431813040396651 0 -0.43136583618892999 0.22192399432856 0 -0.42388298158525251 0.22238884141593779 0 -0.4243515312728629 0.20431813040396651 0 -0.43136583618892999 0.22192399432856 0 -0.43746402370164139 0.20405726151280859 0 -0.43136583618892999 0.22192399432856 0 -0.4243515312728629 0.20431813040396651 0 -0.43876059000143131 0.18628605543298471 0 -0.42934747821206609 0.19331675008759461 0 -0.41733722635679771 0.1867122664793722 0 -0.4243515312728629 0.20431813040396651 0 -0.43235039414022008 0.19841006134742031 0 -0.42934747821206609 0.19331675008759461 0 -0.4243515312728629 0.20431813040396651 0 -0.42934747821206609 0.19331675008759461 0 -0.41733722635679771 0.1867122664793722 0 -0.43823854337431001 0.19194810338531151 0 -0.43746402370164139 0.20405726151280859 0 -0.43235039414022008 0.19841006134742031 0 -0.43746402370164139 0.20405726151280859 0 -0.4243515312728629 0.20431813040396651 0 -0.43235039414022008 0.19841006134742031 0 -0.43876059000143131 0.18628605543298471 0 -0.43823854337431001 0.19194810338531151 0 -0.42934747821206609 0.19331675008759461 0 -0.43823854337431001 0.19194810338531151 0 -0.43235039414022008 0.19841006134742031 0 -0.42934747821206609 0.19331675008759461 0 -0.40690040744080119 0.21057594202863369 0 -0.4128848347613211 0.197968056308406 0 -0.40429540910852152 0.18697172931015621 0 -0.4243515312728629 0.20431813040396651 0 -0.41733722635679771 0.1867122664793722 0 -0.4243515312728629 0.20431813040396651 0 -0.4128848347613211 0.197968056308406 0 -0.41733722635679771 0.1867122664793722 0 -0.4128848347613211 0.197968056308406 0 -0.41733722635679771 0.1867122664793722 0 -0.40429540910852152 0.18697172931015621 0 -0.40690040744080119 0.21057594202863369 0 -0.39525266245826818 0.1981914997787676 0 -0.40429540910852152 0.18697172931015621 0 -0.39525266245826818 0.1981914997787676 0 -0.40429540910852152 0.18697172931015621 0 -0.38249083432604403 0.18740552443160441 0 -0.40690040744080119 0.21057594202863369 0 -0.40429540910852152 0.18697172931015621 0 -0.38732399895770631 0.20781280334467619 0 -0.38249083432604403 0.18740552443160441 0 -0.37140147374303478 0.20745791486176601 0 -0.39525266245826818 0.1981914997787676 0 -0.38732399895770631 0.20781280334467619 0 -0.38249083432604403 0.18740552443160441 0 -0.38732399895770631 0.20781280334467619 0 -0.37652902478522088 0.2198513768494256 0 -0.37140147374303478 0.20745791486176601 0 -0.38732399895770631 0.20781280334467619 0 -0.39621903020235028 0.22306685960935041 0 -0.37652902478522088 0.2198513768494256 0 -0.40690040744080119 0.21057594202863369 0 -0.39525266245826818 0.1981914997787676 0 -0.38732399895770631 0.20781280334467619 0 -0.40690040744080119 0.21057594202863369 0 -0.38732399895770631 0.20781280334467619 0 -0.39621903020235028 0.22306685960935041 0 -0.40950540577307892 0.23418015474711151 0 -0.38420461613831891 0.23255534063111241 0 -0.40950540577307892 0.23418015474711151 0 -0.40690040744080119 0.21057594202863369 0 -0.39621903020235028 0.22306685960935041 0 -0.40950540577307892 0.23418015474711151 0 -0.39621903020235028 0.22306685960935041 0 -0.38420461613831891 0.23255534063111241 0 -0.39621903020235028 0.22306685960935041 0 -0.38420461613831891 0.23255534063111241 0 -0.37652902478522088 0.2198513768494256 0 -0.38420461613831891 0.23255534063111241 0 -0.39745898753380948 0.24392228279588579 0 -0.37360772762591582 0.25243441419688578 0 -0.40950540577307892 0.23418015474711151 0 -0.38420461613831891 0.23255534063111241 0 -0.39745898753380948 0.24392228279588579 0 -0.40971498697481412 0.23607919598879079 0 -0.40950540577307892 0.23418015474711151 0 -0.39745898753380948 0.24392228279588579 0 -0.4156821781075597 0.1532150358995194 0 -0.42380779553070752 0.13723569842738989 0 -0.40424766824640679 0.1396868188738116 0 -0.4156821781075597 0.1532150358995194 0 -0.40063718099822709 0.15382407104945439 0 -0.40424766824640679 0.1396868188738116 0 -0.40569382605704463 0.12247102304972091 0 -0.42380779553070752 0.13723569842738989 0 -0.40569382605704463 0.12247102304972091 0 -0.42380779553070752 0.13723569842738989 0 -0.40424766824640679 0.1396868188738116 0 -0.44192176500437069 0.15200037380505829 0 -0.44429041509177192 0.12631031149942401 0 -0.42380779553070752 0.13723569842738989 0 -0.43085635428100472 0.12056819187782369 0 -0.44429041509177192 0.12631031149942401 0 -0.42380779553070752 0.13723569842738989 0 -0.44192176500437069 0.15200037380505829 0 -0.42380779553070752 0.13723569842738989 0 -0.4156821781075597 0.1532150358995194 0 -0.42380779553070752 0.13723569842738989 0 -0.43019214803030131 0.15763917539102029 0 -0.44192176500437069 0.15200037380505829 0 -0.42380779553070752 0.13723569842738989 0 -0.43019214803030131 0.15763917539102029 0 -0.44034117750290031 0.16914321461902149 0 -0.44192176500437069 0.15200037380505829 0 -0.43019214803030131 0.15763917539102029 0 -0.44034117750290031 0.16914321461902149 0 -0.4308185764900504 0.16862389593674801 0 -0.43484610710641108 0.17576675932208929 0 -0.44034117750290031 0.16914321461902149 0 -0.43019214803030131 0.15763917539102029 0 -0.4308185764900504 0.16862389593674801 0 -0.4308185764900504 0.16862389593674801 0 -0.42233027848069182 0.16429209071741191 0 -0.42481061821392141 0.17162404305482881 0 -0.4156821781075597 0.1532150358995194 0 -0.43019214803030131 0.15763917539102029 0 -0.42233027848069182 0.16429209071741191 0 -0.43019214803030131 0.15763917539102029 0 -0.4308185764900504 0.16862389593674801 0 -0.42233027848069182 0.16429209071741191 0 -0.43876059000143131 0.18628605543298471 0 -0.42847995410874329 0.18064653659323959 0 -0.41733722635679771 0.1867122664793722 0 -0.43876059000143131 0.18628605543298471 0 -0.41733722635679771 0.1867122664793722 0 -0.43876059000143131 0.18628605543298471 0 -0.43484610710641108 0.17576675932208929 0 -0.42847995410874329 0.18064653659323959 0 -0.43484610710641108 0.17576675932208929 0 -0.4292969602297968 0.17547454252890879 0 -0.42847995410874329 0.18064653659323959 0 -0.4308185764900504 0.16862389593674801 0 -0.43484610710641108 0.17576675932208929 0 -0.4292969602297968 0.17547454252890879 0 -0.4308185764900504 0.16862389593674801 0 -0.42481061821392141 0.17162404305482881 0 -0.4292969602297968 0.17547454252890879 0 -0.42481061821392141 0.17162404305482881 0 -0.4292969602297968 0.17547454252890879 0 -0.42215888684927982 0.17899305920284389 0 -0.4292969602297968 0.17547454252890879 0 -0.42215888684927982 0.17899305920284389 0 -0.42847995410874329 0.18064653659323959 0 -0.42215888684927982 0.17899305920284389 0 -0.42847995410874329 0.18064653659323959 0 -0.41733722635679771 0.1867122664793722 0 -0.41733722635679771 0.1867122664793722 0 -0.41566156858894032 0.1825063753756849 0 -0.42215888684927982 0.17899305920284389 0 -0.41733722635679771 0.1867122664793722 0 -0.41566156858894032 0.1825063753756849 0 -0.41566156858894032 0.1825063753756849 0 -0.41680340108404462 0.17737579750913679 0 -0.41104345664671688 0.1756492115148045 0 -0.42215888684927982 0.17899305920284389 0 -0.41680340108404462 0.17737579750913679 0 -0.41834969225124158 0.17235454394321401 0 -0.42215888684927982 0.17899305920284389 0 -0.41566156858894032 0.1825063753756849 0 -0.41680340108404462 0.17737579750913679 0 -0.42481061821392141 0.17162404305482881 0 -0.42215888684927982 0.17899305920284389 0 -0.41834969225124158 0.17235454394321401 0 -0.41680340108404462 0.17737579750913679 0 -0.41834969225124158 0.17235454394321401 0 -0.41104345664671688 0.1756492115148045 0 -0.41733722635679771 0.1867122664793722 0 -0.40429540910852152 0.18697172931015621 0 -0.41733722635679771 0.1867122664793722 0 -0.41566156858894032 0.1825063753756849 0 -0.40429540910852152 0.18697172931015621 0 -0.41566156858894032 0.1825063753756849 0 -0.41104345664671688 0.1756492115148045 0 -0.40429540910852152 0.18697172931015621 0 -0.4156821781075597 0.1532150358995194 0 -0.42233027848069182 0.16429209071741191 0 -0.41175151358963519 0.1649554755507015 0 -0.42233027848069182 0.16429209071741191 0 -0.41834969225124158 0.17235454394321401 0 -0.41175151358963519 0.1649554755507015 0 -0.42233027848069182 0.16429209071741191 0 -0.42481061821392141 0.17162404305482881 0 -0.41834969225124158 0.17235454394321401 0 -0.41104345664671688 0.1756492115148045 0 -0.41175151358963519 0.1649554755507015 0 -0.40246629505337439 0.1703979001798053 0 -0.41834969225124158 0.17235454394321401 0 -0.41104345664671688 0.1756492115148045 0 -0.41175151358963519 0.1649554755507015 0 -0.4156821781075597 0.1532150358995194 0 -0.41175151358963519 0.1649554755507015 0 -0.40063718099822709 0.15382407104945439 0 -0.41175151358963519 0.1649554755507015 0 -0.40246629505337439 0.1703979001798053 0 -0.40063718099822709 0.15382407104945439 0 -0.40246629505337439 0.1703979001798053 0 -0.40063718099822709 0.15382407104945439 0 -0.40246629505337439 0.1703979001798053 0 -0.38915409776182658 0.16437440485436561 0 -0.40063718099822709 0.15382407104945439 0 -0.40246629505337439 0.1703979001798053 0 -0.39414732679574183 0.17785376286716401 0 -0.38915409776182658 0.16437440485436561 0 -0.40429540910852152 0.18697172931015621 0 -0.39414732679574183 0.17785376286716401 0 -0.38249083432604403 0.18740552443160441 0 -0.41104345664671688 0.1756492115148045 0 -0.40246629505337439 0.1703979001798053 0 -0.40429540910852152 0.18697172931015621 0 -0.40246629505337439 0.1703979001798053 0 -0.40429540910852152 0.18697172931015621 0 -0.40429540910852152 0.18697172931015621 0 -0.38249083432604403 0.18740552443160441 0 -0.40246629505337439 0.1703979001798053 0 -0.40429540910852152 0.18697172931015621 0 -0.39414732679574183 0.17785376286716401 0 -0.39414732679574183 0.17785376286716401 0 -0.38249083432604403 0.18740552443160441 0 -0.38915409776182658 0.16437440485436561 0 -0.38915409776182658 0.16437440485436561 0 -0.38920837474347808 0.14949968235852551 0 -0.37353052332383802 0.16205549383346829 0 -0.38249083432604403 0.18740552443160441 0 -0.38915409776182658 0.16437440485436561 0 -0.37353052332383802 0.16205549383346829 0 -0.37756190462966321 0.14101392958284001 0 -0.38920837474347808 0.14949968235852551 0 -0.37353052332383802 0.16205549383346829 0 -0.37756190462966321 0.14101392958284001 0 -0.38920837474347808 0.14949968235852551 0 -0.39011887350090729 0.13604337595721289 0 -0.38915409776182658 0.16437440485436561 0 -0.38920837474347808 0.14949968235852551 0 -0.40063718099822709 0.15382407104945439 0 -0.38920837474347808 0.14949968235852551 0 -0.40063718099822709 0.15382407104945439 0 -0.40424766824640679 0.1396868188738116 0 -0.38920837474347808 0.14949968235852551 0 -0.40424766824640679 0.1396868188738116 0 -0.39011887350090729 0.13604337595721289 0 -0.40569382605704463 0.12247102304972091 0 -0.40424766824640679 0.1396868188738116 0 -0.39011887350090729 0.13604337595721289 0 -0.40569382605704463 0.12247102304972091 0 -0.38976653468499939 0.12187379656807421 0 -0.39011887350090729 0.13604337595721289 0 -0.38976653468499939 0.12187379656807421 0 -0.37567358259866401 0.121274439593311 0 -0.39011887350090729 0.13604337595721289 0 -0.37567358259866401 0.121274439593311 0 -0.37756190462966321 0.14101392958284001 0 -0.39011887350090729 0.13604337595721289 0 -0.37567358259866401 0.121274439593311 0 -0.37756190462966321 0.14101392958284001 0 -0.36043174236708042 0.13643050419531971 0 -0.36043174236708042 0.13643050419531971 0 -0.343054354331363 0.129152980129667 0 -0.34733296141032283 0.110805514557171 0 -0.36043174236708042 0.13643050419531971 0 -0.34907400460277932 0.15505629853425151 0 -0.343054354331363 0.129152980129667 0 -0.37756190462966321 0.14101392958284001 0 -0.36043174236708042 0.13643050419531971 0 -0.37353052332383802 0.16205549383346829 0 -0.36043174236708042 0.13643050419531971 0 -0.37353052332383802 0.16205549383346829 0 -0.36043174236708042 0.13643050419531971 0 -0.34907400460277932 0.15505629853425151 0 -0.37353052332383802 0.16205549383346829 0 -0.37353052332383802 0.16205549383346829 0 -0.3496301830753516 0.17596638060226449 0 -0.36412439856201279 0.18973223554233221 0 -0.38249083432604403 0.18740552443160441 0 -0.37353052332383802 0.16205549383346829 0 -0.36412439856201279 0.18973223554233221 0 -0.34907400460277932 0.15505629853425151 0 -0.37353052332383802 0.16205549383346829 0 -0.3496301830753516 0.17596638060226449 0 -0.34907400460277932 0.15505629853425151 0 -0.3496301830753516 0.17596638060226449 0 -0.33439783423510178 0.15958651133924839 0 -0.3496301830753516 0.17596638060226449 0 -0.33439783423510178 0.15958651133924839 0 -0.32926357193654882 0.17387335647599059 0 -0.3496301830753516 0.17596638060226449 0 -0.32926357193654882 0.17387335647599059 0 -0.33619632846917741 0.18830612783195461 0 -0.32926357193654882 0.17387335647599059 0 -0.31757171829307501 0.1856905416010535 0 -0.33619632846917741 0.18830612783195461 0 -0.32926357193654882 0.17387335647599059 0 -0.31757171829307501 0.1856905416010535 0 -0.30689798243936639 0.17244719377841011 0 -0.32926357193654882 0.17387335647599059 0 -0.31770598012497991 0.15743977777321519 0 -0.30689798243936639 0.17244719377841011 0 -0.33439783423510178 0.15958651133924839 0 -0.32926357193654882 0.17387335647599059 0 -0.31770598012497991 0.15743977777321519 0 -0.31770598012497991 0.15743977777321519 0 -0.31455585447292073 0.13743618012934619 0 -0.30528280619595682 0.14869495828923551 0 -0.31770598012497991 0.15743977777321519 0 -0.31455585447292073 0.13743618012934619 0 -0.33111323707829071 0.14270091761247539 0 -0.33439783423510178 0.15958651133924839 0 -0.31770598012497991 0.15743977777321519 0 -0.33111323707829071 0.14270091761247539 0 -0.31455585447292073 0.13743618012934619 0 -0.33111323707829071 0.14270091761247539 0 -0.32572713193441799 0.1164066552443926 0 -0.31455585447292073 0.13743618012934619 0 -0.30800650549144543 0.1240400838571023 0 -0.32572713193441799 0.1164066552443926 0 -0.343054354331363 0.129152980129667 0 -0.33111323707829071 0.14270091761247539 0 -0.32572713193441799 0.1164066552443926 0 -0.34907400460277932 0.15505629853425151 0 -0.343054354331363 0.129152980129667 0 -0.33111323707829071 0.14270091761247539 0 -0.34907400460277932 0.15505629853425151 0 -0.33439783423510178 0.15958651133924839 0 -0.33111323707829071 0.14270091761247539 0 -0.35360538224735683 0.24087006329800081 0 -0.35200305033308649 0.24798110438320281 0 -0.36123601888695711 0.2578213626145337 0 -0.35360538224735683 0.24087006329800081 0 -0.35200305033308649 0.24798110438320281 0 -0.3400038048171003 0.24323895028343789 0 -0.35360538224735683 0.24087006329800081 0 -0.37360772762591582 0.25243441419688578 0 -0.35360538224735683 0.24087006329800081 0 -0.35890382650355879 0.230930526515113 0 -0.37360772762591582 0.25243441419688578 0 -0.38420461613831891 0.23255534063111241 0 -0.35890382650355879 0.230930526515113 0 -0.37360772762591582 0.25243441419688578 0 -0.37652902478522088 0.2198513768494256 0 -0.35890382650355879 0.230930526515113 0 -0.36112120316635637 0.21728481613453579 0 -0.38420461613831891 0.23255534063111241 0 -0.37652902478522088 0.2198513768494256 0 -0.35890382650355879 0.230930526515113 0 -0.38420461613831891 0.23255534063111241 0 -0.35890382650355879 0.230930526515113 0 -0.35890382650355879 0.230930526515113 0 -0.34796769615514023 0.21683732936264219 0 -0.33360303686879861 0.22930571239911471 0 -0.35890382650355879 0.230930526515113 0 -0.34796769615514023 0.21683732936264219 0 -0.36112120316635637 0.21728481613453579 0 -0.35360538224735683 0.24087006329800081 0 -0.35890382650355879 0.230930526515113 0 -0.33360303686879861 0.22930571239911471 0 -0.35890382650355879 0.230930526515113 0 -0.33360303686879861 0.22930571239911471 0 -0.34796769615514023 0.21683732936264219 0 -0.35927203284417758 0.20551237954789919 0 -0.34816967472780852 0.20027934491178559 0 -0.34796769615514023 0.21683732936264219 0 -0.35927203284417758 0.20551237954789919 0 -0.36112120316635637 0.21728481613453579 0 -0.37652902478522088 0.2198513768494256 0 -0.36112120316635637 0.21728481613453579 0 -0.37140147374303478 0.20745791486176601 0 -0.35927203284417758 0.20551237954789919 0 -0.36112120316635637 0.21728481613453579 0 -0.37140147374303478 0.20745791486176601 0 -0.38249083432604403 0.18740552443160441 0 -0.37140147374303478 0.20745791486176601 0 -0.36412439856201279 0.18973223554233221 0 -0.35927203284417758 0.20551237954789919 0 -0.37140147374303478 0.20745791486176601 0 -0.36412439856201279 0.18973223554233221 0 -0.35927203284417758 0.20551237954789919 0 -0.36412439856201279 0.18973223554233221 0 -0.34816967472780852 0.20027934491178559 0 -0.3496301830753516 0.17596638060226449 0 -0.34816967472780852 0.20027934491178559 0 -0.33619632846917741 0.18830612783195461 0 -0.3496301830753516 0.17596638060226449 0 -0.36412439856201279 0.18973223554233221 0 -0.34816967472780852 0.20027934491178559 0 -0.34816967472780852 0.20027934491178559 0 -0.33619632846917741 0.18830612783195461 0 -0.33532374912933682 0.1995815017490784 0 -0.33532374912933682 0.1995815017490784 0 -0.32445755522152409 0.19804624945519311 0 -0.33247143809883722 0.21169428479738031 0 -0.33619632846917741 0.18830612783195461 0 -0.33532374912933682 0.1995815017490784 0 -0.32445755522152409 0.19804624945519311 0 -0.31757171829307501 0.1856905416010535 0 -0.32445755522152409 0.19804624945519311 0 -0.30723407256614649 0.19635658518224361 0 -0.31757171829307501 0.1856905416010535 0 -0.33619632846917741 0.18830612783195461 0 -0.32445755522152409 0.19804624945519311 0 -0.32445755522152409 0.19804624945519311 0 -0.31814390693358668 0.20896668716573041 0 -0.30723407256614649 0.19635658518224361 0 -0.32445755522152409 0.19804624945519311 0 -0.31814390693358668 0.20896668716573041 0 -0.33247143809883722 0.21169428479738031 0 -0.31814390693358668 0.20896668716573041 0 -0.3200033932316696 0.2214430818853898 0 -0.30640374959454109 0.21358045137166379 0 -0.3200033932316696 0.2214430818853898 0 -0.30640374959454109 0.21358045137166379 0 -0.31814390693358668 0.20896668716573041 0 -0.33247143809883722 0.21169428479738031 0 -0.3200033932316696 0.2214430818853898 0 -0.34796769615514023 0.21683732936264219 0 -0.34816967472780852 0.20027934491178559 0 -0.33247143809883722 0.21169428479738031 0 -0.34816967472780852 0.20027934491178559 0 -0.33532374912933682 0.1995815017490784 0 -0.33247143809883722 0.21169428479738031 0 -0.33247143809883722 0.21169428479738031 0 -0.33360303686879861 0.22930571239911471 0 -0.3200033932316696 0.2214430818853898 0 -0.34796769615514023 0.21683732936264219 0 -0.33247143809883722 0.21169428479738031 0 -0.33360303686879861 0.22930571239911471 0 -0.33360303686879861 0.22930571239911471 0 -0.30409147020687022 0.2274104826142028 0 -0.33360303686879861 0.22930571239911471 0 -0.31645180103768561 0.23980439280763111 0 -0.30409147020687022 0.2274104826142028 0 -0.33360303686879861 0.22930571239911471 0 -0.3200033932316696 0.2214430818853898 0 -0.33360303686879861 0.22930571239911471 0 -0.3200033932316696 0.2214430818853898 0 -0.30409147020687022 0.2274104826142028 0 -0.33360303686879861 0.22930571239911471 0 -0.31645180103768561 0.23980439280763111 0 -0.3267633280155251 0.2494088704731543 0 -0.31645180103768561 0.23980439280763111 0 -0.3267633280155251 0.2494088704731543 0 -0.31209676779959611 0.25239357658938011 0 -0.33360303686879861 0.22930571239911471 0 -0.3267633280155251 0.2494088704731543 0 -0.3400038048171003 0.24323895028343789 0 -0.35360538224735683 0.24087006329800081 0 -0.33360303686879861 0.22930571239911471 0 -0.35360538224735683 0.24087006329800081 0 -0.33360303686879861 0.22930571239911471 0 -0.3400038048171003 0.24323895028343789 0 -0.29180530120122011 0.24392873090837741 0 -0.27457990354494172 0.225515252829292 0 -0.27781512448029078 0.24810651147730409 0 -0.29180530120122011 0.24392873090837741 0 -0.30520153788055582 0.2422985888626252 0 -0.30409147020687022 0.2274104826142028 0 -0.29180530120122011 0.24392873090837741 0 -0.30520153788055582 0.2422985888626252 0 -0.29980566951308901 0.25579292869099751 0 -0.31645180103768561 0.23980439280763111 0 -0.30520153788055582 0.2422985888626252 0 -0.31209676779959611 0.25239357658938011 0 -0.31645180103768561 0.23980439280763111 0 -0.30520153788055582 0.2422985888626252 0 -0.30409147020687022 0.2274104826142028 0 -0.3200033932316696 0.2214430818853898 0 -0.30409147020687022 0.2274104826142028 0 -0.30640374959454109 0.21358045137166379 0 -0.30409147020687022 0.2274104826142028 0 -0.2938636482622804 0.21544260185533309 0 -0.30640374959454109 0.21358045137166379 0 -0.30409147020687022 0.2274104826142028 0 -0.2938636482622804 0.21544260185533309 0 -0.27457990354494172 0.225515252829292 0 -0.30409147020687022 0.2274104826142028 0 -0.27457990354494172 0.225515252829292 0 -0.29180530120122011 0.24392873090837741 0 -0.30409147020687022 0.2274104826142028 0 -0.27457990354494172 0.225515252829292 0 -0.28535224895449851 0.20619311988613229 0 -0.2938636482622804 0.21544260185533309 0 -0.27457990354494172 0.225515252829292 0 -0.28535224895449851 0.20619311988613229 0 -0.2938636482622804 0.21544260185533309 0 -0.29792371926423472 0.20450756426309269 0 -0.31814390693358668 0.20896668716573041 0 -0.30640374959454109 0.21358045137166379 0 -0.30723407256614649 0.19635658518224361 0 -0.30640374959454109 0.21358045137166379 0 -0.29792371926423472 0.20450756426309269 0 -0.30723407256614649 0.19635658518224361 0 -0.2938636482622804 0.21544260185533309 0 -0.30640374959454109 0.21358045137166379 0 -0.29792371926423472 0.20450756426309269 0 -0.29792371926423472 0.20450756426309269 0 -0.30723407256614649 0.19635658518224361 0 -0.29212255816139049 0.19093559912113661 0 -0.31757171829307501 0.1856905416010535 0 -0.30723407256614649 0.19635658518224361 0 -0.30242559271962072 0.18465280415188309 0 -0.30723407256614649 0.19635658518224361 0 -0.29212255816139049 0.19093559912113661 0 -0.30242559271962072 0.18465280415188309 0 -0.28535224895449851 0.20619311988613229 0 -0.29212255816139049 0.19093559912113661 0 -0.27761505737138348 0.19056157728143211 0 -0.28535224895449851 0.20619311988613229 0 -0.29792371926423472 0.20450756426309269 0 -0.29212255816139049 0.19093559912113661 0 -0.26835571677148079 0.2021466793141469 0 -0.27761505737138348 0.19056157728143211 0 -0.26496844863760938 0.18208713988101011 0 -0.28535224895449851 0.20619311988613229 0 -0.26835571677148079 0.2021466793141469 0 -0.27761505737138348 0.19056157728143211 0 -0.26835571677148079 0.2021466793141469 0 -0.25536353563914621 0.19572747402506341 0 -0.26496844863760938 0.18208713988101011 0 -0.25536353563914621 0.19572747402506341 0 -0.25130617358851592 0.21321052932258441 0 -0.2446305427067143 0.19890980414057521 0 -0.26835571677148079 0.2021466793141469 0 -0.25130617358851592 0.21321052932258441 0 -0.27457990354494172 0.225515252829292 0 -0.26835571677148079 0.2021466793141469 0 -0.25536353563914621 0.19572747402506341 0 -0.25130617358851592 0.21321052932258441 0 -0.28535224895449851 0.20619311988613229 0 -0.26835571677148079 0.2021466793141469 0 -0.27457990354494172 0.225515252829292 0 -0.25130617358851592 0.21321052932258441 0 -0.27457990354494172 0.225515252829292 0 -0.25487571445195373 0.23126666493614109 0 -0.27457990354494172 0.225515252829292 0 -0.25487571445195373 0.23126666493614109 0 -0.26354072882447921 0.24538755190392639 0 -0.25487571445195373 0.23126666493614109 0 -0.25050177323748762 0.24551408611508191 0 -0.26354072882447921 0.24538755190392639 0 -0.25050177323748762 0.24551408611508191 0 -0.26354072882447921 0.24538755190392639 0 -0.25257923020738038 0.25763813499818028 0 -0.27457990354494172 0.225515252829292 0 -0.26354072882447921 0.24538755190392639 0 -0.27781512448029078 0.24810651147730409 0 -0.2923973653762067 0.1493538561041225 0 -0.28299493724636482 0.15998801651971639 0 -0.27896688978585499 0.1418649999557503 0 -0.2923973653762067 0.1493538561041225 0 -0.29569544007595489 0.13562435549947779 0 -0.27896688978585499 0.1418649999557503 0 -0.29569544007595489 0.13562435549947779 0 -0.27896688978585499 0.1418649999557503 0 -0.28006382413436742 0.1252041593366959 0 -0.29569544007595489 0.13562435549947779 0 -0.28006382413436742 0.1252041593366959 0 -0.29335015456884778 0.1199654711435717 0 -0.31455585447292073 0.13743618012934619 0 -0.29569544007595489 0.13562435549947779 0 -0.30800650549144543 0.1240400838571023 0 -0.31455585447292073 0.13743618012934619 0 -0.29569544007595489 0.13562435549947779 0 -0.30528280619595682 0.14869495828923551 0 -0.29569544007595489 0.13562435549947779 0 -0.29335015456884778 0.1199654711435717 0 -0.30800650549144543 0.1240400838571023 0 -0.31770598012497991 0.15743977777321519 0 -0.30528280619595682 0.14869495828923551 0 -0.29904675357690191 0.16059695025643239 0 -0.2923973653762067 0.1493538561041225 0 -0.29569544007595489 0.13562435549947779 0 -0.30528280619595682 0.14869495828923551 0 -0.2923973653762067 0.1493538561041225 0 -0.30528280619595682 0.14869495828923551 0 -0.29904675357690191 0.16059695025643239 0 -0.31770598012497991 0.15743977777321519 0 -0.29904675357690191 0.16059695025643239 0 -0.30689798243936639 0.17244719377841011 0 -0.29904675357690191 0.16059695025643239 0 -0.30689798243936639 0.17244719377841011 0 -0.29331664138900632 0.1756216239694712 0 -0.31757171829307501 0.1856905416010535 0 -0.30689798243936639 0.17244719377841011 0 -0.30242559271962072 0.18465280415188309 0 -0.30689798243936639 0.17244719377841011 0 -0.30242559271962072 0.18465280415188309 0 -0.29331664138900632 0.1756216239694712 0 -0.29212255816139049 0.19093559912113661 0 -0.30242559271962072 0.18465280415188309 0 -0.29331664138900632 0.1756216239694712 0 -0.29212255816139049 0.19093559912113661 0 -0.29331664138900632 0.1756216239694712 0 -0.27966474799689878 0.1766361200512481 0 -0.29212255816139049 0.19093559912113661 0 -0.27761505737138348 0.19056157728143211 0 -0.27966474799689878 0.1766361200512481 0 -0.29331664138900632 0.1756216239694712 0 -0.28299493724636482 0.15998801651971639 0 -0.27966474799689878 0.1766361200512481 0 -0.2923973653762067 0.1493538561041225 0 -0.29904675357690191 0.16059695025643239 0 -0.28299493724636482 0.15998801651971639 0 -0.29904675357690191 0.16059695025643239 0 -0.29331664138900632 0.1756216239694712 0 -0.28299493724636482 0.15998801651971639 0 -0.28299493724636482 0.15998801651971639 0 -0.26940763455521638 0.16409401809133969 0 -0.26946710602312107 0.1507262369734004 0 -0.28299493724636482 0.15998801651971639 0 -0.26940763455521638 0.16409401809133969 0 -0.27966474799689878 0.1766361200512481 0 -0.26940763455521638 0.16409401809133969 0 -0.27966474799689878 0.1766361200512481 0 -0.26496844863760938 0.18208713988101011 0 -0.27761505737138348 0.19056157728143211 0 -0.27966474799689878 0.1766361200512481 0 -0.26496844863760938 0.18208713988101011 0 -0.26496844863760938 0.18208713988101011 0 -0.25636881993956773 0.16811917034005569 0 -0.24834674495110531 0.1830948443989967 0 -0.25536353563914621 0.19572747402506341 0 -0.26496844863760938 0.18208713988101011 0 -0.24834674495110531 0.1830948443989967 0 -0.26940763455521638 0.16409401809133969 0 -0.26496844863760938 0.18208713988101011 0 -0.25636881993956773 0.16811917034005569 0 -0.26940763455521638 0.16409401809133969 0 -0.25636881993956773 0.16811917034005569 0 -0.25521710632945888 0.15352668075741649 0 -0.25636881993956773 0.16811917034005569 0 -0.25521710632945888 0.15352668075741649 0 -0.2437867940321462 0.16737590837235569 0 -0.25521710632945888 0.15352668075741649 0 -0.2630056751820386 0.13317953977603739 0 -0.24642363851099339 0.13889898540617099 0 -0.25521710632945888 0.15352668075741649 0 -0.26946710602312107 0.1507262369734004 0 -0.2630056751820386 0.13317953977603739 0 -0.26940763455521638 0.16409401809133969 0 -0.25521710632945888 0.15352668075741649 0 -0.26946710602312107 0.1507262369734004 0 -0.28299493724636482 0.15998801651971639 0 -0.27896688978585499 0.1418649999557503 0 -0.26946710602312107 0.1507262369734004 0 -0.27896688978585499 0.1418649999557503 0 -0.26946710602312107 0.1507262369734004 0 -0.2630056751820386 0.13317953977603739 0 -0.27896688978585499 0.1418649999557503 0 -0.28006382413436742 0.1252041593366959 0 -0.2630056751820386 0.13317953977603739 0 -0.2630056751820386 0.13317953977603739 0 -0.25168568898611637 0.12875154429823971 0 -0.24642363851099339 0.13889898540617099 0 -0.2630056751820386 0.13317953977603739 0 -0.25168568898611637 0.12875154429823971 0 -0.25718912400825539 0.1207738681872528 0 -0.25168568898611637 0.12875154429823971 0 -0.25718912400825539 0.1207738681872528 0 -0.24272891764110521 0.12352254410664849 0 -0.2630056751820386 0.13317953977603739 0 -0.25718912400825539 0.1207738681872528 0 -0.26996487510109951 0.114836172989968 0 -0.25873579796566237 0.105506308366362 0 -0.24272891764110521 0.12352254410664849 0 -0.25718912400825539 0.1207738681872528 0 -0.25873579796566237 0.105506308366362 0 -0.24272891764110521 0.12352254410664849 0 -0.25718912400825539 0.1207738681872528 0 -0.25873579796566237 0.105506308366362 0 -0.26996487510109951 0.114836172989968 0 -0.25873579796566237 0.105506308366362 0 -0.27460615816983042 0.087643730217212876 0 -0.25737800176791342 0.088318491033901395 0 -0.25873579796566237 0.105506308366362 0 -0.25737800176791342 0.088318491033901395 0 -0.24605046256145291 0.094372560587190721 0 -0.27764486679177802 0.095297365287350166 0 -0.26996487510109951 0.114836172989968 0 -0.28314996252449531 0.10905579698611 0 -0.25873579796566237 0.105506308366362 0 -0.27460615816983042 0.087643730217212876 0 -0.25873579796566237 0.105506308366362 0 -0.27764486679177802 0.095297365287350166 0 -0.27460615816983042 0.087643730217212876 0 -0.25873579796566237 0.105506308366362 0 -0.27764486679177802 0.095297365287350166 0 -0.25873579796566237 0.105506308366362 0 -0.27764486679177802 0.095297365287350166 0 -0.26996487510109951 0.114836172989968 0 -0.28006382413436742 0.1252041593366959 0 -0.26996487510109951 0.114836172989968 0 -0.28314996252449531 0.10905579698611 0 -0.28006382413436742 0.1252041593366959 0 -0.2630056751820386 0.13317953977603739 0 -0.26996487510109951 0.114836172989968 0 -0.28006382413436742 0.1252041593366959 0 -0.29335015456884778 0.1199654711435717 0 -0.28314996252449531 0.10905579698611 0 -0.29335015456884778 0.1199654711435717 0 -0.28314996252449531 0.10905579698611 0 -0.29527847182354833 0.1066798222584204 0 -0.27764486679177802 0.095297365287350166 0 -0.28314996252449531 0.10905579698611 0 -0.29077988816942357 0.098410477240242558 0 -0.29077988816942357 0.098410477240242558 0 -0.29527847182354833 0.1066798222584204 0 -0.30231254502832672 0.096331789644977656 0 -0.28314996252449531 0.10905579698611 0 -0.29077988816942357 0.098410477240242558 0 -0.29527847182354833 0.1066798222584204 0 -0.29527847182354833 0.1066798222584204 0 -0.30231254502832672 0.096331789644977656 0 -0.31036443613600972 0.1107795173746844 0 -0.30231254502832672 0.096331789644977656 0 -0.31036443613600972 0.1107795173746844 0 -0.31792108241457301 0.096176378886880215 0 -0.29335015456884778 0.1199654711435717 0 -0.29527847182354833 0.1066798222584204 0 -0.31036443613600972 0.1107795173746844 0 -0.29335015456884778 0.1199654711435717 0 -0.31036443613600972 0.1107795173746844 0 -0.30800650549144543 0.1240400838571023 0 -0.30319425797297722 0.072523291563447015 0 -0.29655393561789439 0.085088422208339662 0 -0.29413714092164789 0.070418441336629042 0 -0.30319425797297722 0.072523291563447015 0 -0.29788541721305473 0.060761480702035367 0 -0.30912228955939991 0.062489427820280961 0 -0.30319425797297722 0.072523291563447015 0 -0.29413714092164789 0.070418441336629042 0 -0.29788541721305473 0.060761480702035367 0 -0.30319425797297722 0.072523291563447015 0 -0.31249694470914979 0.073217190752345021 0 -0.30912228955939991 0.062489427820280961 0 -0.30319425797297722 0.072523291563447015 0 -0.31249694470914979 0.073217190752345021 0 -0.30896981981671662 0.083164786561052167 0 -0.30231254502832672 0.096331789644977656 0 -0.30896981981671662 0.083164786561052167 0 -0.31792108241457301 0.096176378886880215 0 -0.30231254502832672 0.096331789644977656 0 -0.30896981981671662 0.083164786561052167 0 -0.29655393561789439 0.085088422208339662 0 -0.30319425797297722 0.072523291563447015 0 -0.30896981981671662 0.083164786561052167 0 -0.29655393561789439 0.085088422208339662 0 -0.27764486679177802 0.095297365287350166 0 -0.29077988816942357 0.098410477240242558 0 -0.29655393561789439 0.085088422208339662 0 -0.27764486679177802 0.095297365287350166 0 -0.29655393561789439 0.085088422208339662 0 -0.28278603348822351 0.081635426921567569 0 -0.27764486679177802 0.095297365287350166 0 -0.29655393561789439 0.085088422208339662 0 -0.29655393561789439 0.085088422208339662 0 -0.28278603348822351 0.081635426921567569 0 -0.29413714092164789 0.070418441336629042 0 -0.29077988816942357 0.098410477240242558 0 -0.30231254502832672 0.096331789644977656 0 -0.29655393561789439 0.085088422208339662 0 -0.29413714092164789 0.070418441336629042 0 -0.27441667059058972 0.064770860333543775 0 -0.28355317487838633 0.058701596743280918 0 -0.28278603348822351 0.081635426921567569 0 -0.29413714092164789 0.070418441336629042 0 -0.26700021425596482 0.074011929532148329 0 -0.29413714092164789 0.070418441336629042 0 -0.28355317487838633 0.058701596743280918 0 -0.29788541721305473 0.060761480702035367 0 -0.29413714092164789 0.070418441336629042 0 -0.26700021425596482 0.074011929532148329 0 -0.29413714092164789 0.070418441336629042 0 -0.26700021425596482 0.074011929532148329 0 -0.27441667059058972 0.064770860333543775 0 -0.26700021425596482 0.074011929532148329 0 -0.27441667059058972 0.064770860333543775 0 -0.25859238441198168 0.064741527443465369 0 -0.26700021425596482 0.074011929532148329 0 -0.27460615816983042 0.087643730217212876 0 -0.25737800176791342 0.088318491033901395 0 -0.28278603348822351 0.081635426921567569 0 -0.26700021425596482 0.074011929532148329 0 -0.27460615816983042 0.087643730217212876 0 -0.27764486679177802 0.095297365287350166 0 -0.28278603348822351 0.081635426921567569 0 -0.27460615816983042 0.087643730217212876 0 -0.26700021425596482 0.074011929532148329 0 -0.25737800176791342 0.088318491033901395 0 -0.23986328759028161 0.077605417727666604 0 -0.26700021425596482 0.074011929532148329 0 -0.25859238441198168 0.064741527443465369 0 -0.23986328759028161 0.077605417727666604 0 -0.26700021425596482 0.074011929532148329 0 -0.23986328759028161 0.077605417727666604 0 -0.2576838900260689 0.053595724332290873 0 -0.24942499538184509 0.045781831168407942 0 -0.24464414148606439 0.061693624448037568 0 -0.25859238441198168 0.064741527443465369 0 -0.2576838900260689 0.053595724332290873 0 -0.24464414148606439 0.061693624448037568 0 -0.25859238441198168 0.064741527443465369 0 -0.2576838900260689 0.053595724332290873 0 -0.26880043848496787 0.055980806612195309 0 -0.2576838900260689 0.053595724332290873 0 -0.26564473028274832 0.045979872455159908 0 -0.26880043848496787 0.055980806612195309 0 -0.2576838900260689 0.053595724332290873 0 -0.25697774315005079 0.042248142047483943 0 -0.26564473028274832 0.045979872455159908 0 -0.2576838900260689 0.053595724332290873 0 -0.25697774315005079 0.042248142047483943 0 -0.24942499538184509 0.045781831168407942 0 -0.25697774315005079 0.042248142047483943 0 -0.24942499538184509 0.045781831168407942 0 -0.25748244358322059 0.018964770254950119 0 -0.24942499538184509 0.045781831168407942 0 -0.25697774315005079 0.042248142047483943 0 -0.25748244358322059 0.018964770254950119 0 -0.24942499538184509 0.045781831168407942 0 -0.25697774315005079 0.042248142047483943 0 -0.26401238953716022 0.034242357312475963 0 -0.25748244358322059 0.018964770254950119 0 -0.25697774315005079 0.042248142047483943 0 -0.26401238953716022 0.034242357312475963 0 -0.26564473028274832 0.045979872455159908 0 -0.26564473028274832 0.045979872455159908 0 -0.27142931954182681 0.03724758893396278 0 -0.2750921257849428 0.046397056747045133 0 -0.26401238953716022 0.034242357312475963 0 -0.26564473028274832 0.045979872455159908 0 -0.27142931954182681 0.03724758893396278 0 -0.26401238953716022 0.034242357312475963 0 -0.27142931954182681 0.03724758893396278 0 -0.26852771112795493 0.026771412870823061 0 -0.27142931954182681 0.03724758893396278 0 -0.28054919579910231 0.036491263180551389 0 -0.27882135148198389 0.027531623656861379 0 -0.28054919579910231 0.036491263180551389 0 -0.2750921257849428 0.046397056747045133 0 -0.28616113921870417 0.044788091639157743 0 -0.27142931954182681 0.03724758893396278 0 -0.28054919579910231 0.036491263180551389 0 -0.2750921257849428 0.046397056747045133 0 -0.2750921257849428 0.046397056747045133 0 -0.26880043848496787 0.055980806612195309 0 -0.28355317487838633 0.058701596743280918 0 -0.27441667059058972 0.064770860333543775 0 -0.25859238441198168 0.064741527443465369 0 -0.26880043848496787 0.055980806612195309 0 -0.27441667059058972 0.064770860333543775 0 -0.26880043848496787 0.055980806612195309 0 -0.28355317487838633 0.058701596743280918 0 -0.26564473028274832 0.045979872455159908 0 -0.2750921257849428 0.046397056747045133 0 -0.26880043848496787 0.055980806612195309 0 -0.26553989178459259 -0.007852290658508938 0 -0.25748244358322059 0.018964770254950119 0 -0.25679381805211909 0.0022949629822342789 0 -0.25748244358322059 0.018964770254950119 0 -0.24196154155457791 0.0090568506027661339 0 -0.26553989178459259 -0.007852290658508938 0 -0.25748244358322059 0.018964770254950119 0 -0.26992009788937837 0.0088908428470517321 0 -0.2621913952860857 -0.010989478270270549 0 -0.25679381805211909 0.0022949629822342789 0 -0.24196154155457791 0.0090568506027661339 0 -0.26553989178459259 -0.007852290658508938 0 -0.25679381805211909 0.0022949629822342789 0 -0.25748244358322059 0.018964770254950119 0 -0.26401238953716022 0.034242357312475963 0 -0.25748244358322059 0.018964770254950119 0 -0.26852771112795493 0.026771412870823061 0 -0.25748244358322059 0.018964770254950119 0 -0.26852771112795493 0.026771412870823061 0 -0.27356353318375293 0.017947766321671939 0 -0.27142931954182681 0.03724758893396278 0 -0.26852771112795493 0.026771412870823061 0 -0.27882135148198389 0.027531623656861379 0 -0.26852771112795493 0.026771412870823061 0 -0.27882135148198389 0.027531623656861379 0 -0.27356353318375293 0.017947766321671939 0 -0.27882135148198389 0.027531623656861379 0 -0.27356353318375293 0.017947766321671939 0 -0.28466676534365137 0.02173856161420986 0 -0.27356353318375293 0.017947766321671939 0 -0.28230244522562142 0.0078524517595137365 0 -0.28466676534365137 0.02173856161420986 0 -0.25748244358322059 0.018964770254950119 0 -0.27356353318375293 0.017947766321671939 0 -0.26992009788937837 0.0088908428470517321 0 -0.26553989178459259 -0.007852290658508938 0 -0.26992009788937837 0.0088908428470517321 0 -0.28230244522562142 0.0078524517595137365 0 -0.26553989178459259 -0.007852290658508938 0 -0.28230244522562142 0.0078524517595137365 0 -0.27356353318375293 0.017947766321671939 0 -0.26992009788937837 0.0088908428470517321 0 -0.28230244522562142 0.0078524517595137365 0 -0.28230244522562142 0.0078524517595137365 0 -0.29906499866665059 0.023557194177536069 0 -0.29857306936404171 0.0039812830147901244 0 -0.29052273526160982 -0.003781870298680645 0 -0.28230244522562142 0.0078524517595137365 0 -0.29857306936404171 0.0039812830147901244 0 -0.28168073443546571 -0.0026015348797602121 0 -0.29052273526160982 -0.003781870298680645 0 -0.28230244522562142 0.0078524517595137365 0 -0.28230244522562142 0.0078524517595137365 0 -0.28466676534365137 0.02173856161420986 0 -0.29906499866665059 0.023557194177536069 0 -0.28230244522562142 0.0078524517595137365 0 -0.29906499866665059 0.023557194177536069 0 -0.27882135148198389 0.027531623656861379 0 -0.28466676534365137 0.02173856161420986 0 -0.28958149816024781 0.031803772155466148 0 -0.29906499866665059 0.023557194177536069 0 -0.28958149816024781 0.031803772155466148 0 -0.29913636726416859 0.034109046474117277 0 -0.28466676534365137 0.02173856161420986 0 -0.29906499866665059 0.023557194177536069 0 -0.28958149816024781 0.031803772155466148 0 -0.29906499866665059 0.023557194177536069 0 -0.31582755210767982 0.039261936595558371 0 -0.31424827000016792 0.024273227240425979 0 -0.29906499866665059 0.023557194177536069 0 -0.29913636726416859 0.034109046474117277 0 -0.30803661854004982 0.033930545642724713 0 -0.29906499866665059 0.023557194177536069 0 -0.30927091303261012 0.01362602671570293 0 -0.31424827000016792 0.024273227240425979 0 -0.29906499866665059 0.023557194177536069 0 -0.30927091303261012 0.01362602671570293 0 -0.29857306936404171 0.0039812830147901244 0 -0.30927091303261012 0.01362602671570293 0 -0.29857306936404171 0.0039812830147901244 0 -0.31256906955991631 0.00065829470475784694 0 -0.29361383205921482 0.051715203016056213 0 -0.28355317487838633 0.058701596743280918 0 -0.29788541721305473 0.060761480702035367 0 -0.29361383205921482 0.051715203016056213 0 -0.28355317487838633 0.058701596743280918 0 -0.28616113921870417 0.044788091639157743 0 -0.2750921257849428 0.046397056747045133 0 -0.28355317487838633 0.058701596743280918 0 -0.28616113921870417 0.044788091639157743 0 -0.28054919579910231 0.036491263180551389 0 -0.27882135148198389 0.027531623656861379 0 -0.28958149816024781 0.031803772155466148 0 -0.28054919579910231 0.036491263180551389 0 -0.28616113921870417 0.044788091639157743 0 -0.28958149816024781 0.031803772155466148 0 -0.28958149816024781 0.031803772155466148 0 -0.29569912506260682 0.042008670343696521 0 -0.29913636726416859 0.034109046474117277 0 -0.28616113921870417 0.044788091639157743 0 -0.28958149816024781 0.031803772155466148 0 -0.29569912506260682 0.042008670343696521 0 -0.29361383205921482 0.051715203016056213 0 -0.28616113921870417 0.044788091639157743 0 -0.29569912506260682 0.042008670343696521 0 -0.29569912506260682 0.042008670343696521 0 -0.30306550330590371 0.041751915985224312 0 -0.29913636726416859 0.034109046474117277 0 -0.29569912506260682 0.042008670343696521 0 -0.30306550330590371 0.041751915985224312 0 -0.30308431069336139 0.050913189042660033 0 -0.29906499866665059 0.023557194177536069 0 -0.30803661854004982 0.033930545642724713 0 -0.31582755210767982 0.039261936595558371 0 -0.29906499866665059 0.023557194177536069 0 -0.31582755210767982 0.039261936595558371 0 -0.30306550330590371 0.041751915985224312 0 -0.29913636726416859 0.034109046474117277 0 -0.30803661854004982 0.033930545642724713 0 -0.30306550330590371 0.041751915985224312 0 -0.30937109496933179 0.047798128422923039 0 -0.30308431069336139 0.050913189042660033 0 -0.30306550330590371 0.041751915985224312 0 -0.30803661854004982 0.033930545642724713 0 -0.30937109496933179 0.047798128422923039 0 -0.30937109496933179 0.047798128422923039 0 -0.30308431069336139 0.050913189042660033 0 -0.31129955022515232 0.055346322097194083 0 -0.29361383205921482 0.051715203016056213 0 -0.30308431069336139 0.050913189042660033 0 -0.29788541721305473 0.060761480702035367 0 -0.29361383205921482 0.051715203016056213 0 -0.29569912506260682 0.042008670343696521 0 -0.30308431069336139 0.050913189042660033 0 -0.30308431069336139 0.050913189042660033 0 -0.29788541721305473 0.060761480702035367 0 -0.30912228955939991 0.062489427820280961 0 -0.30308431069336139 0.050913189042660033 0 -0.31129955022515232 0.055346322097194083 0 -0.30912228955939991 0.062489427820280961 0 -0.31129955022515232 0.055346322097194083 0 -0.30912228955939991 0.062489427820280961 0 -0.31445031749343533 0.061011804652588111 0 -0.31129955022515232 0.055346322097194083 0 -0.31445031749343533 0.061011804652588111 0 -0.32113539949680753 0.059555535280873408 0 -0.31582755210767982 0.039261936595558371 0 -0.33259010554871038 0.054966679013579288 0 -0.30803661854004982 0.033930545642724713 0 -0.30937109496933179 0.047798128422923039 0 -0.32113539949680753 0.059555535280873408 0 -0.32354911498853461 0.055600173096611423 0 -0.31582755210767982 0.039261936595558371 0 -0.33259010554871038 0.054966679013579288 0 -0.32354911498853461 0.055600173096611423 0 -0.32113539949680753 0.059555535280873408 0 -0.31582755210767982 0.039261936595558371 0 -0.31445031749343533 0.061011804652588111 0 -0.32113539949680753 0.059555535280873408 0 -0.31624403069238172 0.066655933412003973 0 -0.32354911498853461 0.055600173096611423 0 -0.32113539949680753 0.059555535280873408 0 -0.33013738985046781 0.065335581686712205 0 -0.32354911498853461 0.055600173096611423 0 -0.33259010554871038 0.054966679013579288 0 -0.30937109496933179 0.047798128422923039 0 -0.31129955022515232 0.055346322097194083 0 -0.32113539949680753 0.059555535280873408 0 -0.30803661854004982 0.033930545642724713 0 -0.32113539949680753 0.059555535280873408 0 -0.31582755210767982 0.039261936595558371 0 -0.31582755210767982 0.039261936595558371 0 -0.33074007941243072 0.040503583045910868 0 -0.33259010554871038 0.054966679013579288 0 -0.30803661854004982 0.033930545642724713 0 -0.32113539949680753 0.059555535280873408 0 -0.31582755210767982 0.039261936595558371 0 -0.33074007941243072 0.040503583045910868 0 -0.32585902000022532 0.02914347052668179 0 -0.33074007941243072 0.040503583045910868 0 -0.34181152146838101 0.043212261781195631 0 -0.33259010554871038 0.054966679013579288 0 -0.33074007941243072 0.040503583045910868 0 -0.33950329085090741 0.031942141740574519 0 -0.32585902000022532 0.02914347052668179 0 -0.33074007941243072 0.040503583045910868 0 -0.33950329085090741 0.031942141740574519 0 -0.34181152146838101 0.043212261781195631 0 -0.34181152146838101 0.043212261781195631 0 -0.33259010554871038 0.054966679013579288 0 -0.35324888890785988 0.053519136630513983 0 -0.33259010554871038 0.054966679013579288 0 -0.35324888890785988 0.053519136630513983 0 -0.32354911498853461 0.055600173096611423 0 -0.33259010554871038 0.054966679013579288 0 -0.33013738985046781 0.065335581686712205 0 -0.33558893043556498 -0.0029118465592891719 0 -0.31256906955991631 0.00065829470475784694 0 -0.32189915757227378 0.015660134441004621 0 -0.30927091303261012 0.01362602671570293 0 -0.31256906955991631 0.00065829470475784694 0 -0.32189915757227378 0.015660134441004621 0 -0.32189915757227378 0.015660134441004621 0 -0.31424827000016792 0.024273227240425979 0 -0.32585902000022532 0.02914347052668179 0 -0.30927091303261012 0.01362602671570293 0 -0.32189915757227378 0.015660134441004621 0 -0.31424827000016792 0.024273227240425979 0 -0.31582755210767982 0.039261936595558371 0 -0.31424827000016792 0.024273227240425979 0 -0.32585902000022532 0.02914347052668179 0 -0.32189915757227378 0.015660134441004621 0 -0.32585902000022532 0.02914347052668179 0 -0.33851433007388992 0.015812393940820561 0 -0.33950329085090741 0.031942141740574519 0 -0.32585902000022532 0.02914347052668179 0 -0.33851433007388992 0.015812393940820561 0 -0.33558893043556498 -0.0029118465592891719 0 -0.32189915757227378 0.015660134441004621 0 -0.33851433007388992 0.015812393940820561 0 -0.33558893043556498 -0.0029118465592891719 0 -0.33851433007388992 0.015812393940820561 0 -0.34751463929860937 0.0059074409526803321 0 -0.35860879131121398 -0.0064819878233355072 0 -0.34751463929860937 0.0059074409526803321 0 -0.35577210725110048 0.019737212531247991 0 -0.33851433007388992 0.015812393940820561 0 -0.34751463929860937 0.0059074409526803321 0 -0.35577210725110048 0.019737212531247991 0 -0.35860879131121398 -0.0064819878233355072 0 -0.35577210725110048 0.019737212531247991 0 -0.33950329085090741 0.031942141740574519 0 -0.35577210725110048 0.019737212531247991 0 -0.35382826166722048 0.035857557183134769 0 -0.33950329085090741 0.031942141740574519 0 -0.33851433007388992 0.015812393940820561 0 -0.35577210725110048 0.019737212531247991 0 -0.35577210725110048 0.019737212531247991 0 -0.37326972277151371 0.027071502519228491 0 -0.35382826166722048 0.035857557183134769 0 -0.35577210725110048 0.019737212531247991 0 -0.37326972277151371 0.027071502519228491 0 -0.37263177327601882 0.002071410791005375 0 -0.37326972277151371 0.027071502519228491 0 -0.37263177327601882 0.002071410791005375 0 -0.35860879131121398 -0.0064819878233355072 0 -0.35577210725110048 0.019737212531247991 0 -0.37263177327601882 0.002071410791005375 0 -0.33259010554871038 0.054966679013579288 0 -0.35324888890785988 0.053519136630513983 0 -0.35349406300011821 0.074551479649510657 0 -0.34181152146838101 0.043212261781195631 0 -0.35324888890785988 0.053519136630513983 0 -0.35382826166722048 0.035857557183134769 0 -0.33950329085090741 0.031942141740574519 0 -0.34181152146838101 0.043212261781195631 0 -0.35382826166722048 0.035857557183134769 0 -0.37326972277151371 0.027071502519228491 0 -0.37390767226700949 0.052071594247451433 0 -0.37326972277151371 0.027071502519228491 0 -0.35382826166722048 0.035857557183134769 0 -0.37390767226700949 0.052071594247451433 0 -0.35324888890785988 0.053519136630513983 0 -0.35382826166722048 0.035857557183134769 0 -0.37390767226700949 0.052071594247451433 0 -0.35324888890785988 0.053519136630513983 0 -0.37390767226700949 0.052071594247451433 0 -0.35324888890785988 0.053519136630513983 0 -0.37390767226700949 0.052071594247451433 0 -0.36378673330480371 0.063820354972553506 0 -0.37390767226700949 0.052071594247451433 0 -0.36378673330480371 0.063820354972553506 0 -0.37449630904422698 0.075139209362737963 0 -0.37390767226700949 0.052071594247451433 0 -0.37449630904422698 0.075139209362737963 0 -0.36378673330480371 0.063820354972553506 0 -0.37449630904422698 0.075139209362737963 0 -0.35349406300011821 0.074551479649510657 0 -0.35324888890785988 0.053519136630513983 0 -0.36378673330480371 0.063820354972553506 0 -0.35349406300011821 0.074551479649510657 0 -0.35349406300011821 0.074551479649510657 0 -0.3580604646349913 0.092320282734567743 0 -0.33423418045356512 0.085180524919022185 0 -0.37449630904422698 0.075139209362737963 0 -0.35349406300011821 0.074551479649510657 0 -0.3580604646349913 0.092320282734567743 0 -0.37508494582144558 0.098206824478024424 0 -0.37449630904422698 0.075139209362737963 0 -0.3580604646349913 0.092320282734567743 0 -0.37508494582144558 0.098206824478024424 0 -0.37449630904422698 0.075139209362737963 0 -0.37508494582144558 0.098206824478024424 0 -0.3580604646349913 0.092320282734567743 0 -0.36372032808026938 0.1100381434409403 0 -0.37567358259866401 0.121274439593311 0 -0.37508494582144558 0.098206824478024424 0 -0.36372032808026938 0.1100381434409403 0 -0.37567358259866401 0.121274439593311 0 -0.36043174236708042 0.13643050419531971 0 -0.36372032808026938 0.1100381434409403 0 -0.36043174236708042 0.13643050419531971 0 -0.34733296141032283 0.110805514557171 0 -0.36043174236708042 0.13643050419531971 0 -0.36372032808026938 0.1100381434409403 0 -0.34733296141032283 0.110805514557171 0 -0.3580604646349913 0.092320282734567743 0 -0.36372032808026938 0.1100381434409403 0 -0.34733296141032283 0.110805514557171 0 -0.3580604646349913 0.092320282734567743 0 -0.34733296141032283 0.110805514557171 0 -0.33423418045356512 0.085180524919022185 0 -0.34733296141032283 0.110805514557171 0 -0.33423418045356512 0.085180524919022185 0 -0.34733296141032283 0.110805514557171 0 -0.3313038390532197 0.10214226840186651 0 -0.33423418045356512 0.085180524919022185 0 -0.34733296141032283 0.110805514557171 0 -0.3313038390532197 0.10214226840186651 0 -0.32572713193441799 0.1164066552443926 0 -0.343054354331363 0.129152980129667 0 -0.34733296141032283 0.110805514557171 0 -0.32572713193441799 0.1164066552443926 0 -0.31036443613600972 0.1107795173746844 0 -0.30800650549144543 0.1240400838571023 0 -0.32572713193441799 0.1164066552443926 0 -0.3313038390532197 0.10214226840186651 0 -0.31792108241457301 0.096176378886880215 0 -0.33423418045356512 0.085180524919022185 0 -0.31036443613600972 0.1107795173746844 0 -0.32572713193441799 0.1164066552443926 0 -0.31792108241457301 0.096176378886880215 0 -0.3313038390532197 0.10214226840186651 0 -0.32572713193441799 0.1164066552443926 0 -0.31792108241457301 0.096176378886880215 0 -0.30896981981671662 0.083164786561052167 0 -0.31792108241457301 0.096176378886880215 0 -0.32177299690296213 0.078244721804450384 0 -0.31792108241457301 0.096176378886880215 0 -0.32177299690296213 0.078244721804450384 0 -0.33423418045356512 0.085180524919022185 0 -0.31249694470914979 0.073217190752345021 0 -0.30896981981671662 0.083164786561052167 0 -0.32177299690296213 0.078244721804450384 0 -0.32113539949680753 0.059555535280873408 0 -0.33423418045356512 0.085180524919022185 0 -0.32113539949680753 0.059555535280873408 0 -0.32177299690296213 0.078244721804450384 0 -0.33423418045356512 0.085180524919022185 0 -0.32113539949680753 0.059555535280873408 0 -0.32177299690296213 0.078244721804450384 0 -0.31624403069238172 0.066655933412003973 0 -0.31249694470914979 0.073217190752345021 0 -0.32177299690296213 0.078244721804450384 0 -0.31624403069238172 0.066655933412003973 0 -0.31249694470914979 0.073217190752345021 0 -0.30912228955939991 0.062489427820280961 0 -0.31624403069238172 0.066655933412003973 0 -0.30912228955939991 0.062489427820280961 0 -0.31445031749343533 0.061011804652588111 0 -0.31624403069238172 0.066655933412003973 0 -0.32113539949680753 0.059555535280873408 0 -0.33013738985046781 0.065335581686712205 0 -0.33423418045356512 0.085180524919022185 0 -0.3383800803710959 0.070677838059051951 0 -0.33013738985046781 0.065335581686712205 0 -0.33423418045356512 0.085180524919022185 0 -0.33259010554871038 0.054966679013579288 0 -0.3383800803710959 0.070677838059051951 0 -0.33013738985046781 0.065335581686712205 0 -0.33259010554871038 0.054966679013579288 0 -0.35349406300011821 0.074551479649510657 0 -0.35349406300011821 0.074551479649510657 0 -0.3383800803710959 0.070677838059051951 0 -0.33423418045356512 0.085180524919022185 0 -0.33259010554871038 0.054966679013579288 0 -0.35349406300011821 0.074551479649510657 0 -0.3383800803710959 0.070677838059051951 0 -0.39977701528142329 0.47273230849281928 0 -0.39645059457464782 0.49558430279702981 0 -0.40746758602254418 0.48404703392997139 0 -0.39977701528142329 0.47273230849281928 0 -0.40935966659183343 0.46245909442103811 0 -0.40746758602254418 0.48404703392997139 0 -0.39977701528142329 0.47273230849281928 0 -0.39645059457464782 0.49558430279702981 0 -0.3958078293780809 0.49999999999999872 0 -0.39645059457464782 0.49558430279702981 0 -0.41870484599999691 0.49341815875430939 0 -0.39977701528142329 0.47273230849281928 0 -0.39645059457464782 0.49558430279702981 0 -0.38363470546567391 0.48565770061864111 0 -0.3958078293780809 0.49999999999999872 0 -0.39645059457464782 0.49558430279702981 0 -0.39645059457464782 0.49558430279702981 0 -0.37376788422967472 0.49779215139851468 0 -0.3958078293780809 0.49999999999999872 0 -0.37344650163139131 0.5 0 -0.37376788422967472 0.49779215139851468 0 -0.3958078293780809 0.49999999999999872 0 -0.39645059457464782 0.49558430279702981 0 -0.37376788422967472 0.49779215139851468 0 -0.39645059457464782 0.49558430279702981 0 -0.38363470546567391 0.48565770061864111 0 -0.37376788422967472 0.49779215139851468 0 -0.38363470546567391 0.48565770061864111 0 -0.36860155832491659 0.48840959379154408 0 -0.37376788422967472 0.49779215139851468 0 -0.38363470546567391 0.48565770061864111 0 -0.37353060703143659 0.47610155563631412 0 -0.36860155832491659 0.48840959379154408 0 -0.38363470546567391 0.48565770061864111 0 -0.38637697886364281 0.4690166196328372 0 -0.37353060703143659 0.47610155563631412 0 -0.39977701528142329 0.47273230849281928 0 -0.38363470546567391 0.48565770061864111 0 -0.38637697886364281 0.4690166196328372 0 -0.38637697886364281 0.4690166196328372 0 -0.38242288203257258 0.45254494495704201 0 -0.39251968450710728 0.45804658845936952 0 -0.38242288203257258 0.45254494495704201 0 -0.37353060703143659 0.47610155563631412 0 -0.38637697886364281 0.4690166196328372 0 -0.38242288203257258 0.45254494495704201 0 -0.37353060703143659 0.47610155563631412 0 -0.38242288203257258 0.45254494495704201 0 -0.39131515703370812 0.42898833427776961 0 -0.37779160222069741 0.43320272545326038 0 -0.38242288203257258 0.45254494495704201 0 -0.39131515703370812 0.42898833427776961 0 -0.38242288203257258 0.45254494495704201 0 -0.39127042402370421 0.44555948447799038 0 -0.39131515703370812 0.42898833427776961 0 -0.38242288203257258 0.45254494495704201 0 -0.39127042402370421 0.44555948447799038 0 -0.39251968450710728 0.45804658845936952 0 -0.40310343598820197 0.44988031418860919 0 -0.40642985669498072 0.4270283198843991 0 -0.39127042402370421 0.44555948447799038 0 -0.40310343598820197 0.44988031418860919 0 -0.40642985669498072 0.4270283198843991 0 -0.39127042402370421 0.44555948447799038 0 -0.40310343598820197 0.44988031418860919 0 -0.39251968450710728 0.45804658845936952 0 -0.39977701528142329 0.47273230849281928 0 -0.40310343598820197 0.44988031418860919 0 -0.40935966659183343 0.46245909442103811 0 -0.39977701528142329 0.47273230849281928 0 -0.40310343598820197 0.44988031418860919 0 -0.39977701528142329 0.47273230849281928 0 -0.40310343598820197 0.44988031418860919 0 -0.39251968450710728 0.45804658845936952 0 -0.39977701528142329 0.47273230849281928 0 -0.38637697886364281 0.4690166196328372 0 -0.39251968450710728 0.45804658845936952 0 -0.40935966659183343 0.46245909442103811 0 -0.42310629106206132 0.45956143171187552 0 -0.42405783218981707 0.47671810786473828 0 -0.40310343598820197 0.44988031418860919 0 -0.40935966659183343 0.46245909442103811 0 -0.42310629106206132 0.45956143171187552 0 -0.40310343598820197 0.44988031418860919 0 -0.41754127299507282 0.44108767007471977 0 -0.42310629106206132 0.45956143171187552 0 -0.40310343598820197 0.44988031418860919 0 -0.41754127299507282 0.44108767007471977 0 -0.40642985669498072 0.4270283198843991 0 -0.41754127299507282 0.44108767007471977 0 -0.43151141379862767 0.44157624410733542 0 -0.42310629106206132 0.45956143171187552 0 -0.43151141379862767 0.44157624410733542 0 -0.42310629106206132 0.45956143171187552 0 -0.44734726426724852 0.44856762328239408 0 -0.42310629106206132 0.45956143171187552 0 -0.44552456406956709 0.46821089132575711 0 -0.42310629106206132 0.45956143171187552 0 -0.42405783218981707 0.47671810786473828 0 -0.44552456406956709 0.46821089132575711 0 -0.42405783218981707 0.47671810786473828 0 -0.440959097425346 0.49125201471158808 0 -0.44552456406956709 0.46821089132575711 0 -0.3958078293780809 0.49999999999999872 0 -0.41870484599999691 0.49341815875430939 0 -0.45592668335017822 0.5 0 -0.40935966659183343 0.46245909442103811 0 -0.42405783218981707 0.47671810786473828 0 -0.40746758602254418 0.48404703392997139 0 -0.39645059457464782 0.49558430279702981 0 -0.40746758602254418 0.48404703392997139 0 -0.41870484599999691 0.49341815875430939 0 -0.39645059457464782 0.49558430279702981 0 -0.41870484599999691 0.49341815875430939 0 -0.42405783218981707 0.47671810786473828 0 -0.40746758602254418 0.48404703392997139 0 -0.41870484599999691 0.49341815875430939 0 -0.42405783218981707 0.47671810786473828 0 -0.41870484599999691 0.49341815875430939 0 -0.440959097425346 0.49125201471158808 0 -0.41870484599999691 0.49341815875430939 0 -0.440959097425346 0.49125201471158808 0 -0.440959097425346 0.49125201471158808 0 -0.45739169040466682 0.49510851409222773 0 -0.45643884136364421 0.48766359487258132 0 -0.440959097425346 0.49125201471158808 0 -0.45592668335017822 0.5 0 -0.45739169040466682 0.49510851409222773 0 -0.41870484599999691 0.49341815875430939 0 -0.440959097425346 0.49125201471158808 0 -0.45592668335017822 0.5 0 -0.440959097425346 0.49125201471158808 0 -0.45357351907064009 0.48072640007646578 0 -0.45643884136364421 0.48766359487258132 0 -0.440959097425346 0.49125201471158808 0 -0.45357351907064009 0.48072640007646578 0 -0.44552456406956709 0.46821089132575711 0 -0.46794283707707313 0.47686035093963858 0 -0.44552456406956709 0.46821089132575711 0 -0.45357351907064009 0.48072640007646578 0 -0.46794283707707313 0.47686035093963858 0 -0.44552456406956709 0.46821089132575711 0 -0.45357351907064009 0.48072640007646578 0 -0.46794283707707313 0.47686035093963858 0 -0.46388054587341637 0.48668595615031041 0 -0.45592668335017822 0.5 0 -0.45739169040466682 0.49510851409222773 0 -0.47387640024462291 0.49030916232287419 0 -0.45739169040466682 0.49510851409222773 0 -0.47387640024462291 0.49030916232287419 0 -0.45739169040466682 0.49510851409222773 0 -0.46388054587341637 0.48668595615031041 0 -0.47387640024462291 0.49030916232287419 0 -0.45739169040466682 0.49510851409222773 0 -0.45643884136364421 0.48766359487258132 0 -0.46388054587341637 0.48668595615031041 0 -0.45357351907064009 0.48072640007646578 0 -0.45643884136364421 0.48766359487258132 0 -0.46388054587341637 0.48668595615031041 0 -0.46794283707707313 0.47686035093963858 0 -0.46388054587341637 0.48668595615031041 0 -0.47387640024462291 0.49030916232287419 0 -0.47387640024462291 0.49030916232287419 0 -0.49036111008457878 0.48550981055352038 0 -0.45592668335017822 0.5 0 -0.47387640024462291 0.49030916232287419 0 -0.5 0.5 0 -0.46794283707707313 0.47686035093963858 0 -0.47387640024462291 0.49030916232287419 0 -0.49036111008457878 0.48550981055352038 0 -0.46794283707707313 0.47686035093963858 0 -0.49036111008457878 0.48550981055352038 0 -0.48381031364221588 0.46857216000240398 0 -0.46794283707707313 0.47686035093963858 0 -0.49036111008457878 0.48550981055352038 0 -0.50000000000000044 0.4827035480339309 0 -0.49036111008457878 0.48550981055352038 0 -0.48381031364221588 0.46857216000240398 0 -0.50000000000000044 0.4827035480339309 0 -0.49036111008457878 0.48550981055352038 0 -0.47387640024462291 0.49030916232287419 0 -0.5 0.5 0 -0.49036111008457878 0.48550981055352038 0 -0.50000000000000122 0.48922870491341103 0 -0.5 0.5 0 -0.49036111008457878 0.48550981055352038 0 -0.50000000000000044 0.4827035480339309 0 -0.50000000000000122 0.48922870491341103 0 -0.49036111008457878 0.48550981055352038 0 -0.50000000000000122 0.48922870491341103 0 -0.49036111008457878 0.48550981055352038 0 -0.5 0.45486000471965687 0 -0.48243440500781831 0.44805356584711242 0 -0.5 0.42701646140538302 0 -0.50000000000000044 0.4827035480339309 0 -0.5 0.45486000471965687 0 -0.48381031364221588 0.46857216000240398 0 -0.5 0.45486000471965687 0 -0.48381031364221588 0.46857216000240398 0 -0.48243440500781831 0.44805356584711242 0 -0.46794283707707313 0.47686035093963858 0 -0.48381031364221588 0.46857216000240398 0 -0.46561909188673167 0.45930679757591231 0 -0.48381031364221588 0.46857216000240398 0 -0.48243440500781831 0.44805356584711242 0 -0.46561909188673167 0.45930679757591231 0 -0.48243440500781831 0.44805356584711242 0 -0.46544231846121198 0.44383994620943013 0 -0.47682386894813739 0.43055903033291842 0 -0.48243440500781831 0.44805356584711242 0 -0.46544231846121198 0.44383994620943013 0 -0.46561909188673167 0.45930679757591231 0 -0.46544231846121198 0.44383994620943013 0 -0.46561909188673167 0.45930679757591231 0 -0.44734726426724852 0.44856762328239408 0 -0.46544231846121198 0.44383994620943013 0 -0.44734726426724852 0.44856762328239408 0 -0.45848252439902998 0.42857383166416119 0 -0.46794283707707313 0.47686035093963858 0 -0.46561909188673167 0.45930679757591231 0 -0.44552456406956709 0.46821089132575711 0 -0.42310629106206132 0.45956143171187552 0 -0.44552456406956709 0.46821089132575711 0 -0.44734726426724852 0.44856762328239408 0 -0.46561909188673167 0.45930679757591231 0 -0.44552456406956709 0.46821089132575711 0 -0.44734726426724852 0.44856762328239408 0 -0.43151141379862767 0.44157624410733542 0 -0.44734726426724852 0.44856762328239408 0 -0.44075495811605658 0.42997402989534328 0 -0.44734726426724852 0.44856762328239408 0 -0.44075495811605658 0.42997402989534328 0 -0.45848252439902998 0.42857383166416119 0 -0.44075495811605658 0.42997402989534328 0 -0.44880315829206752 0.41274002389112829 0 -0.45848252439902998 0.42857383166416119 0 -0.44075495811605658 0.42997402989534328 0 -0.44880315829206752 0.41274002389112829 0 -0.43564541383735578 0.41718611545964579 0 -0.44880315829206752 0.41274002389112829 0 -0.43325671967594948 0.40427775438199182 0 -0.43564541383735578 0.41718611545964579 0 -0.44880315829206752 0.41274002389112829 0 -0.46821936341536741 0.4146578186104618 0 -0.45800468144846868 0.39933874007116421 0 -0.44880315829206752 0.41274002389112829 0 -0.46821936341536741 0.4146578186104618 0 -0.45848252439902998 0.42857383166416119 0 -0.46544231846121198 0.44383994620943013 0 -0.45848252439902998 0.42857383166416119 0 -0.47682386894813739 0.43055903033291842 0 -0.46821936341536741 0.4146578186104618 0 -0.45848252439902998 0.42857383166416119 0 -0.47682386894813739 0.43055903033291842 0 -0.46821936341536741 0.4146578186104618 0 -0.48475281500096368 0.41475136826898018 0 -0.47807763356001431 0.39941353963071979 0 -0.46821936341536741 0.4146578186104618 0 -0.47682386894813739 0.43055903033291842 0 -0.48475281500096368 0.41475136826898018 0 -0.48475281500096368 0.41475136826898018 0 -0.5 0.42701646140538302 0 -0.5 0.39917291809110911 0 -0.47682386894813739 0.43055903033291842 0 -0.48475281500096368 0.41475136826898018 0 -0.5 0.42701646140538302 0 -0.48243440500781831 0.44805356584711242 0 -0.47682386894813739 0.43055903033291842 0 -0.5 0.42701646140538302 0 -0.5 0.39917291809110911 0 -0.48138121616852181 0.37862952550403162 0 -0.5 0.37132937477683498 0 -0.5 0.39917291809110911 0 -0.47807763356001431 0.39941353963071979 0 -0.48138121616852181 0.37862952550403162 0 -0.48475281500096368 0.41475136826898018 0 -0.5 0.39917291809110911 0 -0.47807763356001431 0.39941353963071979 0 -0.47807763356001431 0.39941353963071979 0 -0.48138121616852181 0.37862952550403162 0 -0.46811081939865329 0.38677015809815668 0 -0.48138121616852181 0.37862952550403162 0 -0.46811081939865329 0.38677015809815668 0 -0.45957985064843931 0.37387826027976778 0 -0.46811081939865329 0.38677015809815668 0 -0.45435064924472651 0.38652690788553817 0 -0.45957985064843931 0.37387826027976778 0 -0.46821936341536741 0.4146578186104618 0 -0.47807763356001431 0.39941353963071979 0 -0.45800468144846868 0.39933874007116421 0 -0.47807763356001431 0.39941353963071979 0 -0.46811081939865329 0.38677015809815668 0 -0.45800468144846868 0.39933874007116421 0 -0.46811081939865329 0.38677015809815668 0 -0.45435064924472651 0.38652690788553817 0 -0.45800468144846868 0.39933874007116421 0 -0.44880315829206752 0.41274002389112829 0 -0.44232622751364892 0.39555861318253988 0 -0.43325671967594948 0.40427775438199182 0 -0.45435064924472651 0.38652690788553817 0 -0.45800468144846868 0.39933874007116421 0 -0.44232622751364892 0.39555861318253988 0 -0.44880315829206752 0.41274002389112829 0 -0.45800468144846868 0.39933874007116421 0 -0.44232622751364892 0.39555861318253988 0 -0.44232622751364892 0.39555861318253988 0 -0.44373166721442198 0.37708876779606199 0 -0.42812342809534598 0.38877169117306498 0 -0.45435064924472651 0.38652690788553817 0 -0.44232622751364892 0.39555861318253988 0 -0.44373166721442198 0.37708876779606199 0 -0.45435064924472651 0.38652690788553817 0 -0.44373166721442198 0.37708876779606199 0 -0.45957985064843931 0.37387826027976778 0 -0.42812342809534598 0.38877169117306498 0 -0.41392062867704482 0.38198476916358681 0 -0.43006027343107572 0.35910456173420252 0 -0.42812342809534598 0.38877169117306498 0 -0.41392062867704482 0.38198476916358681 0 -0.41849497615382258 0.39919866364401002 0 -0.40980136443684811 0.38001634559361402 0 -0.41392062867704482 0.38198476916358681 0 -0.40346092489987118 0.39681286455967002 0 -0.40980136443684811 0.38001634559361402 0 -0.40346092489987118 0.39681286455967002 0 -0.42812342809534598 0.38877169117306498 0 -0.41392062867704482 0.38198476916358681 0 -0.41392062867704482 0.38198476916358681 0 -0.40346092489987118 0.39681286455967002 0 -0.40980136443684811 0.38001634559361402 0 -0.41392062867704482 0.38198476916358681 0 -0.41849497615382258 0.39919866364401002 0 -0.41162036802950402 0.41341595039835488 0 -0.40346092489987118 0.39681286455967002 0 -0.41392062867704482 0.38198476916358681 0 -0.41849497615382258 0.39919866364401002 0 -0.40346092489987118 0.39681286455967002 0 -0.41849497615382258 0.39919866364401002 0 -0.43325671967594948 0.40427775438199182 0 -0.42463374837928353 0.4120952935313027 0 -0.42812342809534598 0.38877169117306498 0 -0.41849497615382258 0.39919866364401002 0 -0.43325671967594948 0.40427775438199182 0 -0.44232622751364892 0.39555861318253988 0 -0.42812342809534598 0.38877169117306498 0 -0.43325671967594948 0.40427775438199182 0 -0.44232622751364892 0.39555861318253988 0 -0.42812342809534598 0.38877169117306498 0 -0.43325671967594948 0.40427775438199182 0 -0.43564541383735578 0.41718611545964579 0 -0.42463374837928353 0.4120952935313027 0 -0.43564541383735578 0.41718611545964579 0 -0.42463374837928353 0.4120952935313027 0 -0.42351432895939178 0.42628607362921789 0 -0.43151141379862767 0.44157624410733542 0 -0.44075495811605658 0.42997402989534328 0 -0.42351432895939178 0.42628607362921789 0 -0.44075495811605658 0.42997402989534328 0 -0.43564541383735578 0.41718611545964579 0 -0.42351432895939178 0.42628607362921789 0 -0.41754127299507282 0.44108767007471977 0 -0.43151141379862767 0.44157624410733542 0 -0.42351432895939178 0.42628607362921789 0 -0.41754127299507282 0.44108767007471977 0 -0.42351432895939178 0.42628607362921789 0 -0.40642985669498072 0.4270283198843991 0 -0.42351432895939178 0.42628607362921789 0 -0.40642985669498072 0.4270283198843991 0 -0.41162036802950402 0.41341595039835488 0 -0.41849497615382258 0.39919866364401002 0 -0.42463374837928353 0.4120952935313027 0 -0.41162036802950402 0.41341595039835488 0 -0.42463374837928353 0.4120952935313027 0 -0.42351432895939178 0.42628607362921789 0 -0.41162036802950402 0.41341595039835488 0 -0.39738804096679098 0.41290059941872043 0 -0.39135568821495709 0.41397373337393278 0 -0.40346092489987118 0.39681286455967002 0 -0.39738804096679098 0.41290059941872043 0 -0.39131515703370812 0.42898833427776961 0 -0.39738804096679098 0.41290059941872043 0 -0.39135568821495709 0.41397373337393278 0 -0.39131515703370812 0.42898833427776961 0 -0.41162036802950402 0.41341595039835488 0 -0.39738804096679098 0.41290059941872043 0 -0.40346092489987118 0.39681286455967002 0 -0.40642985669498072 0.4270283198843991 0 -0.41162036802950402 0.41341595039835488 0 -0.39738804096679098 0.41290059941872043 0 -0.39135568821495709 0.41397373337393278 0 -0.39131515703370812 0.42898833427776961 0 -0.39127042402370421 0.44555948447799038 0 -0.39131515703370812 0.42898833427776961 0 -0.40642985669498072 0.4270283198843991 0 -0.39738804096679098 0.41290059941872043 0 -0.39131515703370812 0.42898833427776961 0 -0.39127042402370421 0.44555948447799038 0 -0.40642985669498072 0.4270283198843991 0 -0.39131515703370812 0.42898833427776961 0 -0.39135568821495709 0.41397373337393278 0 -0.37779160222069741 0.43320272545326038 0 -0.39135568821495709 0.41397373337393278 0 -0.39131515703370812 0.42898833427776961 0 -0.37779160222069741 0.43320272545326038 0 -0.39135568821495709 0.41397373337393278 0 -0.37779160222069741 0.43320272545326038 0 -0.37214138384484341 0.41517920980772771 0 -0.39135568821495709 0.41397373337393278 0 -0.37507799860857127 0.39639931032264542 0 -0.37214138384484341 0.41517920980772771 0 -0.39135568821495709 0.41397373337393278 0 -0.37507799860857127 0.39639931032264542 0 -0.39141334403686912 0.39261538336343471 0 -0.37507799860857127 0.39639931032264542 0 -0.38268209926942293 0.38123728574899451 0 -0.37177587781473781 0.37871387332463918 0 -0.38268209926942293 0.38123728574899451 0 -0.39141334403686912 0.39261538336343471 0 -0.39147099985877237 0.37125703335293653 0 -0.37507799860857127 0.39639931032264542 0 -0.38268209926942293 0.38123728574899451 0 -0.39141334403686912 0.39261538336343471 0 -0.40044547522197221 0.38607960559253418 0 -0.39141334403686912 0.39261538336343471 0 -0.39147099985877237 0.37125703335293653 0 -0.40980136443684811 0.38001634559361402 0 -0.39147099985877237 0.37125703335293653 0 -0.40980136443684811 0.38001634559361402 0 -0.40044547522197221 0.38607960559253418 0 -0.40346092489987118 0.39681286455967002 0 -0.40980136443684811 0.38001634559361402 0 -0.40044547522197221 0.38607960559253418 0 -0.39147099985877237 0.37125703335293653 0 -0.39141334403686912 0.39261538336343471 0 -0.39147099985877237 0.37125703335293653 0 -0.39738804096679098 0.41290059941872043 0 -0.40346092489987118 0.39681286455967002 0 -0.39135568821495709 0.41397373337393278 0 -0.40346092489987118 0.39681286455967002 0 -0.39141334403686912 0.39261538336343471 0 -0.40044547522197221 0.38607960559253418 0 -0.40346092489987118 0.39681286455967002 0 -0.39141334403686912 0.39261538336343471 0 -0.39135568821495709 0.41397373337393278 0 -0.40346092489987118 0.39681286455967002 0 -0.39135568821495709 0.41397373337393278 0 -0.39141334403686912 0.39261538336343471 0 -0.3961871305264566 0.35159674861066742 0 -0.39149321608257759 0.36302712927240038 0 -0.38445356152722221 0.35345730330826541 0 -0.3961871305264566 0.35159674861066742 0 -0.39864609112214783 0.3601440248573331 0 -0.39149321608257759 0.36302712927240038 0 -0.3961871305264566 0.35159674861066742 0 -0.39277082332951879 0.33972176313637259 0 -0.4027521748800465 0.34061686800681201 0 -0.3961871305264566 0.35159674861066742 0 -0.38643761340139188 0.34557690338544961 0 -0.39277082332951879 0.33972176313637259 0 -0.3961871305264566 0.35159674861066742 0 -0.4027521748800465 0.34061686800681201 0 -0.40706214241260302 0.34988177183981067 0 -0.3961871305264566 0.35159674861066742 0 -0.40623752761877618 0.35878534744251578 0 -0.39864609112214783 0.3601440248573331 0 -0.3961871305264566 0.35159674861066742 0 -0.40623752761877618 0.35878534744251578 0 -0.40706214241260302 0.34988177183981067 0 -0.40980136443684811 0.38001634559361402 0 -0.40066649026078049 0.36716687410374887 0 -0.39147099985877237 0.37125703335293653 0 -0.40623752761877618 0.35878534744251578 0 -0.39864609112214783 0.3601440248573331 0 -0.40066649026078049 0.36716687410374887 0 -0.39147099985877237 0.37125703335293653 0 -0.39149321608257759 0.36302712927240038 0 -0.40066649026078049 0.36716687410374887 0 -0.39147099985877237 0.37125703335293653 0 -0.39149321608257759 0.36302712927240038 0 -0.39864609112214783 0.3601440248573331 0 -0.40066649026078049 0.36716687410374887 0 -0.39149321608257759 0.36302712927240038 0 -0.39149321608257759 0.36302712927240038 0 -0.37615722083071829 0.36393922079551871 0 -0.38445356152722221 0.35345730330826541 0 -0.38268209926942293 0.38123728574899451 0 -0.39147099985877237 0.37125703335293653 0 -0.37615722083071829 0.36393922079551871 0 -0.39147099985877237 0.37125703335293653 0 -0.39149321608257759 0.36302712927240038 0 -0.37615722083071829 0.36393922079551871 0 -0.38268209926942293 0.38123728574899451 0 -0.37615722083071829 0.36393922079551871 0 -0.37177587781473781 0.37871387332463918 0 -0.39147099985877237 0.37125703335293653 0 -0.37615722083071829 0.36393922079551871 0 -0.37615722083071829 0.36393922079551871 0 -0.38445356152722221 0.35345730330826541 0 -0.37548247059367013 0.34566898945323182 0 -0.3961871305264566 0.35159674861066742 0 -0.38445356152722221 0.35345730330826541 0 -0.38643761340139188 0.34557690338544961 0 -0.38445356152722221 0.35345730330826541 0 -0.38643761340139188 0.34557690338544961 0 -0.37548247059367013 0.34566898945323182 0 -0.38643761340139188 0.34557690338544961 0 -0.37548247059367013 0.34566898945323182 0 -0.38329408103009188 0.33743971241871079 0 -0.37548247059367013 0.34566898945323182 0 -0.38329408103009188 0.33743971241871079 0 -0.37220658782909222 0.32748563399356539 0 -0.38329408103009188 0.33743971241871079 0 -0.38655023532454058 0.32721909615687522 0 -0.37220658782909222 0.32748563399356539 0 -0.38329408103009188 0.33743971241871079 0 -0.38655023532454058 0.32721909615687522 0 -0.39277082332951879 0.33972176313637259 0 -0.38643761340139188 0.34557690338544961 0 -0.38329408103009188 0.33743971241871079 0 -0.39277082332951879 0.33972176313637259 0 -0.3821603017965598 0.31414344737589728 0 -0.38655023532454058 0.32721909615687522 0 -0.37220658782909222 0.32748563399356539 0 -0.3821603017965598 0.31414344737589728 0 -0.38655023532454058 0.32721909615687522 0 -0.39555859274957128 0.31654848730682339 0 -0.38655023532454058 0.32721909615687522 0 -0.39555859274957128 0.31654848730682339 0 -0.39846117459159391 0.32921253056653382 0 -0.39555859274957128 0.31654848730682339 0 -0.40419959252639409 0.32179248554869577 0 -0.39846117459159391 0.32921253056653382 0 -0.40419959252639409 0.32179248554869577 0 -0.39846117459159391 0.32921253056653382 0 -0.40980944261311691 0.33109814651706843 0 -0.39555859274957128 0.31654848730682339 0 -0.40419959252639409 0.32179248554869577 0 -0.40587440747199011 0.31375600556967348 0 -0.39277082332951879 0.33972176313637259 0 -0.39846117459159391 0.32921253056653382 0 -0.4027521748800465 0.34061686800681201 0 -0.38655023532454058 0.32721909615687522 0 -0.39277082332951879 0.33972176313637259 0 -0.39846117459159391 0.32921253056653382 0 -0.39846117459159391 0.32921253056653382 0 -0.4027521748800465 0.34061686800681201 0 -0.40980944261311691 0.33109814651706843 0 -0.4127362717110204 0.34169104799303329 0 -0.40980944261311691 0.33109814651706843 0 -0.42836077467946693 0.33085043456787377 0 -0.4027521748800465 0.34061686800681201 0 -0.4127362717110204 0.34169104799303329 0 -0.40980944261311691 0.33109814651706843 0 -0.40980944261311691 0.33109814651706843 0 -0.41358011345985241 0.32122743391373543 0 -0.42836077467946693 0.33085043456787377 0 -0.41358011345985241 0.32122743391373543 0 -0.42836077467946693 0.33085043456787377 0 -0.42339976272847779 0.31196324827731858 0 -0.40587440747199011 0.31375600556967348 0 -0.41358011345985241 0.32122743391373543 0 -0.41397998632669403 0.31118759247784278 0 -0.40419959252639409 0.32179248554869577 0 -0.40587440747199011 0.31375600556967348 0 -0.41358011345985241 0.32122743391373543 0 -0.40419959252639409 0.32179248554869577 0 -0.40980944261311691 0.33109814651706843 0 -0.41358011345985241 0.32122743391373543 0 -0.41358011345985241 0.32122743391373543 0 -0.42339976272847779 0.31196324827731858 0 -0.41397998632669403 0.31118759247784278 0 -0.42836077467946693 0.33085043456787377 0 -0.43896406406262439 0.30276115933889219 0 -0.42836077467946693 0.33085043456787377 0 -0.43896406406262439 0.30276115933889219 0 -0.42339976272847779 0.31196324827731858 0 -0.42836077467946693 0.33085043456787377 0 -0.44397800919063718 0.32110818387735163 0 -0.43896406406262439 0.30276115933889219 0 -0.42836077467946693 0.33085043456787377 0 -0.43005668803792813 0.34704234894756048 0 -0.44404821874485928 0.33927468969130981 0 -0.42836077467946693 0.33085043456787377 0 -0.43005668803792813 0.34704234894756048 0 -0.41775748529630757 0.35893970979685458 0 -0.43005668803792813 0.34704234894756048 0 -0.43006027343107572 0.35910456173420252 0 -0.44404821874485928 0.33927468969130981 0 -0.43006027343107572 0.35910456173420252 0 -0.44404821874485928 0.33927468969130981 0 -0.42836077467946693 0.33085043456787377 0 -0.41775748529630757 0.35893970979685458 0 -0.43005668803792813 0.34704234894756048 0 -0.43006027343107572 0.35910456173420252 0 -0.41775748529630757 0.35893970979685458 0 -0.43006027343107572 0.35910456173420252 0 -0.41775748529630757 0.35893970979685458 0 -0.4127362717110204 0.34169104799303329 0 -0.42836077467946693 0.33085043456787377 0 -0.41775748529630757 0.35893970979685458 0 -0.4127362717110204 0.34169104799303329 0 -0.41775748529630757 0.35893970979685458 0 -0.40706214241260302 0.34988177183981067 0 -0.40623752761877618 0.35878534744251578 0 -0.41775748529630757 0.35893970979685458 0 -0.40706214241260302 0.34988177183981067 0 -0.40623752761877618 0.35878534744251578 0 -0.41775748529630757 0.35893970979685458 0 -0.4027521748800465 0.34061686800681201 0 -0.4127362717110204 0.34169104799303329 0 -0.40706214241260302 0.34988177183981067 0 -0.40980136443684811 0.38001634559361402 0 -0.41392062867704482 0.38198476916358681 0 -0.41775748529630757 0.35893970979685458 0 -0.40623752761877618 0.35878534744251578 0 -0.40066649026078049 0.36716687410374887 0 -0.41775748529630757 0.35893970979685458 0 -0.40980136443684811 0.38001634559361402 0 -0.41775748529630757 0.35893970979685458 0 -0.41392062867704482 0.38198476916358681 0 -0.43006027343107572 0.35910456173420252 0 -0.41775748529630757 0.35893970979685458 0 -0.40980136443684811 0.38001634559361402 0 -0.40066649026078049 0.36716687410374887 0 -0.41775748529630757 0.35893970979685458 0 -0.44373166721442198 0.37708876779606199 0 -0.42812342809534598 0.38877169117306498 0 -0.43006027343107572 0.35910456173420252 0 -0.41392062867704482 0.38198476916358681 0 -0.43006027343107572 0.35910456173420252 0 -0.44373166721442198 0.37708876779606199 0 -0.45036057246034927 0.35937657679185447 0 -0.45957985064843931 0.37387826027976778 0 -0.44373166721442198 0.37708876779606199 0 -0.43006027343107572 0.35910456173420252 0 -0.45036057246034927 0.35937657679185447 0 -0.45036057246034927 0.35937657679185447 0 -0.46015645295921948 0.34394138206593577 0 -0.44404821874485928 0.33927468969130981 0 -0.43006027343107572 0.35910456173420252 0 -0.45036057246034927 0.35937657679185447 0 -0.43006027343107572 0.35910456173420252 0 -0.45036057246034927 0.35937657679185447 0 -0.44404821874485928 0.33927468969130981 0 -0.46015645295921948 0.34394138206593577 0 -0.47066087148962282 0.35964859184950881 0 -0.47504809200347298 0.33646563442420868 0 -0.45036057246034927 0.35937657679185447 0 -0.46015645295921948 0.34394138206593577 0 -0.47066087148962282 0.35964859184950881 0 -0.45036057246034927 0.35937657679185447 0 -0.47066087148962282 0.35964859184950881 0 -0.45036057246034927 0.35937657679185447 0 -0.45957985064843931 0.37387826027976778 0 -0.47066087148962282 0.35964859184950881 0 -0.47066087148962282 0.35964859184950881 0 -0.49096117051889632 0.35992060690716288 0 -0.48138121616852181 0.37862952550403162 0 -0.47066087148962282 0.35964859184950881 0 -0.49096117051889632 0.35992060690716288 0 -0.48138121616852181 0.37862952550403162 0 -0.45957985064843931 0.37387826027976778 0 -0.47066087148962282 0.35964859184950881 0 -0.47066087148962282 0.35964859184950881 0 -0.48600238971743043 0.34649038292910461 0 -0.47504809200347298 0.33646563442420868 0 -0.47066087148962282 0.35964859184950881 0 -0.48600238971743043 0.34649038292910461 0 -0.49096117051889632 0.35992060690716288 0 -0.48600238971743043 0.34649038292910461 0 -0.49096117051889632 0.35992060690716288 0 -0.5 0.34348583146256112 0 -0.5 0.37132937477683498 0 -0.49096117051889632 0.35992060690716288 0 -0.5 0.34348583146256112 0 -0.48138121616852181 0.37862952550403162 0 -0.5 0.37132937477683498 0 -0.49096117051889632 0.35992060690716288 0 -0.5 0.31564228814828699 0 -0.48832054156492077 0.33189064049052303 0 -0.48055222610370041 0.31736906548845351 0 -0.5 0.31564228814828699 0 -0.5 0.34348583146256112 0 -0.48832054156492077 0.33189064049052303 0 -0.48600238971743043 0.34649038292910461 0 -0.5 0.34348583146256112 0 -0.48832054156492077 0.33189064049052303 0 -0.48832054156492077 0.33189064049052303 0 -0.47504809200347298 0.33646563442420868 0 -0.48055222610370041 0.31736906548845351 0 -0.48600238971743043 0.34649038292910461 0 -0.48832054156492077 0.33189064049052303 0 -0.47504809200347298 0.33646563442420868 0 -0.47504809200347298 0.33646563442420868 0 -0.48055222610370041 0.31736906548845351 0 -0.45803616405864211 0.31944481764841642 0 -0.46015645295921948 0.34394138206593577 0 -0.45803616405864211 0.31944481764841642 0 -0.44404821874485928 0.33927468969130981 0 -0.46015645295921948 0.34394138206593577 0 -0.47504809200347298 0.33646563442420868 0 -0.45803616405864211 0.31944481764841642 0 -0.42836077467946693 0.33085043456787377 0 -0.44404821874485928 0.33927468969130981 0 -0.44397800919063718 0.32110818387735163 0 -0.45803616405864211 0.31944481764841642 0 -0.44404821874485928 0.33927468969130981 0 -0.45803616405864211 0.31944481764841642 0 -0.44404821874485928 0.33927468969130981 0 -0.44397800919063718 0.32110818387735163 0 -0.45803616405864211 0.31944481764841642 0 -0.44397800919063718 0.32110818387735163 0 -0.45194996858680853 0.30898575110646198 0 -0.44397800919063718 0.32110818387735163 0 -0.43896406406262439 0.30276115933889219 0 -0.45194996858680853 0.30898575110646198 0 -0.43896406406262439 0.30276115933889219 0 -0.45150106187809808 0.29747528115170818 0 -0.45194996858680853 0.30898575110646198 0 -0.44493540723275482 0.2878347621577092 0 -0.44410045409835069 0.27668114248141068 0 -0.43557717203610802 0.28083524643037538 0 -0.44493540723275482 0.2878347621577092 0 -0.43557717203610802 0.28083524643037538 0 -0.4339368591360539 0.29074616485339549 0 -0.43896406406262439 0.30276115933889219 0 -0.45150106187809808 0.29747528115170818 0 -0.44493540723275482 0.2878347621577092 0 -0.43896406406262439 0.30276115933889219 0 -0.44493540723275482 0.2878347621577092 0 -0.4339368591360539 0.29074616485339549 0 -0.45150106187809808 0.29747528115170818 0 -0.44493540723275482 0.2878347621577092 0 -0.45586821458997101 0.28342481944516629 0 -0.44493540723275482 0.2878347621577092 0 -0.45586821458997101 0.28342481944516629 0 -0.44410045409835069 0.27668114248141068 0 -0.45586821458997101 0.28342481944516629 0 -0.46301130176701172 0.2947997650684106 0 -0.47438433912622668 0.26923426553679158 0 -0.46301130176701172 0.2947997650684106 0 -0.47438433912622668 0.26923426553679158 0 -0.45586821458997101 0.28342481944516629 0 -0.46301130176701172 0.2947997650684106 0 -0.46430476609262278 0.30460051390468029 0 -0.45150106187809808 0.29747528115170818 0 -0.45586821458997101 0.28342481944516629 0 -0.46430476609262278 0.30460051390468029 0 -0.45586821458997101 0.28342481944516629 0 -0.46430476609262278 0.30460051390468029 0 -0.45803616405864211 0.31944481764841642 0 -0.47202410937242478 0.29961494560552288 0 -0.45803616405864211 0.31944481764841642 0 -0.46430476609262278 0.30460051390468029 0 -0.47202410937242478 0.29961494560552288 0 -0.45803616405864211 0.31944481764841642 0 -0.45194996858680853 0.30898575110646198 0 -0.46430476609262278 0.30460051390468029 0 -0.45150106187809808 0.29747528115170818 0 -0.45194996858680853 0.30898575110646198 0 -0.46430476609262278 0.30460051390468029 0 -0.46301130176701172 0.2947997650684106 0 -0.46430476609262278 0.30460051390468029 0 -0.47202410937242478 0.29961494560552288 0 -0.48055222610370041 0.31736906548845351 0 -0.45803616405864211 0.31944481764841642 0 -0.47202410937242478 0.29961494560552288 0 -0.48055222610370041 0.31736906548845351 0 -0.47202410937242478 0.29961494560552288 0 -0.48775354358845679 0.2999373674566474 0 -0.47202410937242478 0.29961494560552288 0 -0.4738579512379677 0.28585851244333871 0 -0.4860120546862074 0.27978507356262949 0 -0.46301130176701172 0.2947997650684106 0 -0.4738579512379677 0.28585851244333871 0 -0.47438433912622668 0.26923426553679158 0 -0.47202410937242478 0.29961494560552288 0 -0.4860120546862074 0.27978507356262949 0 -0.47202410937242478 0.29961494560552288 0 -0.48775354358845679 0.2999373674566474 0 -0.4860120546862074 0.27978507356262949 0 -0.46301130176701172 0.2947997650684106 0 -0.47202410937242478 0.29961494560552288 0 -0.4738579512379677 0.28585851244333871 0 -0.5 0.28779874483401302 0 -0.48775354358845679 0.2999373674566474 0 -0.4860120546862074 0.27978507356262949 0 -0.5 0.31564228814828699 0 -0.48055222610370041 0.31736906548845351 0 -0.48775354358845679 0.2999373674566474 0 -0.5 0.31564228814828699 0 -0.5 0.28779874483401302 0 -0.48775354358845679 0.2999373674566474 0 -0.48575737648544182 0.24366876600517251 0 -0.499999999999994 0.259955201519739 0 -0.47438433912622668 0.26923426553679158 0 -0.499999999999994 0.259955201519739 0 -0.4860120546862074 0.27978507356262949 0 -0.47438433912622668 0.26923426553679158 0 -0.5 0.28779874483401302 0 -0.499999999999994 0.259955201519739 0 -0.4860120546862074 0.27978507356262949 0 -0.499999999999994 0.259955201519739 0 -0.4860120546862074 0.27978507356262949 0 -0.4738579512379677 0.28585851244333871 0 -0.4860120546862074 0.27978507356262949 0 -0.47438433912622668 0.26923426553679158 0 -0.48575737648544182 0.24366876600517251 0 -0.47438433912622668 0.26923426553679158 0 -0.47026877103223552 0.24615879961802731 0 -0.47438433912622668 0.26923426553679158 0 -0.46326505337649171 0.25890261370259482 0 -0.47026877103223552 0.24615879961802731 0 -0.48575737648544182 0.24366876600517251 0 -0.47438433912622668 0.26923426553679158 0 -0.47026877103223552 0.24615879961802731 0 -0.46088862081946791 0.24741137557541151 0 -0.46326505337649171 0.25890261370259482 0 -0.46326505337649171 0.25890261370259482 0 -0.46023731754500208 0.26845270591755122 0 -0.44743166308731919 0.26224912498565223 0 -0.45193420450290589 0.24577266785640839 0 -0.46088862081946791 0.24741137557541151 0 -0.44743166308731919 0.26224912498565223 0 -0.46088862081946791 0.24741137557541151 0 -0.46326505337649171 0.25890261370259482 0 -0.44743166308731919 0.26224912498565223 0 -0.47438433912622668 0.26923426553679158 0 -0.46326505337649171 0.25890261370259482 0 -0.46023731754500208 0.26845270591755122 0 -0.45586821458997101 0.28342481944516629 0 -0.46023731754500208 0.26845270591755122 0 -0.44743166308731919 0.26224912498565223 0 -0.45586821458997101 0.28342481944516629 0 -0.47438433912622668 0.26923426553679158 0 -0.46023731754500208 0.26845270591755122 0 -0.45586821458997101 0.28342481944516629 0 -0.44410045409835069 0.27668114248141068 0 -0.44743166308731919 0.26224912498565223 0 -0.45586821458997101 0.28342481944516629 0 -0.44743166308731919 0.26224912498565223 0 -0.44410045409835069 0.27668114248141068 0 -0.44743166308731919 0.26224912498565223 0 -0.43668981354560038 0.26906175938815041 0 -0.44410045409835069 0.27668114248141068 0 -0.43668981354560038 0.26906175938815041 0 -0.43557717203610802 0.28083524643037538 0 -0.43899511158466897 0.24107343052613761 0 -0.44743166308731919 0.26224912498565223 0 -0.43749916171213421 0.2586271987400251 0 -0.43899511158466897 0.24107343052613761 0 -0.44743166308731919 0.26224912498565223 0 -0.44620888291724248 0.24330324602737369 0 -0.45193420450290589 0.24577266785640839 0 -0.44743166308731919 0.26224912498565223 0 -0.44743166308731919 0.26224912498565223 0 -0.43749916171213421 0.2586271987400251 0 -0.43668981354560038 0.26906175938815041 0 -0.43899511158466897 0.24107343052613761 0 -0.43749916171213421 0.2586271987400251 0 -0.42688005863094819 0.26212448006016043 0 -0.43899511158466897 0.24107343052613761 0 -0.42688005863094819 0.26212448006016043 0 -0.43899511158466897 0.24107343052613761 0 -0.42688005863094819 0.26212448006016043 0 -0.42080115542961871 0.25287685171722729 0 -0.43749916171213421 0.2586271987400251 0 -0.42688005863094819 0.26212448006016043 0 -0.43668981354560038 0.26906175938815041 0 -0.42688005863094819 0.26212448006016043 0 -0.42080115542961871 0.25287685171722729 0 -0.41180670095080357 0.27922919241869698 0 -0.41250559953305471 0.24493636740905761 0 -0.42080115542961871 0.25287685171722729 0 -0.41020060023578869 0.26364096678309251 0 -0.42080115542961871 0.25287685171722729 0 -0.41020060023578869 0.26364096678309251 0 -0.41180670095080357 0.27922919241869698 0 -0.42080115542961871 0.25287685171722729 0 -0.41180670095080357 0.27922919241869698 0 -0.42688005863094819 0.26212448006016043 0 -0.41180670095080357 0.27922919241869698 0 -0.41476500567722652 0.2831755295941828 0 -0.42688005863094819 0.26212448006016043 0 -0.41476500567722652 0.2831755295941828 0 -0.41180670095080357 0.27922919241869698 0 -0.40226622587071198 0.28149068079684969 0 -0.40592826877002092 0.27230127082446692 0 -0.41020060023578869 0.26364096678309251 0 -0.41180670095080357 0.27922919241869698 0 -0.40592826877002092 0.27230127082446692 0 -0.42572381009563648 0.2739713321084053 0 -0.41476500567722652 0.2831755295941828 0 -0.42146532298538791 0.28179473628357349 0 -0.42572381009563648 0.2739713321084053 0 -0.42573931939633408 0.28541084471074091 0 -0.42146532298538791 0.28179473628357349 0 -0.42572381009563648 0.2739713321084053 0 -0.43557717203610802 0.28083524643037538 0 -0.42573931939633408 0.28541084471074091 0 -0.42688005863094819 0.26212448006016043 0 -0.42572381009563648 0.2739713321084053 0 -0.41476500567722652 0.2831755295941828 0 -0.42688005863094819 0.26212448006016043 0 -0.42572381009563648 0.2739713321084053 0 -0.43668981354560038 0.26906175938815041 0 -0.42572381009563648 0.2739713321084053 0 -0.43668981354560038 0.26906175938815041 0 -0.43557717203610802 0.28083524643037538 0 -0.43557717203610802 0.28083524643037538 0 -0.4339368591360539 0.29074616485339549 0 -0.42573931939633408 0.28541084471074091 0 -0.43896406406262439 0.30276115933889219 0 -0.4339368591360539 0.29074616485339549 0 -0.42446833295244812 0.29688881162925979 0 -0.4339368591360539 0.29074616485339549 0 -0.42573931939633408 0.28541084471074091 0 -0.42446833295244812 0.29688881162925979 0 -0.42573931939633408 0.28541084471074091 0 -0.42446833295244812 0.29688881162925979 0 -0.41983813645988832 0.28936554709302209 0 -0.42573931939633408 0.28541084471074091 0 -0.42045194612970921 0.28493666442037979 0 -0.41983813645988832 0.28936554709302209 0 -0.42573931939633408 0.28541084471074091 0 -0.42045194612970921 0.28493666442037979 0 -0.42146532298538791 0.28179473628357349 0 -0.43896406406262439 0.30276115933889219 0 -0.42446833295244812 0.29688881162925979 0 -0.42339976272847779 0.31196324827731858 0 -0.42339976272847779 0.31196324827731858 0 -0.4172282171344654 0.30381013258933831 0 -0.41397998632669403 0.31118759247784278 0 -0.42446833295244812 0.29688881162925979 0 -0.42339976272847779 0.31196324827731858 0 -0.4172282171344654 0.30381013258933831 0 -0.42446833295244812 0.29688881162925979 0 -0.4172282171344654 0.30381013258933831 0 -0.41458486750107842 0.29673131080996168 0 -0.40981743083868438 0.30518114203914809 0 -0.41458486750107842 0.29673131080996168 0 -0.40264995272350512 0.30422657912820522 0 -0.4172282171344654 0.30381013258933831 0 -0.40981743083868438 0.30518114203914809 0 -0.41458486750107842 0.29673131080996168 0 -0.40587440747199011 0.31375600556967348 0 -0.40981743083868438 0.30518114203914809 0 -0.41397998632669403 0.31118759247784278 0 -0.4172282171344654 0.30381013258933831 0 -0.40981743083868438 0.30518114203914809 0 -0.41397998632669403 0.31118759247784278 0 -0.41476500567722652 0.2831755295941828 0 -0.40264995272350512 0.30422657912820522 0 -0.41476500567722652 0.2831755295941828 0 -0.41458486750107842 0.29673131080996168 0 -0.40264995272350512 0.30422657912820522 0 -0.41476500567722652 0.2831755295941828 0 -0.40337971017781382 0.29299919361117099 0 -0.40264995272350512 0.30422657912820522 0 -0.41476500567722652 0.2831755295941828 0 -0.42045194612970921 0.28493666442037979 0 -0.42146532298538791 0.28179473628357349 0 -0.41476500567722652 0.2831755295941828 0 -0.42045194612970921 0.28493666442037979 0 -0.41983813645988832 0.28936554709302209 0 -0.42446833295244812 0.29688881162925979 0 -0.41458486750107842 0.29673131080996168 0 -0.41983813645988832 0.28936554709302209 0 -0.41476500567722652 0.2831755295941828 0 -0.41458486750107842 0.29673131080996168 0 -0.41983813645988832 0.28936554709302209 0 -0.41180670095080357 0.27922919241869698 0 -0.41476500567722652 0.2831755295941828 0 -0.40623440257844129 0.28622434698816329 0 -0.41180670095080357 0.27922919241869698 0 -0.40226622587071198 0.28149068079684969 0 -0.40623440257844129 0.28622434698816329 0 -0.41476500567722652 0.2831755295941828 0 -0.40623440257844129 0.28622434698816329 0 -0.40337971017781382 0.29299919361117099 0 -0.40226622587071198 0.28149068079684969 0 -0.40623440257844129 0.28622434698816329 0 -0.40020067671556492 0.28922129727857743 0 -0.40337971017781382 0.29299919361117099 0 -0.40020067671556492 0.28922129727857743 0 -0.39312431807980369 0.29427418344140138 0 -0.40623440257844129 0.28622434698816329 0 -0.40337971017781382 0.29299919361117099 0 -0.40020067671556492 0.28922129727857743 0 -0.40020067671556492 0.28922129727857743 0 -0.39312431807980369 0.29427418344140138 0 -0.39282818923783952 0.28392283305698729 0 -0.40226622587071198 0.28149068079684969 0 -0.40020067671556492 0.28922129727857743 0 -0.39282818923783952 0.28392283305698729 0 -0.3821603017965598 0.31414344737589728 0 -0.39555859274957128 0.31654848730682339 0 -0.40264995272350512 0.30422657912820522 0 -0.39555859274957128 0.31654848730682339 0 -0.40587440747199011 0.31375600556967348 0 -0.40264995272350512 0.30422657912820522 0 -0.40587440747199011 0.31375600556967348 0 -0.40981743083868438 0.30518114203914809 0 -0.40264995272350512 0.30422657912820522 0 -0.39555859274957128 0.31654848730682339 0 -0.40264995272350512 0.30422657912820522 0 -0.40981743083868438 0.30518114203914809 0 -0.40264995272350512 0.30422657912820522 0 -0.40337971017781382 0.29299919361117099 0 -0.39312431807980369 0.29427418344140138 0 -0.40264995272350512 0.30422657912820522 0 -0.40264995272350512 0.30422657912820522 0 -0.37442358585463081 0.30046739877345618 0 -0.39312431807980369 0.29427418344140138 0 -0.40264995272350512 0.30422657912820522 0 -0.37442358585463081 0.30046739877345618 0 -0.3821603017965598 0.31414344737589728 0 -0.40264995272350512 0.30422657912820522 0 -0.37442358585463081 0.30046739877345618 0 -0.38530169621220439 0.2908707829873487 0 -0.37792557878229471 0.2817600801956559 0 -0.37442358585463081 0.30046739877345618 0 -0.39312431807980369 0.29427418344140138 0 -0.38530169621220439 0.2908707829873487 0 -0.37442358585463081 0.30046739877345618 0 -0.39282818923783952 0.28392283305698729 0 -0.38530169621220439 0.2908707829873487 0 -0.37792557878229471 0.2817600801956559 0 -0.39312431807980369 0.29427418344140138 0 -0.39282818923783952 0.28392283305698729 0 -0.38530169621220439 0.2908707829873487 0 -0.39282818923783952 0.28392283305698729 0 -0.37792557878229471 0.2817600801956559 0 -0.39521558915767468 0.26334822380235678 0 -0.37792557878229471 0.2817600801956559 0 -0.39521558915767468 0.26334822380235678 0 -0.37792557878229471 0.2817600801956559 0 -0.39521558915767468 0.26334822380235678 0 -0.37197088040678111 0.26812440785182962 0 -0.39745898753380948 0.24392228279588579 0 -0.39521558915767468 0.26334822380235678 0 -0.37360772762591582 0.25243441419688578 0 -0.39521558915767468 0.26334822380235678 0 -0.37360772762591582 0.25243441419688578 0 -0.37197088040678111 0.26812440785182962 0 -0.41250559953305471 0.24493636740905761 0 -0.41020060023578869 0.26364096678309251 0 -0.39521558915767468 0.26334822380235678 0 -0.41250559953305471 0.24493636740905761 0 -0.39521558915767468 0.26334822380235678 0 -0.41250559953305471 0.24493636740905761 0 -0.39745898753380948 0.24392228279588579 0 -0.39521558915767468 0.26334822380235678 0 -0.39282818923783952 0.28392283305698729 0 -0.39521558915767468 0.26334822380235678 0 -0.39949928670883 0.27547996318538392 0 -0.41020060023578869 0.26364096678309251 0 -0.39521558915767468 0.26334822380235678 0 -0.40592826877002092 0.27230127082446692 0 -0.39521558915767468 0.26334822380235678 0 -0.40592826877002092 0.27230127082446692 0 -0.39949928670883 0.27547996318538392 0 -0.40226622587071198 0.28149068079684969 0 -0.40592826877002092 0.27230127082446692 0 -0.39949928670883 0.27547996318538392 0 -0.40226622587071198 0.28149068079684969 0 -0.39282818923783952 0.28392283305698729 0 -0.39949928670883 0.27547996318538392 0 -0.35107281268474688 0.27454783326818583 0 -0.3498409464849806 0.26100254362400588 0 -0.33505190403513202 0.26365987423010151 0 -0.35200305033308649 0.24798110438320281 0 -0.3498409464849806 0.26100254362400588 0 -0.33505190403513202 0.26365987423010151 0 -0.35107281268474688 0.27454783326818583 0 -0.3498409464849806 0.26100254362400588 0 -0.36123601888695711 0.2578213626145337 0 -0.35200305033308649 0.24798110438320281 0 -0.3498409464849806 0.26100254362400588 0 -0.36123601888695711 0.2578213626145337 0 -0.36123601888695711 0.2578213626145337 0 -0.37360772762591582 0.25243441419688578 0 -0.37197088040678111 0.26812440785182962 0 -0.35360538224735683 0.24087006329800081 0 -0.36123601888695711 0.2578213626145337 0 -0.37360772762591582 0.25243441419688578 0 -0.37792557878229471 0.2817600801956559 0 -0.37197088040678111 0.26812440785182962 0 -0.36431801534284203 0.28432158770156679 0 -0.35107281268474688 0.27454783326818583 0 -0.36123601888695711 0.2578213626145337 0 -0.37197088040678111 0.26812440785182962 0 -0.35107281268474688 0.27454783326818583 0 -0.37197088040678111 0.26812440785182962 0 -0.36431801534284203 0.28432158770156679 0 -0.37792557878229471 0.2817600801956559 0 -0.36431801534284203 0.28432158770156679 0 -0.37442358585463081 0.30046739877345618 0 -0.36431801534284203 0.28432158770156679 0 -0.37442358585463081 0.30046739877345618 0 -0.34619721898575673 0.29670821841870648 0 -0.3821603017965598 0.31414344737589728 0 -0.37442358585463081 0.30046739877345618 0 -0.36567807973193073 0.31226451215857398 0 -0.37442358585463081 0.30046739877345618 0 -0.36567807973193073 0.31226451215857398 0 -0.34619721898575673 0.29670821841870648 0 -0.37442358585463081 0.30046739877345618 0 -0.34619721898575673 0.29670821841870648 0 -0.36567807973193073 0.31226451215857398 0 -0.34619721898575673 0.29670821841870648 0 -0.35340270419361408 0.32251786223124479 0 -0.35107281268474688 0.27454783326818583 0 -0.36431801534284203 0.28432158770156679 0 -0.34619721898575673 0.29670821841870648 0 -0.34619721898575673 0.29670821841870648 0 -0.31797085211688259 0.292949038063957 0 -0.35107281268474688 0.27454783326818583 0 -0.34619721898575673 0.29670821841870648 0 -0.33367870911193909 0.28144072161159023 0 -0.34619721898575673 0.29670821841870648 0 -0.33367870911193909 0.28144072161159023 0 -0.31797085211688259 0.292949038063957 0 -0.34619721898575673 0.29670821841870648 0 -0.32168109827693853 0.30731265830395321 0 -0.3314125044919905 0.32216533789406238 0 -0.34619721898575673 0.29670821841870648 0 -0.32168109827693853 0.30731265830395321 0 -0.31797085211688259 0.292949038063957 0 -0.32168109827693853 0.30731265830395321 0 -0.31797085211688259 0.292949038063957 0 -0.3011496114392227 0.2950174139238988 0 -0.33367870911193909 0.28144072161159023 0 -0.31797085211688259 0.292949038063957 0 -0.31810075773717728 0.27933864407700021 0 -0.31810075773717728 0.27933864407700021 0 -0.33505190403513202 0.26365987423010151 0 -0.3196373255909466 0.26253062260580501 0 -0.31810075773717728 0.27933864407700021 0 -0.3196373255909466 0.26253062260580501 0 -0.30617387036730209 0.26785214765938908 0 -0.31810075773717728 0.27933864407700021 0 -0.33505190403513202 0.26365987423010151 0 -0.35107281268474688 0.27454783326818583 0 -0.33367870911193909 0.28144072161159023 0 -0.33505190403513202 0.26365987423010151 0 -0.33367870911193909 0.28144072161159023 0 -0.31810075773717728 0.27933864407700021 0 -0.33505190403513202 0.26365987423010151 0 -0.35200305033308649 0.24798110438320281 0 -0.3400038048171003 0.24323895028343789 0 -0.33505190403513202 0.26365987423010151 0 -0.35200305033308649 0.24798110438320281 0 -0.33505190403513202 0.26365987423010151 0 -0.3267633280155251 0.2494088704731543 0 -0.3400038048171003 0.24323895028343789 0 -0.33505190403513202 0.26365987423010151 0 -0.3267633280155251 0.2494088704731543 0 -0.33505190403513202 0.26365987423010151 0 -0.3196373255909466 0.26253062260580501 0 -0.3196373255909466 0.26253062260580501 0 -0.31209676779959611 0.25239357658938011 0 -0.30617387036730209 0.26785214765938908 0 -0.3267633280155251 0.2494088704731543 0 -0.3196373255909466 0.26253062260580501 0 -0.31209676779959611 0.25239357658938011 0 -0.29980566951308901 0.25579292869099751 0 -0.30617387036730209 0.26785214765938908 0 -0.2894805168596935 0.26568900688923008 0 -0.30520153788055582 0.2422985888626252 0 -0.31209676779959611 0.25239357658938011 0 -0.29980566951308901 0.25579292869099751 0 -0.31209676779959611 0.25239357658938011 0 -0.29980566951308901 0.25579292869099751 0 -0.30617387036730209 0.26785214765938908 0 -0.30617387036730209 0.26785214765938908 0 -0.29531506414945807 0.28035321040656452 0 -0.2894805168596935 0.26568900688923008 0 -0.31810075773717728 0.27933864407700021 0 -0.30518482592328999 0.28064035401671311 0 -0.30617387036730209 0.26785214765938908 0 -0.30518482592328999 0.28064035401671311 0 -0.30617387036730209 0.26785214765938908 0 -0.29531506414945807 0.28035321040656452 0 -0.2894805168596935 0.26568900688923008 0 -0.28469463215298341 0.27835302425199537 0 -0.273041564498686 0.27380014410951953 0 -0.29531506414945807 0.28035321040656452 0 -0.2894805168596935 0.26568900688923008 0 -0.28469463215298341 0.27835302425199537 0 -0.29531506414945807 0.28035321040656452 0 -0.2894805168596935 0.26568900688923008 0 -0.29180530120122011 0.24392873090837741 0 -0.29980566951308901 0.25579292869099751 0 -0.2894805168596935 0.26568900688923008 0 -0.29180530120122011 0.24392873090837741 0 -0.27781512448029078 0.24810651147730409 0 -0.2894805168596935 0.26568900688923008 0 -0.27781512448029078 0.24810651147730409 0 -0.2894805168596935 0.26568900688923008 0 -0.26966917197111961 0.26001201485569481 0 -0.26354072882447921 0.24538755190392639 0 -0.27781512448029078 0.24810651147730409 0 -0.26966917197111961 0.26001201485569481 0 -0.2894805168596935 0.26568900688923008 0 -0.26966917197111961 0.26001201485569481 0 -0.273041564498686 0.27380014410951953 0 -0.28469463215298341 0.27835302425199537 0 -0.273041564498686 0.27380014410951953 0 -0.27696648266239549 0.28648532482807121 0 -0.273041564498686 0.27380014410951953 0 -0.26225111443501642 0.27733301289964929 0 -0.26478577153130939 0.28774739432144308 0 -0.26966917197111961 0.26001201485569481 0 -0.273041564498686 0.27380014410951953 0 -0.25906094748401742 0.2688084633229294 0 -0.273041564498686 0.27380014410951953 0 -0.25906094748401742 0.2688084633229294 0 -0.26225111443501642 0.27733301289964929 0 -0.25084926056489398 0.27553912373004269 0 -0.25455891020825938 0.28380749578214021 0 -0.24548592474856501 0.28124012243538721 0 -0.26225111443501642 0.27733301289964929 0 -0.25084926056489398 0.27553912373004269 0 -0.25455891020825938 0.28380749578214021 0 -0.25906094748401742 0.2688084633229294 0 -0.26225111443501642 0.27733301289964929 0 -0.25084926056489398 0.27553912373004269 0 -0.25906094748401742 0.2688084633229294 0 -0.25084926056489398 0.27553912373004269 0 -0.24603615490119859 0.26862527214806348 0 -0.25906094748401742 0.2688084633229294 0 -0.25257923020738038 0.25763813499818028 0 -0.24603615490119859 0.26862527214806348 0 -0.26966917197111961 0.26001201485569481 0 -0.25906094748401742 0.2688084633229294 0 -0.25257923020738038 0.25763813499818028 0 -0.26354072882447921 0.24538755190392639 0 -0.26966917197111961 0.26001201485569481 0 -0.25257923020738038 0.25763813499818028 0 -0.25705731881997151 0.303882841901433 0 -0.25592445292516991 0.29292036644724417 0 -0.26674363541774421 0.29828544898046699 0 -0.25705731881997151 0.303882841901433 0 -0.26674363541774421 0.29828544898046699 0 -0.26834787380683578 0.30988995754139842 0 -0.25705731881997151 0.303882841901433 0 -0.26834787380683578 0.30988995754139842 0 -0.25857095114348588 0.31576494193834331 0 -0.25705731881997151 0.303882841901433 0 -0.25857095114348588 0.31576494193834331 0 -0.24774855637122609 0.31247096124908358 0 -0.25705731881997151 0.303882841901433 0 -0.25592445292516991 0.29292036644724417 0 -0.24477370070157331 0.29872502431161968 0 -0.25592445292516991 0.29292036644724417 0 -0.25455891020825938 0.28380749578214021 0 -0.24819035903223541 0.28862087111825951 0 -0.25592445292516991 0.29292036644724417 0 -0.25455891020825938 0.28380749578214021 0 -0.26478577153130939 0.28774739432144308 0 -0.26225111443501642 0.27733301289964929 0 -0.25455891020825938 0.28380749578214021 0 -0.26478577153130939 0.28774739432144308 0 -0.25592445292516991 0.29292036644724417 0 -0.26478577153130939 0.28774739432144308 0 -0.26674363541774421 0.29828544898046699 0 -0.26478577153130939 0.28774739432144308 0 -0.27696648266239549 0.28648532482807121 0 -0.26674363541774421 0.29828544898046699 0 -0.273041564498686 0.27380014410951953 0 -0.26478577153130939 0.28774739432144308 0 -0.27696648266239549 0.28648532482807121 0 -0.27696648266239549 0.28648532482807121 0 -0.27804813828941932 0.30119313124284802 0 -0.28836177480804681 0.29042700733306798 0 -0.27696648266239549 0.28648532482807121 0 -0.27804813828941932 0.30119313124284802 0 -0.26674363541774421 0.29828544898046699 0 -0.27804813828941932 0.30119313124284802 0 -0.26674363541774421 0.29828544898046699 0 -0.26834787380683578 0.30988995754139842 0 -0.27804813828941932 0.30119313124284802 0 -0.26834787380683578 0.30988995754139842 0 -0.27771674494945048 0.31669137709360923 0 -0.28943317819433662 0.30585439550875398 0 -0.27771674494945048 0.31669137709360923 0 -0.27804813828941932 0.30119313124284802 0 -0.28943317819433662 0.30585439550875398 0 -0.27771674494945048 0.31669137709360923 0 -0.27804813828941932 0.30119313124284802 0 -0.28943317819433662 0.30585439550875398 0 -0.28836177480804681 0.29042700733306798 0 -0.28943317819433662 0.30585439550875398 0 -0.28836177480804681 0.29042700733306798 0 -0.3011496114392227 0.2950174139238988 0 -0.28943317819433662 0.30585439550875398 0 -0.3011496114392227 0.2950174139238988 0 -0.28469463215298341 0.27835302425199537 0 -0.27696648266239549 0.28648532482807121 0 -0.28836177480804681 0.29042700733306798 0 -0.29531506414945807 0.28035321040656452 0 -0.28469463215298341 0.27835302425199537 0 -0.28836177480804681 0.29042700733306798 0 -0.29531506414945807 0.28035321040656452 0 -0.28836177480804681 0.29042700733306798 0 -0.3011496114392227 0.2950174139238988 0 -0.31810075773717728 0.27933864407700021 0 -0.3011496114392227 0.2950174139238988 0 -0.31810075773717728 0.27933864407700021 0 -0.30518482592328999 0.28064035401671311 0 -0.3011496114392227 0.2950174139238988 0 -0.31797085211688259 0.292949038063957 0 -0.31810075773717728 0.27933864407700021 0 -0.3011496114392227 0.2950174139238988 0 -0.30518482592328999 0.28064035401671311 0 -0.29531506414945807 0.28035321040656452 0 -0.3011496114392227 0.2950174139238988 0 -0.29531506414945807 0.28035321040656452 0 -0.3011496114392227 0.2950174139238988 0 -0.28943317819433662 0.30585439550875398 0 -0.3011496114392227 0.2950174139238988 0 -0.30928284309405202 0.31545899376151021 0 -0.32168109827693853 0.30731265830395321 0 -0.3011496114392227 0.2950174139238988 0 -0.30928284309405202 0.31545899376151021 0 -0.3011496114392227 0.2950174139238988 0 -0.30928284309405202 0.31545899376151021 0 -0.28943317819433662 0.30585439550875398 0 -0.30928284309405202 0.31545899376151021 0 -0.29260023348610431 0.32492628759988029 0 -0.30928284309405202 0.31545899376151021 0 -0.30332410598515552 0.33273744890277629 0 -0.29260023348610431 0.32492628759988029 0 -0.30928284309405202 0.31545899376151021 0 -0.30332410598515552 0.33273744890277629 0 -0.31741607474888128 0.33590057359912151 0 -0.30332410598515552 0.33273744890277629 0 -0.30316181148430682 0.34550754576324721 0 -0.31741607474888128 0.33590057359912151 0 -0.30332410598515552 0.33273744890277629 0 -0.29029832352374069 0.34089957063859733 0 -0.30316181148430682 0.34550754576324721 0 -0.29029832352374069 0.34089957063859733 0 -0.29260023348610431 0.32492628759988029 0 -0.28065060327007257 0.33134669219790958 0 -0.30332410598515552 0.33273744890277629 0 -0.29029832352374069 0.34089957063859733 0 -0.29260023348610431 0.32492628759988029 0 -0.29029832352374069 0.34089957063859733 0 -0.28065060327007257 0.33134669219790958 0 -0.27615977430535121 0.34579062230926338 0 -0.28943317819433662 0.30585439550875398 0 -0.29260023348610431 0.32492628759988029 0 -0.27771674494945048 0.31669137709360923 0 -0.29260023348610431 0.32492628759988029 0 -0.27771674494945048 0.31669137709360923 0 -0.28065060327007257 0.33134669219790958 0 -0.26834787380683578 0.30988995754139842 0 -0.27771674494945048 0.31669137709360923 0 -0.26687432552673618 0.32803180598935289 0 -0.27771674494945048 0.31669137709360923 0 -0.26687432552673618 0.32803180598935289 0 -0.28065060327007257 0.33134669219790958 0 -0.26687432552673618 0.32803180598935289 0 -0.25777417062633362 0.34842798939835817 0 -0.27615977430535121 0.34579062230926338 0 -0.26687432552673618 0.32803180598935289 0 -0.28065060327007257 0.33134669219790958 0 -0.27615977430535121 0.34579062230926338 0 -0.26687432552673618 0.32803180598935289 0 -0.25777417062633362 0.34842798939835817 0 -0.2485373689950319 0.32901900577308818 0 -0.25857095114348588 0.31576494193834331 0 -0.2485373689950319 0.32901900577308818 0 -0.24774855637122609 0.31247096124908358 0 -0.26834787380683578 0.30988995754139842 0 -0.26687432552673618 0.32803180598935289 0 -0.25857095114348588 0.31576494193834331 0 -0.26687432552673618 0.32803180598935289 0 -0.25857095114348588 0.31576494193834331 0 -0.2485373689950319 0.32901900577308818 0 -0.27238936479276649 0.37043818988510302 0 -0.25844982028472518 0.38181124341727452 0 -0.2440065014856532 0.36331774964568819 0 -0.27238936479276649 0.37043818988510302 0 -0.2440065014856532 0.36331774964568819 0 -0.25777417062633362 0.34842798939835817 0 -0.27238936479276649 0.37043818988510302 0 -0.2440065014856532 0.36331774964568819 0 -0.25777417062633362 0.34842798939835817 0 -0.27615977430535121 0.34579062230926338 0 -0.27238936479276649 0.37043818988510302 0 -0.27615977430535121 0.34579062230926338 0 -0.27238936479276649 0.37043818988510302 0 -0.29072100403231982 0.35787760303337762 0 -0.27238936479276649 0.37043818988510302 0 -0.30077222809987969 0.37755863012451779 0 -0.27238936479276649 0.37043818988510302 0 -0.29072100403231982 0.35787760303337762 0 -0.30077222809987969 0.37755863012451779 0 -0.29029832352374069 0.34089957063859733 0 -0.27615977430535121 0.34579062230926338 0 -0.29072100403231982 0.35787760303337762 0 -0.29029832352374069 0.34089957063859733 0 -0.29072100403231982 0.35787760303337762 0 -0.30316181148430682 0.34550754576324721 0 -0.30316181148430682 0.34550754576324721 0 -0.3068070725573504 0.3637296209988925 0 -0.31667532153163802 0.35987565163216828 0 -0.29072100403231982 0.35787760303337762 0 -0.30316181148430682 0.34550754576324721 0 -0.3068070725573504 0.3637296209988925 0 -0.3068070725573504 0.3637296209988925 0 -0.31973560547202229 0.37098868954857461 0 -0.30077222809987969 0.37755863012451779 0 -0.29072100403231982 0.35787760303337762 0 -0.3068070725573504 0.3637296209988925 0 -0.30077222809987969 0.37755863012451779 0 -0.3068070725573504 0.3637296209988925 0 -0.31973560547202229 0.37098868954857461 0 -0.31667532153163802 0.35987565163216828 0 -0.31973560547202229 0.37098868954857461 0 -0.31667532153163802 0.35987565163216828 0 -0.32812281174079971 0.36281024841339438 0 -0.31667532153163802 0.35987565163216828 0 -0.32812281174079971 0.36281024841339438 0 -0.32554930640371071 0.35634215343673281 0 -0.32812281174079971 0.36281024841339438 0 -0.32554930640371071 0.35634215343673281 0 -0.31973560547202229 0.37098868954857461 0 -0.32812281174079971 0.36281024841339438 0 -0.33382460562483968 0.3747517554652503 0 -0.32812281174079971 0.36281024841339438 0 -0.32554930640371071 0.35634215343673281 0 -0.34866259210922429 0.36752801338068591 0 -0.32554930640371071 0.35634215343673281 0 -0.34866259210922429 0.36752801338068591 0 -0.32812281174079971 0.36281024841339438 0 -0.33382460562483968 0.3747517554652503 0 -0.34866259210922429 0.36752801338068591 0 -0.34128055726682249 0.35330911203634058 0 -0.32554930640371071 0.35634215343673281 0 -0.34866259210922429 0.36752801338068591 0 -0.34128055726682249 0.35330911203634058 0 -0.33430547252882548 0.34860932035271458 0 -0.32554930640371071 0.35634215343673281 0 -0.34128055726682249 0.35330911203634058 0 -0.33430547252882548 0.34860932035271458 0 -0.34293112040157431 0.33849823143111257 0 -0.33430547252882548 0.34860932035271458 0 -0.32554930640371071 0.35634215343673281 0 -0.33002003335824809 0.3422246783420208 0 -0.30316181148430682 0.34550754576324721 0 -0.32554930640371071 0.35634215343673281 0 -0.32554930640371071 0.35634215343673281 0 -0.31741607474888128 0.33590057359912151 0 -0.33002003335824809 0.3422246783420208 0 -0.32554930640371071 0.35634215343673281 0 -0.31741607474888128 0.33590057359912151 0 -0.30316181148430682 0.34550754576324721 0 -0.31667532153163802 0.35987565163216828 0 -0.32554930640371071 0.35634215343673281 0 -0.30316181148430682 0.34550754576324721 0 -0.32554930640371071 0.35634215343673281 0 -0.31741607474888128 0.33590057359912151 0 -0.31741607474888128 0.33590057359912151 0 -0.3314125044919905 0.32216533789406238 0 -0.33002003335824809 0.3422246783420208 0 -0.30928284309405202 0.31545899376151021 0 -0.31741607474888128 0.33590057359912151 0 -0.32168109827693853 0.30731265830395321 0 -0.30928284309405202 0.31545899376151021 0 -0.3314125044919905 0.32216533789406238 0 -0.30928284309405202 0.31545899376151021 0 -0.31741607474888128 0.33590057359912151 0 -0.3314125044919905 0.32216533789406238 0 -0.3314125044919905 0.32216533789406238 0 -0.34293112040157431 0.33849823143111257 0 -0.35340270419361408 0.32251786223124479 0 -0.34619721898575673 0.29670821841870648 0 -0.3314125044919905 0.32216533789406238 0 -0.35340270419361408 0.32251786223124479 0 -0.3314125044919905 0.32216533789406238 0 -0.33002003335824809 0.3422246783420208 0 -0.34293112040157431 0.33849823143111257 0 -0.33430547252882548 0.34860932035271458 0 -0.33002003335824809 0.3422246783420208 0 -0.34293112040157431 0.33849823143111257 0 -0.34293112040157431 0.33849823143111257 0 -0.35340270419361408 0.32251786223124479 0 -0.36036713219963051 0.33783472537246051 0 -0.34293112040157431 0.33849823143111257 0 -0.36036713219963051 0.33783472537246051 0 -0.35233652925498948 0.34743770938815871 0 -0.36567807973193073 0.31226451215857398 0 -0.35340270419361408 0.32251786223124479 0 -0.37220658782909222 0.32748563399356539 0 -0.3821603017965598 0.31414344737589728 0 -0.36567807973193073 0.31226451215857398 0 -0.37220658782909222 0.32748563399356539 0 -0.37548247059367013 0.34566898945323182 0 -0.37220658782909222 0.32748563399356539 0 -0.36036713219963051 0.33783472537246051 0 -0.35340270419361408 0.32251786223124479 0 -0.37220658782909222 0.32748563399356539 0 -0.36036713219963051 0.33783472537246051 0 -0.37548247059367013 0.34566898945323182 0 -0.36036713219963051 0.33783472537246051 0 -0.36084344180266398 0.35662140823810118 0 -0.37615722083071829 0.36393922079551871 0 -0.37548247059367013 0.34566898945323182 0 -0.36084344180266398 0.35662140823810118 0 -0.37615722083071829 0.36393922079551871 0 -0.36084344180266398 0.35662140823810118 0 -0.34866259210922429 0.36752801338068591 0 -0.37177587781473781 0.37871387332463918 0 -0.36084344180266398 0.35662140823810118 0 -0.34866259210922429 0.36752801338068591 0 -0.37177587781473781 0.37871387332463918 0 -0.37615722083071829 0.36393922079551871 0 -0.36084344180266398 0.35662140823810118 0 -0.37177587781473781 0.37871387332463918 0 -0.36084344180266398 0.35662140823810118 0 -0.34866259210922429 0.36752801338068591 0 -0.35233652925498948 0.34743770938815871 0 -0.36036713219963051 0.33783472537246051 0 -0.36084344180266398 0.35662140823810118 0 -0.35233652925498948 0.34743770938815871 0 -0.34128055726682249 0.35330911203634058 0 -0.34866259210922429 0.36752801338068591 0 -0.35233652925498948 0.34743770938815871 0 -0.34128055726682249 0.35330911203634058 0 -0.34293112040157431 0.33849823143111257 0 -0.35233652925498948 0.34743770938815871 0 -0.34536424899766482 0.39915050757270731 0 -0.35659231524459822 0.38867569175817002 0 -0.34048776599451602 0.38611491714539642 0 -0.35889223768044459 0.40557551514499829 0 -0.34536424899766482 0.39915050757270731 0 -0.35659231524459822 0.38867569175817002 0 -0.35889223768044459 0.40557551514499829 0 -0.34536424899766482 0.39915050757270731 0 -0.34552265204560378 0.41170635957697482 0 -0.34866259210922429 0.36752801338068591 0 -0.35659231524459822 0.38867569175817002 0 -0.37177587781473781 0.37871387332463918 0 -0.34866259210922429 0.36752801338068591 0 -0.35659231524459822 0.38867569175817002 0 -0.34048776599451602 0.38611491714539642 0 -0.37507799860857127 0.39639931032264542 0 -0.35659231524459822 0.38867569175817002 0 -0.37177587781473781 0.37871387332463918 0 -0.37507799860857127 0.39639931032264542 0 -0.35889223768044459 0.40557551514499829 0 -0.37214138384484341 0.41517920980772771 0 -0.37507799860857127 0.39639931032264542 0 -0.35889223768044459 0.40557551514499829 0 -0.35659231524459822 0.38867569175817002 0 -0.35889223768044459 0.40557551514499829 0 -0.37214138384484341 0.41517920980772771 0 -0.35758939249955252 0.42674476474380568 0 -0.37779160222069741 0.43320272545326038 0 -0.37214138384484341 0.41517920980772771 0 -0.35758939249955252 0.42674476474380568 0 -0.37779160222069741 0.43320272545326038 0 -0.35758939249955252 0.42674476474380568 0 -0.36422751622644373 0.45243171753259231 0 -0.35758939249955252 0.42674476474380568 0 -0.3364396384665812 0.42515654609172993 0 -0.34355153434938618 0.44840862785182711 0 -0.35889223768044459 0.40557551514499829 0 -0.35758939249955252 0.42674476474380568 0 -0.34552265204560378 0.41170635957697482 0 -0.35758939249955252 0.42674476474380568 0 -0.34552265204560378 0.41170635957697482 0 -0.3364396384665812 0.42515654609172993 0 -0.34552265204560378 0.41170635957697482 0 -0.3364396384665812 0.42515654609172993 0 -0.32932774258377628 0.40190446433163268 0 -0.3364396384665812 0.42515654609172993 0 -0.32932774258377628 0.40190446433163268 0 -0.3364396384665812 0.42515654609172993 0 -0.34355153434938618 0.44840862785182711 0 -0.3364396384665812 0.42515654609172993 0 -0.31352654436946981 0.42540502851012418 0 -0.32529196011464462 0.44531950803203951 0 -0.31352654436946981 0.42540502851012418 0 -0.32932774258377628 0.40190446433163268 0 -0.30650872110596489 0.40362396813261681 0 -0.3364396384665812 0.42515654609172993 0 -0.31352654436946981 0.42540502851012418 0 -0.32932774258377628 0.40190446433163268 0 -0.31721352963201782 0.39341232359812961 0 -0.32932774258377628 0.40190446433163268 0 -0.32915509140699312 0.38467907036393262 0 -0.31721352963201782 0.39341232359812961 0 -0.32932774258377628 0.40190446433163268 0 -0.30650872110596489 0.40362396813261681 0 -0.34536424899766482 0.39915050757270731 0 -0.32932774258377628 0.40190446433163268 0 -0.34048776599451602 0.38611491714539642 0 -0.34536424899766482 0.39915050757270731 0 -0.34552265204560378 0.41170635957697482 0 -0.32932774258377628 0.40190446433163268 0 -0.32932774258377628 0.40190446433163268 0 -0.34048776599451602 0.38611491714539642 0 -0.32915509140699312 0.38467907036393262 0 -0.33382460562483968 0.3747517554652503 0 -0.34866259210922429 0.36752801338068591 0 -0.34048776599451602 0.38611491714539642 0 -0.33382460562483968 0.3747517554652503 0 -0.34048776599451602 0.38611491714539642 0 -0.32915509140699312 0.38467907036393262 0 -0.31721352963201782 0.39341232359812961 0 -0.32915509140699312 0.38467907036393262 0 -0.30077222809987969 0.37755863012451779 0 -0.31973560547202229 0.37098868954857461 0 -0.32915509140699312 0.38467907036393262 0 -0.30077222809987969 0.37755863012451779 0 -0.32915509140699312 0.38467907036393262 0 -0.30077222809987969 0.37755863012451779 0 -0.31973560547202229 0.37098868954857461 0 -0.33382460562483968 0.3747517554652503 0 -0.32915509140699312 0.38467907036393262 0 -0.30077222809987969 0.37755863012451779 0 -0.30650872110596489 0.40362396813261681 0 -0.28809927320174039 0.39319384743381153 0 -0.31721352963201782 0.39341232359812961 0 -0.30077222809987969 0.37755863012451779 0 -0.30650872110596489 0.40362396813261681 0 -0.28809927320174039 0.39319384743381153 0 -0.27242251211459928 0.39672923713561342 0 -0.2884035398954915 0.41761921189120621 0 -0.30650872110596489 0.40362396813261681 0 -0.28809927320174039 0.39319384743381153 0 -0.2884035398954915 0.41761921189120621 0 -0.27238936479276649 0.37043818988510302 0 -0.30077222809987969 0.37755863012451779 0 -0.28809927320174039 0.39319384743381153 0 -0.27238936479276649 0.37043818988510302 0 -0.28809927320174039 0.39319384743381153 0 -0.27242251211459928 0.39672923713561342 0 -0.27238936479276649 0.37043818988510302 0 -0.27242251211459928 0.39672923713561342 0 -0.25844982028472518 0.38181124341727452 0 -0.27242251211459928 0.39672923713561342 0 -0.26210816937478182 0.41820040325516011 0 -0.2449809027458818 0.3967597970026932 0 -0.27242251211459928 0.39672923713561342 0 -0.25844982028472518 0.38181124341727452 0 -0.2449809027458818 0.3967597970026932 0 -0.26210816937478182 0.41820040325516011 0 -0.25179382663496419 0.43967156937470658 0 -0.26210816937478182 0.41820040325516011 0 -0.27832076141073042 0.441617152115935 0 -0.25179382663496419 0.43967156937470658 0 -0.26210816937478182 0.41820040325516011 0 -0.25179382663496419 0.43967156937470658 0 -0.2404198952242706 0.4189646767397886 0 -0.27242251211459928 0.39672923713561342 0 -0.26210816937478182 0.41820040325516011 0 -0.27242251211459928 0.39672923713561342 0 -0.26210816937478182 0.41820040325516011 0 -0.2884035398954915 0.41761921189120621 0 -0.26210816937478182 0.41820040325516011 0 -0.2884035398954915 0.41761921189120621 0 -0.27832076141073042 0.441617152115935 0 -0.2959631477633643 0.43421763669394081 0 -0.2884035398954915 0.41761921189120621 0 -0.27832076141073042 0.441617152115935 0 -0.31352654436946981 0.42540502851012418 0 -0.30650872110596489 0.40362396813261681 0 -0.2884035398954915 0.41761921189120621 0 -0.31352654436946981 0.42540502851012418 0 -0.2959631477633643 0.43421763669394081 0 -0.30360174537776552 0.45222915425849802 0 -0.31352654436946981 0.42540502851012418 0 -0.2959631477633643 0.43421763669394081 0 -0.2884035398954915 0.41761921189120621 0 -0.31352654436946981 0.42540502851012418 0 -0.30360174537776552 0.45222915425849802 0 -0.30360174537776552 0.45222915425849802 0 -0.29367694638606112 0.47905328000687147 0 -0.30527741300985711 0.47253984076528999 0 -0.30360174537776552 0.45222915425849802 0 -0.30527741300985711 0.47253984076528999 0 -0.31889707145207652 0.46689988405125488 0 -0.30360174537776552 0.45222915425849802 0 -0.29367694638606112 0.47905328000687147 0 -0.30360174537776552 0.45222915425849802 0 -0.28339541487562819 0.46067182378750959 0 -0.29367694638606112 0.47905328000687147 0 -0.2959631477633643 0.43421763669394081 0 -0.30360174537776552 0.45222915425849802 0 -0.27832076141073042 0.441617152115935 0 -0.30360174537776552 0.45222915425849802 0 -0.28339541487562819 0.46067182378750959 0 -0.27832076141073042 0.441617152115935 0 -0.28339541487562819 0.46067182378750959 0 -0.27832076141073042 0.441617152115935 0 -0.2578934703623712 0.45581471383221678 0 -0.28339541487562819 0.46067182378750959 0 -0.2578934703623712 0.45581471383221678 0 -0.26757821514060409 0.47009800775056149 0 -0.26757821514060409 0.47009800775056149 0 -0.2414794838951464 0.46114273549425311 0 -0.2578934703623712 0.45581471383221678 0 -0.26757821514060409 0.47009800775056149 0 -0.2414794838951464 0.46114273549425311 0 -0.2578934703623712 0.45581471383221678 0 -0.25179382663496419 0.43967156937470658 0 -0.2414794838951464 0.46114273549425311 0 -0.27832076141073042 0.441617152115935 0 -0.2578934703623712 0.45581471383221678 0 -0.25179382663496419 0.43967156937470658 0 -0.26488890232370421 0.5 0 -0.25182033177461682 0.48195888606611309 0 -0.27540783095170163 0.48587411571598849 0 -0.26488890232370421 0.5 0 -0.25182033177461682 0.48195888606611309 0 -0.2438510450677096 0.5 0 -0.25182033177461682 0.48195888606611309 0 -0.26757821514060409 0.47009800775056149 0 -0.27540783095170163 0.48587411571598849 0 -0.25182033177461682 0.48195888606611309 0 -0.26757821514060409 0.47009800775056149 0 -0.2414794838951464 0.46114273549425311 0 -0.26757821514060409 0.47009800775056149 0 -0.27540783095170163 0.48587411571598849 0 -0.29367694638606112 0.47905328000687147 0 -0.26757821514060409 0.47009800775056149 0 -0.29367694638606112 0.47905328000687147 0 -0.26488890232370421 0.5 0 -0.27540783095170163 0.48587411571598849 0 -0.28592675957969882 0.49999999999999678 0 -0.28592675957969882 0.49999999999999678 0 -0.29367694638606112 0.47905328000687147 0 -0.27540783095170163 0.48587411571598849 0 -0.28592675957969882 0.49999999999999678 0 -0.29367694638606112 0.47905328000687147 0 -0.28592675957969882 0.49999999999999678 0 -0.29783799970600372 0.48048106456094292 0 -0.30359488456344852 0.48995862843247268 0 -0.28592675957969882 0.49999999999999678 0 -0.29367694638606112 0.47905328000687147 0 -0.29783799970600372 0.48048106456094292 0 -0.28339541487562819 0.46067182378750959 0 -0.26757821514060409 0.47009800775056149 0 -0.29367694638606112 0.47905328000687147 0 -0.29367694638606112 0.47905328000687147 0 -0.29783799970600372 0.48048106456094292 0 -0.31237330212737879 0.48403582094888198 0 -0.30527741300985711 0.47253984076528999 0 -0.31889707145207652 0.46689988405125488 0 -0.29367694638606112 0.47905328000687147 0 -0.29783799970600372 0.48048106456094292 0 -0.30527741300985711 0.47253984076528999 0 -0.29783799970600372 0.48048106456094292 0 -0.31237330212737879 0.48403582094888198 0 -0.30527741300985711 0.47253984076528999 0 -0.28592675957969882 0.49999999999999678 0 -0.30829986035973828 0.5 0 -0.30359488456344852 0.48995862843247268 0 -0.31237330212737879 0.48403582094888198 0 -0.30829986035973828 0.5 0 -0.30359488456344852 0.48995862843247268 0 -0.29783799970600372 0.48048106456094292 0 -0.31237330212737879 0.48403582094888198 0 -0.30359488456344852 0.48995862843247268 0 -0.30829986035973828 0.5 0 -0.32624193169920029 0.48605898849795731 0 -0.33067296113977779 0.50000000000000477 0 -0.31237330212737879 0.48403582094888198 0 -0.30829986035973828 0.5 0 -0.32624193169920029 0.48605898849795731 0 -0.33067296113977779 0.50000000000000477 0 -0.34066819568598511 0.4858303548059652 0 -0.34778200413530791 0.4904337478956603 0 -0.33067296113977779 0.50000000000000477 0 -0.35108517388470162 0.49999999999999939 0 -0.34778200413530791 0.4904337478956603 0 -0.33067296113977779 0.50000000000000477 0 -0.34066819568598511 0.4858303548059652 0 -0.32624193169920029 0.48605898849795731 0 -0.33067296113977779 0.50000000000000477 0 -0.34066819568598511 0.4858303548059652 0 -0.34066819568598511 0.4858303548059652 0 -0.33433829905076889 0.46748135815412462 0 -0.35066343023219038 0.47166070961192441 0 -0.32624193169920029 0.48605898849795731 0 -0.34066819568598511 0.4858303548059652 0 -0.33433829905076889 0.46748135815412462 0 -0.32624193169920029 0.48605898849795731 0 -0.31889707145207652 0.46689988405125488 0 -0.33433829905076889 0.46748135815412462 0 -0.31237330212737879 0.48403582094888198 0 -0.32624193169920029 0.48605898849795731 0 -0.31889707145207652 0.46689988405125488 0 -0.31889707145207652 0.46689988405125488 0 -0.32529196011464462 0.44531950803203951 0 -0.33433829905076889 0.46748135815412462 0 -0.30360174537776552 0.45222915425849802 0 -0.31889707145207652 0.46689988405125488 0 -0.32529196011464462 0.44531950803203951 0 -0.31352654436946981 0.42540502851012418 0 -0.30360174537776552 0.45222915425849802 0 -0.32529196011464462 0.44531950803203951 0 -0.3364396384665812 0.42515654609172993 0 -0.32529196011464462 0.44531950803203951 0 -0.34355153434938618 0.44840862785182711 0 -0.34355153434938618 0.44840862785182711 0 -0.33433829905076889 0.46748135815412462 0 -0.35066343023219038 0.47166070961192441 0 -0.32529196011464462 0.44531950803203951 0 -0.34355153434938618 0.44840862785182711 0 -0.33433829905076889 0.46748135815412462 0 -0.34355153434938618 0.44840862785182711 0 -0.35066343023219038 0.47166070961192441 0 -0.34355153434938618 0.44840862785182711 0 -0.36422751622644373 0.45243171753259231 0 -0.35066343023219038 0.47166070961192441 0 -0.36422751622644373 0.45243171753259231 0 -0.35066343023219038 0.47166070961192441 0 -0.35758939249955252 0.42674476474380568 0 -0.34355153434938618 0.44840862785182711 0 -0.36422751622644373 0.45243171753259231 0 -0.37779160222069741 0.43320272545326038 0 -0.36422751622644373 0.45243171753259231 0 -0.38242288203257258 0.45254494495704201 0 -0.37779160222069741 0.43320272545326038 0 -0.36422751622644373 0.45243171753259231 0 -0.38242288203257258 0.45254494495704201 0 -0.36355802548146321 0.46635799362034469 0 -0.37353060703143659 0.47610155563631412 0 -0.38242288203257258 0.45254494495704201 0 -0.36422751622644373 0.45243171753259231 0 -0.36355802548146321 0.46635799362034469 0 -0.36422751622644373 0.45243171753259231 0 -0.36355802548146321 0.46635799362034469 0 -0.35066343023219038 0.47166070961192441 0 -0.36355802548146321 0.46635799362034469 0 -0.37353060703143659 0.47610155563631412 0 -0.36250339512108171 0.47987336791950241 0 -0.37353060703143659 0.47610155563631412 0 -0.36250339512108171 0.47987336791950241 0 -0.36860155832491659 0.48840959379154408 0 -0.37376788422967472 0.49779215139851468 0 -0.35108517388470162 0.49999999999999939 0 -0.37376788422967472 0.49779215139851468 0 -0.35789813210347721 0.49531430103018398 0 -0.35108517388470162 0.49999999999999939 0 -0.36860155832491659 0.48840959379154408 0 -0.37376788422967472 0.49779215139851468 0 -0.35789813210347721 0.49531430103018398 0 -0.37344650163139131 0.5 0 -0.37376788422967472 0.49779215139851468 0 -0.35108517388470162 0.49999999999999939 0 -0.36250339512108171 0.47987336791950241 0 -0.36860155832491659 0.48840959379154408 0 -0.35789813210347721 0.49531430103018398 0 -0.35789813210347721 0.49531430103018398 0 -0.34778200413530791 0.4904337478956603 0 -0.35066343023219038 0.47166070961192441 0 -0.35789813210347721 0.49531430103018398 0 -0.35108517388470162 0.49999999999999939 0 -0.34778200413530791 0.4904337478956603 0 -0.34066819568598511 0.4858303548059652 0 -0.34778200413530791 0.4904337478956603 0 -0.35066343023219038 0.47166070961192441 0 -0.36250339512108171 0.47987336791950241 0 -0.35789813210347721 0.49531430103018398 0 -0.35066343023219038 0.47166070961192441 0 -0.35789813210347721 0.49531430103018398 0 -0.35066343023219038 0.47166070961192441 0 -0.34066819568598511 0.4858303548059652 0 -0.35066343023219038 0.47166070961192441 0 -0.36355802548146321 0.46635799362034469 0 -0.36250339512108171 0.47987336791950241 0 -0.35066343023219038 0.47166070961192441 0 -0.15517784583979119 0.47529118707050511 0 -0.139612291483281 0.5 0 -0.13015655865920669 0.4780688103618666 0 -0.15517784583979119 0.47529118707050511 0 -0.139612291483281 0.5 0 -0.16904275576984629 0.50000000000000078 0 -0.139612291483281 0.5 0 -0.13015655865920669 0.4780688103618666 0 -0.110181827196716 0.5 0 -0.13015655865920669 0.4780688103618666 0 -0.14131293590973651 0.45058237414100938 0 -0.11673128464360349 0.4619290511919879 0 -0.14131293590973651 0.45058237414100938 0 -0.136154547479757 0.43213679339407779 0 -0.11630365497777639 0.44073313696193112 0 -0.14131293590973651 0.45058237414100938 0 -0.16928836901759009 0.44474877101152333 0 -0.1532719631472563 0.42354362743779661 0 -0.15517784583979119 0.47529118707050511 0 -0.13015655865920669 0.4780688103618666 0 -0.14131293590973651 0.45058237414100938 0 -0.15517784583979119 0.47529118707050511 0 -0.14131293590973651 0.45058237414100938 0 -0.16774438992723559 0.46256617837524272 0 -0.15517784583979119 0.47529118707050511 0 -0.14131293590973651 0.45058237414100938 0 -0.14131293590973651 0.45058237414100938 0 -0.16774438992723559 0.46256617837524272 0 -0.16928836901759009 0.44474877101152333 0 -0.16928836901759009 0.44474877101152333 0 -0.1853047748879241 0.46595391458524998 0 -0.1877115279586552 0.44557085914333672 0 -0.16928836901759009 0.44474877101152333 0 -0.1877115279586552 0.44557085914333672 0 -0.17426826451826241 0.42918064759879271 0 -0.16774438992723559 0.46256617837524272 0 -0.1853047748879241 0.46595391458524998 0 -0.17265522968566799 0.47476830373319878 0 -0.16774438992723559 0.46256617837524272 0 -0.16928836901759009 0.44474877101152333 0 -0.1853047748879241 0.46595391458524998 0 -0.16928836901759009 0.44474877101152333 0 -0.1853047748879241 0.46595391458524998 0 -0.1853047748879241 0.46595391458524998 0 -0.1877115279586552 0.44557085914333672 0 -0.1853047748879241 0.46595391458524998 0 -0.1832947592440034 0.48297695729262607 0 -0.1853047748879241 0.46595391458524998 0 -0.1832947592440034 0.48297695729262607 0 -0.17265522968566799 0.47476830373319878 0 -0.1832947592440034 0.48297695729262607 0 -0.17265522968566799 0.47476830373319878 0 -0.17175437852938541 0.48705328134237008 0 -0.15517784583979119 0.47529118707050511 0 -0.16774438992723559 0.46256617837524272 0 -0.17265522968566799 0.47476830373319878 0 -0.15517784583979119 0.47529118707050511 0 -0.17265522968566799 0.47476830373319878 0 -0.17175437852938541 0.48705328134237008 0 -0.15517784583979119 0.47529118707050511 0 -0.16904275576984629 0.50000000000000078 0 -0.15517784583979119 0.47529118707050511 0 -0.17175437852938541 0.48705328134237008 0 -0.16904275576984629 0.50000000000000078 0 -0.1832947592440034 0.48297695729262607 0 -0.18128474360008209 0.50000000000000222 0 -0.19407925512699781 0.49050556598577288 0 -0.1832947592440034 0.48297695729262607 0 -0.17175437852938541 0.48705328134237008 0 -0.18128474360008209 0.50000000000000222 0 -0.17175437852938541 0.48705328134237008 0 -0.16904275576984629 0.50000000000000078 0 -0.18128474360008209 0.50000000000000222 0 -0.1832947592440034 0.48297695729262607 0 -0.18128474360008209 0.50000000000000222 0 -0.18128474360008209 0.50000000000000222 0 -0.19407925512699781 0.49050556598577288 0 -0.2020489657058985 0.5 0 -0.1832947592440034 0.48297695729262607 0 -0.19407925512699781 0.49050556598577288 0 -0.1967602001711761 0.48112048440097882 0 -0.19407925512699781 0.49050556598577288 0 -0.1967602001711761 0.48112048440097882 0 -0.2066487575508939 0.48899349990282759 0 -0.19407925512699781 0.49050556598577288 0 -0.2020489657058985 0.5 0 -0.2066487575508939 0.48899349990282759 0 -0.1853047748879241 0.46595391458524998 0 -0.1967602001711761 0.48112048440097882 0 -0.20730633546513871 0.46629644304986512 0 -0.1853047748879241 0.46595391458524998 0 -0.1832947592440034 0.48297695729262607 0 -0.1967602001711761 0.48112048440097882 0 -0.1853047748879241 0.46595391458524998 0 -0.1967602001711761 0.48112048440097882 0 -0.1967602001711761 0.48112048440097882 0 -0.21441301249388819 0.47825178286857822 0 -0.2066487575508939 0.48899349990282759 0 -0.1967602001711761 0.48112048440097882 0 -0.21441301249388819 0.47825178286857822 0 -0.20730633546513871 0.46629644304986512 0 -0.21441301249388819 0.47825178286857822 0 -0.22438254427904061 0.46825649892778182 0 -0.20730633546513871 0.46629644304986512 0 -0.21441301249388819 0.47825178286857822 0 -0.2066487575508939 0.48899349990282759 0 -0.222813187811715 0.49999999999999928 0 -0.2020489657058985 0.5 0 -0.2066487575508939 0.48899349990282759 0 -0.222813187811715 0.49999999999999928 0 -0.21441301249388819 0.47825178286857822 0 -0.222813187811715 0.49999999999999928 0 -0.2321463358534307 0.48057136774712622 0 -0.222813187811715 0.49999999999999928 0 -0.2321463358534307 0.48057136774712622 0 -0.222813187811715 0.49999999999999928 0 -0.2321463358534307 0.48057136774712622 0 -0.2438510450677096 0.5 0 -0.2321463358534307 0.48057136774712622 0 -0.2414794838951464 0.46114273549425311 0 -0.22438254427904061 0.46825649892778182 0 -0.21441301249388819 0.47825178286857822 0 -0.2321463358534307 0.48057136774712622 0 -0.22438254427904061 0.46825649892778182 0 -0.25182033177461682 0.48195888606611309 0 -0.2321463358534307 0.48057136774712622 0 -0.2414794838951464 0.46114273549425311 0 -0.2321463358534307 0.48057136774712622 0 -0.2414794838951464 0.46114273549425311 0 -0.25182033177461682 0.48195888606611309 0 -0.2321463358534307 0.48057136774712622 0 -0.2438510450677096 0.5 0 -0.25179382663496419 0.43967156937470658 0 -0.2414794838951464 0.46114273549425311 0 -0.23176935224183259 0.43803779814678712 0 -0.25179382663496419 0.43967156937470658 0 -0.2414794838951464 0.46114273549425311 0 -0.2414794838951464 0.46114273549425311 0 -0.2215973837730616 0.45432057935394088 0 -0.2414794838951464 0.46114273549425311 0 -0.22438254427904061 0.46825649892778182 0 -0.2215973837730616 0.45432057935394088 0 -0.2215973837730616 0.45432057935394088 0 -0.23176935224183259 0.43803779814678712 0 -0.20810016164715089 0.43704049752838769 0 -0.2414794838951464 0.46114273549425311 0 -0.2215973837730616 0.45432057935394088 0 -0.23176935224183259 0.43803779814678712 0 -0.2215973837730616 0.45432057935394088 0 -0.20152709579243641 0.4518722304262911 0 -0.20810016164715089 0.43704049752838769 0 -0.22438254427904061 0.46825649892778182 0 -0.2215973837730616 0.45432057935394088 0 -0.20730633546513871 0.46629644304986512 0 -0.2215973837730616 0.45432057935394088 0 -0.20730633546513871 0.46629644304986512 0 -0.20152709579243641 0.4518722304262911 0 -0.1853047748879241 0.46595391458524998 0 -0.20152709579243641 0.4518722304262911 0 -0.1877115279586552 0.44557085914333672 0 -0.1853047748879241 0.46595391458524998 0 -0.20730633546513871 0.46629644304986512 0 -0.20152709579243641 0.4518722304262911 0 -0.20152709579243641 0.4518722304262911 0 -0.1877115279586552 0.44557085914333672 0 -0.20810016164715089 0.43704049752838769 0 -0.1877115279586552 0.44557085914333672 0 -0.19011828102938591 0.42518780370142339 0 -0.19011828102938591 0.42518780370142339 0 -0.20450990724222901 0.41727224069881103 0 -0.20810016164715089 0.43704049752838769 0 -0.1877115279586552 0.44557085914333672 0 -0.19011828102938591 0.42518780370142339 0 -0.20810016164715089 0.43704049752838769 0 -0.19011828102938591 0.42518780370142339 0 -0.19252503410011659 0.40480474825951013 0 -0.20450990724222901 0.41727224069881103 0 -0.20746650187988011 0.39872687175342147 0 -0.19252503410011659 0.40480474825951013 0 -0.19011828102938591 0.42518780370142339 0 -0.20450990724222901 0.41727224069881103 0 -0.19252503410011659 0.40480474825951013 0 -0.20450990724222901 0.41727224069881103 0 -0.22332908430962531 0.41897926863956853 0 -0.20746650187988011 0.39872687175342147 0 -0.20450990724222901 0.41727224069881103 0 -0.20810016164715089 0.43704049752838769 0 -0.22332908430962531 0.41897926863956853 0 -0.23176935224183259 0.43803779814678712 0 -0.20810016164715089 0.43704049752838769 0 -0.22332908430962531 0.41897926863956853 0 -0.23176935224183259 0.43803779814678712 0 -0.22332908430962531 0.41897926863956853 0 -0.2404198952242706 0.4189646767397886 0 -0.22332908430962531 0.41897926863956853 0 -0.22823995632626171 0.40251878547146652 0 -0.20746650187988011 0.39872687175342147 0 -0.22332908430962531 0.41897926863956853 0 -0.2404198952242706 0.4189646767397886 0 -0.22823995632626171 0.40251878547146652 0 -0.26210816937478182 0.41820040325516011 0 -0.2404198952242706 0.4189646767397886 0 -0.2449809027458818 0.3967597970026932 0 -0.25179382663496419 0.43967156937470658 0 -0.23176935224183259 0.43803779814678712 0 -0.2404198952242706 0.4189646767397886 0 -0.25844982028472518 0.38181124341727452 0 -0.2449809027458818 0.3967597970026932 0 -0.2440065014856532 0.36331774964568819 0 -0.2449809027458818 0.3967597970026932 0 -0.2224041423806023 0.38247308908024658 0 -0.2440065014856532 0.36331774964568819 0 -0.2404198952242706 0.4189646767397886 0 -0.2449809027458818 0.3967597970026932 0 -0.22823995632626171 0.40251878547146652 0 -0.2449809027458818 0.3967597970026932 0 -0.22823995632626171 0.40251878547146652 0 -0.2224041423806023 0.38247308908024658 0 -0.22823995632626171 0.40251878547146652 0 -0.2224041423806023 0.38247308908024658 0 -0.20746650187988011 0.39872687175342147 0 -0.2224041423806023 0.38247308908024658 0 -0.20746650187988011 0.39872687175342147 0 -0.19779225729228431 0.37443324191038541 0 -0.20746650187988011 0.39872687175342147 0 -0.19252503410011659 0.40480474825951013 0 -0.18316705179576581 0.39098628966561239 0 -0.20746650187988011 0.39872687175342147 0 -0.18316705179576581 0.39098628966561239 0 -0.19779225729228431 0.37443324191038541 0 -0.18316705179576581 0.39098628966561239 0 -0.16819373170437951 0.36400578027634339 0 -0.19779225729228431 0.37443324191038541 0 -0.1599165183465347 0.39472604049030963 0 -0.18316705179576581 0.39098628966561239 0 -0.16819373170437951 0.36400578027634339 0 -0.1599165183465347 0.39472604049030963 0 -0.14436998741437879 0.37646259621519051 0 -0.16819373170437951 0.36400578027634339 0 -0.19252503410011659 0.40480474825951013 0 -0.18316705179576581 0.39098628966561239 0 -0.17544759180892541 0.41129783427715971 0 -0.1599165183465347 0.39472604049030963 0 -0.18316705179576581 0.39098628966561239 0 -0.17544759180892541 0.41129783427715971 0 -0.19011828102938591 0.42518780370142339 0 -0.19252503410011659 0.40480474825951013 0 -0.17544759180892541 0.41129783427715971 0 -0.19011828102938591 0.42518780370142339 0 -0.17544759180892541 0.41129783427715971 0 -0.17426826451826241 0.42918064759879271 0 -0.1877115279586552 0.44557085914333672 0 -0.19011828102938591 0.42518780370142339 0 -0.17426826451826241 0.42918064759879271 0 -0.16928836901759009 0.44474877101152333 0 -0.1532719631472563 0.42354362743779661 0 -0.16928836901759009 0.44474877101152333 0 -0.17426826451826241 0.42918064759879271 0 -0.1532719631472563 0.42354362743779661 0 -0.17544759180892541 0.41129783427715971 0 -0.17426826451826241 0.42918064759879271 0 -0.1532719631472563 0.42354362743779661 0 -0.1599165183465347 0.39472604049030963 0 -0.17544759180892541 0.41129783427715971 0 -0.1532719631472563 0.42354362743779661 0 -0.1532719631472563 0.42354362743779661 0 -0.13725555727692271 0.40233848386407001 0 -0.1599165183465347 0.39472604049030963 0 -0.1532719631472563 0.42354362743779661 0 -0.13725555727692271 0.40233848386407001 0 -0.1532719631472563 0.42354362743779661 0 -0.136154547479757 0.43213679339407779 0 -0.13725555727692271 0.40233848386407001 0 -0.14131293590973651 0.45058237414100938 0 -0.1532719631472563 0.42354362743779661 0 -0.136154547479757 0.43213679339407779 0 -0.136154547479757 0.43213679339407779 0 -0.13725555727692271 0.40233848386407001 0 -0.1207052058837723 0.42203240288538668 0 -0.13725555727692271 0.40233848386407001 0 -0.11944612630545511 0.4043507344003337 0 -0.1207052058837723 0.42203240288538668 0 -0.13725555727692271 0.40233848386407001 0 -0.121239151406589 0.38113334029034329 0 -0.11944612630545511 0.4043507344003337 0 -0.13725555727692271 0.40233848386407001 0 -0.121239151406589 0.38113334029034329 0 -0.13725555727692271 0.40233848386407001 0 -0.14436998741437879 0.37646259621519051 0 -0.121239151406589 0.38113334029034329 0 -0.1599165183465347 0.39472604049030963 0 -0.13725555727692271 0.40233848386407001 0 -0.14436998741437879 0.37646259621519051 0 -0.14597349529807979 0.35608634497464481 0 -0.1323013287181643 0.34403137597403299 0 -0.15356825444230601 0.33682480838969359 0 -0.14597349529807979 0.35608634497464481 0 -0.15356825444230601 0.33682480838969359 0 -0.16819373170437951 0.36400578027634339 0 -0.14436998741437879 0.37646259621519051 0 -0.14597349529807979 0.35608634497464481 0 -0.1323311231041589 0.3633750541390382 0 -0.14436998741437879 0.37646259621519051 0 -0.14597349529807979 0.35608634497464481 0 -0.16819373170437951 0.36400578027634339 0 -0.14436998741437879 0.37646259621519051 0 -0.1323311231041589 0.3633750541390382 0 -0.121239151406589 0.38113334029034329 0 -0.14597349529807979 0.35608634497464481 0 -0.1323311231041589 0.3633750541390382 0 -0.1323013287181643 0.34403137597403299 0 -0.1323311231041589 0.3633750541390382 0 -0.1323013287181643 0.34403137597403299 0 -0.1183890274270839 0.35311756333554378 0 -0.1323013287181643 0.34403137597403299 0 -0.1376218612571147 0.32573523813916361 0 -0.1156653315218583 0.33741190757365158 0 -0.1376218612571147 0.32573523813916361 0 -0.1156653315218583 0.33741190757365158 0 -0.12783069573512201 0.31263743683065709 0 -0.1376218612571147 0.32573523813916361 0 -0.1156653315218583 0.33741190757365158 0 -0.12783069573512201 0.31263743683065709 0 -0.1376218612571147 0.32573523813916361 0 -0.14379006456009799 0.30893449176334831 0 -0.1376218612571147 0.32573523813916361 0 -0.15957839099237131 0.3140585687046758 0 -0.1376218612571147 0.32573523813916361 0 -0.15356825444230601 0.33682480838969359 0 -0.15957839099237131 0.3140585687046758 0 -0.1376218612571147 0.32573523813916361 0 -0.15957839099237131 0.3140585687046758 0 -0.14379006456009799 0.30893449176334831 0 -0.1323013287181643 0.34403137597403299 0 -0.1376218612571147 0.32573523813916361 0 -0.15356825444230601 0.33682480838969359 0 -0.15356825444230601 0.33682480838969359 0 -0.15957839099237131 0.3140585687046758 0 -0.1745974265585887 0.33744440175905149 0 -0.15957839099237131 0.3140585687046758 0 -0.18579029560446031 0.32221805547439181 0 -0.17804630032327681 0.30971044128643771 0 -0.15957839099237131 0.3140585687046758 0 -0.18579029560446031 0.32221805547439181 0 -0.1745974265585887 0.33744440175905149 0 -0.18579029560446031 0.32221805547439181 0 -0.1745974265585887 0.33744440175905149 0 -0.19625958073832639 0.33536561468647702 0 -0.1745974265585887 0.33744440175905149 0 -0.1904933268944238 0.3534892696077061 0 -0.19625958073832639 0.33536561468647702 0 -0.1745974265585887 0.33744440175905149 0 -0.16819373170437951 0.36400578027634339 0 -0.1904933268944238 0.3534892696077061 0 -0.15356825444230601 0.33682480838969359 0 -0.1745974265585887 0.33744440175905149 0 -0.16819373170437951 0.36400578027634339 0 -0.16819373170437951 0.36400578027634339 0 -0.19779225729228431 0.37443324191038541 0 -0.1904933268944238 0.3534892696077061 0 -0.19779225729228431 0.37443324191038541 0 -0.1904933268944238 0.3534892696077061 0 -0.21562363817853999 0.35619730940627342 0 -0.1904933268944238 0.3534892696077061 0 -0.21562363817853999 0.35619730940627342 0 -0.19625958073832639 0.33536561468647702 0 -0.2224041423806023 0.38247308908024658 0 -0.19779225729228431 0.37443324191038541 0 -0.21562363817853999 0.35619730940627342 0 -0.21562363817853999 0.35619730940627342 0 -0.2440065014856532 0.36331774964568819 0 -0.2224041423806023 0.38247308908024658 0 -0.21562363817853999 0.35619730940627342 0 -0.2440065014856532 0.36331774964568819 0 -0.21562363817853999 0.35619730940627342 0 -0.23893317046288859 0.34653711660726721 0 -0.2440065014856532 0.36331774964568819 0 -0.21562363817853999 0.35619730940627342 0 -0.23893317046288859 0.34653711660726721 0 -0.22988275044989209 0.33230273361581342 0 -0.25777417062633362 0.34842798939835817 0 -0.23893317046288859 0.34653711660726721 0 -0.2440065014856532 0.36331774964568819 0 -0.23806201549967401 0.31953482533287753 0 -0.2485373689950319 0.32901900577308818 0 -0.24774855637122609 0.31247096124908358 0 -0.23806201549967401 0.31953482533287753 0 -0.2485373689950319 0.32901900577308818 0 -0.22988275044989209 0.33230273361581342 0 -0.23806201549967401 0.31953482533287753 0 -0.24774855637122609 0.31247096124908358 0 -0.2376670889215631 0.30836436770431558 0 -0.23893317046288859 0.34653711660726721 0 -0.2485373689950319 0.32901900577308818 0 -0.22988275044989209 0.33230273361581342 0 -0.25777417062633362 0.34842798939835817 0 -0.23893317046288859 0.34653711660726721 0 -0.2485373689950319 0.32901900577308818 0 -0.21562363817853999 0.35619730940627342 0 -0.22988275044989209 0.33230273361581342 0 -0.21367505459390779 0.32870573581718598 0 -0.22988275044989209 0.33230273361581342 0 -0.22472202958213361 0.31588026974708749 0 -0.21367505459390779 0.32870573581718598 0 -0.23806201549967401 0.31953482533287753 0 -0.22988275044989209 0.33230273361581342 0 -0.22472202958213361 0.31588026974708749 0 -0.23806201549967401 0.31953482533287753 0 -0.22472202958213361 0.31588026974708749 0 -0.2376670889215631 0.30836436770431558 0 -0.22472202958213361 0.31588026974708749 0 -0.21334584067066101 0.31653993764160071 0 -0.21250059512839181 0.30592023713096828 0 -0.21367505459390779 0.32870573581718598 0 -0.19625958073832639 0.33536561468647702 0 -0.20176782888669839 0.31644028636370342 0 -0.22472202958213361 0.31588026974708749 0 -0.21334584067066101 0.31653993764160071 0 -0.21367505459390779 0.32870573581718598 0 -0.21334584067066101 0.31653993764160071 0 -0.21367505459390779 0.32870573581718598 0 -0.20176782888669839 0.31644028636370342 0 -0.21334584067066101 0.31653993764160071 0 -0.20176782888669839 0.31644028636370342 0 -0.21250059512839181 0.30592023713096828 0 -0.21562363817853999 0.35619730940627342 0 -0.21367505459390779 0.32870573581718598 0 -0.19625958073832639 0.33536561468647702 0 -0.18579029560446031 0.32221805547439181 0 -0.19625958073832639 0.33536561468647702 0 -0.20176782888669839 0.31644028636370342 0 -0.18579029560446031 0.32221805547439181 0 -0.20176782888669839 0.31644028636370342 0 -0.19092760420736521 0.3038424578919231 0 -0.19092760420736521 0.3038424578919231 0 -0.191533784065303 0.29446990957140168 0 -0.18530137964275201 0.29418339443031971 0 -0.19092760420736521 0.3038424578919231 0 -0.191533784065303 0.29446990957140168 0 -0.19701687649144919 0.29670311069543798 0 -0.19092760420736521 0.3038424578919231 0 -0.20228012367334811 0.30305903841104298 0 -0.19701687649144919 0.29670311069543798 0 -0.20228012367334811 0.30305903841104298 0 -0.19701687649144919 0.29670311069543798 0 -0.20336262455792989 0.29655989706690911 0 -0.20176782888669839 0.31644028636370342 0 -0.19092760420736521 0.3038424578919231 0 -0.20228012367334811 0.30305903841104298 0 -0.20095227075689459 0.29020318344184548 0 -0.20944350295996991 0.28906511333917329 0 -0.18487417816120741 0.28266292292887463 0 -0.1887960790273901 0.28243369947682812 0 -0.20944350295996991 0.28906511333917329 0 -0.19712723263697821 0.27850574146839802 0 -0.1887960790273901 0.28243369947682812 0 -0.20944350295996991 0.28906511333917329 0 -0.18487417816120741 0.28266292292887463 0 -0.20944350295996991 0.28906511333917329 0 -0.18487417816120741 0.28266292292887463 0 -0.19022647322483049 0.28939184776905102 0 -0.20095227075689459 0.29020318344184548 0 -0.18487417816120741 0.28266292292887463 0 -0.19490301098224261 0.29195240893757829 0 -0.19022647322483049 0.28939184776905102 0 -0.191533784065303 0.29446990957140168 0 -0.19022647322483049 0.28939184776905102 0 -0.191533784065303 0.29446990957140168 0 -0.18530137964275201 0.29418339443031971 0 -0.19490301098224261 0.29195240893757829 0 -0.191533784065303 0.29446990957140168 0 -0.19701687649144919 0.29670311069543798 0 -0.19490301098224261 0.29195240893757829 0 -0.19022647322483049 0.28939184776905102 0 -0.20095227075689459 0.29020318344184548 0 -0.19701687649144919 0.29670311069543798 0 -0.20095227075689459 0.29020318344184548 0 -0.20336262455792989 0.29655989706690911 0 -0.19490301098224261 0.29195240893757829 0 -0.19701687649144919 0.29670311069543798 0 -0.20095227075689459 0.29020318344184548 0 -0.20944350295996991 0.28906511333917329 0 -0.21158510114987611 0.29213524914570699 0 -0.20137226155428889 0.26923558365080291 0 -0.20095227075689459 0.29020318344184548 0 -0.20944350295996991 0.28906511333917329 0 -0.20703424461841721 0.29323655077298699 0 -0.20944350295996991 0.28906511333917329 0 -0.20703424461841721 0.29323655077298699 0 -0.21158510114987611 0.29213524914570699 0 -0.20336262455792989 0.29655989706690911 0 -0.20703424461841721 0.29323655077298699 0 -0.20878512335482979 0.29853234235417497 0 -0.20095227075689459 0.29020318344184548 0 -0.20336262455792989 0.29655989706690911 0 -0.20703424461841721 0.29323655077298699 0 -0.20703424461841721 0.29323655077298699 0 -0.21158510114987611 0.29213524914570699 0 -0.20878512335482979 0.29853234235417497 0 -0.21424115276987951 0.29683933726814199 0 -0.21798346661235091 0.29187475294369808 0 -0.21158510114987611 0.29213524914570699 0 -0.21424115276987951 0.29683933726814199 0 -0.21158510114987611 0.29213524914570699 0 -0.20878512335482979 0.29853234235417497 0 -0.21424115276987951 0.29683933726814199 0 -0.21798346661235091 0.29187475294369808 0 -0.2218798279543229 0.29769274093180292 0 -0.21798346661235091 0.29187475294369808 0 -0.21158510114987611 0.29213524914570699 0 -0.21570793922472939 0.2868596332772283 0 -0.21158510114987611 0.29213524914570699 0 -0.21570793922472939 0.2868596332772283 0 -0.21145470335869751 0.28114327316793303 0 -0.21798346661235091 0.29187475294369808 0 -0.21570793922472939 0.2868596332772283 0 -0.22055824352415651 0.28640311601351121 0 -0.21570793922472939 0.2868596332772283 0 -0.21697808485502351 0.28137588399550129 0 -0.22055824352415651 0.28640311601351121 0 -0.21570793922472939 0.2868596332772283 0 -0.21697808485502351 0.28137588399550129 0 -0.21145470335869751 0.28114327316793303 0 -0.20176782888669839 0.31644028636370342 0 -0.20228012367334811 0.30305903841104298 0 -0.21250059512839181 0.30592023713096828 0 -0.20228012367334811 0.30305903841104298 0 -0.20878512335482979 0.29853234235417497 0 -0.21250059512839181 0.30592023713096828 0 -0.20228012367334811 0.30305903841104298 0 -0.20336262455792989 0.29655989706690911 0 -0.20878512335482979 0.29853234235417497 0 -0.21424115276987951 0.29683933726814199 0 -0.20878512335482979 0.29853234235417497 0 -0.21250059512839181 0.30592023713096828 0 -0.21424115276987951 0.29683933726814199 0 -0.21250059512839181 0.30592023713096828 0 -0.2218798279543229 0.29769274093180292 0 -0.22472202958213361 0.31588026974708749 0 -0.21250059512839181 0.30592023713096828 0 -0.22607333057189841 0.30501231333478068 0 -0.22472202958213361 0.31588026974708749 0 -0.22607333057189841 0.30501231333478068 0 -0.2376670889215631 0.30836436770431558 0 -0.22607333057189841 0.30501231333478068 0 -0.23412303052158301 0.30124259158137728 0 -0.2376670889215631 0.30836436770431558 0 -0.22607333057189841 0.30501231333478068 0 -0.23412303052158301 0.30124259158137728 0 -0.2287497832350246 0.2966572098348158 0 -0.23412303052158301 0.30124259158137728 0 -0.2287497832350246 0.2966572098348158 0 -0.2354640194270867 0.2947810042450002 0 -0.22607333057189841 0.30501231333478068 0 -0.2218798279543229 0.29769274093180292 0 -0.2287497832350246 0.2966572098348158 0 -0.21250059512839181 0.30592023713096828 0 -0.22607333057189841 0.30501231333478068 0 -0.2218798279543229 0.29769274093180292 0 -0.21798346661235091 0.29187475294369808 0 -0.2218798279543229 0.29769274093180292 0 -0.22434523308374549 0.29130610315283112 0 -0.21798346661235091 0.29187475294369808 0 -0.22434523308374549 0.29130610315283112 0 -0.22055824352415651 0.28640311601351121 0 -0.2218798279543229 0.29769274093180292 0 -0.22434523308374549 0.29130610315283112 0 -0.2287497832350246 0.2966572098348158 0 -0.21697808485502351 0.28137588399550129 0 -0.22055824352415651 0.28640311601351121 0 -0.22266663122113439 0.28009127486528679 0 -0.22434523308374549 0.29130610315283112 0 -0.22055824352415651 0.28640311601351121 0 -0.22678283886804329 0.28479032720317998 0 -0.22055824352415651 0.28640311601351121 0 -0.22678283886804329 0.28479032720317998 0 -0.22266663122113439 0.28009127486528679 0 -0.22678283886804329 0.28479032720317998 0 -0.23061325785151091 0.28990850576310279 0 -0.23551679290007249 0.28325834895513291 0 -0.22678283886804329 0.28479032720317998 0 -0.23551679290007249 0.28325834895513291 0 -0.2298117013547874 0.2782093918694441 0 -0.22434523308374549 0.29130610315283112 0 -0.22678283886804329 0.28479032720317998 0 -0.23061325785151091 0.28990850576310279 0 -0.22434523308374549 0.29130610315283112 0 -0.2287497832350246 0.2966572098348158 0 -0.23061325785151091 0.28990850576310279 0 -0.2287497832350246 0.2966572098348158 0 -0.23061325785151091 0.28990850576310279 0 -0.2354640194270867 0.2947810042450002 0 -0.23061325785151091 0.28990850576310279 0 -0.24084196851083459 0.29041376954783898 0 -0.2354640194270867 0.2947810042450002 0 -0.24084196851083459 0.29041376954783898 0 -0.2354640194270867 0.2947810042450002 0 -0.24477370070157331 0.29872502431161968 0 -0.24084196851083459 0.29041376954783898 0 -0.23551679290007249 0.28325834895513291 0 -0.24548592474856501 0.28124012243538721 0 -0.23061325785151091 0.28990850576310279 0 -0.24084196851083459 0.29041376954783898 0 -0.23551679290007249 0.28325834895513291 0 -0.25455891020825938 0.28380749578214021 0 -0.24819035903223541 0.28862087111825951 0 -0.24548592474856501 0.28124012243538721 0 -0.24084196851083459 0.29041376954783898 0 -0.24819035903223541 0.28862087111825951 0 -0.24548592474856501 0.28124012243538721 0 -0.24084196851083459 0.29041376954783898 0 -0.24819035903223541 0.28862087111825951 0 -0.24477370070157331 0.29872502431161968 0 -0.25592445292516991 0.29292036644724417 0 -0.24819035903223541 0.28862087111825951 0 -0.24477370070157331 0.29872502431161968 0 -0.24477370070157331 0.29872502431161968 0 -0.24774855637122609 0.31247096124908358 0 -0.2376670889215631 0.30836436770431558 0 -0.25705731881997151 0.303882841901433 0 -0.24477370070157331 0.29872502431161968 0 -0.24774855637122609 0.31247096124908358 0 -0.23412303052158301 0.30124259158137728 0 -0.24477370070157331 0.29872502431161968 0 -0.2376670889215631 0.30836436770431558 0 -0.23412303052158301 0.30124259158137728 0 -0.2354640194270867 0.2947810042450002 0 -0.24477370070157331 0.29872502431161968 0 -0.24052537950939459 0.2610143691914123 0 -0.24603615490119859 0.26862527214806348 0 -0.23394947112981401 0.26627837420837208 0 -0.24052537950939459 0.2610143691914123 0 -0.23394947112981401 0.26627837420837208 0 -0.2316064077173309 0.25705022304627728 0 -0.24052537950939459 0.2610143691914123 0 -0.2396106915491982 0.25066135732940797 0 -0.2316064077173309 0.25705022304627728 0 -0.25257923020738038 0.25763813499818028 0 -0.24052537950939459 0.2610143691914123 0 -0.2396106915491982 0.25066135732940797 0 -0.25050177323748762 0.24551408611508191 0 -0.25257923020738038 0.25763813499818028 0 -0.2396106915491982 0.25066135732940797 0 -0.25257923020738038 0.25763813499818028 0 -0.24052537950939459 0.2610143691914123 0 -0.24603615490119859 0.26862527214806348 0 -0.25084926056489398 0.27553912373004269 0 -0.24603615490119859 0.26862527214806348 0 -0.23873932633258579 0.27507287082389342 0 -0.25084926056489398 0.27553912373004269 0 -0.24548592474856501 0.28124012243538721 0 -0.23873932633258579 0.27507287082389342 0 -0.23551679290007249 0.28325834895513291 0 -0.24548592474856501 0.28124012243538721 0 -0.23873932633258579 0.27507287082389342 0 -0.23551679290007249 0.28325834895513291 0 -0.23873932633258579 0.27507287082389342 0 -0.2298117013547874 0.2782093918694441 0 -0.24603615490119859 0.26862527214806348 0 -0.23873932633258579 0.27507287082389342 0 -0.23394947112981401 0.26627837420837208 0 -0.23873932633258579 0.27507287082389342 0 -0.23394947112981401 0.26627837420837208 0 -0.23011854977134591 0.27227150088487162 0 -0.23394947112981401 0.26627837420837208 0 -0.23011854977134591 0.27227150088487162 0 -0.22431305888200659 0.26782752726264569 0 -0.23873932633258579 0.27507287082389342 0 -0.23011854977134591 0.27227150088487162 0 -0.2298117013547874 0.2782093918694441 0 -0.23011854977134591 0.27227150088487162 0 -0.2298117013547874 0.2782093918694441 0 -0.22377919115753581 0.2739693402600028 0 -0.22678283886804329 0.28479032720317998 0 -0.2298117013547874 0.2782093918694441 0 -0.22266663122113439 0.28009127486528679 0 -0.2298117013547874 0.2782093918694441 0 -0.22266663122113439 0.28009127486528679 0 -0.22377919115753581 0.2739693402600028 0 -0.22266663122113439 0.28009127486528679 0 -0.22377919115753581 0.2739693402600028 0 -0.21786600322986691 0.27560687532580952 0 -0.21697808485502351 0.28137588399550129 0 -0.22266663122113439 0.28009127486528679 0 -0.21786600322986691 0.27560687532580952 0 -0.23011854977134591 0.27227150088487162 0 -0.22377919115753581 0.2739693402600028 0 -0.22431305888200659 0.26782752726264569 0 -0.22377919115753581 0.2739693402600028 0 -0.21786600322986691 0.27560687532580952 0 -0.21772288231625089 0.26952828830303333 0 -0.22377919115753581 0.2739693402600028 0 -0.22431305888200659 0.26782752726264569 0 -0.21772288231625089 0.26952828830303333 0 -0.22431305888200659 0.26782752726264569 0 -0.21806812305158149 0.26323456135000561 0 -0.21772288231625089 0.26952828830303333 0 -0.22624865788388401 0.26142912361763387 0 -0.21930779341585999 0.25700741905592422 0 -0.21806812305158149 0.26323456135000561 0 -0.22431305888200659 0.26782752726264569 0 -0.22624865788388401 0.26142912361763387 0 -0.21806812305158149 0.26323456135000561 0 -0.23394947112981401 0.26627837420837208 0 -0.22624865788388401 0.26142912361763387 0 -0.2316064077173309 0.25705022304627728 0 -0.23394947112981401 0.26627837420837208 0 -0.22431305888200659 0.26782752726264569 0 -0.22624865788388401 0.26142912361763387 0 -0.2396106915491982 0.25066135732940797 0 -0.2316064077173309 0.25705022304627728 0 -0.22739359172225859 0.24818293685744561 0 -0.2316064077173309 0.25705022304627728 0 -0.22479225491673571 0.254666712182747 0 -0.22739359172225859 0.24818293685744561 0 -0.22624865788388401 0.26142912361763387 0 -0.2316064077173309 0.25705022304627728 0 -0.22479225491673571 0.254666712182747 0 -0.22479225491673571 0.254666712182747 0 -0.21940482384434509 0.24966385833645399 0 -0.22739359172225859 0.24818293685744561 0 -0.22624865788388401 0.26142912361763387 0 -0.22479225491673571 0.254666712182747 0 -0.21930779341585999 0.25700741905592422 0 -0.22479225491673571 0.254666712182747 0 -0.21930779341585999 0.25700741905592422 0 -0.21940482384434509 0.24966385833645399 0 -0.21244052189671189 0.25875930436483718 0 -0.20137226155428889 0.26923558365080291 0 -0.21331778692939921 0.24314932897541189 0 -0.21244052189671189 0.25875930436483718 0 -0.21940482384434509 0.24966385833645399 0 -0.21331778692939921 0.24314932897541189 0 -0.20137226155428889 0.26923558365080291 0 -0.19775669793760531 0.26112861236013762 0 -0.21331778692939921 0.24314932897541189 0 -0.20137226155428889 0.26923558365080291 0 -0.21331778692939921 0.24314932897541189 0 -0.21930779341585999 0.25700741905592422 0 -0.21244052189671189 0.25875930436483718 0 -0.21940482384434509 0.24966385833645399 0 -0.21930779341585999 0.25700741905592422 0 -0.21806812305158149 0.26323456135000561 0 -0.21244052189671189 0.25875930436483718 0 -0.21244052189671189 0.25875930436483718 0 -0.21243881791948921 0.26654637803128378 0 -0.20859128724101281 0.26765590272892342 0 -0.21806812305158149 0.26323456135000561 0 -0.21244052189671189 0.25875930436483718 0 -0.21243881791948921 0.26654637803128378 0 -0.21244052189671189 0.25875930436483718 0 -0.20859128724101281 0.26765590272892342 0 -0.20137226155428889 0.26923558365080291 0 -0.21158510114987611 0.29213524914570699 0 -0.20137226155428889 0.26923558365080291 0 -0.21158510114987611 0.29213524914570699 0 -0.21145470335869751 0.28114327316793303 0 -0.20137226155428889 0.26923558365080291 0 -0.21420532809271489 0.27792619163008442 0 -0.21145470335869751 0.28114327316793303 0 -0.21052252092727161 0.27357873403109401 0 -0.21697808485502351 0.28137588399550129 0 -0.21420532809271489 0.27792619163008442 0 -0.21145470335869751 0.28114327316793303 0 -0.21697808485502351 0.28137588399550129 0 -0.21420532809271489 0.27792619163008442 0 -0.21786600322986691 0.27560687532580952 0 -0.21420532809271489 0.27792619163008442 0 -0.21786600322986691 0.27560687532580952 0 -0.21052252092727161 0.27357873403109401 0 -0.21772288231625089 0.26952828830303333 0 -0.21243881791948921 0.26654637803128378 0 -0.21052252092727161 0.27357873403109401 0 -0.21786600322986691 0.27560687532580952 0 -0.21772288231625089 0.26952828830303333 0 -0.21052252092727161 0.27357873403109401 0 -0.21806812305158149 0.26323456135000561 0 -0.21772288231625089 0.26952828830303333 0 -0.21243881791948921 0.26654637803128378 0 -0.20859128724101281 0.26765590272892342 0 -0.21052252092727161 0.27357873403109401 0 -0.20137226155428889 0.26923558365080291 0 -0.21243881791948921 0.26654637803128378 0 -0.20859128724101281 0.26765590272892342 0 -0.21052252092727161 0.27357873403109401 0 -0.21145470335869751 0.28114327316793303 0 -0.21052252092727161 0.27357873403109401 0 -0.20137226155428889 0.26923558365080291 0 -0.1887960790273901 0.28243369947682812 0 -0.19775669793760531 0.26112861236013762 0 -0.1887960790273901 0.28243369947682812 0 -0.19775669793760531 0.26112861236013762 0 -0.18615845139477269 0.27288694400446672 0 -0.1887960790273901 0.28243369947682812 0 -0.19712723263697821 0.27850574146839802 0 -0.19775669793760531 0.26112861236013762 0 -0.19712723263697821 0.27850574146839802 0 -0.20137226155428889 0.26923558365080291 0 -0.19775669793760531 0.26112861236013762 0 -0.20944350295996991 0.28906511333917329 0 -0.19712723263697821 0.27850574146839802 0 -0.20137226155428889 0.26923558365080291 0 -0.19712723263697821 0.27850574146839802 0 -0.20137226155428889 0.26923558365080291 0 -0.19775669793760531 0.26112861236013762 0 -0.18351202178540249 0.26534680528591981 0 -0.18615845139477269 0.27288694400446672 0 -0.19775669793760531 0.26112861236013762 0 -0.20678779971718619 0.2396559426593495 0 -0.19775669793760531 0.26112861236013762 0 -0.18864945953019849 0.2407079731089268 0 -0.19775669793760531 0.26112861236013762 0 -0.18441986170046809 0.2550348252524271 0 -0.18864945953019849 0.2407079731089268 0 -0.20137226155428889 0.26923558365080291 0 -0.19775669793760531 0.26112861236013762 0 -0.19775669793760531 0.26112861236013762 0 -0.18441986170046809 0.2550348252524271 0 -0.18351202178540249 0.26534680528591981 0 -0.18441986170046809 0.2550348252524271 0 -0.18351202178540249 0.26534680528591981 0 -0.17059496572804769 0.26236441336065508 0 -0.18441986170046809 0.2550348252524271 0 -0.17353428421445691 0.25007945563794148 0 -0.17059496572804769 0.26236441336065508 0 -0.17059496572804769 0.26236441336065508 0 -0.1613056348774605 0.25227308847041552 0 -0.1502617746655798 0.26445723805298832 0 -0.17353428421445691 0.25007945563794148 0 -0.17059496572804769 0.26236441336065508 0 -0.1613056348774605 0.25227308847041552 0 -0.17059496572804769 0.26236441336065508 0 -0.16030485336244479 0.27626073251857591 0 -0.17708889408637499 0.27190436361969839 0 -0.17059496572804769 0.26236441336065508 0 -0.16030485336244479 0.27626073251857591 0 -0.1502617746655798 0.26445723805298832 0 -0.16030485336244479 0.27626073251857591 0 -0.17708889408637499 0.27190436361969839 0 -0.18487417816120741 0.28266292292887463 0 -0.16030485336244479 0.27626073251857591 0 -0.18487417816120741 0.28266292292887463 0 -0.18351202178540249 0.26534680528591981 0 -0.17059496572804769 0.26236441336065508 0 -0.17708889408637499 0.27190436361969839 0 -0.18351202178540249 0.26534680528591981 0 -0.17708889408637499 0.27190436361969839 0 -0.18615845139477269 0.27288694400446672 0 -0.17708889408637499 0.27190436361969839 0 -0.18615845139477269 0.27288694400446672 0 -0.18487417816120741 0.28266292292887463 0 -0.1887960790273901 0.28243369947682812 0 -0.18615845139477269 0.27288694400446672 0 -0.18487417816120741 0.28266292292887463 0 -0.18487417816120741 0.28266292292887463 0 -0.18502871809069649 0.28906724768326492 0 -0.1797128413339962 0.29003082560481419 0 -0.19022647322483049 0.28939184776905102 0 -0.18487417816120741 0.28266292292887463 0 -0.18502871809069649 0.28906724768326492 0 -0.19022647322483049 0.28939184776905102 0 -0.18502871809069649 0.28906724768326492 0 -0.18530137964275201 0.29418339443031971 0 -0.18530137964275201 0.29418339443031971 0 -0.1797128413339962 0.29003082560481419 0 -0.17424877857011861 0.29949878283216169 0 -0.18502871809069649 0.28906724768326492 0 -0.18530137964275201 0.29418339443031971 0 -0.1797128413339962 0.29003082560481419 0 -0.1797128413339962 0.29003082560481419 0 -0.17424877857011861 0.29949878283216169 0 -0.17010967414763731 0.28897857592454118 0 -0.18487417816120741 0.28266292292887463 0 -0.1797128413339962 0.29003082560481419 0 -0.17010967414763731 0.28897857592454118 0 -0.19092760420736521 0.3038424578919231 0 -0.17804630032327681 0.30971044128643771 0 -0.17424877857011861 0.29949878283216169 0 -0.18579029560446031 0.32221805547439181 0 -0.19092760420736521 0.3038424578919231 0 -0.17804630032327681 0.30971044128643771 0 -0.19092760420736521 0.3038424578919231 0 -0.18530137964275201 0.29418339443031971 0 -0.17424877857011861 0.29949878283216169 0 -0.15957839099237131 0.3140585687046758 0 -0.17424877857011861 0.29949878283216169 0 -0.15606525934343191 0.29568721598242143 0 -0.15957839099237131 0.3140585687046758 0 -0.17804630032327681 0.30971044128643771 0 -0.17424877857011861 0.29949878283216169 0 -0.17424877857011861 0.29949878283216169 0 -0.17010967414763731 0.28897857592454118 0 -0.15606525934343191 0.29568721598242143 0 -0.16030485336244479 0.27626073251857591 0 -0.18487417816120741 0.28266292292887463 0 -0.17010967414763731 0.28897857592454118 0 -0.16030485336244479 0.27626073251857591 0 -0.17010967414763731 0.28897857592454118 0 -0.15606525934343191 0.29568721598242143 0 -0.16030485336244479 0.27626073251857591 0 -0.15606525934343191 0.29568721598242143 0 -0.14512346249927419 0.2841762486479113 0 -0.15606525934343191 0.29568721598242143 0 -0.14512346249927419 0.2841762486479113 0 -0.13785411547245019 0.29655399915982328 0 -0.15606525934343191 0.29568721598242143 0 -0.14379006456009799 0.30893449176334831 0 -0.13785411547245019 0.29655399915982328 0 -0.15957839099237131 0.3140585687046758 0 -0.15606525934343191 0.29568721598242143 0 -0.14379006456009799 0.30893449176334831 0 -0.12783069573512201 0.31263743683065709 0 -0.13785411547245019 0.29655399915982328 0 -0.1225655152064772 0.29536174971065138 0 -0.12783069573512201 0.31263743683065709 0 -0.14379006456009799 0.30893449176334831 0 -0.13785411547245019 0.29655399915982328 0 -0.14512346249927419 0.2841762486479113 0 -0.13785411547245019 0.29655399915982328 0 -0.13215177560754851 0.2833702513014022 0 -0.13785411547245019 0.29655399915982328 0 -0.13215177560754851 0.2833702513014022 0 -0.1225655152064772 0.29536174971065138 0 -0.13215177560754851 0.2833702513014022 0 -0.13573552856368229 0.2698585421082772 0 -0.11874124006771899 0.27695257632985432 0 -0.14512346249927419 0.2841762486479113 0 -0.13215177560754851 0.2833702513014022 0 -0.13573552856368229 0.2698585421082772 0 -0.13573552856368229 0.2698585421082772 0 -0.1362359193211902 0.25786472008419647 0 -0.1111662037649198 0.26345635169797799 0 -0.1362359193211902 0.25786472008419647 0 -0.1111662037649198 0.26345635169797799 0 -0.13080009209158369 0.248653511388887 0 -0.1362359193211902 0.25786472008419647 0 -0.13080009209158369 0.248653511388887 0 -0.14338006668299039 0.24504042612717239 0 -0.13573552856368229 0.2698585421082772 0 -0.1362359193211902 0.25786472008419647 0 -0.1502617746655798 0.26445723805298832 0 -0.1613056348774605 0.25227308847041552 0 -0.1362359193211902 0.25786472008419647 0 -0.14338006668299039 0.24504042612717239 0 -0.1613056348774605 0.25227308847041552 0 -0.1362359193211902 0.25786472008419647 0 -0.1502617746655798 0.26445723805298832 0 -0.1613056348774605 0.25227308847041552 0 -0.1362359193211902 0.25786472008419647 0 -0.16030485336244479 0.27626073251857591 0 -0.13573552856368229 0.2698585421082772 0 -0.16030485336244479 0.27626073251857591 0 -0.13573552856368229 0.2698585421082772 0 -0.1502617746655798 0.26445723805298832 0 -0.16030485336244479 0.27626073251857591 0 -0.14512346249927419 0.2841762486479113 0 -0.13573552856368229 0.2698585421082772 0 -0.1031499328341639 0.26524432706851969 0 -0.10732173239672919 0.28930018723689699 0 -0.1031499328341639 0.26524432706851969 0 -0.089380198692857474 0.28221592065552542 0 -0.090546797065082674 0.26805537182253469 0 -0.1031499328341639 0.26524432706851969 0 -0.10732173239672919 0.28930018723689699 0 -0.089380198692857474 0.28221592065552542 0 -0.1031499328341639 0.26524432706851969 0 -0.090546797065082674 0.26805537182253469 0 -0.1031499328341639 0.26524432706851969 0 -0.1039757561717843 0.26158268951948671 0 -0.090546797065082674 0.26805537182253469 0 -0.099675265414027159 0.26046208238378382 0 -0.1024457881875777 0.2611840157082696 0 -0.090546797065082674 0.26805537182253469 0 -0.1039757561717843 0.26158268951948671 0 -0.090546797065082674 0.26805537182253469 0 -0.099675265414027159 0.26046208238378382 0 -0.090546797065082674 0.26805537182253469 0 -0.092912968428200418 0.2616162693166767 0 -0.096997581049110673 0.25056214292982337 0 -0.1024457881875777 0.2611840157082696 0 -0.098854575557917962 0.24047599568994721 0 -0.10512199094870139 0.25442771655864621 0 -0.1024457881875777 0.2611840157082696 0 -0.098854575557917962 0.24047599568994721 0 -0.1024457881875777 0.2611840157082696 0 -0.1039757561717843 0.26158268951948671 0 -0.090546797065082674 0.26805537182253469 0 -0.1024457881875777 0.2611840157082696 0 -0.098854575557917962 0.24047599568994721 0 -0.099675265414027159 0.26046208238378382 0 -0.094527939497334512 0.2572456971312187 0 -0.092912968428200418 0.2616162693166767 0 -0.099675265414027159 0.26046208238378382 0 -0.1024457881875777 0.2611840157082696 0 -0.099675265414027159 0.26046208238378382 0 -0.096997581049110673 0.25056214292982337 0 -0.1024457881875777 0.2611840157082696 0 -0.099675265414027159 0.26046208238378382 0 -0.096997581049110673 0.25056214292982337 0 -0.094527939497334512 0.2572456971312187 0 -0.10512199094870139 0.25442771655864621 0 -0.1039757561717843 0.26158268951948671 0 -0.11834506109001321 0.24599273863695831 0 -0.1031499328341639 0.26524432706851969 0 -0.1111662037649198 0.26345635169797799 0 -0.1031499328341639 0.26524432706851969 0 -0.1039757561717843 0.26158268951948671 0 -0.1111662037649198 0.26345635169797799 0 -0.1031499328341639 0.26524432706851969 0 -0.1039757561717843 0.26158268951948671 0 -0.10512199094870139 0.25442771655864621 0 -0.1024457881875777 0.2611840157082696 0 -0.1039757561717843 0.26158268951948671 0 -0.1024457881875777 0.2611840157082696 0 -0.1039757561717843 0.26158268951948671 0 -0.1039757561717843 0.26158268951948671 0 -0.1111662037649198 0.26345635169797799 0 -0.1362359193211902 0.25786472008419647 0 -0.1111662037649198 0.26345635169797799 0 -0.1039757561717843 0.26158268951948671 0 -0.1111662037649198 0.26345635169797799 0 -0.13080009209158369 0.248653511388887 0 -0.1039757561717843 0.26158268951948671 0 -0.13080009209158369 0.248653511388887 0 -0.11834506109001321 0.24599273863695831 0 -0.1039757561717843 0.26158268951948671 0 -0.13080009209158369 0.248653511388887 0 -0.13573552856368229 0.2698585421082772 0 -0.1111662037649198 0.26345635169797799 0 -0.13573552856368229 0.2698585421082772 0 -0.1111662037649198 0.26345635169797799 0 -0.11874124006771899 0.27695257632985432 0 -0.1031499328341639 0.26524432706851969 0 -0.11874124006771899 0.27695257632985432 0 -0.10732173239672919 0.28930018723689699 0 -0.1031499328341639 0.26524432706851969 0 -0.1111662037649198 0.26345635169797799 0 -0.11874124006771899 0.27695257632985432 0 -0.11874124006771899 0.27695257632985432 0 -0.1225655152064772 0.29536174971065138 0 -0.10732173239672919 0.28930018723689699 0 -0.13215177560754851 0.2833702513014022 0 -0.11874124006771899 0.27695257632985432 0 -0.1225655152064772 0.29536174971065138 0 -0.1225655152064772 0.29536174971065138 0 -0.10732173239672919 0.28930018723689699 0 -0.1114935319592943 0.31335604740527412 0 -0.12783069573512201 0.31263743683065709 0 -0.1225655152064772 0.29536174971065138 0 -0.1114935319592943 0.31335604740527412 0 -0.10732173239672919 0.28930018723689699 0 -0.1114935319592943 0.31335604740527412 0 -0.10732173239672919 0.28930018723689699 0 -0.087207646422621896 0.30502110079513622 0 -0.1114935319592943 0.31335604740527412 0 -0.10732173239672919 0.28930018723689699 0 -0.089380198692857474 0.28221592065552542 0 -0.087207646422621896 0.30502110079513622 0 -0.089380198692857474 0.28221592065552542 0 -0.087207646422621896 0.30502110079513622 0 -0.074720541158286163 0.28990420941986689 0 -0.089380198692857474 0.28221592065552542 0 -0.074720541158286163 0.28990420941986689 0 -0.075197489213216034 0.27545365135465583 0 -0.087207646422621896 0.30502110079513622 0 -0.065695083967295759 0.30334509093615619 0 -0.071541986573241942 0.32383825098553509 0 -0.087207646422621896 0.30502110079513622 0 -0.065695083967295759 0.30334509093615619 0 -0.074720541158286163 0.28990420941986689 0 -0.065695083967295759 0.30334509093615619 0 -0.059848181361349527 0.28285193088677729 0 -0.065695083967295759 0.30334509093615619 0 -0.074720541158286163 0.28990420941986689 0 -0.059848181361349527 0.28285193088677729 0 -0.074720541158286163 0.28990420941986689 0 -0.075197489213216034 0.27545365135465583 0 -0.059848181361349527 0.28285193088677729 0 -0.074131310030036743 0.27171673591159889 0 -0.057715822994990812 0.27537810000066298 0 -0.074131310030036743 0.27171673591159889 0 -0.075197489213216034 0.27545365135465583 0 -0.057715822994990812 0.27537810000066298 0 -0.075197489213216034 0.27545365135465583 0 -0.059848181361349527 0.28285193088677729 0 -0.074131310030036743 0.27171673591159889 0 -0.057715822994990812 0.27537810000066298 0 -0.060616251181317193 0.2719627555424578 0 -0.075197489213216034 0.27545365135465583 0 -0.057715822994990812 0.27537810000066298 0 -0.059848181361349527 0.28285193088677729 0 -0.062619631503327666 0.26608896902909251 0 -0.074131310030036743 0.27171673591159889 0 -0.070480227862774442 0.25928594411453398 0 -0.062619631503327666 0.26608896902909251 0 -0.074131310030036743 0.27171673591159889 0 -0.060616251181317193 0.2719627555424578 0 -0.074131310030036743 0.27171673591159889 0 -0.075197489213216034 0.27545365135465583 0 -0.090546797065082674 0.26805537182253469 0 -0.074131310030036743 0.27171673591159889 0 -0.090546797065082674 0.26805537182253469 0 -0.089380198692857474 0.28221592065552542 0 -0.075197489213216034 0.27545365135465583 0 -0.090546797065082674 0.26805537182253469 0 -0.074131310030036743 0.27171673591159889 0 -0.090546797065082674 0.26805537182253469 0 -0.080113149140100676 0.26147470447088472 0 -0.075197489213216034 0.27545365135465583 0 -0.090546797065082674 0.26805537182253469 0 -0.096997581049110673 0.25056214292982337 0 -0.094527939497334512 0.2572456971312187 0 -0.088525943097999799 0.2563422938945909 0 -0.096997581049110673 0.25056214292982337 0 -0.088525943097999799 0.2563422938945909 0 -0.085548685644658812 0.24483507948975389 0 -0.090546797065082674 0.26805537182253469 0 -0.088525943097999799 0.2563422938945909 0 -0.092912968428200418 0.2616162693166767 0 -0.094527939497334512 0.2572456971312187 0 -0.088525943097999799 0.2563422938945909 0 -0.092912968428200418 0.2616162693166767 0 -0.090546797065082674 0.26805537182253469 0 -0.088525943097999799 0.2563422938945909 0 -0.080113149140100676 0.26147470447088472 0 -0.088525943097999799 0.2563422938945909 0 -0.078764058213084659 0.25389215980425162 0 -0.085548685644658812 0.24483507948975389 0 -0.088525943097999799 0.2563422938945909 0 -0.080113149140100676 0.26147470447088472 0 -0.078764058213084659 0.25389215980425162 0 -0.078764058213084659 0.25389215980425162 0 -0.070480227862774442 0.25928594411453398 0 -0.069152285319889512 0.24752277705149431 0 -0.080113149140100676 0.26147470447088472 0 -0.078764058213084659 0.25389215980425162 0 -0.070480227862774442 0.25928594411453398 0 -0.074131310030036743 0.27171673591159889 0 -0.080113149140100676 0.26147470447088472 0 -0.070480227862774442 0.25928594411453398 0 -0.062619631503327666 0.26608896902909251 0 -0.070480227862774442 0.25928594411453398 0 -0.060434763959223647 0.25690627040163111 0 -0.070480227862774442 0.25928594411453398 0 -0.060434763959223647 0.25690627040163111 0 -0.069152285319889512 0.24752277705149431 0 -0.060434763959223647 0.25690627040163111 0 -0.05318270742792567 0.2558022541191326 0 -0.054470562174323903 0.24673916689566999 0 -0.060434763959223647 0.25690627040163111 0 -0.069152285319889512 0.24752277705149431 0 -0.054470562174323903 0.24673916689566999 0 -0.060434763959223647 0.25690627040163111 0 -0.054671790990108847 0.26470888943299659 0 -0.05318270742792567 0.2558022541191326 0 -0.062619631503327666 0.26608896902909251 0 -0.060434763959223647 0.25690627040163111 0 -0.054671790990108847 0.26470888943299659 0 -0.054671790990108847 0.26470888943299659 0 -0.05318270742792567 0.2558022541191326 0 -0.043153712588046289 0.25485468974623288 0 -0.05318270742792567 0.2558022541191326 0 -0.043153712588046289 0.25485468974623288 0 -0.054470562174323903 0.24673916689566999 0 -0.057715822994990812 0.27537810000066298 0 -0.051115041436680358 0.28142757980095512 0 -0.059848181361349527 0.28285193088677729 0 -0.057715822994990812 0.27537810000066298 0 -0.059848181361349527 0.28285193088677729 0 -0.062619631503327666 0.26608896902909251 0 -0.054671790990108847 0.26470888943299659 0 -0.056331619604013283 0.27052652241438091 0 -0.057715822994990812 0.27537810000066298 0 -0.056331619604013283 0.27052652241438091 0 -0.060616251181317193 0.2719627555424578 0 -0.056331619604013283 0.27052652241438091 0 -0.060616251181317193 0.2719627555424578 0 -0.057715822994990812 0.27537810000066298 0 -0.056331619604013283 0.27052652241438091 0 -0.062619631503327666 0.26608896902909251 0 -0.056331619604013283 0.27052652241438091 0 -0.060616251181317193 0.2719627555424578 0 -0.054671790990108847 0.26470888943299659 0 -0.056331619604013283 0.27052652241438091 0 -0.057715822994990812 0.27537810000066298 0 -0.042474778533213887 0.27877751256472749 0 -0.051115041436680358 0.28142757980095512 0 -0.057715822994990812 0.27537810000066298 0 -0.042474778533213887 0.27877751256472749 0 -0.057715822994990812 0.27537810000066298 0 -0.056331619604013283 0.27052652241438091 0 -0.042474778533213887 0.27877751256472749 0 -0.056331619604013283 0.27052652241438091 0 -0.042474778533213887 0.27877751256472749 0 -0.03618482061381513 0.27294398049441382 0 -0.056331619604013283 0.27052652241438091 0 -0.03618482061381513 0.27294398049441382 0 -0.029554652390754211 0.26155072911985489 0 -0.056331619604013283 0.27052652241438091 0 -0.029554652390754211 0.26155072911985489 0 -0.042474778533213887 0.27877751256472749 0 -0.027233734071436588 0.28217692512879028 0 -0.042474778533213887 0.27877751256472749 0 -0.03618482061381513 0.27294398049441382 0 -0.027233734071436588 0.28217692512879028 0 -0.054671790990108847 0.26470888943299659 0 -0.043153712588046289 0.25485468974623288 0 -0.029554652390754211 0.26155072911985489 0 -0.054671790990108847 0.26470888943299659 0 -0.056331619604013283 0.27052652241438091 0 -0.029554652390754211 0.26155072911985489 0 -0.043153712588046289 0.25485468974623288 0 -0.029554652390754211 0.26155072911985489 0 -0.025069253836144952 0.2467768617014772 0 -0.029554652390754211 0.26155072911985489 0 -0.0027776851774954509 0.25257493582532792 0 -0.029554652390754211 0.26155072911985489 0 -0.01498990822543088 0.27076473912097448 0 -0.0088148412448648007 0.26413653855390951 0 -0.029554652390754211 0.26155072911985489 0 -0.0027776851774954509 0.25257493582532792 0 -0.025069253836144952 0.2467768617014772 0 -0.03618482061381513 0.27294398049441382 0 -0.029554652390754211 0.26155072911985489 0 -0.02486135818488612 0.27302203014857451 0 -0.03618482061381513 0.27294398049441382 0 -0.02486135818488612 0.27302203014857451 0 -0.027233734071436588 0.28217692512879028 0 -0.02486135818488612 0.27302203014857451 0 -0.017808412091903279 0.27812111842739928 0 -0.01498990822543088 0.27076473912097448 0 -0.02486135818488612 0.27302203014857451 0 -0.017808412091903279 0.27812111842739928 0 -0.027233734071436588 0.28217692512879028 0 -0.029554652390754211 0.26155072911985489 0 -0.02486135818488612 0.27302203014857451 0 -0.01498990822543088 0.27076473912097448 0 -0.01498990822543088 0.27076473912097448 0 -0.003382447522311832 0.27165366474939667 0 -0.0088148412448648007 0.26413653855390951 0 -0.01498990822543088 0.27076473912097448 0 -0.0069493623912781624 0.2779832879997351 0 -0.003382447522311832 0.27165366474939667 0 -0.017808412091903279 0.27812111842739928 0 -0.01498990822543088 0.27076473912097448 0 -0.0069493623912781624 0.2779832879997351 0 -0.0069493623912781624 0.2779832879997351 0 -0.003382447522311832 0.27165366474939667 0 0.0053449175321244697 0.27715163150546163 0 -0.0069493623912781624 0.2779832879997351 0 -0.0022586230721503009 0.28774745583177708 0 0.0053449175321244697 0.27715163150546163 0 -0.003382447522311832 0.27165366474939667 0 -0.0088148412448648007 0.26413653855390951 0 0.0061393108742415709 0.26306138642428062 0 -0.0027776851774954509 0.25257493582532792 0 -0.0088148412448648007 0.26413653855390951 0 0.0061393108742415709 0.26306138642428062 0 -0.029554652390754211 0.26155072911985489 0 -0.0027776851774954509 0.25257493582532792 0 -0.0088148412448648007 0.26413653855390951 0 -0.016002210713581551 0.31418988905492201 0 0.0087662555695123632 0.30129232262918049 0 -0.0022586230721503009 0.28774745583177708 0 -0.021617972392508629 0.29818340709185598 0 -0.016002210713581551 0.31418988905492201 0 -0.016002210713581551 0.31418988905492201 0 0.0010950197022403111 0.31679193839657172 0 0.0087662555695123632 0.30129232262918049 0 -0.0022586230721503009 0.28774745583177708 0 -0.016002210713581551 0.31418988905492201 0 0.0087662555695123632 0.30129232262918049 0 -0.0022586230721503009 0.28774745583177708 0 -0.027233734071436588 0.28217692512879028 0 -0.017808412091903279 0.27812111842739928 0 -0.0069493623912781624 0.2779832879997351 0 -0.0022586230721503009 0.28774745583177708 0 -0.017808412091903279 0.27812111842739928 0 -0.0022586230721503009 0.28774745583177708 0 -0.027233734071436588 0.28217692512879028 0 -0.0022586230721503009 0.28774745583177708 0 -0.027233734071436588 0.28217692512879028 0 -0.021617972392508629 0.29818340709185598 0 -0.027233734071436588 0.28217692512879028 0 -0.021617972392508629 0.29818340709185598 0 -0.034020473619444581 0.29318263584457571 0 -0.027233734071436588 0.28217692512879028 0 -0.021617972392508629 0.29818340709185598 0 -0.021617972392508629 0.29818340709185598 0 -0.033988048693201323 0.30580409622698368 0 -0.034020473619444581 0.29318263584457571 0 -0.021617972392508629 0.29818340709185598 0 -0.025608613109969619 0.31038058566829713 0 -0.016002210713581551 0.31418988905492201 0 -0.021617972392508629 0.29818340709185598 0 -0.016002210713581551 0.31418988905492201 0 -0.021617972392508629 0.29818340709185598 0 -0.025608613109969619 0.31038058566829713 0 -0.033988048693201323 0.30580409622698368 0 -0.025608613109969619 0.31038058566829713 0 -0.033988048693201323 0.30580409622698368 0 -0.032403021581601382 0.31535443048384493 0 -0.033988048693201323 0.30580409622698368 0 -0.034020473619444581 0.29318263584457571 0 -0.048313385991890397 0.30324013477094902 0 -0.033988048693201323 0.30580409622698368 0 -0.048313385991890397 0.30324013477094902 0 -0.044201888502192137 0.31660877721138148 0 -0.042474778533213887 0.27877751256472749 0 -0.027233734071436588 0.28217692512879028 0 -0.034020473619444581 0.29318263584457571 0 -0.034020473619444581 0.29318263584457571 0 -0.045249111257415167 0.2898886000695382 0 -0.048313385991890397 0.30324013477094902 0 -0.042474778533213887 0.27877751256472749 0 -0.034020473619444581 0.29318263584457571 0 -0.045249111257415167 0.2898886000695382 0 -0.042474778533213887 0.27877751256472749 0 -0.045249111257415167 0.2898886000695382 0 -0.051115041436680358 0.28142757980095512 0 -0.065695083967295759 0.30334509093615619 0 -0.054776440644487723 0.29483143916585519 0 -0.059848181361349527 0.28285193088677729 0 -0.045249111257415167 0.2898886000695382 0 -0.059848181361349527 0.28285193088677729 0 -0.045249111257415167 0.2898886000695382 0 -0.051115041436680358 0.28142757980095512 0 -0.059848181361349527 0.28285193088677729 0 -0.045249111257415167 0.2898886000695382 0 -0.054776440644487723 0.29483143916585519 0 -0.048313385991890397 0.30324013477094902 0 -0.045249111257415167 0.2898886000695382 0 -0.054776440644487723 0.29483143916585519 0 -0.059848181361349527 0.28285193088677729 0 -0.065695083967295759 0.30334509093615619 0 -0.048313385991890397 0.30324013477094902 0 -0.056433574518396423 0.31871872183515548 0 -0.065695083967295759 0.30334509093615619 0 -0.054776440644487723 0.29483143916585519 0 -0.048313385991890397 0.30324013477094902 0 -0.056433574518396423 0.31871872183515548 0 -0.06199451831585677 0.33461917618664672 0 -0.046854583759901522 0.33066090092026501 0 -0.056433574518396423 0.31871872183515548 0 -0.046854583759901522 0.33066090092026501 0 -0.044201888502192137 0.31660877721138148 0 -0.048313385991890397 0.30324013477094902 0 -0.056433574518396423 0.31871872183515548 0 -0.044201888502192137 0.31660877721138148 0 -0.06199451831585677 0.33461917618664672 0 -0.05219309100166801 0.34206150041351691 0 -0.064056489405385733 0.34857679377979889 0 -0.06199451831585677 0.33461917618664672 0 -0.05219309100166801 0.34206150041351691 0 -0.046854583759901522 0.33066090092026501 0 -0.05219309100166801 0.34206150041351691 0 -0.042889197681850573 0.33927996528238008 0 -0.046854583759901522 0.33066090092026501 0 -0.05219309100166801 0.34206150041351691 0 -0.042889197681850573 0.33927996528238008 0 -0.043341735757896731 0.34913693943836932 0 -0.042889197681850573 0.33927996528238008 0 -0.046854583759901522 0.33066090092026501 0 -0.034158170907132163 0.33570573938311749 0 -0.034158170907132163 0.33570573938311749 0 -0.035025255796232342 0.32414218472403122 0 -0.026815121169801299 0.32822805935244231 0 -0.046854583759901522 0.33066090092026501 0 -0.034158170907132163 0.33570573938311749 0 -0.035025255796232342 0.32414218472403122 0 -0.034158170907132163 0.33570573938311749 0 -0.028778659597937802 0.34166943017040091 0 -0.035205985522887062 0.34447866726198839 0 -0.042889197681850573 0.33927996528238008 0 -0.034158170907132163 0.33570573938311749 0 -0.035205985522887062 0.34447866726198839 0 -0.046854583759901522 0.33066090092026501 0 -0.044201888502192137 0.31660877721138148 0 -0.035025255796232342 0.32414218472403122 0 -0.033988048693201323 0.30580409622698368 0 -0.044201888502192137 0.31660877721138148 0 -0.032403021581601382 0.31535443048384493 0 -0.044201888502192137 0.31660877721138148 0 -0.035025255796232342 0.32414218472403122 0 -0.032403021581601382 0.31535443048384493 0 -0.035025255796232342 0.32414218472403122 0 -0.032403021581601382 0.31535443048384493 0 -0.0240318121689551 0.3183711054838787 0 -0.025608613109969619 0.31038058566829713 0 -0.032403021581601382 0.31535443048384493 0 -0.0240318121689551 0.3183711054838787 0 -0.025608613109969619 0.31038058566829713 0 -0.0240318121689551 0.3183711054838787 0 -0.016002210713581551 0.31418988905492201 0 -0.0240318121689551 0.3183711054838787 0 -0.016002210713581551 0.31418988905492201 0 -0.019220140326345819 0.32722669782664121 0 -0.0240318121689551 0.3183711054838787 0 -0.016002210713581551 0.31418988905492201 0 -0.0240318121689551 0.3183711054838787 0 -0.019220140326345819 0.32722669782664121 0 -0.026815121169801299 0.32822805935244231 0 -0.035025255796232342 0.32414218472403122 0 -0.0240318121689551 0.3183711054838787 0 -0.026815121169801299 0.32822805935244231 0 -0.034158170907132163 0.33570573938311749 0 -0.026815121169801299 0.32822805935244231 0 -0.023429537633126371 0.33557760734262082 0 -0.034158170907132163 0.33570573938311749 0 -0.028778659597937802 0.34166943017040091 0 -0.023429537633126371 0.33557760734262082 0 -0.028778659597937802 0.34166943017040091 0 -0.019633485077604099 0.34184440442231739 0 -0.023429537633126371 0.33557760734262082 0 -0.028778659597937802 0.34166943017040091 0 -0.019633485077604099 0.34184440442231739 0 -0.025738167360463731 0.34765770435465482 0 -0.019633485077604099 0.34184440442231739 0 -0.023429537633126371 0.33557760734262082 0 -0.015633461621400831 0.33579515134919569 0 -0.019220140326345819 0.32722669782664121 0 -0.026815121169801299 0.32822805935244231 0 -0.023429537633126371 0.33557760734262082 0 -0.019220140326345819 0.32722669782664121 0 -0.023429537633126371 0.33557760734262082 0 -0.015633461621400831 0.33579515134919569 0 -0.019220140326345819 0.32722669782664121 0 -0.015633461621400831 0.33579515134919569 0 -0.01062878526116923 0.32950564540310689 0 -0.015633461621400831 0.33579515134919569 0 -0.01062878526116923 0.32950564540310689 0 -0.0052553598087585933 0.34482140175129239 0 -0.019633485077604099 0.34184440442231739 0 -0.015633461621400831 0.33579515134919569 0 -0.0052553598087585933 0.34482140175129239 0 -0.01062878526116923 0.32950564540310689 0 -0.0052553598087585933 0.34482140175129239 0 -0.01062878526116923 0.32950564540310689 0 -0.0052553598087585933 0.34482140175129239 0 0.0028937517168451852 0.3302129616722384 0 -0.016002210713581551 0.31418988905492201 0 -0.01062878526116923 0.32950564540310689 0 0.0010950197022403111 0.31679193839657172 0 -0.01062878526116923 0.32950564540310689 0 0.0010950197022403111 0.31679193839657172 0 0.0028937517168451852 0.3302129616722384 0 -0.016002210713581551 0.31418988905492201 0 -0.019220140326345819 0.32722669782664121 0 -0.01062878526116923 0.32950564540310689 0 -0.016002210713581551 0.31418988905492201 0 -0.01062878526116923 0.32950564540310689 0 -0.0035011453806063492 0.36255855074553422 0 -0.017392243809624092 0.37818698723840471 0 -0.00095304987135879531 0.37767319038413988 0 -0.0035011453806063492 0.36255855074553422 0 -0.0075475532716322083 0.35586193389969573 0 -0.0020463162591698482 0.35396806797965119 0 -0.0020463162591698482 0.35396806797965119 0 -0.0052553598087585933 0.34482140175129239 0 -0.0075475532716322083 0.35586193389969573 0 -0.0020463162591698482 0.35396806797965119 0 -0.0052553598087585933 0.34482140175129239 0 -0.0075475532716322083 0.35586193389969573 0 -0.0052553598087585933 0.34482140175129239 0 -0.015829329861877271 0.35658550558988622 0 -0.0035011453806063492 0.36255855074553422 0 -0.0075475532716322083 0.35586193389969573 0 -0.015829329861877271 0.35658550558988622 0 -0.0052553598087585933 0.34482140175129239 0 -0.025738167360463731 0.34765770435465482 0 -0.0293328622575772 0.35658291411815041 0 -0.0052553598087585933 0.34482140175129239 0 -0.015829329861877271 0.35658550558988622 0 -0.0293328622575772 0.35658291411815041 0 -0.019633485077604099 0.34184440442231739 0 -0.0052553598087585933 0.34482140175129239 0 -0.025738167360463731 0.34765770435465482 0 -0.0052553598087585933 0.34482140175129239 0 -0.0293328622575772 0.35658291411815041 0 -0.015829329861877271 0.35658550558988622 0 -0.0293328622575772 0.35658291411815041 0 -0.033018579032033063 0.36265941156444698 0 -0.028778659597937802 0.34166943017040091 0 -0.025738167360463731 0.34765770435465482 0 -0.035205985522887062 0.34447866726198839 0 -0.025738167360463731 0.34765770435465482 0 -0.0293328622575772 0.35658291411815041 0 -0.034271815069535048 0.35287297152581609 0 -0.0035011453806063492 0.36255855074553422 0 -0.033018579032033063 0.36265941156444698 0 -0.017392243809624092 0.37818698723840471 0 -0.0035011453806063492 0.36255855074553422 0 -0.015829329861877271 0.35658550558988622 0 -0.033018579032033063 0.36265941156444698 0 -0.033018579032033063 0.36265941156444698 0 -0.034457990318869543 0.38158353029971559 0 -0.017392243809624092 0.37818698723840471 0 -0.033018579032033063 0.36265941156444698 0 -0.017392243809624092 0.37818698723840471 0 -0.0035011453806063492 0.36255855074553422 0 -0.033018579032033063 0.36265941156444698 0 -0.033018579032033063 0.36265941156444698 0 -0.050492281621498478 0.36271911905709059 0 -0.033018579032033063 0.36265941156444698 0 -0.042483093786610901 0.37129641797467738 0 -0.034457990318869543 0.38158353029971559 0 -0.033018579032033063 0.36265941156444698 0 -0.038993560486352538 0.35672219241728692 0 -0.050492281621498478 0.36271911905709059 0 -0.033018579032033063 0.36265941156444698 0 -0.042483093786610901 0.37129641797467738 0 -0.050492281621498478 0.36271911905709059 0 -0.033018579032033063 0.36265941156444698 0 -0.038993560486352538 0.35672219241728692 0 -0.025738167360463731 0.34765770435465482 0 -0.035205985522887062 0.34447866726198839 0 -0.034271815069535048 0.35287297152581609 0 -0.035205985522887062 0.34447866726198839 0 -0.034271815069535048 0.35287297152581609 0 -0.043341735757896731 0.34913693943836932 0 -0.034271815069535048 0.35287297152581609 0 -0.038993560486352538 0.35672219241728692 0 -0.043341735757896731 0.34913693943836932 0 -0.033018579032033063 0.36265941156444698 0 -0.034271815069535048 0.35287297152581609 0 -0.038993560486352538 0.35672219241728692 0 -0.0293328622575772 0.35658291411815041 0 -0.033018579032033063 0.36265941156444698 0 -0.034271815069535048 0.35287297152581609 0 -0.038993560486352538 0.35672219241728692 0 -0.046586470603236702 0.35539179425310219 0 -0.050492281621498478 0.36271911905709059 0 -0.038993560486352538 0.35672219241728692 0 -0.046586470603236702 0.35539179425310219 0 -0.043341735757896731 0.34913693943836932 0 -0.042889197681850573 0.33927996528238008 0 -0.035205985522887062 0.34447866726198839 0 -0.043341735757896731 0.34913693943836932 0 -0.05219309100166801 0.34206150041351691 0 -0.043341735757896731 0.34913693943836932 0 -0.053518304547199087 0.35298892609966209 0 -0.046586470603236702 0.35539179425310219 0 -0.053518304547199087 0.35298892609966209 0 -0.050492281621498478 0.36271911905709059 0 -0.046586470603236702 0.35539179425310219 0 -0.043341735757896731 0.34913693943836932 0 -0.053518304547199087 0.35298892609966209 0 -0.053518304547199087 0.35298892609966209 0 -0.067965984210963906 0.36277882654973292 0 -0.064056489405385733 0.34857679377979889 0 -0.05219309100166801 0.34206150041351691 0 -0.053518304547199087 0.35298892609966209 0 -0.064056489405385733 0.34857679377979889 0 -0.050492281621498478 0.36271911905709059 0 -0.067965984210963906 0.36277882654973292 0 -0.053518304547199087 0.35298892609966209 0 -0.050492281621498478 0.36271911905709059 0 -0.067965984210963906 0.36277882654973292 0 -0.050492281621498478 0.36271911905709059 0 -0.061565136688817933 0.36618285175398002 0 -0.067965984210963906 0.36277882654973292 0 -0.042483093786610901 0.37129641797467738 0 -0.05329357838800805 0.37052169614627151 0 -0.051050077431593538 0.37884829051982111 0 -0.042483093786610901 0.37129641797467738 0 -0.05329357838800805 0.37052169614627151 0 -0.050492281621498478 0.36271911905709059 0 -0.05329357838800805 0.37052169614627151 0 -0.050492281621498478 0.36271911905709059 0 -0.061565136688817933 0.36618285175398002 0 -0.05329357838800805 0.37052169614627151 0 -0.061565136688817933 0.36618285175398002 0 -0.059877675137912409 0.37571219620715229 0 -0.061565136688817933 0.36618285175398002 0 -0.067196799427572174 0.37129202351456952 0 -0.059877675137912409 0.37571219620715229 0 -0.061565136688817933 0.36618285175398002 0 -0.067196799427572174 0.37129202351456952 0 -0.067965984210963906 0.36277882654973292 0 -0.061565136688817933 0.36618285175398002 0 -0.067965984210963906 0.36277882654973292 0 -0.067196799427572174 0.37129202351456952 0 -0.067965984210963906 0.36277882654973292 0 -0.07744680991950316 0.37301155816889248 0 -0.067965984210963906 0.36277882654973292 0 -0.07744680991950316 0.37301155816889248 0 -0.090681616775978954 0.36285644567237513 0 -0.067965984210963906 0.36277882654973292 0 -0.090681616775978954 0.36285644567237513 0 -0.07744680991950316 0.37301155816889248 0 -0.090681616775978954 0.36285644567237513 0 -0.090457985938671132 0.37461999797048318 0 -0.067965984210963906 0.36277882654973292 0 -0.09181565786641066 0.35009536706169131 0 -0.067965984210963906 0.36277882654973292 0 -0.09181565786641066 0.35009536706169131 0 -0.077388889179188111 0.34433141103491399 0 -0.067965984210963906 0.36277882654973292 0 -0.090681616775978954 0.36285644567237513 0 -0.09181565786641066 0.35009536706169131 0 -0.067965984210963906 0.36277882654973292 0 -0.077388889179188111 0.34433141103491399 0 -0.064056489405385733 0.34857679377979889 0 -0.06199451831585677 0.33461917618664672 0 -0.077388889179188111 0.34433141103491399 0 -0.064056489405385733 0.34857679377979889 0 -0.06199451831585677 0.33461917618664672 0 -0.077388889179188111 0.34433141103491399 0 -0.071541986573241942 0.32383825098553509 0 -0.077388889179188111 0.34433141103491399 0 -0.071541986573241942 0.32383825098553509 0 -0.065695083967295759 0.30334509093615619 0 -0.071541986573241942 0.32383825098553509 0 -0.056433574518396423 0.31871872183515548 0 -0.06199451831585677 0.33461917618664672 0 -0.071541986573241942 0.32383825098553509 0 -0.065695083967295759 0.30334509093615619 0 -0.056433574518396423 0.31871872183515548 0 -0.071541986573241942 0.32383825098553509 0 -0.087207646422621896 0.30502110079513622 0 -0.071541986573241942 0.32383825098553509 0 -0.09182655455864662 0.32913153156162539 0 -0.077388889179188111 0.34433141103491399 0 -0.071541986573241942 0.32383825098553509 0 -0.09182655455864662 0.32913153156162539 0 -0.09181565786641066 0.35009536706169131 0 -0.077388889179188111 0.34433141103491399 0 -0.09182655455864662 0.32913153156162539 0 -0.09181565786641066 0.35009536706169131 0 -0.09182655455864662 0.32913153156162539 0 -0.1156653315218583 0.33741190757365158 0 -0.087207646422621896 0.30502110079513622 0 -0.09182655455864662 0.32913153156162539 0 -0.1114935319592943 0.31335604740527412 0 -0.09182655455864662 0.32913153156162539 0 -0.1114935319592943 0.31335604740527412 0 -0.1156653315218583 0.33741190757365158 0 -0.12783069573512201 0.31263743683065709 0 -0.1114935319592943 0.31335604740527412 0 -0.1156653315218583 0.33741190757365158 0 -0.1114935319592943 0.31335604740527412 0 -0.1156653315218583 0.33741190757365158 0 -0.1156653315218583 0.33741190757365158 0 -0.1183890274270839 0.35311756333554378 0 -0.1156653315218583 0.33741190757365158 0 -0.1183890274270839 0.35311756333554378 0 -0.1047406685840786 0.35478656922129842 0 -0.1323013287181643 0.34403137597403299 0 -0.1156653315218583 0.33741190757365158 0 -0.1183890274270839 0.35311756333554378 0 -0.1183890274270839 0.35311756333554378 0 -0.1078741752450392 0.36770249163558488 0 -0.1047406685840786 0.35478656922129842 0 -0.1323311231041589 0.3633750541390382 0 -0.1078741752450392 0.36770249163558488 0 -0.121239151406589 0.38113334029034329 0 -0.1323311231041589 0.3633750541390382 0 -0.1183890274270839 0.35311756333554378 0 -0.1078741752450392 0.36770249163558488 0 -0.090681616775978954 0.36285644567237513 0 -0.1078741752450392 0.36770249163558488 0 -0.1047406685840786 0.35478656922129842 0 -0.090681616775978954 0.36285644567237513 0 -0.090457985938671132 0.37461999797048318 0 -0.1078741752450392 0.36770249163558488 0 -0.09181565786641066 0.35009536706169131 0 -0.1156653315218583 0.33741190757365158 0 -0.09181565786641066 0.35009536706169131 0 -0.1156653315218583 0.33741190757365158 0 -0.1047406685840786 0.35478656922129842 0 -0.090681616775978954 0.36285644567237513 0 -0.09181565786641066 0.35009536706169131 0 -0.1047406685840786 0.35478656922129842 0 -0.10158067796371251 0.40291869414367448 0 -0.097472096579270348 0.38472909291652008 0 -0.085513240684520139 0.40114442751677742 0 -0.10158067796371251 0.40291869414367448 0 -0.097472096579270348 0.38472909291652008 0 -0.121239151406589 0.38113334029034329 0 -0.1078741752450392 0.36770249163558488 0 -0.097472096579270348 0.38472909291652008 0 -0.121239151406589 0.38113334029034329 0 -0.090457985938671132 0.37461999797048318 0 -0.1078741752450392 0.36770249163558488 0 -0.097472096579270348 0.38472909291652008 0 -0.10158067796371251 0.40291869414367448 0 -0.121239151406589 0.38113334029034329 0 -0.11944612630545511 0.4043507344003337 0 -0.11944612630545511 0.4043507344003337 0 -0.1207052058837723 0.42203240288538668 0 -0.10514479503967911 0.4254694370843774 0 -0.1207052058837723 0.42203240288538668 0 -0.10514479503967911 0.4254694370843774 0 -0.11630365497777639 0.44073313696193112 0 -0.136154547479757 0.43213679339407779 0 -0.1207052058837723 0.42203240288538668 0 -0.11630365497777639 0.44073313696193112 0 -0.10514479503967911 0.4254694370843774 0 -0.089996856083766008 0.42177262609517518 0 -0.098873820188514372 0.43829784200630179 0 -0.10514479503967911 0.4254694370843774 0 -0.098873820188514372 0.43829784200630179 0 -0.11630365497777639 0.44073313696193112 0 -0.10158067796371251 0.40291869414367448 0 -0.11944612630545511 0.4043507344003337 0 -0.10514479503967911 0.4254694370843774 0 -0.10158067796371251 0.40291869414367448 0 -0.10514479503967911 0.4254694370843774 0 -0.089996856083766008 0.42177262609517518 0 -0.089996856083766008 0.42177262609517518 0 -0.077232603257777699 0.42606509749001209 0 -0.074004422627005642 0.41294901628326081 0 -0.089996856083766008 0.42177262609517518 0 -0.074004422627005642 0.41294901628326081 0 -0.085513240684520139 0.40114442751677742 0 -0.10158067796371251 0.40291869414367448 0 -0.089996856083766008 0.42177262609517518 0 -0.085513240684520139 0.40114442751677742 0 -0.089996856083766008 0.42177262609517518 0 -0.077232603257777699 0.42606509749001209 0 -0.080635888702672742 0.43887209541513972 0 -0.089996856083766008 0.42177262609517518 0 -0.080635888702672742 0.43887209541513972 0 -0.098873820188514372 0.43829784200630179 0 -0.077232603257777699 0.42606509749001209 0 -0.067369367540129593 0.43694861737958568 0 -0.080635888702672742 0.43887209541513972 0 -0.077232603257777699 0.42606509749001209 0 -0.06492315455230116 0.42705291474262591 0 -0.074004422627005642 0.41294901628326081 0 -0.06492315455230116 0.42705291474262591 0 -0.067369367540129593 0.43694861737958568 0 -0.055841886477594367 0.44115681320198952 0 -0.077232603257777699 0.42606509749001209 0 -0.06492315455230116 0.42705291474262591 0 -0.067369367540129593 0.43694861737958568 0 -0.06492315455230116 0.42705291474262591 0 -0.074004422627005642 0.41294901628326081 0 -0.056579344433795059 0.41029997532972923 0 -0.06492315455230116 0.42705291474262591 0 -0.074004422627005642 0.41294901628326081 0 -0.074004422627005642 0.41294901628326081 0 -0.062933796157305183 0.39543157210187407 0 -0.075412894210876838 0.39893166538849267 0 -0.074004422627005642 0.41294901628326081 0 -0.062933796157305183 0.39543157210187407 0 -0.056579344433795059 0.41029997532972923 0 -0.062933796157305183 0.39543157210187407 0 -0.075412894210876838 0.39893166538849267 0 -0.079200117374676374 0.38620164565205861 0 -0.097472096579270348 0.38472909291652008 0 -0.085513240684520139 0.40114442751677742 0 -0.079200117374676374 0.38620164565205861 0 -0.074004422627005642 0.41294901628326081 0 -0.075412894210876838 0.39893166538849267 0 -0.085513240684520139 0.40114442751677742 0 -0.075412894210876838 0.39893166538849267 0 -0.085513240684520139 0.40114442751677742 0 -0.079200117374676374 0.38620164565205861 0 -0.090457985938671132 0.37461999797048318 0 -0.097472096579270348 0.38472909291652008 0 -0.079200117374676374 0.38620164565205861 0 -0.07744680991950316 0.37301155816889248 0 -0.090457985938671132 0.37461999797048318 0 -0.079200117374676374 0.38620164565205861 0 -0.062933796157305183 0.39543157210187407 0 -0.079200117374676374 0.38620164565205861 0 -0.068128763907056522 0.38092507967445233 0 -0.067196799427572174 0.37129202351456952 0 -0.07744680991950316 0.37301155816889248 0 -0.068128763907056522 0.38092507967445233 0 -0.07744680991950316 0.37301155816889248 0 -0.079200117374676374 0.38620164565205861 0 -0.068128763907056522 0.38092507967445233 0 -0.062933796157305183 0.39543157210187407 0 -0.068128763907056522 0.38092507967445233 0 -0.058031694984426292 0.38650323563381977 0 -0.067196799427572174 0.37129202351456952 0 -0.068128763907056522 0.38092507967445233 0 -0.059877675137912409 0.37571219620715229 0 -0.059877675137912409 0.37571219620715229 0 -0.058031694984426292 0.38650323563381977 0 -0.051050077431593538 0.37884829051982111 0 -0.068128763907056522 0.38092507967445233 0 -0.059877675137912409 0.37571219620715229 0 -0.058031694984426292 0.38650323563381977 0 -0.05329357838800805 0.37052169614627151 0 -0.059877675137912409 0.37571219620715229 0 -0.051050077431593538 0.37884829051982111 0 -0.058031694984426292 0.38650323563381977 0 -0.051050077431593538 0.37884829051982111 0 -0.047652801620559432 0.39384917891688898 0 -0.062933796157305183 0.39543157210187407 0 -0.047652801620559432 0.39384917891688898 0 -0.056579344433795059 0.41029997532972923 0 -0.047652801620559432 0.39384917891688898 0 -0.039129556847149208 0.40880315424843361 0 -0.056579344433795059 0.41029997532972923 0 -0.062933796157305183 0.39543157210187407 0 -0.058031694984426292 0.38650323563381977 0 -0.047652801620559432 0.39384917891688898 0 -0.047652801620559432 0.39384917891688898 0 -0.032902206937459329 0.39555192283288282 0 -0.039129556847149208 0.40880315424843361 0 -0.051050077431593538 0.37884829051982111 0 -0.047652801620559432 0.39384917891688898 0 -0.034457990318869543 0.38158353029971559 0 -0.042483093786610901 0.37129641797467738 0 -0.051050077431593538 0.37884829051982111 0 -0.034457990318869543 0.38158353029971559 0 -0.047652801620559432 0.39384917891688898 0 -0.032902206937459329 0.39555192283288282 0 -0.034457990318869543 0.38158353029971559 0 -0.034457990318869543 0.38158353029971559 0 -0.017392243809624092 0.37818698723840471 0 -0.018882290639430189 0.39312846956977221 0 -0.032902206937459329 0.39555192283288282 0 -0.034457990318869543 0.38158353029971559 0 -0.018882290639430189 0.39312846956977221 0 -0.032902206937459329 0.39555192283288282 0 -0.018882290639430189 0.39312846956977221 0 -0.01979123455067491 0.40952864634223829 0 -0.032902206937459329 0.39555192283288282 0 -0.01979123455067491 0.40952864634223829 0 -0.039129556847149208 0.40880315424843361 0 -0.0017659085872152841 0.39371456291236251 0 -0.0066021347554357269 0.41002061495333569 0 -0.01979123455067491 0.40952864634223829 0 -0.0017659085872152841 0.39371456291236251 0 -0.0066021347554357269 0.41002061495333569 0 0.0050759655238069544 0.40051319589306322 0 -0.0017659085872152841 0.39371456291236251 0 -0.01979123455067491 0.40952864634223829 0 -0.018882290639430189 0.39312846956977221 0 -0.0017659085872152841 0.39371456291236251 0 -0.01979123455067491 0.40952864634223829 0 -0.017392243809624092 0.37818698723840471 0 -0.0017659085872152841 0.39371456291236251 0 -0.017392243809624092 0.37818698723840471 0 -0.0017659085872152841 0.39371456291236251 0 -0.00095304987135879531 0.37767319038413988 0 -0.017392243809624092 0.37818698723840471 0 -0.018882290639430189 0.39312846956977221 0 -0.0017659085872152841 0.39371456291236251 0 -0.01609233799204534 0.42539399445126069 0 -0.02482754872607849 0.43955685088721019 0 -0.0057895499775989651 0.4405992072919957 0 -0.00035679222689577629 0.42055620159252949 0 -0.0057895499775989651 0.4405992072919957 0 -0.00035679222689577629 0.42055620159252949 0 -0.01609233799204534 0.42539399445126069 0 -0.0057895499775989651 0.4405992072919957 0 -0.0066021347554357269 0.41002061495333569 0 -0.01979123455067491 0.40952864634223829 0 -0.01609233799204534 0.42539399445126069 0 -0.00035679222689577629 0.42055620159252949 0 -0.0066021347554357269 0.41002061495333569 0 0.0050759655238069544 0.40051319589306322 0 -0.00035679222689577629 0.42055620159252949 0 -0.0066021347554357269 0.41002061495333569 0 -0.01609233799204534 0.42539399445126069 0 -0.01979123455067491 0.40952864634223829 0 -0.037816560514134512 0.42534272977211413 0 -0.01979123455067491 0.40952864634223829 0 -0.01609233799204534 0.42539399445126069 0 -0.037816560514134512 0.42534272977211413 0 -0.01609233799204534 0.42539399445126069 0 -0.037816560514134512 0.42534272977211413 0 -0.02482754872607849 0.43955685088721019 0 -0.037816560514134512 0.42534272977211413 0 -0.039649578608492629 0.44550429639009242 0 -0.02482754872607849 0.43955685088721019 0 -0.037816560514134512 0.42534272977211413 0 -0.055841886477594367 0.44115681320198952 0 -0.037816560514134512 0.42534272977211413 0 -0.055841886477594367 0.44115681320198952 0 -0.039649578608492629 0.44550429639009242 0 -0.01979123455067491 0.40952864634223829 0 -0.037816560514134512 0.42534272977211413 0 -0.039129556847149208 0.40880315424843361 0 -0.037816560514134512 0.42534272977211413 0 -0.039129556847149208 0.40880315424843361 0 -0.051505070677984273 0.42405468108433919 0 -0.039129556847149208 0.40880315424843361 0 -0.056579344433795059 0.41029997532972923 0 -0.051505070677984273 0.42405468108433919 0 -0.06492315455230116 0.42705291474262591 0 -0.056579344433795059 0.41029997532972923 0 -0.051505070677984273 0.42405468108433919 0 -0.037816560514134512 0.42534272977211413 0 -0.051505070677984273 0.42405468108433919 0 -0.055841886477594367 0.44115681320198952 0 -0.06492315455230116 0.42705291474262591 0 -0.051505070677984273 0.42405468108433919 0 -0.055841886477594367 0.44115681320198952 0 -0.06492315455230116 0.42705291474262591 0 -0.055841886477594367 0.44115681320198952 0 -0.055841886477594367 0.44115681320198952 0 -0.042225919171099142 0.46230344368763782 0 -0.055841886477594367 0.44115681320198952 0 -0.056423900594799237 0.46045677287937858 0 -0.063975477625109439 0.44829262252116953 0 -0.067369367540129593 0.43694861737958568 0 -0.055841886477594367 0.44115681320198952 0 -0.063975477625109439 0.44829262252116953 0 -0.055841886477594367 0.44115681320198952 0 -0.063975477625109439 0.44829262252116953 0 -0.056423900594799237 0.46045677287937858 0 -0.042225919171099142 0.46230344368763782 0 -0.047151695978977552 0.48043193415941421 0 -0.055841886477594367 0.44115681320198952 0 -0.056423900594799237 0.46045677287937858 0 -0.042225919171099142 0.46230344368763782 0 -0.042225919171099142 0.46230344368763782 0 -0.028906487726315599 0.46106729382220918 0 -0.025583466103294181 0.47032765225324707 0 -0.042225919171099142 0.46230344368763782 0 -0.029273619548283249 0.45123561414864072 0 -0.028906487726315599 0.46106729382220918 0 -0.042225919171099142 0.46230344368763782 0 -0.039649578608492629 0.44550429639009242 0 -0.029273619548283249 0.45123561414864072 0 -0.055841886477594367 0.44115681320198952 0 -0.042225919171099142 0.46230344368763782 0 -0.039649578608492629 0.44550429639009242 0 -0.039649578608492629 0.44550429639009242 0 -0.02482754872607849 0.43955685088721019 0 -0.029273619548283249 0.45123561414864072 0 -0.02482754872607849 0.43955685088721019 0 -0.018561592091811279 0.4495702796256969 0 -0.0057895499775989651 0.4405992072919957 0 -0.018561592091811279 0.4495702796256969 0 -0.029273619548283249 0.45123561414864072 0 -0.019454616354994909 0.45833620639073092 0 -0.02482754872607849 0.43955685088721019 0 -0.018561592091811279 0.4495702796256969 0 -0.029273619548283249 0.45123561414864072 0 -0.029273619548283249 0.45123561414864072 0 -0.028906487726315599 0.46106729382220918 0 -0.019454616354994909 0.45833620639073092 0 -0.028906487726315599 0.46106729382220918 0 -0.020344649789113638 0.46613889439067618 0 -0.025583466103294181 0.47032765225324707 0 -0.028906487726315599 0.46106729382220918 0 -0.020344649789113638 0.46613889439067618 0 -0.019454616354994909 0.45833620639073092 0 -0.020344649789113638 0.46613889439067618 0 -0.019454616354994909 0.45833620639073092 0 -0.011222307728302169 0.46064221299146202 0 -0.018561592091811279 0.4495702796256969 0 -0.019454616354994909 0.45833620639073092 0 -0.011222307728302169 0.46064221299146202 0 -0.019454616354994909 0.45833620639073092 0 -0.011222307728302169 0.46064221299146202 0 -0.011222307728302169 0.46064221299146202 0 -0.0057895499775989651 0.4405992072919957 0 -0.018561592091811279 0.4495702796256969 0 -0.011222307728302169 0.46064221299146202 0 -0.0057895499775989651 0.4405992072919957 0 -0.011222307728302169 0.46064221299146202 0 -0.0057895499775989651 0.4405992072919957 0 0.0053080445473378327 0.45227336431711868 0 -0.002504903111400929 0.48865815071454061 0 -0.016556371032661318 0.48032110649573168 0 -0.021890434337020849 0.50000000000000133 0 -0.002504903111400929 0.48865815071454061 0 -0.021890434337020849 0.50000000000000133 0 0.0078282434504303722 0.5 0 -0.002504903111400929 0.48865815071454061 0 -0.00065462977569910325 0.47406899451073758 0 -0.016556371032661318 0.48032110649573168 0 -0.011222307728302169 0.46064221299146202 0 -0.016556371032661318 0.48032110649573168 0 -0.011222307728302169 0.46064221299146202 0 -0.00065462977569910325 0.47406899451073758 0 -0.016556371032661318 0.48032110649573168 0 -0.020344649789113638 0.46613889439067618 0 -0.011222307728302169 0.46064221299146202 0 -0.016556371032661318 0.48032110649573168 0 -0.020344649789113638 0.46613889439067618 0 -0.016556371032661318 0.48032110649573168 0 -0.025583466103294181 0.47032765225324707 0 -0.016556371032661318 0.48032110649573168 0 -0.025583466103294181 0.47032765225324707 0 -0.028609951864601621 0.48345007417328462 0 -0.016556371032661318 0.48032110649573168 0 -0.028609951864601621 0.48345007417328462 0 -0.021890434337020849 0.50000000000000133 0 -0.016556371032661318 0.48032110649573168 0 -0.021890434337020849 0.50000000000000133 0 -0.028609951864601621 0.48345007417328462 0 -0.047151695978977552 0.48043193415941421 0 -0.051320898623585909 0.5 0 -0.028609951864601621 0.48345007417328462 0 -0.021890434337020849 0.50000000000000133 0 -0.051320898623585909 0.5 0 -0.042225919171099142 0.46230344368763782 0 -0.025583466103294181 0.47032765225324707 0 -0.028609951864601621 0.48345007417328462 0 -0.042225919171099142 0.46230344368763782 0 -0.028609951864601621 0.48345007417328462 0 -0.042225919171099142 0.46230344368763782 0 -0.028609951864601621 0.48345007417328462 0 -0.047151695978977552 0.48043193415941421 0 -0.056423900594799237 0.46045677287937858 0 -0.047151695978977552 0.48043193415941421 0 -0.064402965658304778 0.47548540387977511 0 -0.047151695978977552 0.48043193415941421 0 -0.051320898623585909 0.5 0 -0.064402965658304778 0.47548540387977511 0 -0.051320898623585909 0.5 0 -0.080751362910151059 0.5 0 -0.064402965658304778 0.47548540387977511 0 -0.080751362910151059 0.5 0 -0.083860842707402752 0.46991342610614728 0 -0.10424277262772411 0.47875929272709239 0 -0.080751362910151059 0.5 0 -0.083860842707402752 0.46991342610614728 0 -0.064402965658304778 0.47548540387977511 0 -0.083860842707402752 0.46991342610614728 0 -0.064402965658304778 0.47548540387977511 0 -0.069574658378939377 0.46182651644529021 0 -0.056423900594799237 0.46045677287937858 0 -0.064402965658304778 0.47548540387977511 0 -0.069574658378939377 0.46182651644529021 0 -0.056423900594799237 0.46045677287937858 0 -0.069574658378939377 0.46182651644529021 0 -0.063975477625109439 0.44829262252116953 0 -0.069574658378939377 0.46182651644529021 0 -0.063975477625109439 0.44829262252116953 0 -0.079210105309080708 0.45498435683998051 0 -0.083860842707402752 0.46991342610614728 0 -0.069574658378939377 0.46182651644529021 0 -0.079210105309080708 0.45498435683998051 0 -0.063975477625109439 0.44829262252116953 0 -0.080635888702672742 0.43887209541513972 0 -0.079210105309080708 0.45498435683998051 0 -0.067369367540129593 0.43694861737958568 0 -0.063975477625109439 0.44829262252116953 0 -0.080635888702672742 0.43887209541513972 0 -0.080635888702672742 0.43887209541513972 0 -0.079210105309080708 0.45498435683998051 0 -0.097283614859445436 0.454974401449525 0 -0.080635888702672742 0.43887209541513972 0 -0.097283614859445436 0.454974401449525 0 -0.098873820188514372 0.43829784200630179 0 -0.083860842707402752 0.46991342610614728 0 -0.079210105309080708 0.45498435683998051 0 -0.097283614859445436 0.454974401449525 0 -0.083860842707402752 0.46991342610614728 0 -0.097283614859445436 0.454974401449525 0 -0.10424277262772411 0.47875929272709239 0 -0.097283614859445436 0.454974401449525 0 -0.11673128464360349 0.4619290511919879 0 -0.10424277262772411 0.47875929272709239 0 -0.097283614859445436 0.454974401449525 0 -0.098873820188514372 0.43829784200630179 0 -0.11630365497777639 0.44073313696193112 0 -0.14131293590973651 0.45058237414100938 0 -0.11630365497777639 0.44073313696193112 0 -0.11673128464360349 0.4619290511919879 0 -0.097283614859445436 0.454974401449525 0 -0.11630365497777639 0.44073313696193112 0 -0.11673128464360349 0.4619290511919879 0 -0.13015655865920669 0.4780688103618666 0 -0.11673128464360349 0.4619290511919879 0 -0.10424277262772411 0.47875929272709239 0 -0.13015655865920669 0.4780688103618666 0 -0.110181827196716 0.5 0 -0.10424277262772411 0.47875929272709239 0 -0.080751362910151059 0.5 0 -0.110181827196716 0.5 0 -0.10424277262772411 0.47875929272709239 0 -0.1746876956987877 0.080749023364159914 0 -0.1497752624711024 0.092404754096078526 0 -0.1746876956987877 0.080749023364159914 0 -0.1540034835557661 0.084817173108517691 0 -0.1497752624711024 0.092404754096078526 0 -0.1746876956987877 0.080749023364159914 0 -0.16663670162824429 0.09599241273175961 0 -0.1497752624711024 0.092404754096078526 0 -0.16876621462851871 0.067540885207125978 0 -0.1540034835557661 0.084817173108517691 0 -0.16876621462851871 0.067540885207125978 0 -0.1746876956987877 0.080749023364159914 0 -0.1540034835557661 0.084817173108517691 0 -0.16876621462851871 0.067540885207125978 0 -0.15667601658795341 0.06424035707085228 0 -0.1540034835557661 0.084817173108517691 0 -0.1746876956987877 0.080749023364159914 0 -0.19960012892647311 0.069093292632241315 0 -0.18391782523448649 0.065052946066559161 0 -0.1746876956987877 0.080749023364159914 0 -0.19960012892647311 0.069093292632241315 0 -0.16876621462851871 0.067540885207125978 0 -0.18391782523448649 0.065052946066559161 0 -0.1746876956987877 0.080749023364159914 0 -0.1746876956987877 0.080749023364159914 0 -0.18383333395580501 0.095327224214884737 0 -0.16663670162824429 0.09599241273175961 0 -0.1746876956987877 0.080749023364159914 0 -0.18383333395580501 0.095327224214884737 0 -0.18858630052142319 0.082138423239968977 0 -0.18383333395580501 0.095327224214884737 0 -0.17611782679844659 0.11075867155642111 0 -0.16663670162824429 0.09599241273175961 0 -0.18383333395580501 0.095327224214884737 0 -0.17611782679844659 0.11075867155642111 0 -0.18998875580727709 0.1062367745413714 0 -0.17611782679844659 0.11075867155642111 0 -0.19466210975850351 0.119648260718896 0 -0.17665148426277891 0.1263933483469476 0 -0.17611782679844659 0.11075867155642111 0 -0.19466210975850351 0.119648260718896 0 -0.18998875580727709 0.1062367745413714 0 -0.17611782679844659 0.11075867155642111 0 -0.16317531925559681 0.1231607542003217 0 -0.17665148426277891 0.1263933483469476 0 -0.17611782679844659 0.11075867155642111 0 -0.16317531925559681 0.1231607542003217 0 -0.15857605995149471 0.10876224593040019 0 -0.16663670162824429 0.09599241273175961 0 -0.1570822844257985 0.099479787965420133 0 -0.1497752624711024 0.092404754096078526 0 -0.17611782679844659 0.11075867155642111 0 -0.16663670162824429 0.09599241273175961 0 -0.15857605995149471 0.10876224593040019 0 -0.16663670162824429 0.09599241273175961 0 -0.15857605995149471 0.10876224593040019 0 -0.1570822844257985 0.099479787965420133 0 -0.1570822844257985 0.099479787965420133 0 -0.14877358015098041 0.1036716923109626 0 -0.1497752624711024 0.092404754096078526 0 -0.14877358015098041 0.1036716923109626 0 -0.14026609039652521 0.1203536664271762 0 -0.1392407524830136 0.10209346100990931 0 -0.15857605995149471 0.10876224593040019 0 -0.1570822844257985 0.099479787965420133 0 -0.14877358015098041 0.1036716923109626 0 -0.14877358015098041 0.1036716923109626 0 -0.1392407524830136 0.10209346100990931 0 -0.1497752624711024 0.092404754096078526 0 -0.16317531925559681 0.1231607542003217 0 -0.15857605995149471 0.10876224593040019 0 -0.14026609039652521 0.1203536664271762 0 -0.15857605995149471 0.10876224593040019 0 -0.14877358015098041 0.1036716923109626 0 -0.14026609039652521 0.1203536664271762 0 -0.14026609039652521 0.1203536664271762 0 -0.12807758088514329 0.1094925884079999 0 -0.12379328285889681 0.11583854925377519 0 -0.14026609039652521 0.1203536664271762 0 -0.12807758088514329 0.1094925884079999 0 -0.1392407524830136 0.10209346100990931 0 -0.14026609039652521 0.1203536664271762 0 -0.12379328285889681 0.11583854925377519 0 -0.117932977033919 0.1249899609003047 0 -0.12690990155583071 0.100532206000305 0 -0.1352622788255794 0.082307407319906087 0 -0.1138485410632052 0.10037445756896 0 -0.1392407524830136 0.10209346100990931 0 -0.12690990155583071 0.100532206000305 0 -0.1352622788255794 0.082307407319906087 0 -0.12807758088514329 0.1094925884079999 0 -0.1392407524830136 0.10209346100990931 0 -0.12690990155583071 0.100532206000305 0 -0.1392407524830136 0.10209346100990931 0 -0.1540034835557661 0.084817173108517691 0 -0.1392407524830136 0.10209346100990931 0 -0.1352622788255794 0.082307407319906087 0 -0.1540034835557661 0.084817173108517691 0 -0.1392407524830136 0.10209346100990931 0 -0.1540034835557661 0.084817173108517691 0 -0.1497752624711024 0.092404754096078526 0 -0.15667601658795341 0.06424035707085228 0 -0.1352622788255794 0.082307407319906087 0 -0.1540034835557661 0.084817173108517691 0 -0.15667601658795341 0.06424035707085228 0 -0.1352622788255794 0.082307407319906087 0 -0.15667601658795341 0.06424035707085228 0 -0.1352622788255794 0.082307407319906087 0 -0.13511712277255511 0.06630842894584757 0 -0.1352622788255794 0.082307407319906087 0 -0.13511712277255511 0.06630842894584757 0 -0.1218326549953173 0.066328162818498321 0 -0.13511712277255511 0.06630842894584757 0 -0.1218326549953173 0.066328162818498321 0 -0.12274958755979951 0.0520894025108736 0 -0.13511712277255511 0.06630842894584757 0 -0.13688253342977841 0.052378563044340729 0 -0.12274958755979951 0.0520894025108736 0 -0.13511712277255511 0.06630842894584757 0 -0.13688253342977841 0.052378563044340729 0 -0.14538961953292701 0.055689421543645402 0 -0.13688253342977841 0.052378563044340729 0 -0.13169216302489131 0.038025965440706973 0 -0.12274958755979951 0.0520894025108736 0 -0.13169216302489131 0.038025965440706973 0 -0.14470174363648011 0.044767956960221053 0 -0.1452412240921255 0.031698314304702373 0 -0.13688253342977841 0.052378563044340729 0 -0.13169216302489131 0.038025965440706973 0 -0.14470174363648011 0.044767956960221053 0 -0.14470174363648011 0.044767956960221053 0 -0.1452412240921255 0.031698314304702373 0 -0.15504240734940439 0.040580439775185759 0 -0.1452412240921255 0.031698314304702373 0 -0.15504240734940439 0.040580439775185759 0 -0.15508902491767171 0.028217775893328769 0 -0.14470174363648011 0.044767956960221053 0 -0.15504240734940439 0.040580439775185759 0 -0.15357068123786799 0.050751801696965387 0 -0.15667601658795341 0.06424035707085228 0 -0.13511712277255511 0.06630842894584757 0 -0.14538961953292701 0.055689421543645402 0 -0.15667601658795341 0.06424035707085228 0 -0.15357068123786799 0.050751801696965387 0 -0.14538961953292701 0.055689421543645402 0 -0.13688253342977841 0.052378563044340729 0 -0.14470174363648011 0.044767956960221053 0 -0.14538961953292701 0.055689421543645402 0 -0.14470174363648011 0.044767956960221053 0 -0.15357068123786799 0.050751801696965387 0 -0.14538961953292701 0.055689421543645402 0 -0.138196097687317 -0.0012428439792985841 0 -0.1314233852820951 0.0045994308721778159 0 -0.13863167855000941 0.010937281059007009 0 -0.12971617288639531 -0.0048886410824493919 0 -0.1314233852820951 0.0045994308721778159 0 -0.1220156274706712 0.0019540870090877772 0 -0.1314233852820951 0.0045994308721778159 0 -0.12774746673749759 0.013064643027644389 0 -0.1220156274706712 0.0019540870090877772 0 -0.1314233852820951 0.0045994308721778159 0 -0.12774746673749759 0.013064643027644389 0 -0.13863167855000941 0.010937281059007009 0 -0.13863167855000941 0.010937281059007009 0 -0.13511543787874519 0.02319885350183791 0 -0.1474984419664811 0.019422148255355889 0 -0.12774746673749759 0.013064643027644389 0 -0.13863167855000941 0.010937281059007009 0 -0.13511543787874519 0.02319885350183791 0 -0.12774746673749759 0.013064643027644389 0 -0.13511543787874519 0.02319885350183791 0 -0.1212803943925771 0.025361154101400881 0 -0.13169216302489131 0.038025965440706973 0 -0.13511543787874519 0.02319885350183791 0 -0.1212803943925771 0.025361154101400881 0 -0.13169216302489131 0.038025965440706973 0 -0.1452412240921255 0.031698314304702373 0 -0.13511543787874519 0.02319885350183791 0 -0.1452412240921255 0.031698314304702373 0 -0.13511543787874519 0.02319885350183791 0 -0.1474984419664811 0.019422148255355889 0 -0.1452412240921255 0.031698314304702373 0 -0.15508902491767171 0.028217775893328769 0 -0.1474984419664811 0.019422148255355889 0 -0.15508902491767171 0.028217775893328769 0 -0.1474984419664811 0.019422148255355889 0 -0.1604864349811442 0.017043794520442121 0 -0.13863167855000941 0.010937281059007009 0 -0.1474984419664811 0.019422148255355889 0 -0.14850172110235091 0.008278866845730426 0 -0.14850172110235091 0.008278866845730426 0 -0.15749918475220409 0.0018061885736658111 0 -0.1604864349811442 0.017043794520442121 0 -0.1474984419664811 0.019422148255355889 0 -0.14850172110235091 0.008278866845730426 0 -0.1604864349811442 0.017043794520442121 0 -0.14863338206775739 -0.002425641076573675 0 -0.14850172110235091 0.008278866845730426 0 -0.15749918475220409 0.0018061885736658111 0 -0.14863338206775739 -0.002425641076573675 0 -0.138196097687317 -0.0012428439792985841 0 -0.14850172110235091 0.008278866845730426 0 -0.138196097687317 -0.0012428439792985841 0 -0.13863167855000941 0.010937281059007009 0 -0.14850172110235091 0.008278866845730426 0 -0.16572219389092219 -0.0044745056804275131 0 -0.15749918475220409 0.0018061885736658111 0 -0.17501020970268871 0.0078973388405579065 0 -0.15749918475220409 0.0018061885736658111 0 -0.1604864349811442 0.017043794520442121 0 -0.17501020970268871 0.0078973388405579065 0 -0.1604864349811442 0.017043794520442121 0 -0.16328531872290969 0.025996151065159241 0 -0.17139513554863381 0.02347707979341539 0 -0.1604864349811442 0.017043794520442121 0 -0.17139513554863381 0.02347707979341539 0 -0.17501020970268871 0.0078973388405579065 0 -0.15508902491767171 0.028217775893328769 0 -0.16328531872290969 0.025996151065159241 0 -0.16356807267498241 0.036347275816442447 0 -0.15508902491767171 0.028217775893328769 0 -0.1604864349811442 0.017043794520442121 0 -0.16328531872290969 0.025996151065159241 0 -0.16328531872290969 0.025996151065159241 0 -0.17139513554863381 0.02347707979341539 0 -0.17166756579139059 0.033795857393964963 0 -0.17139513554863381 0.02347707979341539 0 -0.18378157505448009 0.020682531383144669 0 -0.18341695881280221 0.032266505313680777 0 -0.17139513554863381 0.02347707979341539 0 -0.17166756579139059 0.033795857393964963 0 -0.18341695881280221 0.032266505313680777 0 -0.17139513554863381 0.02347707979341539 0 -0.18378157505448009 0.020682531383144669 0 -0.17501020970268871 0.0078973388405579065 0 -0.18378157505448009 0.020682531383144669 0 -0.17501020970268871 0.0078973388405579065 0 -0.19334670028366549 0.010640261418027579 0 -0.19311437565142209 -0.013302172517242951 0 -0.17501020970268871 0.0078973388405579065 0 -0.19334670028366549 0.010640261418027579 0 -0.15667601658795341 0.06424035707085228 0 -0.15357068123786799 0.050751801696965387 0 -0.1644888490155231 0.046666768547198423 0 -0.16876621462851871 0.067540885207125978 0 -0.15667601658795341 0.06424035707085228 0 -0.17808975435032759 0.046173306821798397 0 -0.15667601658795341 0.06424035707085228 0 -0.1644888490155231 0.046666768547198423 0 -0.17808975435032759 0.046173306821798397 0 -0.15667601658795341 0.06424035707085228 0 -0.17808975435032759 0.046173306821798397 0 -0.15504240734940439 0.040580439775185759 0 -0.15357068123786799 0.050751801696965387 0 -0.1644888490155231 0.046666768547198423 0 -0.15504240734940439 0.040580439775185759 0 -0.16356807267498241 0.036347275816442447 0 -0.1644888490155231 0.046666768547198423 0 -0.15504240734940439 0.040580439775185759 0 -0.15508902491767171 0.028217775893328769 0 -0.16356807267498241 0.036347275816442447 0 -0.16328531872290969 0.025996151065159241 0 -0.16356807267498241 0.036347275816442447 0 -0.17166756579139059 0.033795857393964963 0 -0.16356807267498241 0.036347275816442447 0 -0.17166756579139059 0.033795857393964963 0 -0.1711302671337914 0.040422187840192907 0 -0.16356807267498241 0.036347275816442447 0 -0.1644888490155231 0.046666768547198423 0 -0.1711302671337914 0.040422187840192907 0 -0.1644888490155231 0.046666768547198423 0 -0.1711302671337914 0.040422187840192907 0 -0.17808975435032759 0.046173306821798397 0 -0.17783709383673321 0.039127730621560317 0 -0.18341695881280221 0.032266505313680777 0 -0.1835289457012714 0.050264597305734203 0 -0.1711302671337914 0.040422187840192907 0 -0.17783709383673321 0.039127730621560317 0 -0.17808975435032759 0.046173306821798397 0 -0.17166756579139059 0.033795857393964963 0 -0.17783709383673321 0.039127730621560317 0 -0.18341695881280221 0.032266505313680777 0 -0.17166756579139059 0.033795857393964963 0 -0.1711302671337914 0.040422187840192907 0 -0.17783709383673321 0.039127730621560317 0 -0.17783709383673321 0.039127730621560317 0 -0.17808975435032759 0.046173306821798397 0 -0.1835289457012714 0.050264597305734203 0 -0.16876621462851871 0.067540885207125978 0 -0.1835289457012714 0.050264597305734203 0 -0.16876621462851871 0.067540885207125978 0 -0.17808975435032759 0.046173306821798397 0 -0.1835289457012714 0.050264597305734203 0 -0.16876621462851871 0.067540885207125978 0 -0.18391782523448649 0.065052946066559161 0 -0.1835289457012714 0.050264597305734203 0 -0.18391782523448649 0.065052946066559161 0 -0.1835289457012714 0.050264597305734203 0 -0.19219855705777561 0.056423513926598917 0 -0.19219855705777561 0.056423513926598917 0 -0.2015018340915618 0.049149508348839313 0 -0.19960012892647311 0.069093292632241315 0 -0.19219855705777561 0.056423513926598917 0 -0.2015018340915618 0.049149508348839313 0 -0.19388025340615819 0.047206482246378703 0 -0.1835289457012714 0.050264597305734203 0 -0.19219855705777561 0.056423513926598917 0 -0.19388025340615819 0.047206482246378703 0 -0.18341695881280221 0.032266505313680777 0 -0.1835289457012714 0.050264597305734203 0 -0.19829167677402409 0.032988309404342421 0 -0.2015018340915618 0.049149508348839313 0 -0.19388025340615819 0.047206482246378703 0 -0.19829167677402409 0.032988309404342421 0 -0.1835289457012714 0.050264597305734203 0 -0.19829167677402409 0.032988309404342421 0 -0.1835289457012714 0.050264597305734203 0 -0.19388025340615819 0.047206482246378703 0 -0.19829167677402409 0.032988309404342421 0 -0.2015018340915618 0.049149508348839313 0 -0.22173168782306979 0.02910317947580272 0 -0.2015018340915618 0.049149508348839313 0 -0.19829167677402409 0.032988309404342421 0 -0.22173168782306979 0.02910317947580272 0 -0.2015018340915618 0.049149508348839313 0 -0.22173168782306979 0.02910317947580272 0 -0.22451256215415821 0.057437561900322801 0 -0.2015018340915618 0.049149508348839313 0 -0.22451256215415821 0.057437561900322801 0 -0.19960012892647311 0.069093292632241315 0 -0.19311437565142209 -0.013302172517242951 0 -0.19334670028366549 0.010640261418027579 0 -0.20649512966498809 0.002680520641606109 0 -0.19334670028366549 0.010640261418027579 0 -0.20824056762882751 0.016852778573717489 0 -0.20649512966498809 0.002680520641606109 0 -0.18378157505448009 0.020682531383144669 0 -0.19829167677402409 0.032988309404342421 0 -0.19334670028366549 0.010640261418027579 0 -0.19829167677402409 0.032988309404342421 0 -0.19334670028366549 0.010640261418027579 0 -0.20824056762882751 0.016852778573717489 0 -0.18378157505448009 0.020682531383144669 0 -0.18341695881280221 0.032266505313680777 0 -0.19829167677402409 0.032988309404342421 0 -0.20824056762882751 0.016852778573717489 0 -0.2228550696423941 0.01000615207606626 0 -0.22173168782306979 0.02910317947580272 0 -0.19829167677402409 0.032988309404342421 0 -0.20824056762882751 0.016852778573717489 0 -0.22173168782306979 0.02910317947580272 0 -0.20824056762882751 0.016852778573717489 0 -0.20649512966498809 0.002680520641606109 0 -0.2228550696423941 0.01000615207606626 0 -0.21795378720663991 -0.0084853560480224882 0 -0.20649512966498809 0.002680520641606109 0 -0.2228550696423941 0.01000615207606626 0 -0.21795378720663991 -0.0084853560480224882 0 -0.2228550696423941 0.01000615207606626 0 -0.23139089929136741 0.001727276763001965 0 -0.2228550696423941 0.01000615207606626 0 -0.23139089929136741 0.001727276763001965 0 -0.24196154155457791 0.0090568506027661339 0 -0.2228550696423941 0.01000615207606626 0 -0.22173168782306979 0.02910317947580272 0 -0.24196154155457791 0.0090568506027661339 0 -0.22173168782306979 0.02910317947580272 0 -0.24196154155457791 0.0090568506027661339 0 -0.22173168782306979 0.02910317947580272 0 -0.24090254331124639 0.028602177090308319 0 -0.24196154155457791 0.0090568506027661339 0 -0.25748244358322059 0.018964770254950119 0 -0.24090254331124639 0.028602177090308319 0 -0.24942499538184509 0.045781831168407942 0 -0.25748244358322059 0.018964770254950119 0 -0.24090254331124639 0.028602177090308319 0 -0.24196154155457791 0.0090568506027661339 0 -0.2427931987618577 -0.0036685395788020412 0 -0.23139089929136741 0.001727276763001965 0 -0.24196154155457791 0.0090568506027661339 0 -0.22451256215415821 0.057437561900322801 0 -0.24464414148606439 0.061693624448037568 0 -0.23238615635689491 0.06811812919264143 0 -0.22173168782306979 0.02910317947580272 0 -0.22451256215415821 0.057437561900322801 0 -0.2338271510733278 0.041081563106745413 0 -0.22173168782306979 0.02910317947580272 0 -0.24090254331124639 0.028602177090308319 0 -0.2338271510733278 0.041081563106745413 0 -0.24090254331124639 0.028602177090308319 0 -0.2338271510733278 0.041081563106745413 0 -0.24942499538184509 0.045781831168407942 0 -0.24942499538184509 0.045781831168407942 0 -0.24464414148606439 0.061693624448037568 0 -0.22451256215415821 0.057437561900322801 0 -0.24942499538184509 0.045781831168407942 0 -0.22451256215415821 0.057437561900322801 0 -0.24942499538184509 0.045781831168407942 0 -0.24464414148606439 0.061693624448037568 0 -0.22451256215415821 0.057437561900322801 0 -0.2338271510733278 0.041081563106745413 0 -0.24942499538184509 0.045781831168407942 0 -0.24464414148606439 0.061693624448037568 0 -0.23986328759028161 0.077605417727666604 0 -0.25859238441198168 0.064741527443465369 0 -0.24464414148606439 0.061693624448037568 0 -0.23986328759028161 0.077605417727666604 0 -0.24464414148606439 0.061693624448037568 0 -0.23986328759028161 0.077605417727666604 0 -0.23238615635689491 0.06811812919264143 0 -0.23986328759028161 0.077605417727666604 0 -0.23451018389604361 0.095421791380551887 0 -0.24605046256145291 0.094372560587190721 0 -0.25737800176791342 0.088318491033901395 0 -0.23986328759028161 0.077605417727666604 0 -0.24605046256145291 0.094372560587190721 0 -0.23986328759028161 0.077605417727666604 0 -0.23451018389604361 0.095421791380551887 0 -0.21804366554745441 0.080494785238128794 0 -0.21856810978563179 0.095383719139406284 0 -0.23451018389604361 0.095421791380551887 0 -0.23986328759028161 0.077605417727666604 0 -0.21804366554745441 0.080494785238128794 0 -0.23986328759028161 0.077605417727666604 0 -0.21804366554745441 0.080494785238128794 0 -0.23451018389604361 0.095421791380551887 0 -0.22451256215415821 0.057437561900322801 0 -0.23238615635689491 0.06811812919264143 0 -0.21804366554745441 0.080494785238128794 0 -0.23986328759028161 0.077605417727666604 0 -0.23238615635689491 0.06811812919264143 0 -0.21804366554745441 0.080494785238128794 0 -0.22451256215415821 0.057437561900322801 0 -0.21804366554745441 0.080494785238128794 0 -0.19960012892647311 0.069093292632241315 0 -0.21804366554745441 0.080494785238128794 0 -0.1962240435046271 0.083384152748589971 0 -0.19960012892647311 0.069093292632241315 0 -0.22451256215415821 0.057437561900322801 0 -0.19960012892647311 0.069093292632241315 0 -0.21804366554745441 0.080494785238128794 0 -0.1962240435046271 0.083384152748589971 0 -0.21804366554745441 0.080494785238128794 0 -0.20763399305635119 0.092116495234314116 0 -0.1962240435046271 0.083384152748589971 0 -0.21804366554745441 0.080494785238128794 0 -0.20763399305635119 0.092116495234314116 0 -0.21856810978563179 0.095383719139406284 0 -0.20763399305635119 0.092116495234314116 0 -0.1962240435046271 0.083384152748589971 0 -0.19702972310174899 0.095959810072547141 0 -0.18383333395580501 0.095327224214884737 0 -0.1962240435046271 0.083384152748589971 0 -0.18858630052142319 0.082138423239968977 0 -0.18383333395580501 0.095327224214884737 0 -0.1962240435046271 0.083384152748589971 0 -0.19702972310174899 0.095959810072547141 0 -0.1962240435046271 0.083384152748589971 0 -0.18858630052142319 0.082138423239968977 0 -0.19960012892647311 0.069093292632241315 0 -0.1746876956987877 0.080749023364159914 0 -0.18858630052142319 0.082138423239968977 0 -0.19960012892647311 0.069093292632241315 0 -0.18391782523448649 0.065052946066559161 0 -0.19219855705777561 0.056423513926598917 0 -0.19960012892647311 0.069093292632241315 0 -0.19466210975850351 0.119648260718896 0 -0.18998875580727709 0.1062367745413714 0 -0.20830442334229379 0.10536000897289841 0 -0.18998875580727709 0.1062367745413714 0 -0.19702972310174899 0.095959810072547141 0 -0.20830442334229379 0.10536000897289841 0 -0.18383333395580501 0.095327224214884737 0 -0.18998875580727709 0.1062367745413714 0 -0.19702972310174899 0.095959810072547141 0 -0.20830442334229379 0.10536000897289841 0 -0.21856810978563179 0.095383719139406284 0 -0.22448013236746969 0.10644179428938071 0 -0.20763399305635119 0.092116495234314116 0 -0.19702972310174899 0.095959810072547141 0 -0.20830442334229379 0.10536000897289841 0 -0.20763399305635119 0.092116495234314116 0 -0.20830442334229379 0.10536000897289841 0 -0.21856810978563179 0.095383719139406284 0 -0.20830442334229379 0.10536000897289841 0 -0.21410328032679321 0.1168201319318857 0 -0.22448013236746969 0.10644179428938071 0 -0.19466210975850351 0.119648260718896 0 -0.21410328032679321 0.1168201319318857 0 -0.20873011349354301 0.13250421033061449 0 -0.19466210975850351 0.119648260718896 0 -0.20830442334229379 0.10536000897289841 0 -0.21410328032679321 0.1168201319318857 0 -0.21410328032679321 0.1168201319318857 0 -0.23373295572960229 0.1190052593484876 0 -0.20873011349354301 0.13250421033061449 0 -0.21410328032679321 0.1168201319318857 0 -0.23373295572960229 0.1190052593484876 0 -0.22448013236746969 0.10644179428938071 0 -0.23373295572960229 0.1190052593484876 0 -0.22448013236746969 0.10644179428938071 0 -0.2397650415873635 0.1050107944274716 0 -0.21856810978563179 0.095383719139406284 0 -0.22448013236746969 0.10644179428938071 0 -0.23451018389604361 0.095421791380551887 0 -0.22448013236746969 0.10644179428938071 0 -0.23451018389604361 0.095421791380551887 0 -0.2397650415873635 0.1050107944274716 0 -0.25873579796566237 0.105506308366362 0 -0.2397650415873635 0.1050107944274716 0 -0.24605046256145291 0.094372560587190721 0 -0.23451018389604361 0.095421791380551887 0 -0.2397650415873635 0.1050107944274716 0 -0.24605046256145291 0.094372560587190721 0 -0.25873579796566237 0.105506308366362 0 -0.23373295572960229 0.1190052593484876 0 -0.25873579796566237 0.105506308366362 0 -0.23373295572960229 0.1190052593484876 0 -0.2397650415873635 0.1050107944274716 0 -0.25873579796566237 0.105506308366362 0 -0.23373295572960229 0.1190052593484876 0 -0.24272891764110521 0.12352254410664849 0 -0.25168568898611637 0.12875154429823971 0 -0.24272891764110521 0.12352254410664849 0 -0.24642363851099339 0.13889898540617099 0 -0.24272891764110521 0.12352254410664849 0 -0.24642363851099339 0.13889898540617099 0 -0.22672203731654689 0.14153877984693389 0 -0.24272891764110521 0.12352254410664849 0 -0.22672203731654689 0.14153877984693389 0 -0.23373295572960229 0.1190052593484876 0 -0.24272891764110521 0.12352254410664849 0 -0.22672203731654689 0.14153877984693389 0 -0.23373295572960229 0.1190052593484876 0 -0.20873011349354301 0.13250421033061449 0 -0.23373295572960229 0.1190052593484876 0 -0.22672203731654689 0.14153877984693389 0 -0.20873011349354301 0.13250421033061449 0 -0.22672203731654689 0.14153877984693389 0 -0.24042581294662699 0.15303124321597519 0 -0.23011126116828501 0.16298198794404609 0 -0.22672203731654689 0.14153877984693389 0 -0.23011126116828501 0.16298198794404609 0 -0.2107151569919887 0.15955501558721941 0 -0.24642363851099339 0.13889898540617099 0 -0.22672203731654689 0.14153877984693389 0 -0.24042581294662699 0.15303124321597519 0 -0.25521710632945888 0.15352668075741649 0 -0.24642363851099339 0.13889898540617099 0 -0.24042581294662699 0.15303124321597519 0 -0.25521710632945888 0.15352668075741649 0 -0.24042581294662699 0.15303124321597519 0 -0.2437867940321462 0.16737590837235569 0 -0.2437867940321462 0.16737590837235569 0 -0.23609197510005139 0.17914205526238661 0 -0.23011126116828501 0.16298198794404609 0 -0.24042581294662699 0.15303124321597519 0 -0.2437867940321462 0.16737590837235569 0 -0.23011126116828501 0.16298198794404609 0 -0.2437867940321462 0.16737590837235569 0 -0.24834674495110531 0.1830948443989967 0 -0.23609197510005139 0.17914205526238661 0 -0.25636881993956773 0.16811917034005569 0 -0.2437867940321462 0.16737590837235569 0 -0.24834674495110531 0.1830948443989967 0 -0.24834674495110531 0.1830948443989967 0 -0.23609197510005139 0.17914205526238661 0 -0.2372088376796202 0.19097681962462981 0 -0.23609197510005139 0.17914205526238661 0 -0.22324204492065861 0.17524762837232019 0 -0.23011126116828501 0.16298198794404609 0 -0.23609197510005139 0.17914205526238661 0 -0.22689381973839309 0.18598711868996209 0 -0.2372088376796202 0.19097681962462981 0 -0.23609197510005139 0.17914205526238661 0 -0.22689381973839309 0.18598711868996209 0 -0.22324204492065861 0.17524762837232019 0 -0.22689381973839309 0.18598711868996209 0 -0.22324204492065861 0.17524762837232019 0 -0.21198333074245429 0.18761769431736841 0 -0.22324204492065861 0.17524762837232019 0 -0.23011126116828501 0.16298198794404609 0 -0.2107151569919887 0.15955501558721941 0 -0.22324204492065861 0.17524762837232019 0 -0.2107151569919887 0.15955501558721941 0 -0.21198333074245429 0.18761769431736841 0 -0.2107151569919887 0.15955501558721941 0 -0.19470827666743051 0.1775712513275047 0 -0.21198333074245429 0.18761769431736841 0 -0.19470827666743051 0.1775712513275047 0 -0.19152601795077709 0.15885866476066449 0 -0.17776161767401449 0.18006114629094089 0 -0.2107151569919887 0.15955501558721941 0 -0.19470827666743051 0.1775712513275047 0 -0.19152601795077709 0.15885866476066449 0 -0.2107151569919887 0.15955501558721941 0 -0.19470827666743051 0.1775712513275047 0 -0.19152601795077709 0.15885866476066449 0 -0.20873011349354301 0.13250421033061449 0 -0.18463335175885059 0.14056294412537779 0 -0.19466210975850351 0.119648260718896 0 -0.20873011349354301 0.13250421033061449 0 -0.18463335175885059 0.14056294412537779 0 -0.22672203731654689 0.14153877984693389 0 -0.2107151569919887 0.15955501558721941 0 -0.2107151569919887 0.15955501558721941 0 -0.19152601795077709 0.15885866476066449 0 -0.20873011349354301 0.13250421033061449 0 -0.22672203731654689 0.14153877984693389 0 -0.2107151569919887 0.15955501558721941 0 -0.20873011349354301 0.13250421033061449 0 -0.21940482384434509 0.24966385833645399 0 -0.22237350357551111 0.23939137881337269 0 -0.22739359172225859 0.24818293685744561 0 -0.23263275481171219 0.24005182055690319 0 -0.23527603452027079 0.2321255237276805 0 -0.22809407437735749 0.23228098287066351 0 -0.22237350357551111 0.23939137881337269 0 -0.23263275481171219 0.24005182055690319 0 -0.22809407437735749 0.23228098287066351 0 -0.2396106915491982 0.25066135732940797 0 -0.23263275481171219 0.24005182055690319 0 -0.22739359172225859 0.24818293685744561 0 -0.22237350357551111 0.23939137881337269 0 -0.23263275481171219 0.24005182055690319 0 -0.22739359172225859 0.24818293685744561 0 -0.2396106915491982 0.25066135732940797 0 -0.23263275481171219 0.24005182055690319 0 -0.24236692453893069 0.23758258267971191 0 -0.25050177323748762 0.24551408611508191 0 -0.2396106915491982 0.25066135732940797 0 -0.24236692453893069 0.23758258267971191 0 -0.25487571445195373 0.23126666493614109 0 -0.25050177323748762 0.24551408611508191 0 -0.24236692453893069 0.23758258267971191 0 -0.23263275481171219 0.24005182055690319 0 -0.24236692453893069 0.23758258267971191 0 -0.23527603452027079 0.2321255237276805 0 -0.23527603452027079 0.2321255237276805 0 -0.2417191152987867 0.225615455203411 0 -0.23339661176515361 0.22483688637011459 0 -0.25130617358851592 0.21321052932258441 0 -0.25487571445195373 0.23126666493614109 0 -0.2417191152987867 0.225615455203411 0 -0.24236692453893069 0.23758258267971191 0 -0.23527603452027079 0.2321255237276805 0 -0.2417191152987867 0.225615455203411 0 -0.25487571445195373 0.23126666493614109 0 -0.24236692453893069 0.23758258267971191 0 -0.2417191152987867 0.225615455203411 0 -0.2417191152987867 0.225615455203411 0 -0.23339661176515361 0.22483688637011459 0 -0.23663052232484311 0.21709939574879689 0 -0.22526331230450969 0.21706307430002089 0 -0.21331778692939921 0.24314932897541189 0 -0.22237350357551111 0.23939137881337269 0 -0.22526331230450969 0.21706307430002089 0 -0.21331778692939921 0.24314932897541189 0 -0.23339661176515361 0.22483688637011459 0 -0.22526331230450969 0.21706307430002089 0 -0.23663052232484311 0.21709939574879689 0 -0.22237350357551111 0.23939137881337269 0 -0.22809407437735749 0.23228098287066351 0 -0.22526331230450969 0.21706307430002089 0 -0.23339661176515361 0.22483688637011459 0 -0.22809407437735749 0.23228098287066351 0 -0.22526331230450969 0.21706307430002089 0 -0.23527603452027079 0.2321255237276805 0 -0.23339661176515361 0.22483688637011459 0 -0.22809407437735749 0.23228098287066351 0 -0.22526331230450969 0.21706307430002089 0 -0.23861262738543049 0.20720024645361301 0 -0.2372088376796202 0.19097681962462981 0 -0.22526331230450969 0.21706307430002089 0 -0.2372088376796202 0.19097681962462981 0 -0.2248500032763488 0.19671060325777379 0 -0.2158189014967675 0.21818327295856171 0 -0.22526331230450969 0.21706307430002089 0 -0.2248500032763488 0.19671060325777379 0 -0.2158189014967675 0.21818327295856171 0 -0.22526331230450969 0.21706307430002089 0 -0.23663052232484311 0.21709939574879689 0 -0.23861262738543049 0.20720024645361301 0 -0.25130617358851592 0.21321052932258441 0 -0.23663052232484311 0.21709939574879689 0 -0.23861262738543049 0.20720024645361301 0 -0.25130617358851592 0.21321052932258441 0 -0.2417191152987867 0.225615455203411 0 -0.23663052232484311 0.21709939574879689 0 -0.25130617358851592 0.21321052932258441 0 -0.23861262738543049 0.20720024645361301 0 -0.2446305427067143 0.19890980414057521 0 -0.25536353563914621 0.19572747402506341 0 -0.24834674495110531 0.1830948443989967 0 -0.2446305427067143 0.19890980414057521 0 -0.23861262738543049 0.20720024645361301 0 -0.2446305427067143 0.19890980414057521 0 -0.2372088376796202 0.19097681962462981 0 -0.24834674495110531 0.1830948443989967 0 -0.2446305427067143 0.19890980414057521 0 -0.2372088376796202 0.19097681962462981 0 -0.22526331230450969 0.21706307430002089 0 -0.2372088376796202 0.19097681962462981 0 -0.2248500032763488 0.19671060325777379 0 -0.22689381973839309 0.18598711868996209 0 -0.2372088376796202 0.19097681962462981 0 -0.2248500032763488 0.19671060325777379 0 -0.22689381973839309 0.18598711868996209 0 -0.2248500032763488 0.19671060325777379 0 -0.21198333074245429 0.18761769431736841 0 -0.2248500032763488 0.19671060325777379 0 -0.21198333074245429 0.18761769431736841 0 -0.21125565471359431 0.20269610788386941 0 -0.21198333074245429 0.18761769431736841 0 -0.21125565471359431 0.20269610788386941 0 -0.19902410942051019 0.19817643543259719 0 -0.19470827666743051 0.1775712513275047 0 -0.19902410942051019 0.19817643543259719 0 -0.1788221898267236 0.19715687718134081 0 -0.19470827666743051 0.1775712513275047 0 -0.21198333074245429 0.18761769431736841 0 -0.19902410942051019 0.19817643543259719 0 -0.19902410942051019 0.19817643543259719 0 -0.19089746448235989 0.2094811626676614 0 -0.1788221898267236 0.19715687718134081 0 -0.19902410942051019 0.19817643543259719 0 -0.19089746448235989 0.2094811626676614 0 -0.20460192863189061 0.2127925334530458 0 -0.19089746448235989 0.2094811626676614 0 -0.19760341498395559 0.2210365493482383 0 -0.17954222112279131 0.22028733385771601 0 -0.19089746448235989 0.2094811626676614 0 -0.20460192863189061 0.2127925334530458 0 -0.19760341498395559 0.2210365493482383 0 -0.20460192863189061 0.2127925334530458 0 -0.20592649485764339 0.21994565472899269 0 -0.19760341498395559 0.2210365493482383 0 -0.2248500032763488 0.19671060325777379 0 -0.21125565471359431 0.20269610788386941 0 -0.2158189014967675 0.21818327295856171 0 -0.21125565471359431 0.20269610788386941 0 -0.20460192863189061 0.2127925334530458 0 -0.2158189014967675 0.21818327295856171 0 -0.20460192863189061 0.2127925334530458 0 -0.2158189014967675 0.21818327295856171 0 -0.20592649485764339 0.21994565472899269 0 -0.21125565471359431 0.20269610788386941 0 -0.19902410942051019 0.19817643543259719 0 -0.20460192863189061 0.2127925334530458 0 -0.22526331230450969 0.21706307430002089 0 -0.2158189014967675 0.21818327295856171 0 -0.21331778692939921 0.24314932897541189 0 -0.2158189014967675 0.21818327295856171 0 -0.20678779971718619 0.2396559426593495 0 -0.21331778692939921 0.24314932897541189 0 -0.2158189014967675 0.21818327295856171 0 -0.20678779971718619 0.2396559426593495 0 -0.2158189014967675 0.21818327295856171 0 -0.20568173431796 0.22777026315612511 0 -0.20678779971718619 0.2396559426593495 0 -0.2158189014967675 0.21818327295856171 0 -0.20568173431796 0.22777026315612511 0 -0.20592649485764339 0.21994565472899269 0 -0.19618446244501889 0.2324813324233472 0 -0.18864945953019849 0.2407079731089268 0 -0.17954222112279131 0.22028733385771601 0 -0.20568173431796 0.22777026315612511 0 -0.20592649485764339 0.21994565472899269 0 -0.19760341498395559 0.2210365493482383 0 -0.19760341498395559 0.2210365493482383 0 -0.19618446244501889 0.2324813324233472 0 -0.17954222112279131 0.22028733385771601 0 -0.20568173431796 0.22777026315612511 0 -0.19760341498395559 0.2210365493482383 0 -0.19618446244501889 0.2324813324233472 0 -0.20568173431796 0.22777026315612511 0 -0.19618446244501889 0.2324813324233472 0 -0.20678779971718619 0.2396559426593495 0 -0.19775669793760531 0.26112861236013762 0 -0.18864945953019849 0.2407079731089268 0 -0.19751509092433711 0.24364424099952481 0 -0.19618446244501889 0.2324813324233472 0 -0.19751509092433711 0.24364424099952481 0 -0.20678779971718619 0.2396559426593495 0 -0.19775669793760531 0.26112861236013762 0 -0.19751509092433711 0.24364424099952481 0 -0.20678779971718619 0.2396559426593495 0 -0.19618446244501889 0.2324813324233472 0 -0.18864945953019849 0.2407079731089268 0 -0.19751509092433711 0.24364424099952481 0 -0.19775669793760531 0.26112861236013762 0 -0.20678779971718619 0.2396559426593495 0 -0.21331778692939921 0.24314932897541189 0 -0.21940482384434509 0.24966385833645399 0 -0.22237350357551111 0.23939137881337269 0 -0.21331778692939921 0.24314932897541189 0 -0.1613056348774605 0.25227308847041552 0 -0.17091129445078801 0.23687654089008689 0 -0.1531868459719341 0.23298214756731789 0 -0.17353428421445691 0.25007945563794148 0 -0.1613056348774605 0.25227308847041552 0 -0.17091129445078801 0.23687654089008689 0 -0.17353428421445691 0.25007945563794148 0 -0.18864945953019849 0.2407079731089268 0 -0.17091129445078801 0.23687654089008689 0 -0.18441986170046809 0.2550348252524271 0 -0.17353428421445691 0.25007945563794148 0 -0.18864945953019849 0.2407079731089268 0 -0.18864945953019849 0.2407079731089268 0 -0.17091129445078801 0.23687654089008689 0 -0.17954222112279131 0.22028733385771601 0 -0.18864945953019849 0.2407079731089268 0 -0.17954222112279131 0.22028733385771601 0 -0.17091129445078801 0.23687654089008689 0 -0.17954222112279131 0.22028733385771601 0 -0.15990797247371319 0.20983642515242371 0 -0.17091129445078801 0.23687654089008689 0 -0.15990797247371319 0.20983642515242371 0 -0.1531868459719341 0.23298214756731789 0 -0.19089746448235989 0.2094811626676614 0 -0.17954222112279131 0.22028733385771601 0 -0.1788221898267236 0.19715687718134081 0 -0.17954222112279131 0.22028733385771601 0 -0.15990797247371319 0.20983642515242371 0 -0.1788221898267236 0.19715687718134081 0 -0.15990797247371319 0.20983642515242371 0 -0.1788221898267236 0.19715687718134081 0 -0.1619667199923161 0.183670933159823 0 -0.15990797247371319 0.20983642515242371 0 -0.1619667199923161 0.183670933159823 0 -0.1384230605616229 0.18453947031984619 0 -0.15990797247371319 0.20983642515242371 0 -0.136503475389816 0.2133416730908349 0 -0.1384230605616229 0.18453947031984619 0 -0.136503475389816 0.2133416730908349 0 -0.1384230605616229 0.18453947031984619 0 -0.119820104807698 0.19370119861435209 0 -0.136503475389816 0.2133416730908349 0 -0.119820104807698 0.19370119861435209 0 -0.15990797247371319 0.20983642515242371 0 -0.136503475389816 0.2133416730908349 0 -0.1531868459719341 0.23298214756731789 0 -0.136503475389816 0.2133416730908349 0 -0.1531868459719341 0.23298214756731789 0 -0.136503475389816 0.2133416730908349 0 -0.1531868459719341 0.23298214756731789 0 -0.1353718411527837 0.23342866312504501 0 -0.136503475389816 0.2133416730908349 0 -0.1353718411527837 0.23342866312504501 0 -0.1193735051047654 0.23165929220163881 0 -0.1353718411527837 0.23342866312504501 0 -0.12618237010676919 0.23948305500434899 0 -0.1193735051047654 0.23165929220163881 0 -0.1353718411527837 0.23342866312504501 0 -0.12618237010676919 0.23948305500434899 0 -0.13080009209158369 0.248653511388887 0 -0.12618237010676919 0.23948305500434899 0 -0.13080009209158369 0.248653511388887 0 -0.11834506109001321 0.24599273863695831 0 -0.1353718411527837 0.23342866312504501 0 -0.13080009209158369 0.248653511388887 0 -0.14338006668299039 0.24504042612717239 0 -0.1531868459719341 0.23298214756731789 0 -0.1353718411527837 0.23342866312504501 0 -0.14338006668299039 0.24504042612717239 0 -0.1613056348774605 0.25227308847041552 0 -0.1531868459719341 0.23298214756731789 0 -0.14338006668299039 0.24504042612717239 0 -0.15762510100064539 0.1391069964885909 0 -0.18463335175885059 0.14056294412537779 0 -0.17260759111883581 0.1628974209023297 0 -0.15762510100064539 0.1391069964885909 0 -0.17260759111883581 0.1628974209023297 0 -0.15106464882262649 0.16429201860202799 0 -0.16317531925559681 0.1231607542003217 0 -0.15762510100064539 0.1391069964885909 0 -0.17665148426277891 0.1263933483469476 0 -0.15762510100064539 0.1391069964885909 0 -0.18463335175885059 0.14056294412537779 0 -0.15762510100064539 0.1391069964885909 0 -0.18463335175885059 0.14056294412537779 0 -0.17665148426277891 0.1263933483469476 0 -0.19466210975850351 0.119648260718896 0 -0.18463335175885059 0.14056294412537779 0 -0.17665148426277891 0.1263933483469476 0 -0.19152601795077709 0.15885866476066449 0 -0.18463335175885059 0.14056294412537779 0 -0.17260759111883581 0.1628974209023297 0 -0.19152601795077709 0.15885866476066449 0 -0.17260759111883581 0.1628974209023297 0 -0.17776161767401449 0.18006114629094089 0 -0.19470827666743051 0.1775712513275047 0 -0.1788221898267236 0.19715687718134081 0 -0.17776161767401449 0.18006114629094089 0 -0.1788221898267236 0.19715687718134081 0 -0.17776161767401449 0.18006114629094089 0 -0.1619667199923161 0.183670933159823 0 -0.17260759111883581 0.1628974209023297 0 -0.17776161767401449 0.18006114629094089 0 -0.1619667199923161 0.183670933159823 0 -0.17260759111883581 0.1628974209023297 0 -0.1619667199923161 0.183670933159823 0 -0.15106464882262649 0.16429201860202799 0 -0.1619667199923161 0.183670933159823 0 -0.15106464882262649 0.16429201860202799 0 -0.1384230605616229 0.18453947031984619 0 -0.1384230605616229 0.18453947031984619 0 -0.1201196473384311 0.17637670440354 0 -0.119820104807698 0.19370119861435209 0 -0.1384230605616229 0.18453947031984619 0 -0.1281869871853642 0.1624363956469061 0 -0.1201196473384311 0.17637670440354 0 -0.15106464882262649 0.16429201860202799 0 -0.1384230605616229 0.18453947031984619 0 -0.1281869871853642 0.1624363956469061 0 -0.15106464882262649 0.16429201860202799 0 -0.1281869871853642 0.1624363956469061 0 -0.13061685024244041 0.13765104885180399 0 -0.15762510100064539 0.1391069964885909 0 -0.15106464882262649 0.16429201860202799 0 -0.13061685024244041 0.13765104885180399 0 -0.15762510100064539 0.1391069964885909 0 -0.13061685024244041 0.13765104885180399 0 -0.16317531925559681 0.1231607542003217 0 -0.14026609039652521 0.1203536664271762 0 -0.15762510100064539 0.1391069964885909 0 -0.14026609039652521 0.1203536664271762 0 -0.15762510100064539 0.1391069964885909 0 -0.13061685024244041 0.13765104885180399 0 -0.14026609039652521 0.1203536664271762 0 -0.13061685024244041 0.13765104885180399 0 -0.117932977033919 0.1249899609003047 0 -0.13061685024244041 0.13765104885180399 0 -0.1036085994842352 0.13619510121502121 0 -0.117932977033919 0.1249899609003047 0 -0.13061685024244041 0.13765104885180399 0 -0.1036085994842352 0.13619510121502121 0 -0.1036085994842352 0.13619510121502121 0 -0.094751464661697801 0.14555260315147109 0 -0.086951614690011433 0.13529716458579041 0 -0.1036085994842352 0.13619510121502121 0 -0.086951614690011433 0.13529716458579041 0 -0.093008698924671507 0.13310759294382651 0 -0.105538569733004 0.12819524742989369 0 -0.1037257929953531 0.1267907104072378 0 -0.1091649361089863 0.1216427434129702 0 -0.105538569733004 0.12819524742989369 0 -0.1037257929953531 0.1267907104072378 0 -0.1036085994842352 0.13619510121502121 0 -0.1036085994842352 0.13619510121502121 0 -0.086951614690011433 0.13529716458579041 0 -0.105538569733004 0.12819524742989369 0 -0.1036085994842352 0.13619510121502121 0 -0.117932977033919 0.1249899609003047 0 -0.1037257929953531 0.1267907104072378 0 -0.1036085994842352 0.13619510121502121 0 -0.105538569733004 0.12819524742989369 0 -0.1037257929953531 0.1267907104072378 0 -0.1037257929953531 0.1267907104072378 0 -0.088682851689845785 0.12873749640737309 0 -0.093008698924671507 0.13310759294382651 0 -0.1037257929953531 0.1267907104072378 0 -0.1036085994842352 0.13619510121502121 0 -0.093008698924671507 0.13310759294382651 0 -0.1036085994842352 0.13619510121502121 0 -0.1033726668549078 0.15512791267644499 0 -0.1160784551641694 0.14968328407141229 0 -0.1036085994842352 0.13619510121502121 0 -0.094751464661697801 0.14555260315147109 0 -0.1033726668549078 0.15512791267644499 0 -0.1036085994842352 0.13619510121502121 0 -0.1033726668549078 0.15512791267644499 0 -0.094751464661697801 0.14555260315147109 0 -0.1033726668549078 0.15512791267644499 0 -0.087783927975527892 0.15520717764337441 0 -0.1281869871853642 0.1624363956469061 0 -0.13061685024244041 0.13765104885180399 0 -0.1160784551641694 0.14968328407141229 0 -0.13061685024244041 0.13765104885180399 0 -0.1036085994842352 0.13619510121502121 0 -0.1160784551641694 0.14968328407141229 0 -0.1281869871853642 0.1624363956469061 0 -0.1160784551641694 0.14968328407141229 0 -0.1134984240552141 0.16472197132484001 0 -0.1134984240552141 0.16472197132484001 0 -0.1201196473384311 0.17637670440354 0 -0.1031367342255802 0.17406072413786891 0 -0.1281869871853642 0.1624363956469061 0 -0.1134984240552141 0.16472197132484001 0 -0.1201196473384311 0.17637670440354 0 -0.1033726668549078 0.15512791267644499 0 -0.1160784551641694 0.14968328407141229 0 -0.1134984240552141 0.16472197132484001 0 -0.1031367342255802 0.17406072413786891 0 -0.119820104807698 0.19370119861435209 0 -0.1201196473384311 0.17637670440354 0 -0.1031367342255802 0.17406072413786891 0 -0.119820104807698 0.19370119861435209 0 -0.1030615486394274 0.18009411821021501 0 -0.1031367342255802 0.17406072413786891 0 -0.119820104807698 0.19370119861435209 0 -0.1030615486394274 0.18009411821021501 0 -0.1031367342255802 0.17406072413786891 0 -0.1031367342255802 0.17406072413786891 0 -0.1018984921351946 0.17260300538420281 0 -0.1018984921351946 0.17260300538420281 0 -0.098180323065286026 0.17701612495541519 0 -0.092423853210291576 0.16670351718698551 0 -0.1031367342255802 0.17406072413786891 0 -0.1018984921351946 0.17260300538420281 0 -0.098180323065286026 0.17701612495541519 0 -0.1030615486394274 0.18009411821021501 0 -0.1031367342255802 0.17406072413786891 0 -0.098180323065286026 0.17701612495541519 0 -0.1030615486394274 0.18009411821021501 0 -0.098180323065286026 0.17701612495541519 0 -0.0936165913377352 0.18667570100994299 0 -0.1030615486394274 0.18009411821021501 0 -0.0936165913377352 0.18667570100994299 0 -0.1046679756608693 0.1936673705932602 0 -0.1033726668549078 0.15512791267644499 0 -0.1031367342255802 0.17406072413786891 0 -0.1018984921351946 0.17260300538420281 0 -0.1033726668549078 0.15512791267644499 0 -0.1018984921351946 0.17260300538420281 0 -0.092423853210291576 0.16670351718698551 0 -0.1033726668549078 0.15512791267644499 0 -0.1134984240552141 0.16472197132484001 0 -0.1031367342255802 0.17406072413786891 0 -0.1033726668549078 0.15512791267644499 0 -0.1031367342255802 0.17406072413786891 0 -0.1033726668549078 0.15512791267644499 0 -0.092423853210291576 0.16670351718698551 0 -0.087783927975527892 0.15520717764337441 0 -0.092423853210291576 0.16670351718698551 0 -0.078354956500069406 0.164376064958279 0 -0.087783927975527892 0.15520717764337441 0 -0.092423853210291576 0.16670351718698551 0 -0.078354956500069406 0.164376064958279 0 -0.084289785144985918 0.17680600069132379 0 -0.078354956500069406 0.164376064958279 0 -0.076477412207331785 0.15265725524117771 0 -0.087783927975527892 0.15520717764337441 0 -0.0936165913377352 0.18667570100994299 0 -0.084289785144985918 0.17680600069132379 0 -0.075132630577516513 0.18897135603618331 0 -0.098180323065286026 0.17701612495541519 0 -0.0936165913377352 0.18667570100994299 0 -0.084289785144985918 0.17680600069132379 0 -0.098180323065286026 0.17701612495541519 0 -0.092423853210291576 0.16670351718698551 0 -0.084289785144985918 0.17680600069132379 0 -0.084289785144985918 0.17680600069132379 0 -0.069699586956280202 0.1726646441713762 0 -0.075132630577516513 0.18897135603618331 0 -0.069699586956280202 0.1726646441713762 0 -0.075132630577516513 0.18897135603618331 0 -0.05696619393996176 0.17865114180386829 0 -0.069699586956280202 0.1726646441713762 0 -0.067282728806680708 0.15602516978365641 0 -0.055938343494260259 0.1619684778838954 0 -0.078354956500069406 0.164376064958279 0 -0.069699586956280202 0.1726646441713762 0 -0.067282728806680708 0.15602516978365641 0 -0.078354956500069406 0.164376064958279 0 -0.067282728806680708 0.15602516978365641 0 -0.076477412207331785 0.15265725524117771 0 -0.078354956500069406 0.164376064958279 0 -0.084289785144985918 0.17680600069132379 0 -0.069699586956280202 0.1726646441713762 0 -0.062980869721965427 0.1439623343911676 0 -0.086951614690011433 0.13529716458579041 0 -0.082071260605860799 0.1462339097949916 0 -0.067282728806680708 0.15602516978365641 0 -0.076477412207331785 0.15265725524117771 0 -0.062980869721965427 0.1439623343911676 0 -0.076477412207331785 0.15265725524117771 0 -0.062980869721965427 0.1439623343911676 0 -0.082071260605860799 0.1462339097949916 0 -0.062980869721965427 0.1439623343911676 0 -0.062902184349766535 0.1303447806329612 0 -0.074470163248917282 0.13462432057630461 0 -0.062980869721965427 0.1439623343911676 0 -0.074470163248917282 0.13462432057630461 0 -0.086951614690011433 0.13529716458579041 0 -0.062980869721965427 0.1439623343911676 0 -0.086951614690011433 0.13529716458579041 0 -0.062902184349766535 0.1303447806329612 0 -0.074470163248917282 0.13462432057630461 0 -0.072981723234121665 0.1221779342362309 0 -0.074470163248917282 0.13462432057630461 0 -0.081025372315448402 0.1291269853407459 0 -0.072981723234121665 0.1221779342362309 0 -0.1037257929953531 0.1267907104072378 0 -0.088682851689845785 0.12873749640737309 0 -0.085512313659306907 0.1218428369365176 0 -0.074470163248917282 0.13462432057630461 0 -0.086951614690011433 0.13529716458579041 0 -0.074470163248917282 0.13462432057630461 0 -0.081025372315448402 0.1291269853407459 0 -0.086951614690011433 0.13529716458579041 0 -0.081025372315448402 0.1291269853407459 0 -0.088682851689845785 0.12873749640737309 0 -0.086951614690011433 0.13529716458579041 0 -0.081025372315448402 0.1291269853407459 0 -0.088682851689845785 0.12873749640737309 0 -0.085512313659306907 0.1218428369365176 0 -0.088682851689845785 0.12873749640737309 0 -0.086951614690011433 0.13529716458579041 0 -0.093008698924671507 0.13310759294382651 0 -0.086951614690011433 0.13529716458579041 0 -0.093008698924671507 0.13310759294382651 0 -0.094751464661697801 0.14555260315147109 0 -0.086951614690011433 0.13529716458579041 0 -0.082071260605860799 0.1462339097949916 0 -0.094751464661697801 0.14555260315147109 0 -0.087783927975527892 0.15520717764337441 0 -0.082071260605860799 0.1462339097949916 0 -0.076477412207331785 0.15265725524117771 0 -0.087783927975527892 0.15520717764337441 0 -0.082071260605860799 0.1462339097949916 0 -0.096997581049110673 0.25056214292982337 0 -0.098854575557917962 0.24047599568994721 0 -0.085548685644658812 0.24483507948975389 0 -0.098854575557917962 0.24047599568994721 0 -0.1100823356563858 0.2382265755302477 0 -0.1059223062534619 0.2274651888695273 0 -0.098854575557917962 0.24047599568994721 0 -0.1079162302757703 0.2455396622531667 0 -0.1100823356563858 0.2382265755302477 0 -0.10512199094870139 0.25442771655864621 0 -0.098854575557917962 0.24047599568994721 0 -0.1079162302757703 0.2455396622531667 0 -0.1079162302757703 0.2455396622531667 0 -0.11834506109001321 0.24599273863695831 0 -0.1100823356563858 0.2382265755302477 0 -0.10512199094870139 0.25442771655864621 0 -0.1079162302757703 0.2455396622531667 0 -0.11834506109001321 0.24599273863695831 0 -0.12618237010676919 0.23948305500434899 0 -0.11834506109001321 0.24599273863695831 0 -0.1193735051047654 0.23165929220163881 0 -0.11834506109001321 0.24599273863695831 0 -0.1100823356563858 0.2382265755302477 0 -0.1193735051047654 0.23165929220163881 0 -0.1100823356563858 0.2382265755302477 0 -0.1193735051047654 0.23165929220163881 0 -0.1059223062534619 0.2274651888695273 0 -0.1193735051047654 0.23165929220163881 0 -0.1059223062534619 0.2274651888695273 0 -0.11077434960718791 0.21107541259117141 0 -0.098854575557917962 0.24047599568994721 0 -0.095263362928257378 0.21976797567162529 0 -0.1059223062534619 0.2274651888695273 0 -0.098854575557917962 0.24047599568994721 0 -0.095263362928257378 0.21976797567162529 0 -0.095263362928257378 0.21976797567162529 0 -0.1059223062534619 0.2274651888695273 0 -0.11077434960718791 0.21107541259117141 0 -0.095263362928257378 0.21976797567162529 0 -0.11077434960718791 0.21107541259117141 0 -0.091672150298596794 0.19905995565330339 0 -0.136503475389816 0.2133416730908349 0 -0.11077434960718791 0.21107541259117141 0 -0.119820104807698 0.19370119861435209 0 -0.136503475389816 0.2133416730908349 0 -0.1193735051047654 0.23165929220163881 0 -0.11077434960718791 0.21107541259117141 0 -0.11077434960718791 0.21107541259117141 0 -0.119820104807698 0.19370119861435209 0 -0.1046679756608693 0.1936673705932602 0 -0.1030615486394274 0.18009411821021501 0 -0.119820104807698 0.19370119861435209 0 -0.1046679756608693 0.1936673705932602 0 -0.11077434960718791 0.21107541259117141 0 -0.1046679756608693 0.1936673705932602 0 -0.091672150298596794 0.19905995565330339 0 -0.0936165913377352 0.18667570100994299 0 -0.1046679756608693 0.1936673705932602 0 -0.091672150298596794 0.19905995565330339 0 -0.0936165913377352 0.18667570100994299 0 -0.091672150298596794 0.19905995565330339 0 -0.075132630577516513 0.18897135603618331 0 -0.091672150298596794 0.19905995565330339 0 -0.075132630577516513 0.18897135603618331 0 -0.076579395405852208 0.21059188150891439 0 -0.075132630577516513 0.18897135603618331 0 -0.076579395405852208 0.21059188150891439 0 -0.055302196625204157 0.1993891525043788 0 -0.076579395405852208 0.21059188150891439 0 -0.061566935261274269 0.22788521835854289 0 -0.055302196625204157 0.1993891525043788 0 -0.095263362928257378 0.21976797567162529 0 -0.091672150298596794 0.19905995565330339 0 -0.095263362928257378 0.21976797567162529 0 -0.091672150298596794 0.19905995565330339 0 -0.076579395405852208 0.21059188150891439 0 -0.095263362928257378 0.21976797567162529 0 -0.076579395405852208 0.21059188150891439 0 -0.080539096744264183 0.2284776308294526 0 -0.098854575557917962 0.24047599568994721 0 -0.095263362928257378 0.21976797567162529 0 -0.080539096744264183 0.2284776308294526 0 -0.076579395405852208 0.21059188150891439 0 -0.080539096744264183 0.2284776308294526 0 -0.061566935261274269 0.22788521835854289 0 -0.080539096744264183 0.2284776308294526 0 -0.085548685644658812 0.24483507948975389 0 -0.061566935261274269 0.22788521835854289 0 -0.085548685644658812 0.24483507948975389 0 -0.061566935261274269 0.22788521835854289 0 -0.069152285319889512 0.24752277705149431 0 -0.085548685644658812 0.24483507948975389 0 -0.061566935261274269 0.22788521835854289 0 -0.078764058213084659 0.25389215980425162 0 -0.069152285319889512 0.24752277705149431 0 -0.085548685644658812 0.24483507948975389 0 -0.098854575557917962 0.24047599568994721 0 -0.080539096744264183 0.2284776308294526 0 -0.085548685644658812 0.24483507948975389 0 -0.043153712588046289 0.25485468974623288 0 -0.040971529782478103 0.236528876692948 0 -0.054470562174323903 0.24673916689566999 0 -0.043153712588046289 0.25485468974623288 0 -0.040971529782478103 0.236528876692948 0 -0.025069253836144952 0.2467768617014772 0 -0.069152285319889512 0.24752277705149431 0 -0.054470562174323903 0.24673916689566999 0 -0.061566935261274269 0.22788521835854289 0 -0.040971529782478103 0.236528876692948 0 -0.054470562174323903 0.24673916689566999 0 -0.061566935261274269 0.22788521835854289 0 -0.061566935261274269 0.22788521835854289 0 -0.037585184877889713 0.21093535722733189 0 -0.040971529782478103 0.236528876692948 0 -0.037585184877889713 0.21093535722733189 0 -0.024036850456169549 0.23181958493323301 0 -0.040971529782478103 0.236528876692948 0 -0.061566935261274269 0.22788521835854289 0 -0.037585184877889713 0.21093535722733189 0 -0.061566935261274269 0.22788521835854289 0 -0.037585184877889713 0.21093535722733189 0 -0.055302196625204157 0.1993891525043788 0 -0.075132630577516513 0.18897135603618331 0 -0.055302196625204157 0.1993891525043788 0 -0.05696619393996176 0.17865114180386829 0 -0.037585184877889713 0.21093535722733189 0 -0.055302196625204157 0.1993891525043788 0 -0.035333810431642562 0.19396509466376441 0 -0.055302196625204157 0.1993891525043788 0 -0.035333810431642562 0.19396509466376441 0 -0.042343483150745639 0.1816416726589932 0 -0.037585184877889713 0.21093535722733189 0 -0.035333810431642562 0.19396509466376441 0 -0.013603434494504839 0.19398549609612109 0 -0.037585184877889713 0.21093535722733189 0 -0.013603434494504839 0.19398549609612109 0 -0.035333810431642562 0.19396509466376441 0 -0.013603434494504839 0.19398549609612109 0 -0.02783475300986861 0.1838737948319967 0 -0.013603434494504839 0.19398549609612109 0 0.001455357747937643 0.18334221805207929 0 0.003476259735499572 0.2017412353069529 0 -0.013603434494504839 0.19398549609612109 0 0.001455357747937643 0.18334221805207929 0 -0.013603434494504839 0.19398549609612109 0 -0.012538789678792109 0.2182247507271107 0 0.003476259735499572 0.2017412353069529 0 -0.013603434494504839 0.19398549609612109 0 -0.012538789678792109 0.2182247507271107 0 -0.037585184877889713 0.21093535722733189 0 -0.013603434494504839 0.19398549609612109 0 -0.012538789678792109 0.2182247507271107 0 -0.037585184877889713 0.21093535722733189 0 -0.012538789678792109 0.2182247507271107 0 -0.024036850456169549 0.23181958493323301 0 -0.012538789678792109 0.2182247507271107 0 -0.024036850456169549 0.23181958493323301 0 -0.011474144863079599 0.24246400535810039 0 -0.012538789678792109 0.2182247507271107 0 -0.011474144863079599 0.24246400535810039 0 -0.012538789678792109 0.2182247507271107 0 -0.011474144863079599 0.24246400535810039 0 0.0064938139601692499 0.235805076511858 0 -0.0027776851774954509 0.25257493582532792 0 -0.011474144863079599 0.24246400535810039 0 -0.025069253836144952 0.2467768617014772 0 -0.0027776851774954509 0.25257493582532792 0 -0.011474144863079599 0.24246400535810039 0 0.0064938139601692499 0.235805076511858 0 -0.040971529782478103 0.236528876692948 0 -0.024036850456169549 0.23181958493323301 0 -0.025069253836144952 0.2467768617014772 0 -0.024036850456169549 0.23181958493323301 0 -0.011474144863079599 0.24246400535810039 0 -0.025069253836144952 0.2467768617014772 0 -0.039010124753919219 0.15262750419654431 0 -0.032602830810075138 0.13440501861965021 0 -0.02365855346037123 0.149157791165726 0 -0.039010124753919219 0.15262750419654431 0 -0.032602830810075138 0.13440501861965021 0 -0.049047861005029003 0.13323996401506619 0 -0.032602830810075138 0.13440501861965021 0 -0.049047861005029003 0.13323996401506619 0 -0.040746935049833399 0.1230838621614138 0 -0.032602830810075138 0.13440501861965021 0 -0.025229296496558241 0.1200111422506132 0 -0.040746935049833399 0.1230838621614138 0 -0.062902184349766535 0.1303447806329612 0 -0.049047861005029003 0.13323996401506619 0 -0.055030304538799292 0.1177193499460369 0 -0.062980869721965427 0.1439623343911676 0 -0.062902184349766535 0.1303447806329612 0 -0.049047861005029003 0.13323996401506619 0 -0.062980869721965427 0.1439623343911676 0 -0.039010124753919219 0.15262750419654431 0 -0.055938343494260259 0.1619684778838954 0 -0.062980869721965427 0.1439623343911676 0 -0.039010124753919219 0.15262750419654431 0 -0.049047861005029003 0.13323996401506619 0 -0.067282728806680708 0.15602516978365641 0 -0.062980869721965427 0.1439623343911676 0 -0.055938343494260259 0.1619684778838954 0 -0.062980869721965427 0.1439623343911676 0 -0.039010124753919219 0.15262750419654431 0 -0.069699586956280202 0.1726646441713762 0 -0.055938343494260259 0.1619684778838954 0 -0.05696619393996176 0.17865114180386829 0 -0.055938343494260259 0.1619684778838954 0 -0.05696619393996176 0.17865114180386829 0 -0.043380922835763808 0.16727154756838261 0 -0.055302196625204157 0.1993891525043788 0 -0.05696619393996176 0.17865114180386829 0 -0.042343483150745639 0.1816416726589932 0 -0.05696619393996176 0.17865114180386829 0 -0.042343483150745639 0.1816416726589932 0 -0.043380922835763808 0.16727154756838261 0 -0.042343483150745639 0.1816416726589932 0 -0.043380922835763808 0.16727154756838261 0 -0.029697507236266029 0.17049098725747849 0 -0.042343483150745639 0.1816416726589932 0 -0.029697507236266029 0.17049098725747849 0 -0.02783475300986861 0.1838737948319967 0 -0.035333810431642562 0.19396509466376441 0 -0.042343483150745639 0.1816416726589932 0 -0.02783475300986861 0.1838737948319967 0 -0.039010124753919219 0.15262750419654431 0 -0.043380922835763808 0.16727154756838261 0 -0.029697507236266029 0.17049098725747849 0 -0.039010124753919219 0.15262750419654431 0 -0.055938343494260259 0.1619684778838954 0 -0.043380922835763808 0.16727154756838261 0 -0.029697507236266029 0.17049098725747849 0 -0.01432140714018787 0.17763908504902071 0 -0.015039379785872799 0.16129267400192029 0 -0.039010124753919219 0.15262750419654431 0 -0.015039379785872799 0.16129267400192029 0 -0.039010124753919219 0.15262750419654431 0 -0.029697507236266029 0.17049098725747849 0 -0.015039379785872799 0.16129267400192029 0 -0.013603434494504839 0.19398549609612109 0 -0.02783475300986861 0.1838737948319967 0 -0.01432140714018787 0.17763908504902071 0 -0.029697507236266029 0.17049098725747849 0 -0.02783475300986861 0.1838737948319967 0 -0.01432140714018787 0.17763908504902071 0 -0.013603434494504839 0.19398549609612109 0 -0.01432140714018787 0.17763908504902071 0 -0.013603434494504839 0.19398549609612109 0 -0.01432140714018787 0.17763908504902071 0 0.001455357747937643 0.18334221805207929 0 -0.01432140714018787 0.17763908504902071 0 0.00073738510225316092 0.16699580700497749 0 0.001455357747937643 0.18334221805207929 0 -0.015039379785872799 0.16129267400192029 0 0.00073738510225316092 0.16699580700497749 0 -0.015039379785872799 0.16129267400192029 0 -0.0060862720669060486 0.15735157818401069 0 0.00073738510225316092 0.16699580700497749 0 -0.0060862720669060486 0.15735157818401069 0 3.6127928222628861e-05 0.15033432619036749 0 0.00073738510225316092 0.16699580700497749 0 -0.01432140714018787 0.17763908504902071 0 -0.015039379785872799 0.16129267400192029 0 0.00073738510225316092 0.16699580700497749 0 -0.01432140714018787 0.17763908504902071 0 -0.015039379785872799 0.16129267400192029 0 -0.015039379785872799 0.16129267400192029 0 -0.0060862720669060486 0.15735157818401069 0 -0.01535043983835719 0.1542106277584572 0 -0.015039379785872799 0.16129267400192029 0 -0.01535043983835719 0.1542106277584572 0 -0.0060862720669060486 0.15735157818401069 0 -0.01535043983835719 0.1542106277584572 0 3.6127928222628861e-05 0.15033432619036749 0 -0.015997548024419321 0.1444062333589089 0 -0.0078271557630911481 0.1362296072740462 0 3.6127928222628861e-05 0.15033432619036749 0 -0.01535043983835719 0.1542106277584572 0 -0.015997548024419321 0.1444062333589089 0 3.6127928222628861e-05 0.15033432619036749 0 -0.039010124753919219 0.15262750419654431 0 -0.015039379785872799 0.16129267400192029 0 -0.02365855346037123 0.149157791165726 0 -0.015039379785872799 0.16129267400192029 0 -0.01535043983835719 0.1542106277584572 0 -0.02365855346037123 0.149157791165726 0 -0.032602830810075138 0.13440501861965021 0 -0.015997548024419321 0.1444062333589089 0 -0.02365855346037123 0.149157791165726 0 -0.01535043983835719 0.1542106277584572 0 -0.015997548024419321 0.1444062333589089 0 -0.02365855346037123 0.149157791165726 0 -0.032602830810075138 0.13440501861965021 0 -0.0078271557630911481 0.1362296072740462 0 -0.032602830810075138 0.13440501861965021 0 -0.015997548024419321 0.1444062333589089 0 -0.0078271557630911481 0.1362296072740462 0 -0.032602830810075138 0.13440501861965021 0 -0.0078271557630911481 0.1362296072740462 0 -0.025229296496558241 0.1200111422506132 0 -0.0078271557630911481 0.1362296072740462 0 -0.010405554782164719 0.1173276413030134 0 0.0044853743667673286 0.1230927126056903 0 -0.010405554782164719 0.1173276413030134 0 0.0056846848015870014 0.1065612570498935 0 0.0044853743667673286 0.1230927126056903 0 -0.0078271557630911481 0.1362296072740462 0 -0.010405554782164719 0.1173276413030134 0 -0.025229296496558241 0.1200111422506132 0 -0.010405554782164719 0.1173276413030134 0 -0.020583177874181579 0.099574027488301076 0 0.0056846848015870014 0.1065612570498935 0 -0.020583177874181579 0.099574027488301076 0 0.0056846848015870014 0.1065612570498935 0 -0.020583177874181579 0.099574027488301076 0 -0.00097150747810838603 0.091366537172643425 0 0.0056846848015870014 0.1065612570498935 0 -0.020583177874181579 0.099574027488301076 0 -0.025229296496558241 0.1200111422506132 0 -0.039210124700003512 0.1094466966572544 0 -0.010405554782164719 0.1173276413030134 0 -0.020583177874181579 0.099574027488301076 0 -0.025229296496558241 0.1200111422506132 0 -0.0034146629761764979 0.078459957373855332 0 -0.01641452711443829 0.066175692760165328 0 0.0075564468419056794 0.064643204089841588 0 -0.0034146629761764979 0.078459957373855332 0 -0.01846110308930704 0.082801878868459716 0 -0.01641452711443829 0.066175692760165328 0 -0.00097150747810838603 0.091366537172643425 0 -0.0034146629761764979 0.078459957373855332 0 -0.01846110308930704 0.082801878868459716 0 -0.020583177874181579 0.099574027488301076 0 -0.00097150747810838603 0.091366537172643425 0 -0.01846110308930704 0.082801878868459716 0 -0.020583177874181579 0.099574027488301076 0 -0.01846110308930704 0.082801878868459716 0 -0.031380728709817958 0.087263836795197655 0 -0.01846110308930704 0.082801878868459716 0 -0.035292716145263699 0.073768852826052805 0 -0.031380728709817958 0.087263836795197655 0 -0.01846110308930704 0.082801878868459716 0 -0.01641452711443829 0.066175692760165328 0 -0.035292716145263699 0.073768852826052805 0 -0.020583177874181579 0.099574027488301076 0 -0.031380728709817958 0.087263836795197655 0 -0.046851040549950158 0.092586797926708653 0 -0.035292716145263699 0.073768852826052805 0 -0.046851040549950158 0.092586797926708653 0 -0.058103741761960162 0.091442805353114442 0 -0.035292716145263699 0.073768852826052805 0 -0.058103741761960162 0.091442805353114442 0 -0.035292716145263699 0.073768852826052805 0 -0.031380728709817958 0.087263836795197655 0 -0.046851040549950158 0.092586797926708653 0 -0.035292716145263699 0.073768852826052805 0 -0.058103741761960162 0.091442805353114442 0 -0.061654664636582653 0.078008794236807205 0 -0.035292716145263699 0.073768852826052805 0 -0.05827718792851401 0.065095025929475581 0 -0.050760042390073791 0.051064253489881029 0 -0.035292716145263699 0.073768852826052805 0 -0.061654664636582653 0.078008794236807205 0 -0.05827718792851401 0.065095025929475581 0 -0.039210124700003512 0.1094466966572544 0 -0.040746935049833399 0.1230838621614138 0 -0.055030304538799292 0.1177193499460369 0 -0.025229296496558241 0.1200111422506132 0 -0.039210124700003512 0.1094466966572544 0 -0.040746935049833399 0.1230838621614138 0 -0.020583177874181579 0.099574027488301076 0 -0.046851040549950158 0.092586797926708653 0 -0.039210124700003512 0.1094466966572544 0 -0.046851040549950158 0.092586797926708653 0 -0.039210124700003512 0.1094466966572544 0 -0.053194664607470417 0.1041190583902165 0 -0.020583177874181579 0.099574027488301076 0 -0.046851040549950158 0.092586797926708653 0 -0.058103741761960162 0.091442805353114442 0 -0.053194664607470417 0.1041190583902165 0 -0.064045040304201634 0.10891518116115501 0 -0.046851040549950158 0.092586797926708653 0 -0.058103741761960162 0.091442805353114442 0 -0.053194664607470417 0.1041190583902165 0 -0.053194664607470417 0.1041190583902165 0 -0.055030304538799292 0.1177193499460369 0 -0.064045040304201634 0.10891518116115501 0 -0.039210124700003512 0.1094466966572544 0 -0.053194664607470417 0.1041190583902165 0 -0.055030304538799292 0.1177193499460369 0 -0.049047861005029003 0.13323996401506619 0 -0.040746935049833399 0.1230838621614138 0 -0.055030304538799292 0.1177193499460369 0 -0.055030304538799292 0.1177193499460369 0 -0.072981723234121665 0.1221779342362309 0 -0.064045040304201634 0.10891518116115501 0 -0.062902184349766535 0.1303447806329612 0 -0.055030304538799292 0.1177193499460369 0 -0.072981723234121665 0.1221779342362309 0 -0.072981723234121665 0.1221779342362309 0 -0.080914767378656632 0.10911675788017609 0 -0.064045040304201634 0.10891518116115501 0 -0.1037257929953531 0.1267907104072378 0 -0.085512313659306907 0.1218428369365176 0 -0.080914767378656632 0.10911675788017609 0 -0.1037257929953531 0.1267907104072378 0 -0.080914767378656632 0.10911675788017609 0 -0.072981723234121665 0.1221779342362309 0 -0.085512313659306907 0.1218428369365176 0 -0.080914767378656632 0.10911675788017609 0 -0.081025372315448402 0.1291269853407459 0 -0.072981723234121665 0.1221779342362309 0 -0.085512313659306907 0.1218428369365176 0 -0.1037257929953531 0.1267907104072378 0 -0.080914767378656632 0.10911675788017609 0 -0.096537186047811058 0.1123425486614833 0 -0.093099075919428981 0.1039345092794579 0 -0.080914767378656632 0.10911675788017609 0 -0.085940342767475988 0.092184759686669421 0 -0.080914767378656632 0.10911675788017609 0 -0.072704669893251 0.089942218163198237 0 -0.085940342767475988 0.092184759686669421 0 -0.093099075919428981 0.1039345092794579 0 -0.085940342767475988 0.092184759686669421 0 -0.09705159711187189 0.094859645641942492 0 -0.093099075919428981 0.1039345092794579 0 -0.080914767378656632 0.10911675788017609 0 -0.096537186047811058 0.1123425486614833 0 -0.058103741761960162 0.091442805353114442 0 -0.080914767378656632 0.10911675788017609 0 -0.058103741761960162 0.091442805353114442 0 -0.080914767378656632 0.10911675788017609 0 -0.064045040304201634 0.10891518116115501 0 -0.058103741761960162 0.091442805353114442 0 -0.080914767378656632 0.10911675788017609 0 -0.072704669893251 0.089942218163198237 0 -0.058103741761960162 0.091442805353114442 0 -0.061654664636582653 0.078008794236807205 0 -0.072704669893251 0.089942218163198237 0 -0.061654664636582653 0.078008794236807205 0 -0.076909832921579546 0.078957973659224009 0 -0.072704669893251 0.089942218163198237 0 -0.061654664636582653 0.078008794236807205 0 -0.05827718792851401 0.065095025929475581 0 -0.072184788952376233 0.066193251564796843 0 -0.061654664636582653 0.078008794236807205 0 -0.076909832921579546 0.078957973659224009 0 -0.072184788952376233 0.066193251564796843 0 -0.076909832921579546 0.078957973659224009 0 -0.072184788952376233 0.066193251564796843 0 -0.08781716760106946 0.065673508515114165 0 -0.076909832921579546 0.078957973659224009 0 -0.08781716760106946 0.065673508515114165 0 -0.090378246530231979 0.080554170131931224 0 -0.076909832921579546 0.078957973659224009 0 -0.072704669893251 0.089942218163198237 0 -0.085940342767475988 0.092184759686669421 0 -0.076909832921579546 0.078957973659224009 0 -0.090378246530231979 0.080554170131931224 0 -0.085940342767475988 0.092184759686669421 0 -0.085940342767475988 0.092184759686669421 0 -0.094898982936379661 0.087690379367768093 0 -0.09705159711187189 0.094859645641942492 0 -0.090378246530231979 0.080554170131931224 0 -0.085940342767475988 0.092184759686669421 0 -0.094898982936379661 0.087690379367768093 0 -0.094898982936379661 0.087690379367768093 0 -0.1042836329562354 0.082025902609657558 0 -0.09705159711187189 0.094859645641942492 0 -0.1042836329562354 0.082025902609657558 0 -0.1040047129757936 0.10440830650844771 0 -0.1042836329562354 0.082025902609657558 0 -0.10763455016213321 0.085353606372858368 0 -0.1040047129757936 0.10440830650844771 0 -0.090378246530231979 0.080554170131931224 0 -0.094898982936379661 0.087690379367768093 0 -0.1042836329562354 0.082025902609657558 0 -0.1042836329562354 0.082025902609657558 0 -0.10763455016213321 0.085353606372858368 0 -0.1137966244299025 0.075293020842914421 0 -0.1042836329562354 0.082025902609657558 0 -0.10763455016213321 0.085353606372858368 0 -0.08781716760106946 0.065673508515114165 0 -0.1042836329562354 0.082025902609657558 0 -0.1046412986898947 0.053324413032227853 0 -0.1042836329562354 0.082025902609657558 0 -0.1046412986898947 0.053324413032227853 0 -0.08781716760106946 0.065673508515114165 0 -0.1042836329562354 0.082025902609657558 0 -0.1042836329562354 0.082025902609657558 0 -0.1137966244299025 0.075293020842914421 0 -0.1046412986898947 0.053324413032227853 0 -0.08781716760106946 0.065673508515114165 0 -0.090378246530231979 0.080554170131931224 0 -0.1042836329562354 0.082025902609657558 0 -0.1137966244299025 0.075293020842914421 0 -0.1218326549953173 0.066328162818498321 0 -0.1046412986898947 0.053324413032227853 0 -0.1352622788255794 0.082307407319906087 0 -0.1137966244299025 0.075293020842914421 0 -0.1218326549953173 0.066328162818498321 0 -0.1352622788255794 0.082307407319906087 0 -0.10763455016213321 0.085353606372858368 0 -0.1137966244299025 0.075293020842914421 0 -0.1352622788255794 0.082307407319906087 0 -0.10763455016213321 0.085353606372858368 0 -0.1138485410632052 0.10037445756896 0 -0.1352622788255794 0.082307407319906087 0 -0.1138485410632052 0.10037445756896 0 -0.1138485410632052 0.10037445756896 0 -0.1115005669371234 0.1088673119326696 0 -0.1181203545222123 0.1083931156947496 0 -0.1138485410632052 0.10037445756896 0 -0.1115005669371234 0.1088673119326696 0 -0.1040047129757936 0.10440830650844771 0 -0.12807758088514329 0.1094925884079999 0 -0.12690990155583071 0.100532206000305 0 -0.1181203545222123 0.1083931156947496 0 -0.12690990155583071 0.100532206000305 0 -0.1138485410632052 0.10037445756896 0 -0.1181203545222123 0.1083931156947496 0 -0.12807758088514329 0.1094925884079999 0 -0.1181203545222123 0.1083931156947496 0 -0.12379328285889681 0.11583854925377519 0 -0.1181203545222123 0.1083931156947496 0 -0.12379328285889681 0.11583854925377519 0 -0.11456941145668439 0.11596341483864531 0 -0.12379328285889681 0.11583854925377519 0 -0.117932977033919 0.1249899609003047 0 -0.11456941145668439 0.11596341483864531 0 -0.117932977033919 0.1249899609003047 0 -0.11456941145668439 0.11596341483864531 0 -0.1091649361089863 0.1216427434129702 0 -0.105538569733004 0.12819524742989369 0 -0.117932977033919 0.1249899609003047 0 -0.1091649361089863 0.1216427434129702 0 -0.11456941145668439 0.11596341483864531 0 -0.1085930840947881 0.11553449741999409 0 -0.1091649361089863 0.1216427434129702 0 -0.1115005669371234 0.1088673119326696 0 -0.1181203545222123 0.1083931156947496 0 -0.11456941145668439 0.11596341483864531 0 -0.1115005669371234 0.1088673119326696 0 -0.11456941145668439 0.11596341483864531 0 -0.1085930840947881 0.11553449741999409 0 -0.1115005669371234 0.1088673119326696 0 -0.1085930840947881 0.11553449741999409 0 -0.1040047129757936 0.10440830650844771 0 -0.1037257929953531 0.1267907104072378 0 -0.1085930840947881 0.11553449741999409 0 -0.1040047129757936 0.10440830650844771 0 -0.1037257929953531 0.1267907104072378 0 -0.096537186047811058 0.1123425486614833 0 -0.1040047129757936 0.10440830650844771 0 -0.1037257929953531 0.1267907104072378 0 -0.1040047129757936 0.10440830650844771 0 -0.1037257929953531 0.1267907104072378 0 -0.1085930840947881 0.11553449741999409 0 -0.1091649361089863 0.1216427434129702 0 -0.093099075919428981 0.1039345092794579 0 -0.096537186047811058 0.1123425486614833 0 -0.1040047129757936 0.10440830650844771 0 -0.1042836329562354 0.082025902609657558 0 -0.09705159711187189 0.094859645641942492 0 -0.1040047129757936 0.10440830650844771 0 -0.10763455016213321 0.085353606372858368 0 -0.1138485410632052 0.10037445756896 0 -0.1040047129757936 0.10440830650844771 0 -0.093099075919428981 0.1039345092794579 0 -0.09705159711187189 0.094859645641942492 0 -0.1040047129757936 0.10440830650844771 0 -0.10535663015721609 -0.0040785661226313266 0 -0.093136072529625635 -0.0001400556527918449 0 -0.1049989644235554 0.024622923454798239 0 -0.10535663015721609 -0.0040785661226313266 0 -0.1049989644235554 0.024622923454798239 0 -0.093136072529625635 -0.0001400556527918449 0 -0.1049989644235554 0.024622923454798239 0 -0.085635757047457572 0.020873913092472988 0 -0.10535663015721609 -0.0040785661226313266 0 -0.1049989644235554 0.024622923454798239 0 -0.11600006833808139 0.01232157125850198 0 -0.10535663015721609 -0.0040785661226313266 0 -0.11600006833808139 0.01232157125850198 0 -0.1220156274706712 0.0019540870090877772 0 -0.12774746673749759 0.013064643027644389 0 -0.11600006833808139 0.01232157125850198 0 -0.1220156274706712 0.0019540870090877772 0 -0.1049989644235554 0.024622923454798239 0 -0.11600006833808139 0.01232157125850198 0 -0.1212803943925771 0.025361154101400881 0 -0.12774746673749759 0.013064643027644389 0 -0.11600006833808139 0.01232157125850198 0 -0.1212803943925771 0.025361154101400881 0 -0.1049989644235554 0.024622923454798239 0 -0.1212803943925771 0.025361154101400881 0 -0.1170724816181436 0.038684771708001511 0 -0.13169216302489131 0.038025965440706973 0 -0.1212803943925771 0.025361154101400881 0 -0.1170724816181436 0.038684771708001511 0 -0.13169216302489131 0.038025965440706973 0 -0.1170724816181436 0.038684771708001511 0 -0.12274958755979951 0.0520894025108736 0 -0.1170724816181436 0.038684771708001511 0 -0.12274958755979951 0.0520894025108736 0 -0.1046412986898947 0.053324413032227853 0 -0.1218326549953173 0.066328162818498321 0 -0.12274958755979951 0.0520894025108736 0 -0.1046412986898947 0.053324413032227853 0 -0.08781716760106946 0.065673508515114165 0 -0.1046412986898947 0.053324413032227853 0 -0.089486614871809034 0.038927125182302978 0 -0.1049989644235554 0.024622923454798239 0 -0.1046412986898947 0.053324413032227853 0 -0.089486614871809034 0.038927125182302978 0 -0.1049989644235554 0.024622923454798239 0 -0.1170724816181436 0.038684771708001511 0 -0.1046412986898947 0.053324413032227853 0 -0.1049989644235554 0.024622923454798239 0 -0.1046412986898947 0.053324413032227853 0 -0.08781716760106946 0.065673508515114165 0 -0.089486614871809034 0.038927125182302978 0 -0.071350702245902842 0.049321114420571403 0 -0.08781716760106946 0.065673508515114165 0 -0.071350702245902842 0.049321114420571403 0 -0.072184788952376233 0.066193251564796843 0 -0.08781716760106946 0.065673508515114165 0 -0.071350702245902842 0.049321114420571403 0 -0.05827718792851401 0.065095025929475581 0 -0.072184788952376233 0.066193251564796843 0 -0.071350702245902842 0.049321114420571403 0 -0.089486614871809034 0.038927125182302978 0 -0.071350702245902842 0.049321114420571403 0 -0.071051967300964206 0.028549760874076478 0 -0.071350702245902842 0.049321114420571403 0 -0.071051967300964206 0.028549760874076478 0 -0.054884236890736217 0.032968720326028621 0 -0.071350702245902842 0.049321114420571403 0 -0.054884236890736217 0.032968720326028621 0 -0.071051967300964206 0.028549760874076478 0 -0.068161952148550517 0.011775783568938819 0 -0.054389447608130762 0.01594486679229257 0 -0.071051967300964206 0.028549760874076478 0 -0.085635757047457572 0.020873913092472988 0 -0.068161952148550517 0.011775783568938819 0 -0.089486614871809034 0.038927125182302978 0 -0.071051967300964206 0.028549760874076478 0 -0.085635757047457572 0.020873913092472988 0 -0.1049989644235554 0.024622923454798239 0 -0.089486614871809034 0.038927125182302978 0 -0.085635757047457572 0.020873913092472988 0 -0.093136072529625635 -0.0001400556527918449 0 -0.076424423994879476 -0.003132457239380148 0 -0.068161952148550517 0.011775783568938819 0 -0.093136072529625635 -0.0001400556527918449 0 -0.085635757047457572 0.020873913092472988 0 -0.068161952148550517 0.011775783568938819 0 -0.093136072529625635 -0.0001400556527918449 0 -0.068161952148550517 0.011775783568938819 0 -0.076424423994879476 -0.003132457239380148 0 -0.068161952148550517 0.011775783568938819 0 -0.060754386257418823 0.0025528172274389281 0 -0.048704724972793469 0.0044012681014438436 0 -0.054389447608130762 0.01594486679229257 0 -0.038417771535569557 0.0166163262314858 0 -0.060754386257418823 0.0025528172274389281 0 -0.048704724972793469 0.0044012681014438436 0 -0.054389447608130762 0.01594486679229257 0 -0.068161952148550517 0.011775783568938819 0 -0.060754386257418823 0.0025528172274389281 0 -0.054389447608130762 0.01594486679229257 0 -0.054389447608130762 0.01594486679229257 0 -0.038417771535569557 0.0166163262314858 0 -0.054884236890736217 0.032968720326028621 0 -0.071051967300964206 0.028549760874076478 0 -0.054389447608130762 0.01594486679229257 0 -0.054884236890736217 0.032968720326028621 0 -0.038417771535569557 0.0166163262314858 0 -0.054884236890736217 0.032968720326028621 0 -0.038417771535569557 0.0166163262314858 0 -0.054884236890736217 0.032968720326028621 0 -0.035850779511044213 0.031273657373260842 0 -0.037153593021232917 -0.0041909662260797122 0 -0.048704724972793469 0.0044012681014438436 0 -0.038417771535569557 0.0166163262314858 0 -0.05827718792851401 0.065095025929475581 0 -0.071350702245902842 0.049321114420571403 0 -0.050760042390073791 0.051064253489881029 0 -0.071350702245902842 0.049321114420571403 0 -0.050760042390073791 0.051064253489881029 0 -0.054884236890736217 0.032968720326028621 0 -0.050760042390073791 0.051064253489881029 0 -0.054884236890736217 0.032968720326028621 0 -0.032573991509273099 0.047359546467145658 0 -0.054884236890736217 0.032968720326028621 0 -0.035850779511044213 0.031273657373260842 0 -0.032573991509273099 0.047359546467145658 0 -0.035292716145263699 0.073768852826052805 0 -0.050760042390073791 0.051064253489881029 0 -0.032573991509273099 0.047359546467145658 0 -0.01641452711443829 0.066175692760165328 0 -0.032573991509273099 0.047359546467145658 0 -0.0065749151318050206 0.048734312763340913 0 -0.01641452711443829 0.066175692760165328 0 -0.035292716145263699 0.073768852826052805 0 -0.032573991509273099 0.047359546467145658 0 -0.035850779511044213 0.031273657373260842 0 -0.032573991509273099 0.047359546467145658 0 -0.017527118108597931 0.028150036468383301 0 -0.032573991509273099 0.047359546467145658 0 -0.0065749151318050206 0.048734312763340913 0 -0.017527118108597931 0.028150036468383301 0 -0.0065749151318050206 0.048734312763340913 0 -0.017527118108597931 0.028150036468383301 0 0.0021657739143066219 0.031706980140428727 0 -0.01641452711443829 0.066175692760165328 0 -0.0065749151318050206 0.048734312763340913 0 0.0075564468419056794 0.064643204089841588 0 -0.037153593021232917 -0.0041909662260797122 0 -0.038417771535569557 0.0166163262314858 0 -0.01210134886455932 0.0019878388550685811 0 -0.038417771535569557 0.0166163262314858 0 -0.017527118108597931 0.028150036468383301 0 -0.01210134886455932 0.0019878388550685811 0 -0.038417771535569557 0.0166163262314858 0 -0.035850779511044213 0.031273657373260842 0 -0.017527118108597931 0.028150036468383301 0 -0.017527118108597931 0.028150036468383301 0 -0.00474131692760722 0.019443410798480599 0 -0.01210134886455932 0.0019878388550685811 0 -0.017527118108597931 0.028150036468383301 0 -0.00474131692760722 0.019443410798480599 0 0.0021657739143066219 0.031706980140428727 0 -0.00474131692760722 0.019443410798480599 0 -0.01210134886455932 0.0019878388550685811 0 0.0084974253484217423 0.015928787730041801 0 -0.01210134886455932 0.0019878388550685811 0 0.01521681077868578 0.0038680593231585629 0 0.0084974253484217423 0.015928787730041801 0 -0.00474131692760722 0.019443410798480599 0 0.0084974253484217423 0.015928787730041801 0 0.0021657739143066219 0.031706980140428727 0 0.0084974253484217423 0.015928787730041801 0 0.02057469936873076 0.03123138772125738 0 0.0021657739143066219 0.031706980140428727 0 0.0084974253484217423 0.015928787730041801 0 0.02057469936873076 0.03123138772125738 0 0.025916219645408599 0.0143874212992216 0 0.02057469936873076 0.03123138772125738 0 0.025916219645408599 0.0143874212992216 0 0.033920433407665922 0.025745429391281532 0 0.01521681077868578 0.0038680593231585629 0 0.0084974253484217423 0.015928787730041801 0 0.025916219645408599 0.0143874212992216 0 0.025916219645408599 0.0143874212992216 0 0.02856846585004898 0.0023008959674395871 0 0.034495858098099803 0.0079456954704744814 0 0.01521681077868578 0.0038680593231585629 0 0.025916219645408599 0.0143874212992216 0 0.02856846585004898 0.0023008959674395871 0 0.01521681077868578 0.0038680593231585629 0 0.02856846585004898 0.0023008959674395871 0 0.023308490363071602 -0.0033786401451085081 0 0.01259949557410036 0.046969819317724933 0 0.024306635538245351 0.05816499246426704 0 0.0075564468419056794 0.064643204089841588 0 -0.0065749151318050206 0.048734312763340913 0 0.01259949557410036 0.046969819317724933 0 0.0075564468419056794 0.064643204089841588 0 0.02057469936873076 0.03123138772125738 0 0.01259949557410036 0.046969819317724933 0 0.0021657739143066219 0.031706980140428727 0 -0.0065749151318050206 0.048734312763340913 0 0.01259949557410036 0.046969819317724933 0 0.0021657739143066219 0.031706980140428727 0 0.02057469936873076 0.03123138772125738 0 0.01259949557410036 0.046969819317724933 0 0.025354739356712921 0.047259672982749419 0 0.02057469936873076 0.03123138772125738 0 0.025354739356712921 0.047259672982749419 0 0.031735657750958511 0.03859302563134405 0 0.02057469936873076 0.03123138772125738 0 0.031735657750958511 0.03859302563134405 0 0.033920433407665922 0.025745429391281532 0 0.025354739356712921 0.047259672982749419 0 0.035645825829710827 0.050409345199492493 0 0.031735657750958511 0.03859302563134405 0 0.01259949557410036 0.046969819317724933 0 0.025354739356712921 0.047259672982749419 0 0.024306635538245351 0.05816499246426704 0 0.025354739356712921 0.047259672982749419 0 0.024306635538245351 0.05816499246426704 0 0.035645825829710827 0.050409345199492493 0 0.024306635538245351 0.05816499246426704 0 0.035645825829710827 0.050409345199492493 0 0.040940929929812693 0.067423974234348497 0 0.035645825829710827 0.050409345199492493 0 0.044109255737984368 0.054166599420603867 0 0.040940929929812693 0.067423974234348497 0 0.044109255737984368 0.054166599420603867 0 0.053025589583448447 0.054826567280252772 0 0.040940929929812693 0.067423974234348497 0 0.035645825829710827 0.050409345199492493 0 0.044109255737984368 0.054166599420603867 0 0.04586407992991573 0.044461392985222163 0 0.035645825829710827 0.050409345199492493 0 0.04586407992991573 0.044461392985222163 0 0.038963599998795832 0.041499915214118922 0 0.04586407992991573 0.044461392985222163 0 0.038963599998795832 0.041499915214118922 0 0.042608836484598248 0.032535897040416997 0 0.035645825829710827 0.050409345199492493 0 0.038963599998795832 0.041499915214118922 0 0.031735657750958511 0.03859302563134405 0 0.031735657750958511 0.03859302563134405 0 0.042608836484598248 0.032535897040416997 0 0.033920433407665922 0.025745429391281532 0 0.038963599998795832 0.041499915214118922 0 0.031735657750958511 0.03859302563134405 0 0.042608836484598248 0.032535897040416997 0 0.042608836484598248 0.032535897040416997 0 0.053118449714847603 0.03623337209071327 0 0.049937659413750307 0.026169874711546501 0 0.04586407992991573 0.044461392985222163 0 0.042608836484598248 0.032535897040416997 0 0.053118449714847603 0.03623337209071327 0 0.061679399029915899 0.039224579310322437 0 0.060926101606549182 0.02377102778765729 0 0.053118449714847603 0.03623337209071327 0 0.061679399029915899 0.039224579310322437 0 0.060926101606549182 0.02377102778765729 0 0.053118449714847603 0.03623337209071327 0 0.058817348332105023 0.042793957781340049 0 0.052501955811141733 0.042363909498823238 0 0.053118449714847603 0.03623337209071327 0 0.058817348332105023 0.042793957781340049 0 0.061679399029915899 0.039224579310322437 0 0.058817348332105023 0.042793957781340049 0 0.052501955811141733 0.042363909498823238 0 0.053025589583448447 0.054826567280252772 0 0.058817348332105023 0.042793957781340049 0 0.061679399029915899 0.039224579310322437 0 0.04586407992991573 0.044461392985222163 0 0.053118449714847603 0.03623337209071327 0 0.052501955811141733 0.042363909498823238 0 0.061679399029915899 0.039224579310322437 0 0.063017182502748528 0.066668594359726122 0 0.058817348332105023 0.042793957781340049 0 0.053025589583448447 0.054826567280252772 0 0.063017182502748528 0.066668594359726122 0 0.058817348332105023 0.042793957781340049 0 0.061679399029915899 0.039224579310322437 0 0.063017182502748528 0.066668594359726122 0 0.044109255737984368 0.054166599420603867 0 0.04586407992991573 0.044461392985222163 0 0.053025589583448447 0.054826567280252772 0 0.04586407992991573 0.044461392985222163 0 0.052501955811141733 0.042363909498823238 0 0.053025589583448447 0.054826567280252772 0 0.043064831449857482 0.0080286977874358626 0 0.038396492288536588 0.01528748899995707 0 0.050136226220545893 0.01491562125530973 0 0.043064831449857482 0.0080286977874358626 0 0.037800010054661062 0.0012988040134497959 0 0.047552578143709771 0.003114911076836369 0 0.043064831449857482 0.0080286977874358626 0 0.037800010054661062 0.0012988040134497959 0 0.034495858098099803 0.0079456954704744814 0 0.02856846585004898 0.0023008959674395871 0 0.037800010054661062 0.0012988040134497959 0 0.034495858098099803 0.0079456954704744814 0 0.025916219645408599 0.0143874212992216 0 0.038396492288536588 0.01528748899995707 0 0.034495858098099803 0.0079456954704744814 0 0.043064831449857482 0.0080286977874358626 0 0.038396492288536588 0.01528748899995707 0 0.034495858098099803 0.0079456954704744814 0 0.025916219645408599 0.0143874212992216 0 0.038396492288536588 0.01528748899995707 0 0.033920433407665922 0.025745429391281532 0 0.038396492288536588 0.01528748899995707 0 0.033920433407665922 0.025745429391281532 0 0.042898683042210638 0.023393455383635221 0 0.042608836484598248 0.032535897040416997 0 0.033920433407665922 0.025745429391281532 0 0.042898683042210638 0.023393455383635221 0 0.042608836484598248 0.032535897040416997 0 0.042898683042210638 0.023393455383635221 0 0.049937659413750307 0.026169874711546501 0 0.038396492288536588 0.01528748899995707 0 0.042898683042210638 0.023393455383635221 0 0.050136226220545893 0.01491562125530973 0 0.049937659413750307 0.026169874711546501 0 0.060926101606549182 0.02377102778765729 0 0.050136226220545893 0.01491562125530973 0 0.042898683042210638 0.023393455383635221 0 0.049937659413750307 0.026169874711546501 0 0.050136226220545893 0.01491562125530973 0 0.053118449714847603 0.03623337209071327 0 0.049937659413750307 0.026169874711546501 0 0.060926101606549182 0.02377102778765729 0 0.060926101606549182 0.02377102778765729 0 0.06017280418318121 0.0083174762649921123 0 0.050136226220545893 0.01491562125530973 0 0.060926101606549182 0.02377102778765729 0 0.06017280418318121 0.0083174762649921123 0 0.06017280418318121 0.0083174762649921123 0 0.047552578143709771 0.003114911076836369 0 0.039881004700212483 -0.0081759591608999756 0 0.06017280418318121 0.0083174762649921123 0 0.039881004700212483 -0.0081759591608999756 0 0.06017280418318121 0.0083174762649921123 0 0.050231609999323697 0.0085941765961435133 0 0.050136226220545893 0.01491562125530973 0 0.043064831449857482 0.0080286977874358626 0 0.050231609999323697 0.0085941765961435133 0 0.050136226220545893 0.01491562125530973 0 0.06017280418318121 0.0083174762649921123 0 0.050231609999323697 0.0085941765961435133 0 0.047552578143709771 0.003114911076836369 0 0.043064831449857482 0.0080286977874358626 0 0.050231609999323697 0.0085941765961435133 0 0.047552578143709771 0.003114911076836369 0 0.06017280418318121 0.0083174762649921123 0 0.059729978738206742 -0.00076688486139602635 0 0.082348116527549503 0.01344779089910424 0 0.059729978738206742 -0.00076688486139602635 0 0.073828516940257299 -0.001940676278266155 0 0.082348116527549503 0.01344779089910424 0 0.059729978738206742 -0.00076688486139602635 0 0.06017280418318121 0.0083174762649921123 0 0.076088719375069919 0.02125413669679603 0 0.06017280418318121 0.0083174762649921123 0 0.082348116527549503 0.01344779089910424 0 0.076088719375069919 0.02125413669679603 0 0.06017280418318121 0.0083174762649921123 0 0.082348116527549503 0.01344779089910424 0 0.059729978738206742 -0.00076688486139602635 0 0.082348116527549503 0.01344779089910424 0 0.099850704223909487 0.010525360773864231 0 0.093596902684648237 -0.00058102248458167312 0 0.082348116527549503 0.01344779089910424 0 0.093596902684648237 -0.00058102248458167312 0 0.073828516940257299 -0.001940676278266155 0 0.082348116527549503 0.01344779089910424 0 0.093596902684648237 -0.00058102248458167312 0 0.082348116527549503 0.01344779089910424 0 0.10111309937735929 0.025240899126918612 0 0.076088719375069919 0.02125413669679603 0 0.099576638723769179 0.040345419428596159 0 0.082348116527549503 0.01344779089910424 0 0.076088719375069919 0.02125413669679603 0 0.10111309937735929 0.025240899126918612 0 0.076088719375069919 0.02125413669679603 0 0.099576638723769179 0.040345419428596159 0 0.10111309937735929 0.025240899126918612 0 0.082348116527549503 0.01344779089910424 0 0.076088719375069919 0.02125413669679603 0 0.061679399029915899 0.039224579310322437 0 0.076088719375069919 0.02125413669679603 0 0.061679399029915899 0.039224579310322437 0 0.060926101606549182 0.02377102778765729 0 0.076088719375069919 0.02125413669679603 0 0.060926101606549182 0.02377102778765729 0 0.06017280418318121 0.0083174762649921123 0 0.076088719375069919 0.02125413669679603 0 0.061679399029915899 0.039224579310322437 0 0.076088719375069919 0.02125413669679603 0 0.079585376567378435 0.040755873492368887 0 0.061679399029915899 0.039224579310322437 0 0.074617943390904967 0.05231133823842108 0 0.079585376567378435 0.040755873492368887 0 0.074617943390904967 0.05231133823842108 0 0.086606034857047973 0.064043192568718876 0 0.063017182502748528 0.066668594359726122 0 0.061679399029915899 0.039224579310322437 0 0.074617943390904967 0.05231133823842108 0 0.063017182502748528 0.066668594359726122 0 0.074617943390904967 0.05231133823842108 0 0.089429106537947223 0.050341382372566357 0 0.086606034857047973 0.064043192568718876 0 0.074617943390904967 0.05231133823842108 0 0.089429106537947223 0.050341382372566357 0 0.079585376567378435 0.040755873492368887 0 0.089429106537947223 0.050341382372566357 0 0.1019197948463524 0.053811853343732993 0 0.086606034857047973 0.064043192568718876 0 0.089429106537947223 0.050341382372566357 0 0.079585376567378435 0.040755873492368887 0 0.099576638723769179 0.040345419428596159 0 0.076088719375069919 0.02125413669679603 0 0.079585376567378435 0.040755873492368887 0 0.099576638723769179 0.040345419428596159 0 0.099576638723769179 0.040345419428596159 0 0.119878082227169 0.037034007354733188 0 0.10111309937735929 0.025240899126918612 0 0.099576638723769179 0.040345419428596159 0 0.1019197948463524 0.053811853343732993 0 0.119878082227169 0.037034007354733188 0 0.089429106537947223 0.050341382372566357 0 0.099576638723769179 0.040345419428596159 0 0.1019197948463524 0.053811853343732993 0 0.1019197948463524 0.053811853343732993 0 0.11413249712685331 0.061627248170872437 0 0.119878082227169 0.037034007354733188 0 0.11413249712685331 0.061627248170872437 0 0.119878082227169 0.037034007354733188 0 0.1290074287148136 0.058924044505645728 0 0.119878082227169 0.037034007354733188 0 0.11709280539729031 0.02232628034874572 0 0.1297049872092044 0.024734329021407112 0 0.119878082227169 0.037034007354733188 0 0.10111309937735929 0.025240899126918612 0 0.11709280539729031 0.02232628034874572 0 0.1105017536669661 0.013855479053934911 0 0.10111309937735929 0.025240899126918612 0 0.119878082227169 0.037034007354733188 0 0.11709280539729031 0.02232628034874572 0 0.10111309937735929 0.025240899126918612 0 0.11709280539729031 0.02232628034874572 0 0.124266104505753 0.01076668718673477 0 0.1297049872092044 0.024734329021407112 0 0.11709280539729031 0.02232628034874572 0 0.124266104505753 0.01076668718673477 0 0.1105017536669661 0.013855479053934911 0 0.1116936488630241 0.00066365727394526795 0 0.12979039504140011 0.0019083370324715679 0 0.124266104505753 0.01076668718673477 0 0.1116936488630241 0.00066365727394526795 0 0.12979039504140011 0.0019083370324715679 0 0.124266104505753 0.01076668718673477 0 0.1116936488630241 0.00066365727394526795 0 0.1105017536669661 0.013855479053934911 0 0.1116936488630241 0.00066365727394526795 0 0.099850704223909487 0.010525360773864231 0 0.093596902684648237 -0.00058102248458167312 0 0.1116936488630241 0.00066365727394526795 0 0.093596902684648237 -0.00058102248458167312 0 0.1116936488630241 0.00066365727394526795 0 0.1105017536669661 0.013855479053934911 0 0.099850704223909487 0.010525360773864231 0 0.082348116527549503 0.01344779089910424 0 0.099850704223909487 0.010525360773864231 0 0.10111309937735929 0.025240899126918612 0 0.1105017536669661 0.013855479053934911 0 0.099850704223909487 0.010525360773864231 0 0.10111309937735929 0.025240899126918612 0 0.1054961655139285 0.1082697464142202 0 0.1146517881473199 0.087816030685176627 0 0.093546847903948432 0.094114553772597614 0 0.1054961655139285 0.1082697464142202 0 0.093546847903948432 0.094114553772597614 0 0.090488779542200248 0.1190400337794114 0 0.1054961655139285 0.1082697464142202 0 0.090488779542200248 0.1190400337794114 0 0.1083146665460987 0.1325631576509762 0 0.1054961655139285 0.1082697464142202 0 0.12229001127661079 0.11608782895182911 0 0.1083146665460987 0.1325631576509762 0 0.1054961655139285 0.1082697464142202 0 0.12229001127661079 0.11608782895182911 0 0.1146517881473199 0.087816030685176627 0 0.12229001127661079 0.11608782895182911 0 0.1146517881473199 0.087816030685176627 0 0.11413249712685331 0.061627248170872437 0 0.1146517881473199 0.087816030685176627 0 0.13235235897695169 0.075324323404691085 0 0.1019197948463524 0.053811853343732993 0 0.098369101816235496 0.073656814655361155 0 0.086606034857047973 0.064043192568718876 0 0.11413249712685331 0.061627248170872437 0 0.1146517881473199 0.087816030685176627 0 0.098369101816235496 0.073656814655361155 0 0.1019197948463524 0.053811853343732993 0 0.11413249712685331 0.061627248170872437 0 0.098369101816235496 0.073656814655361155 0 0.1146517881473199 0.087816030685176627 0 0.098369101816235496 0.073656814655361155 0 0.093546847903948432 0.094114553772597614 0 0.098369101816235496 0.073656814655361155 0 0.078745268191395684 0.08125317336475768 0 0.093546847903948432 0.094114553772597614 0 0.078745268191395684 0.08125317336475768 0 0.074325834847926264 0.1001790739349999 0 0.093546847903948432 0.094114553772597614 0 0.098369101816235496 0.073656814655361155 0 0.078745268191395684 0.08125317336475768 0 0.086606034857047973 0.064043192568718876 0 0.078745268191395684 0.08125317336475768 0 0.086606034857047973 0.064043192568718876 0 0.063017182502748528 0.066668594359726122 0 0.078745268191395684 0.08125317336475768 0 0.063017182502748528 0.066668594359726122 0 0.060088422469425633 0.08854672488313213 0 0.078745268191395684 0.08125317336475768 0 0.074325834847926264 0.1001790739349999 0 0.060088422469425633 0.08854672488313213 0 0.074325834847926264 0.1001790739349999 0 0.055104821791904082 0.10624359409740219 0 0.060088422469425633 0.08854672488313213 0 0.074325834847926264 0.1001790739349999 0 0.062870374054379327 0.1136742309115103 0 0.055104821791904082 0.10624359409740219 0 0.074325834847926264 0.1001790739349999 0 0.055104821791904082 0.10624359409740219 0 0.074325834847926264 0.1001790739349999 0 0.093546847903948432 0.094114553772597614 0 0.090488779542200248 0.1190400337794114 0 0.074325834847926264 0.1001790739349999 0 0.093546847903948432 0.094114553772597614 0 0.074325834847926264 0.1001790739349999 0 0.090488779542200248 0.1190400337794114 0 0.07294021818332623 0.11825454289582291 0 0.090488779542200248 0.1190400337794114 0 0.07294021818332623 0.11825454289582291 0 0.076176722902640007 0.13067258831019099 0 0.07294021818332623 0.11825454289582291 0 0.061896874752150041 0.12532247366516441 0 0.076176722902640007 0.13067258831019099 0 0.074325834847926264 0.1001790739349999 0 0.07294021818332623 0.11825454289582291 0 0.062870374054379327 0.1136742309115103 0 0.07294021818332623 0.11825454289582291 0 0.062870374054379327 0.1136742309115103 0 0.061896874752150041 0.12532247366516441 0 0.062870374054379327 0.1136742309115103 0 0.050084120696589969 0.1183714699641619 0 0.061896874752150041 0.12532247366516441 0 0.050084120696589969 0.1183714699641619 0 0.055104821791904082 0.10624359409740219 0 0.035883808735882067 0.112308114259805 0 0.050084120696589969 0.1183714699641619 0 0.061896874752150041 0.12532247366516441 0 0.049422611783308798 0.12847743545984119 0 0.062870374054379327 0.1136742309115103 0 0.050084120696589969 0.1183714699641619 0 0.055104821791904082 0.10624359409740219 0 0.055104821791904082 0.10624359409740219 0 0.043870882848002238 0.099873643147340499 0 0.060088422469425633 0.08854672488313213 0 0.043870882848002238 0.099873643147340499 0 0.037611216316076571 0.10295032168103541 0 0.035883808735882067 0.112308114259805 0 0.055104821791904082 0.10624359409740219 0 0.035883808735882067 0.112308114259805 0 0.055104821791904082 0.10624359409740219 0 0.043870882848002238 0.099873643147340499 0 0.035883808735882067 0.112308114259805 0 0.043870882848002238 0.099873643147340499 0 0.032954760183178028 0.096150177096316625 0 0.042749952781831788 0.086577121540806365 0 0.043870882848002238 0.099873643147340499 0 0.032954760183178028 0.096150177096316625 0 0.037611216316076571 0.10295032168103541 0 0.032954760183178028 0.096150177096316625 0 0.037611216316076571 0.10295032168103541 0 0.02689654000695571 0.1040947371866545 0 0.037611216316076571 0.10295032168103541 0 0.03529520373200376 0.1095294904431988 0 0.035883808735882067 0.112308114259805 0 0.03529520373200376 0.1095294904431988 0 0.031952547477355542 0.113548486611486 0 0.02689654000695571 0.1040947371866545 0 0.037611216316076571 0.10295032168103541 0 0.03529520373200376 0.1095294904431988 0 0.02689654000695571 0.1040947371866545 0 0.036396994242060728 0.1147307057437604 0 0.031952547477355542 0.113548486611486 0 0.031816930068872748 0.12282391597419549 0 0.035883808735882067 0.112308114259805 0 0.031952547477355542 0.113548486611486 0 0.03529520373200376 0.1095294904431988 0 0.035883808735882067 0.112308114259805 0 0.031952547477355542 0.113548486611486 0 0.03529520373200376 0.1095294904431988 0 0.035883808735882067 0.112308114259805 0 0.035883808735882067 0.112308114259805 0 0.036396994242060728 0.1147307057437604 0 0.035883808735882067 0.112308114259805 0 0.036396994242060728 0.1147307057437604 0 0.031952547477355542 0.113548486611486 0 0.036396994242060728 0.1147307057437604 0 0.031952547477355542 0.113548486611486 0 0.050084120696589969 0.1183714699641619 0 0.036396994242060728 0.1147307057437604 0 0.049422611783308798 0.12847743545984119 0 0.050084120696589969 0.1183714699641619 0 0.035883808735882067 0.112308114259805 0 0.036396994242060728 0.1147307057437604 0 0.050084120696589969 0.1183714699641619 0 0.036396994242060728 0.1147307057437604 0 0.063017182502748528 0.066668594359726122 0 0.05169912192095466 0.077304103754503278 0 0.060088422469425633 0.08854672488313213 0 0.053025589583448447 0.054826567280252772 0 0.063017182502748528 0.066668594359726122 0 0.040940929929812693 0.067423974234348497 0 0.063017182502748528 0.066668594359726122 0 0.05169912192095466 0.077304103754503278 0 0.040940929929812693 0.067423974234348497 0 0.043870882848002238 0.099873643147340499 0 0.060088422469425633 0.08854672488313213 0 0.042749952781831788 0.086577121540806365 0 0.05169912192095466 0.077304103754503278 0 0.060088422469425633 0.08854672488313213 0 0.042749952781831788 0.086577121540806365 0 0.042749952781831788 0.086577121540806365 0 0.040940929929812693 0.067423974234348497 0 0.028052808283550251 0.085173319202934056 0 0.032954760183178028 0.096150177096316625 0 0.042749952781831788 0.086577121540806365 0 0.028052808283550251 0.085173319202934056 0 0.05169912192095466 0.077304103754503278 0 0.042749952781831788 0.086577121540806365 0 0.040940929929812693 0.067423974234348497 0 0.024306635538245351 0.05816499246426704 0 0.040940929929812693 0.067423974234348497 0 0.02411310423083738 0.071901434747286427 0 0.024306635538245351 0.05816499246426704 0 0.02411310423083738 0.071901434747286427 0 0.0075564468419056794 0.064643204089841588 0 0.040940929929812693 0.067423974234348497 0 0.02411310423083738 0.071901434747286427 0 0.028052808283550251 0.085173319202934056 0 0.02411310423083738 0.071901434747286427 0 0.028052808283550251 0.085173319202934056 0 0.01252274573168081 0.08147689454017551 0 0.032954760183178028 0.096150177096316625 0 0.028052808283550251 0.085173319202934056 0 0.017880827531533319 0.095828690237996755 0 0.028052808283550251 0.085173319202934056 0 0.01252274573168081 0.08147689454017551 0 0.017880827531533319 0.095828690237996755 0 -0.00097150747810838603 0.091366537172643425 0 0.01252274573168081 0.08147689454017551 0 0.017880827531533319 0.095828690237996755 0 -0.00097150747810838603 0.091366537172643425 0 -0.0034146629761764979 0.078459957373855332 0 0.01252274573168081 0.08147689454017551 0 0.02411310423083738 0.071901434747286427 0 0.01252274573168081 0.08147689454017551 0 0.0075564468419056794 0.064643204089841588 0 -0.0034146629761764979 0.078459957373855332 0 0.01252274573168081 0.08147689454017551 0 0.0075564468419056794 0.064643204089841588 0 0.031952547477355542 0.113548486611486 0 0.020998350916935232 0.11700470120901869 0 0.0056846848015870014 0.1065612570498935 0 0.031952547477355542 0.113548486611486 0 0.0056846848015870014 0.1065612570498935 0 0.031952547477355542 0.113548486611486 0 0.031816930068872748 0.12282391597419549 0 0.020998350916935232 0.11700470120901869 0 0.031816930068872748 0.12282391597419549 0 0.020998350916935232 0.11700470120901869 0 0.028012563377135449 0.128956901723875 0 0.031952547477355542 0.113548486611486 0 0.020998350916935232 0.11700470120901869 0 0.031952547477355542 0.113548486611486 0 0.02689654000695571 0.1040947371866545 0 0.0056846848015870014 0.1065612570498935 0 0.02689654000695571 0.1040947371866545 0 0.017880827531533319 0.095828690237996755 0 0.0056846848015870014 0.1065612570498935 0 0.032954760183178028 0.096150177096316625 0 0.02689654000695571 0.1040947371866545 0 0.017880827531533319 0.095828690237996755 0 -0.00097150747810838603 0.091366537172643425 0 0.017880827531533319 0.095828690237996755 0 0.0056846848015870014 0.1065612570498935 0 0.020998350916935232 0.11700470120901869 0 0.0056846848015870014 0.1065612570498935 0 0.0044853743667673286 0.1230927126056903 0 0.020998350916935232 0.11700470120901869 0 0.0044853743667673286 0.1230927126056903 0 0.016948519283892859 0.1380541959284422 0 -0.0078271557630911481 0.1362296072740462 0 0.0044853743667673286 0.1230927126056903 0 0.016948519283892859 0.1380541959284422 0 -0.0078271557630911481 0.1362296072740462 0 0.016948519283892859 0.1380541959284422 0 0.016948519283892859 0.1380541959284422 0 0.028012563377135449 0.128956901723875 0 0.041724194330876971 0.13987878458283681 0 0.020998350916935232 0.11700470120901869 0 0.016948519283892859 0.1380541959284422 0 0.028012563377135449 0.128956901723875 0 0.016948519283892859 0.1380541959284422 0 0.041724194330876971 0.13987878458283681 0 0.016948519283892859 0.1380541959284422 0 0.018802651348948721 0.15540253774808949 0 0.041724194330876971 0.13987878458283681 0 -0.0078271557630911481 0.1362296072740462 0 0.016948519283892859 0.1380541959284422 0 3.6127928222628861e-05 0.15033432619036749 0 0.016948519283892859 0.1380541959284422 0 0.018802651348948721 0.15540253774808949 0 3.6127928222628861e-05 0.15033432619036749 0 0.018802651348948721 0.15540253774808949 0 0.00073738510225316092 0.16699580700497749 0 0.016514149990378899 0.17269894000803551 0 0.018802651348948721 0.15540253774808949 0 3.6127928222628861e-05 0.15033432619036749 0 0.00073738510225316092 0.16699580700497749 0 0.00073738510225316092 0.16699580700497749 0 0.016514149990378899 0.17269894000803551 0 0.00073738510225316092 0.16699580700497749 0 0.001455357747937643 0.18334221805207929 0 0.016514149990378899 0.17269894000803551 0 0.001455357747937643 0.18334221805207929 0 0.016514149990378899 0.17269894000803551 0 0.01837967180687948 0.18954566312012289 0 0.001455357747937643 0.18334221805207929 0 0.016514149990378899 0.17269894000803551 0 0.02998210087260628 0.177567461260942 0 0.01837967180687948 0.18954566312012289 0 0.035374775633480342 0.19498170269149701 0 0.016514149990378899 0.17269894000803551 0 0.02998210087260628 0.177567461260942 0 0.01837967180687948 0.18954566312012289 0 0.016514149990378899 0.17269894000803551 0 0.02998210087260628 0.177567461260942 0 0.016514149990378899 0.17269894000803551 0 0.035871123701883632 0.1590177861687499 0 0.016514149990378899 0.17269894000803551 0 0.02998210087260628 0.177567461260942 0 0.035871123701883632 0.1590177861687499 0 0.018802651348948721 0.15540253774808949 0 0.016514149990378899 0.17269894000803551 0 0.035871123701883632 0.1590177861687499 0 0.02998210087260628 0.177567461260942 0 0.035871123701883632 0.1590177861687499 0 0.04669316655337126 0.1633357794614072 0 0.02998210087260628 0.177567461260942 0 0.051662138775865153 0.18679277433997779 0 0.035374775633480342 0.19498170269149701 0 0.02998210087260628 0.177567461260942 0 0.04669316655337126 0.1633357794614072 0 0.051662138775865153 0.18679277433997779 0 0.051662138775865153 0.18679277433997779 0 0.05973062560533076 0.17102349909430301 0 0.068770788565812424 0.18148872268214911 0 0.04669316655337126 0.1633357794614072 0 0.051662138775865153 0.18679277433997779 0 0.05973062560533076 0.17102349909430301 0 0.04669316655337126 0.1633357794614072 0 0.051662138775865153 0.18679277433997779 0 0.04669316655337126 0.1633357794614072 0 0.05973062560533076 0.17102349909430301 0 0.059554590606376433 0.15601719962520799 0 0.04669316655337126 0.1633357794614072 0 0.059554590606376433 0.15601719962520799 0 0.041724194330876971 0.13987878458283681 0 0.059554590606376433 0.15601719962520799 0 0.060030834038929719 0.14122696529024931 0 0.041724194330876971 0.13987878458283681 0 0.060030834038929719 0.14122696529024931 0 0.049422611783308798 0.12847743545984119 0 0.041724194330876971 0.13987878458283681 0 0.060030834038929719 0.14122696529024931 0 0.061896874752150041 0.12532247366516441 0 0.049422611783308798 0.12847743545984119 0 0.060030834038929719 0.14122696529024931 0 0.041724194330876971 0.13987878458283681 0 0.036396994242060728 0.1147307057437604 0 0.031816930068872748 0.12282391597419549 0 0.041724194330876971 0.13987878458283681 0 0.036396994242060728 0.1147307057437604 0 0.041724194330876971 0.13987878458283681 0 0.031816930068872748 0.12282391597419549 0 0.028012563377135449 0.128956901723875 0 0.041724194330876971 0.13987878458283681 0 0.036396994242060728 0.1147307057437604 0 0.049422611783308798 0.12847743545984119 0 0.041724194330876971 0.13987878458283681 0 0.035871123701883632 0.1590177861687499 0 0.04669316655337126 0.1633357794614072 0 0.041724194330876971 0.13987878458283681 0 0.018802651348948721 0.15540253774808949 0 0.035871123701883632 0.1590177861687499 0 0.041724194330876971 0.13987878458283681 0 0.04669316655337126 0.1633357794614072 0 0.041724194330876971 0.13987878458283681 0 0.023999282035763351 0.24359914253080089 0 0.0064938139601692499 0.235805076511858 0 0.031276193878927792 0.22525165285791859 0 -0.0027776851774954509 0.25257493582532792 0 0.023999282035763351 0.24359914253080089 0 -0.0027776851774954509 0.25257493582532792 0 0.023999282035763351 0.24359914253080089 0 0.0064938139601692499 0.235805076511858 0 -0.012538789678792109 0.2182247507271107 0 0.0064938139601692499 0.235805076511858 0 0.01097099018572165 0.21764037675596351 0 0.0064938139601692499 0.235805076511858 0 0.01097099018572165 0.21764037675596351 0 0.031276193878927792 0.22525165285791859 0 0.02379564921464071 0.2069605532010336 0 0.01097099018572165 0.21764037675596351 0 0.031276193878927792 0.22525165285791859 0 0.02379564921464071 0.2069605532010336 0 0.01097099018572165 0.21764037675596351 0 0.003476259735499572 0.2017412353069529 0 -0.012538789678792109 0.2182247507271107 0 0.01097099018572165 0.21764037675596351 0 0.003476259735499572 0.2017412353069529 0 0.02379564921464071 0.2069605532010336 0 0.003476259735499572 0.2017412353069529 0 0.01837967180687948 0.18954566312012289 0 0.001455357747937643 0.18334221805207929 0 0.003476259735499572 0.2017412353069529 0 0.01837967180687948 0.18954566312012289 0 0.02379564921464071 0.2069605532010336 0 0.01837967180687948 0.18954566312012289 0 0.035374775633480342 0.19498170269149701 0 0.051662138775865153 0.18679277433997779 0 0.035374775633480342 0.19498170269149701 0 0.047011694194991738 0.2105938297209741 0 0.051662138775865153 0.18679277433997779 0 0.047011694194991738 0.2105938297209741 0 0.073158302747536 0.1992708804815814 0 0.02379564921464071 0.2069605532010336 0 0.035374775633480342 0.19498170269149701 0 0.047011694194991738 0.2105938297209741 0 0.02379564921464071 0.2069605532010336 0 0.047011694194991738 0.2105938297209741 0 0.031276193878927792 0.22525165285791859 0 0.047011694194991738 0.2105938297209741 0 0.031276193878927792 0.22525165285791859 0 0.050776249249022187 0.2346233492362739 0 0.047011694194991738 0.2105938297209741 0 0.050776249249022187 0.2346233492362739 0 0.077553216462281013 0.22564755594174679 0 0.050776249249022187 0.2346233492362739 0 0.050354998163758158 0.2543889014659465 0 0.073062354807743687 0.25328454769075631 0 0.023999282035763351 0.24359914253080089 0 0.031276193878927792 0.22525165285791859 0 0.050776249249022187 0.2346233492362739 0 0.023999282035763351 0.24359914253080089 0 0.050776249249022187 0.2346233492362739 0 0.050354998163758158 0.2543889014659465 0 0.023999282035763351 0.24359914253080089 0 0.050776249249022187 0.2346233492362739 0 0.093626826958157341 0.2408364381341962 0 0.077553216462281013 0.22564755594174679 0 0.073062354807743687 0.25328454769075631 0 0.050776249249022187 0.2346233492362739 0 0.077553216462281013 0.22564755594174679 0 0.073062354807743687 0.25328454769075631 0 0.050776249249022187 0.2346233492362739 0 0.077553216462281013 0.22564755594174679 0 0.093626826958157341 0.2408364381341962 0 0.077553216462281013 0.22564755594174679 0 0.1043301836755398 0.21667176264721991 0 0.077553216462281013 0.22564755594174679 0 0.1043301836755398 0.21667176264721991 0 0.077553216462281013 0.22564755594174679 0 0.073158302747536 0.1992708804815814 0 0.093907363879826122 0.19962849840817609 0 0.077553216462281013 0.22564755594174679 0 0.093907363879826122 0.19962849840817609 0 0.1043301836755398 0.21667176264721991 0 0.047011694194991738 0.2105938297209741 0 0.077553216462281013 0.22564755594174679 0 0.073158302747536 0.1992708804815814 0 0.051662138775865153 0.18679277433997779 0 0.073158302747536 0.1992708804815814 0 0.068770788565812424 0.18148872268214911 0 0.073158302747536 0.1992708804815814 0 0.093907363879826122 0.19962849840817609 0 0.087805019906555065 0.1775071508399165 0 0.093907363879826122 0.19962849840817609 0 0.11864289311327809 0.19291173864207781 0 0.1043301836755398 0.21667176264721991 0 0.093907363879826122 0.19962849840817609 0 0.11864289311327809 0.19291173864207781 0 0.111759414399882 0.1735459449318143 0 0.11864289311327809 0.19291173864207781 0 0.1246222707262022 0.2081657957665119 0 0.1043301836755398 0.21667176264721991 0 0.1246222707262022 0.2081657957665119 0 0.1043301836755398 0.21667176264721991 0 0.13031132545150739 0.22217645802496369 0 0.093626826958157341 0.2408364381341962 0 0.1043301836755398 0.21667176264721991 0 0.1160311557347623 0.24436958391682351 0 0.1043301836755398 0.21667176264721991 0 0.1160311557347623 0.24436958391682351 0 0.13031132545150739 0.22217645802496369 0 0.093626826958157341 0.2408364381341962 0 0.1160311557347623 0.24436958391682351 0 0.097157224110459878 0.26420874047443449 0 0.078337473746982578 0.1425751459976603 0 0.084337035848463138 0.1551941093745553 0 0.091004758727419838 0.1386382795081792 0 0.084337035848463138 0.1551941093745553 0 0.091004758727419838 0.1386382795081792 0 0.1027065175585391 0.1542372289971001 0 0.078337473746982578 0.1425751459976603 0 0.084337035848463138 0.1551941093745553 0 0.071709711692945169 0.1531579242097266 0 0.090488779542200248 0.1190400337794114 0 0.091004758727419838 0.1386382795081792 0 0.076176722902640007 0.13067258831019099 0 0.078337473746982578 0.1425751459976603 0 0.091004758727419838 0.1386382795081792 0 0.076176722902640007 0.13067258831019099 0 0.060030834038929719 0.14122696529024931 0 0.078337473746982578 0.1425751459976603 0 0.076176722902640007 0.13067258831019099 0 0.060030834038929719 0.14122696529024931 0 0.061896874752150041 0.12532247366516441 0 0.076176722902640007 0.13067258831019099 0 0.060030834038929719 0.14122696529024931 0 0.078337473746982578 0.1425751459976603 0 0.060030834038929719 0.14122696529024931 0 0.078337473746982578 0.1425751459976603 0 0.071709711692945169 0.1531579242097266 0 0.059554590606376433 0.15601719962520799 0 0.060030834038929719 0.14122696529024931 0 0.071709711692945169 0.1531579242097266 0 0.059554590606376433 0.15601719962520799 0 0.071709711692945169 0.1531579242097266 0 0.072097335033505752 0.1660708379700904 0 0.05973062560533076 0.17102349909430301 0 0.059554590606376433 0.15601719962520799 0 0.072097335033505752 0.1660708379700904 0 0.084337035848463138 0.1551941093745553 0 0.071709711692945169 0.1531579242097266 0 0.072097335033505752 0.1660708379700904 0 0.073158302747536 0.1992708804815814 0 0.068770788565812424 0.18148872268214911 0 0.087805019906555065 0.1775071508399165 0 0.072097335033505752 0.1660708379700904 0 0.068770788565812424 0.18148872268214911 0 0.087805019906555065 0.1775071508399165 0 0.05973062560533076 0.17102349909430301 0 0.072097335033505752 0.1660708379700904 0 0.068770788565812424 0.18148872268214911 0 0.084337035848463138 0.1551941093745553 0 0.087805019906555065 0.1775071508399165 0 0.1027065175585391 0.1542372289971001 0 0.084337035848463138 0.1551941093745553 0 0.072097335033505752 0.1660708379700904 0 0.087805019906555065 0.1775071508399165 0 0.087805019906555065 0.1775071508399165 0 0.111759414399882 0.1735459449318143 0 0.1027065175585391 0.1542372289971001 0 0.093907363879826122 0.19962849840817609 0 0.087805019906555065 0.1775071508399165 0 0.111759414399882 0.1735459449318143 0 0.11864289311327809 0.19291173864207781 0 0.111759414399882 0.1735459449318143 0 0.13756645753519239 0.17263142548513391 0 0.111759414399882 0.1735459449318143 0 0.1027065175585391 0.1542372289971001 0 0.12992823440590159 0.1443596272184815 0 0.1027065175585391 0.1542372289971001 0 0.1083146665460987 0.1325631576509762 0 0.12992823440590159 0.1443596272184815 0 0.091004758727419838 0.1386382795081792 0 0.1027065175585391 0.1542372289971001 0 0.1083146665460987 0.1325631576509762 0 0.090488779542200248 0.1190400337794114 0 0.091004758727419838 0.1386382795081792 0 0.1083146665460987 0.1325631576509762 0 0.12229001127661079 0.11608782895182911 0 0.1083146665460987 0.1325631576509762 0 0.12992823440590159 0.1443596272184815 0 0.12229001127661079 0.11608782895182911 0 0.14242621007528419 0.13041429978285329 0 0.12992823440590159 0.1443596272184815 0 0.12229001127661079 0.11608782895182911 0 0.12992823440590159 0.1443596272184815 0 0.14242621007528419 0.13041429978285329 0 0.1536027255492968 0.1483299584732132 0 0.1603417937121005 0.12979820936297709 0 0.14242621007528419 0.13041429978285329 0 0.1536027255492968 0.1483299584732132 0 0.12992823440590159 0.1443596272184815 0 0.1536027255492968 0.1483299584732132 0 0.12992823440590159 0.1443596272184815 0 0.13756645753519239 0.17263142548513391 0 0.111759414399882 0.1735459449318143 0 0.12992823440590159 0.1443596272184815 0 0.13756645753519239 0.17263142548513391 0 0.12992823440590159 0.1443596272184815 0 0.13756645753519239 0.17263142548513391 0 0.13756645753519239 0.17263142548513391 0 0.15057406521692041 0.18516889465928479 0 0.1452046806644833 0.20090322375178629 0 0.13756645753519239 0.17263142548513391 0 0.15057406521692041 0.18516889465928479 0 0.16474536136648429 0.17038511715301821 0 0.13756645753519239 0.17263142548513391 0 0.1452046806644833 0.20090322375178629 0 0.1536027255492968 0.1483299584732132 0 0.13756645753519239 0.17263142548513391 0 0.16474536136648429 0.17038511715301821 0 0.15057406521692041 0.18516889465928479 0 0.16474536136648429 0.17038511715301821 0 0.16085859250051829 0.18964006093428071 0 0.16474536136648429 0.17038511715301821 0 0.16085859250051829 0.18964006093428071 0 0.17357922175609131 0.1916371444468091 0 0.1815294565241509 0.17331230935149891 0 0.17357922175609131 0.1916371444468091 0 0.19338665766208629 0.18223215661324321 0 0.16474536136648429 0.17038511715301821 0 0.1815294565241509 0.17331230935149891 0 0.17357922175609131 0.1916371444468091 0 0.17357922175609131 0.1916371444468091 0 0.19338665766208629 0.18223215661324321 0 0.16474536136648429 0.17038511715301821 0 0.1815294565241509 0.17331230935149891 0 0.18490641925670689 0.15777566011544861 0 0.16474536136648429 0.17038511715301821 0 0.18490641925670689 0.15777566011544861 0 0.1715162822467903 0.14494189023406301 0 0.18490641925670689 0.15777566011544861 0 0.1715162822467903 0.14494189023406301 0 0.18968602440200211 0.13497978608553829 0 0.17581536919415111 0.1283826102141829 0 0.18968602440200211 0.13497978608553829 0 0.18343726518739459 0.1153363614163182 0 0.17581536919415111 0.1283826102141829 0 0.1715162822467903 0.14494189023406301 0 0.18968602440200211 0.13497978608553829 0 0.17581536919415111 0.1283826102141829 0 0.1603417937121005 0.12979820936297709 0 0.1715162822467903 0.14494189023406301 0 0.1536027255492968 0.1483299584732132 0 0.16474536136648429 0.17038511715301821 0 0.1715162822467903 0.14494189023406301 0 0.1536027255492968 0.1483299584732132 0 0.1603417937121005 0.12979820936297709 0 0.1715162822467903 0.14494189023406301 0 0.139967173851379 0.24782138501883791 0 0.15284290379377399 0.22917502201843851 0 0.16048112692306479 0.25744682028509069 0 0.1160311557347623 0.24436958391682351 0 0.139967173851379 0.24782138501883791 0 0.13031132545150739 0.22217645802496369 0 0.139967173851379 0.24782138501883791 0 0.13031132545150739 0.22217645802496369 0 0.15284290379377399 0.22917502201843851 0 0.13031132545150739 0.22217645802496369 0 0.15284290379377399 0.22917502201843851 0 0.1452046806644833 0.20090322375178629 0 0.15284290379377399 0.22917502201843851 0 0.1452046806644833 0.20090322375178629 0 0.15284290379377399 0.22917502201843851 0 0.1452046806644833 0.20090322375178629 0 0.16228063900430931 0.21149890735982671 0 0.1452046806644833 0.20090322375178629 0 0.15377178585009621 0.20104213228037501 0 0.16228063900430931 0.21149890735982671 0 0.1246222707262022 0.2081657957665119 0 0.13031132545150739 0.22217645802496369 0 0.1452046806644833 0.20090322375178629 0 0.11864289311327809 0.19291173864207781 0 0.1246222707262022 0.2081657957665119 0 0.1452046806644833 0.20090322375178629 0 0.11864289311327809 0.19291173864207781 0 0.13756645753519239 0.17263142548513391 0 0.1452046806644833 0.20090322375178629 0 0.15057406521692041 0.18516889465928479 0 0.1452046806644833 0.20090322375178629 0 0.15377178585009621 0.20104213228037501 0 0.15057406521692041 0.18516889465928479 0 0.15377178585009621 0.20104213228037501 0 0.16085859250051829 0.18964006093428071 0 0.15377178585009621 0.20104213228037501 0 0.17357922175609131 0.1916371444468091 0 0.15377178585009621 0.20104213228037501 0 0.16085859250051829 0.18964006093428071 0 0.17357922175609131 0.1916371444468091 0 0.15377178585009621 0.20104213228037501 0 0.17357922175609131 0.1916371444468091 0 0.16699290143610471 0.20314462353909549 0 0.17357922175609131 0.1916371444468091 0 0.1879884888534353 0.19704593959003161 0 0.19338665766208629 0.18223215661324321 0 0.17357922175609131 0.1916371444468091 0 0.1792293899639156 0.20957599744263899 0 0.16699290143610471 0.20314462353909549 0 0.17357922175609131 0.1916371444468091 0 0.1792293899639156 0.20957599744263899 0 0.1879884888534353 0.19704593959003161 0 0.1792293899639156 0.20957599744263899 0 0.16228063900430931 0.21149890735982671 0 0.174570480876651 0.22514729004615791 0 0.1792293899639156 0.20957599744263899 0 0.16699290143610471 0.20314462353909549 0 0.16228063900430931 0.21149890735982671 0 0.15377178585009621 0.20104213228037501 0 0.16699290143610471 0.20314462353909549 0 0.16228063900430931 0.21149890735982671 0 0.15284290379377399 0.22917502201843851 0 0.16228063900430931 0.21149890735982671 0 0.174570480876651 0.22514729004615791 0 0.15284290379377399 0.22917502201843851 0 0.174570480876651 0.22514729004615791 0 0.16874983862555221 0.2400451405179696 0 0.174570480876651 0.22514729004615791 0 0.16874983862555221 0.2400451405179696 0 0.19123214693339791 0.23101809622753039 0 0.1792293899639156 0.20957599744263899 0 0.19123214693339791 0.23101809622753039 0 0.1792293899639156 0.20957599744263899 0 0.174570480876651 0.22514729004615791 0 0.19123214693339791 0.23101809622753039 0 0.19123214693339791 0.23101809622753039 0 0.17780608738777809 0.25705026945876192 0 0.19078065725116791 0.25894683703501692 0 0.19123214693339791 0.23101809622753039 0 0.17780608738777809 0.25705026945876192 0 0.16874983862555221 0.2400451405179696 0 0.19123214693339791 0.23101809622753039 0 0.17780608738777809 0.25705026945876192 0 0.15284290379377399 0.22917502201843851 0 0.16048112692306479 0.25744682028509069 0 0.15284290379377399 0.22917502201843851 0 0.16874983862555221 0.2400451405179696 0 0.16048112692306479 0.25744682028509069 0 0.21686762879133989 0.2316253440312416 0 0.2197545742336772 0.24675856098265139 0 0.20480194690244569 0.25525960942045761 0 0.19123214693339791 0.23101809622753039 0 0.21686762879133989 0.2316253440312416 0 0.20480194690244569 0.25525960942045761 0 0.19123214693339791 0.23101809622753039 0 0.19078065725116791 0.25894683703501692 0 0.20480194690244569 0.25525960942045761 0 0.19123214693339791 0.23101809622753039 0 0.20480194690244569 0.25525960942045761 0 0.19123214693339791 0.23101809622753039 0 0.21686762879133989 0.2316253440312416 0 0.2042190543567681 0.20583740768413411 0 0.21686762879133989 0.2316253440312416 0 0.2042190543567681 0.20583740768413411 0 0.23038473891786951 0.20637638236074549 0 0.1792293899639156 0.20957599744263899 0 0.2042190543567681 0.20583740768413411 0 0.1879884888534353 0.19704593959003161 0 0.1792293899639156 0.20957599744263899 0 0.19123214693339791 0.23101809622753039 0 0.2042190543567681 0.20583740768413411 0 0.19123214693339791 0.23101809622753039 0 0.2042190543567681 0.20583740768413411 0 0.2042190543567681 0.20583740768413411 0 0.1879884888534353 0.19704593959003161 0 0.19338665766208629 0.18223215661324321 0 0.2042190543567681 0.20583740768413411 0 0.2172059617801407 0.18065671914073919 0 0.2042190543567681 0.20583740768413411 0 0.23038473891786951 0.20637638236074549 0 0.2172059617801407 0.18065671914073919 0 0.2042190543567681 0.20583740768413411 0 0.19338665766208629 0.18223215661324321 0 0.2172059617801407 0.18065671914073919 0 0.23038473891786951 0.20637638236074549 0 0.2172059617801407 0.18065671914073919 0 0.2312076880172618 0.18265163083413979 0 0.23038473891786951 0.20637638236074549 0 0.2172059617801407 0.18065671914073919 0 0.23038473891786951 0.20637638236074549 0 0.2312076880172618 0.18265163083413979 0 0.24526457073502539 0.18633975808042899 0 0.23038473891786951 0.20637638236074549 0 0.24526457073502539 0.18633975808042899 0 0.25472824108373948 0.2097414374489398 0 0.23038473891786951 0.20637638236074549 0 0.2435635160555997 0.23209604558075109 0 0.25472824108373948 0.2097414374489398 0 0.21686762879133989 0.2316253440312416 0 0.23038473891786951 0.20637638236074549 0 0.2435635160555997 0.23209604558075109 0 0.23038473891786951 0.20637638236074549 0 0.2435635160555997 0.23209604558075109 0 0.2435635160555997 0.23209604558075109 0 0.2311707380788057 0.25749821458281719 0 0.25674229319332992 0.25781570880075683 0 0.21686762879133989 0.2316253440312416 0 0.2435635160555997 0.23209604558075109 0 0.2197545742336772 0.24675856098265139 0 0.2435635160555997 0.23209604558075109 0 0.2197545742336772 0.24675856098265139 0 0.2311707380788057 0.25749821458281719 0 0.2181845406577852 0.15116565171391261 0 0.20086398190022159 0.15086353661971061 0 0.20868132395589131 0.1582811583469286 0 0.2181845406577852 0.15116565171391261 0 0.20855097650927201 0.13195195264722989 0 0.20086398190022159 0.15086353661971061 0 0.2181845406577852 0.15116565171391261 0 0.20855097650927201 0.13195195264722989 0 0.2267906199067663 0.126794369389889 0 0.20855097650927201 0.13195195264722989 0 0.18968602440200211 0.13497978608553829 0 0.19822397090556659 0.1179480503769932 0 0.20855097650927201 0.13195195264722989 0 0.18968602440200211 0.13497978608553829 0 0.20086398190022159 0.15086353661971061 0 0.18490641925670689 0.15777566011544861 0 0.18968602440200211 0.13497978608553829 0 0.20086398190022159 0.15086353661971061 0 0.1815294565241509 0.17331230935149891 0 0.18490641925670689 0.15777566011544861 0 0.19895488964431929 0.16589524247473469 0 0.18490641925670689 0.15777566011544861 0 0.20086398190022159 0.15086353661971061 0 0.19895488964431929 0.16589524247473469 0 0.20086398190022159 0.15086353661971061 0 0.19895488964431929 0.16589524247473469 0 0.20868132395589131 0.1582811583469286 0 0.19895488964431929 0.16589524247473469 0 0.19338665766208629 0.18223215661324321 0 0.21319409356808139 0.17282716877967719 0 0.1815294565241509 0.17331230935149891 0 0.19895488964431929 0.16589524247473469 0 0.19338665766208629 0.18223215661324321 0 0.19338665766208629 0.18223215661324321 0 0.21319409356808139 0.17282716877967719 0 0.2172059617801407 0.18065671914073919 0 0.19338665766208629 0.18223215661324321 0 0.21319409356808139 0.17282716877967719 0 0.21319409356808139 0.17282716877967719 0 0.2172059617801407 0.18065671914073919 0 0.21319409356808139 0.17282716877967719 0 0.2172059617801407 0.18065671914073919 0 0.22385470068227681 0.16776528794445361 0 0.19895488964431929 0.16589524247473469 0 0.20868132395589131 0.1582811583469286 0 0.21006095756633419 0.16671254965034971 0 0.19895488964431929 0.16589524247473469 0 0.21319409356808139 0.17282716877967719 0 0.21006095756633419 0.16671254965034971 0 0.21319409356808139 0.17282716877967719 0 0.21006095756633419 0.16671254965034971 0 0.21480739070142649 0.16320279485632189 0 0.21319409356808139 0.17282716877967719 0 0.22385470068227681 0.16776528794445361 0 0.21319409356808139 0.17282716877967719 0 0.21480739070142649 0.16320279485632189 0 0.22385470068227681 0.16776528794445361 0 0.21319409356808139 0.17282716877967719 0 0.21006095756633419 0.16671254965034971 0 0.20868132395589131 0.1582811583469286 0 0.21006095756633419 0.16671254965034971 0 0.21480739070142649 0.16320279485632189 0 0.2181845406577852 0.15116565171391261 0 0.20868132395589131 0.1582811583469286 0 0.21480739070142649 0.16320279485632189 0 0.2181845406577852 0.15116565171391261 0 0.21480739070142649 0.16320279485632189 0 0.22385470068227681 0.16776528794445361 0 0.2172059617801407 0.18065671914073919 0 0.22385470068227681 0.16776528794445361 0 0.2312076880172618 0.18265163083413979 0 0.2172059617801407 0.18065671914073919 0 0.22385470068227681 0.16776528794445361 0 0.22385470068227681 0.16776528794445361 0 0.2312076880172618 0.18265163083413979 0 0.2393284679709981 0.17212000664433211 0 0.2393284679709981 0.17212000664433211 0 0.24526457073502539 0.18633975808042899 0 0.25371488617394888 0.17028876903168511 0 0.2312076880172618 0.18265163083413979 0 0.2393284679709981 0.17212000664433211 0 0.24526457073502539 0.18633975808042899 0 0.22385470068227681 0.16776528794445361 0 0.2451536813182742 0.15765208325205629 0 0.2359687261488628 0.14427705534706681 0 0.22385470068227681 0.16776528794445361 0 0.2393284679709981 0.17212000664433211 0 0.2451536813182742 0.15765208325205629 0 0.22385470068227681 0.16776528794445361 0 0.2451536813182742 0.15765208325205629 0 0.2393284679709981 0.17212000664433211 0 0.2451536813182742 0.15765208325205629 0 0.25371488617394888 0.17028876903168511 0 0.2451536813182742 0.15765208325205629 0 0.2359687261488628 0.14427705534706681 0 0.25240810899499322 0.14204669382305679 0 0.22385470068227681 0.16776528794445361 0 0.2359687261488628 0.14427705534706681 0 0.2181845406577852 0.15116565171391261 0 0.2359687261488628 0.14427705534706681 0 0.2267906199067663 0.126794369389889 0 0.2181845406577852 0.15116565171391261 0 0.22385470068227681 0.16776528794445361 0 0.2359687261488628 0.14427705534706681 0 0.2359687261488628 0.14427705534706681 0 0.24808275161545071 0.1207888227496809 0 0.25240810899499322 0.14204669382305679 0 0.2359687261488628 0.14427705534706681 0 0.24808275161545071 0.1207888227496809 0 0.2359687261488628 0.14427705534706681 0 0.2267906199067663 0.126794369389889 0 0.24808275161545071 0.1207888227496809 0 0.2267906199067663 0.126794369389889 0 0.24808275161545071 0.1207888227496809 0 0.22991703510206751 0.10650381689637151 0 0.24808275161545071 0.1207888227496809 0 0.22991703510206751 0.10650381689637151 0 0.24808275161545071 0.1207888227496809 0 0.24334447048378879 0.099290364181984087 0 0.22991703510206751 0.10650381689637151 0 0.24808275161545071 0.1207888227496809 0 0.24334447048378879 0.099290364181984087 0 0.25567809220186771 0.1060619983062154 0 0.22991703510206751 0.10650381689637151 0 0.21175131858868529 0.092218811043060581 0 0.24334447048378879 0.099290364181984087 0 0.22991703510206751 0.10650381689637151 0 0.22705421155002459 0.091451524620777824 0 0.22991703510206751 0.10650381689637151 0 0.21175131858868529 0.092218811043060581 0 0.22705421155002459 0.091451524620777824 0 0.2267906199067663 0.126794369389889 0 0.22991703510206751 0.10650381689637151 0 0.21310411102134491 0.1095824205891423 0 0.20855097650927201 0.13195195264722989 0 0.21310411102134491 0.1095824205891423 0 0.19822397090556659 0.1179480503769932 0 0.20855097650927201 0.13195195264722989 0 0.2267906199067663 0.126794369389889 0 0.21310411102134491 0.1095824205891423 0 0.21310411102134491 0.1095824205891423 0 0.1940002704781765 0.098111161490792437 0 0.21175131858868529 0.092218811043060581 0 0.22991703510206751 0.10650381689637151 0 0.21310411102134491 0.1095824205891423 0 0.21175131858868529 0.092218811043060581 0 0.21310411102134491 0.1095824205891423 0 0.1940002704781765 0.098111161490792437 0 0.19822397090556659 0.1179480503769932 0 0.18968602440200211 0.13497978608553829 0 0.19822397090556659 0.1179480503769932 0 0.18343726518739459 0.1153363614163182 0 0.1940002704781765 0.098111161490792437 0 0.19822397090556659 0.1179480503769932 0 0.18343726518739459 0.1153363614163182 0 0.2027972004585315 0.069363914719689668 0 0.1935856020753032 0.077933805189749739 0 0.2105168445643873 0.079520979104901163 0 0.1935856020753032 0.077933805189749739 0 0.18754560202129811 0.062205910075521002 0 0.1831613749385769 0.07384286034377438 0 0.2027972004585315 0.069363914719689668 0 0.1935856020753032 0.077933805189749739 0 0.18754560202129811 0.062205910075521002 0 0.2027972004585315 0.069363914719689668 0 0.20689186650085839 0.058836700058207507 0 0.18754560202129811 0.062205910075521002 0 0.1935856020753032 0.077933805189749739 0 0.21175131858868529 0.092218811043060581 0 0.1940002704781765 0.098111161490792437 0 0.1935856020753032 0.077933805189749739 0 0.1796100618657559 0.084571286359360259 0 0.1940002704781765 0.098111161490792437 0 0.1935856020753032 0.077933805189749739 0 0.21175131858868529 0.092218811043060581 0 0.1935856020753032 0.077933805189749739 0 0.2105168445643873 0.079520979104901163 0 0.21175131858868529 0.092218811043060581 0 0.2105168445643873 0.079520979104901163 0 0.21175131858868529 0.092218811043060581 0 0.2229559445684493 0.076687667767375567 0 0.2027972004585315 0.069363914719689668 0 0.2229559445684493 0.076687667767375567 0 0.2027972004585315 0.069363914719689668 0 0.2105168445643873 0.079520979104901163 0 0.2229559445684493 0.076687667767375567 0 0.2027972004585315 0.069363914719689668 0 0.21714005736007189 0.064337849890020032 0 0.2229559445684493 0.076687667767375567 0 0.2027972004585315 0.069363914719689668 0 0.21714005736007189 0.064337849890020032 0 0.20689186650085839 0.058836700058207507 0 0.23380950856256619 0.064544021335642118 0 0.2229559445684493 0.076687667767375567 0 0.243114688678367 0.084011420815061466 0 0.21714005736007189 0.064337849890020032 0 0.23380950856256619 0.064544021335642118 0 0.2229559445684493 0.076687667767375567 0 0.2229559445684493 0.076687667767375567 0 0.243114688678367 0.084011420815061466 0 0.2229559445684493 0.076687667767375567 0 0.22705421155002459 0.091451524620777824 0 0.243114688678367 0.084011420815061466 0 0.21175131858868529 0.092218811043060581 0 0.2229559445684493 0.076687667767375567 0 0.22705421155002459 0.091451524620777824 0 0.24334447048378879 0.099290364181984087 0 0.22705421155002459 0.091451524620777824 0 0.243114688678367 0.084011420815061466 0 0.24334447048378879 0.099290364181984087 0 0.243114688678367 0.084011420815061466 0 0.26327343278828402 0.091335173862749586 0 0.23380950856256619 0.064544021335642118 0 0.243114688678367 0.084011420815061466 0 0.25335968314542351 0.066303674114439173 0 0.23380950856256619 0.064544021335642118 0 0.2398240155596181 0.047967347758872132 0 0.25335968314542351 0.066303674114439173 0 0.2398240155596181 0.047967347758872132 0 0.2331828806617299 0.02901204680372935 0 0.25222260686987391 0.030896380053868761 0 0.2398240155596181 0.047967347758872132 0 0.22546185805631111 0.040580677308103073 0 0.2331828806617299 0.02901204680372935 0 0.22546185805631111 0.040580677308103073 0 0.2331828806617299 0.02901204680372935 0 0.21158873281324009 0.03322821857484512 0 0.22546185805631111 0.040580677308103073 0 0.2192457667099541 0.052256945569185267 0 0.21158873281324009 0.03322821857484512 0 0.21714005736007189 0.064337849890020032 0 0.23380950856256619 0.064544021335642118 0 0.2192457667099541 0.052256945569185267 0 0.2398240155596181 0.047967347758872132 0 0.22546185805631111 0.040580677308103073 0 0.2192457667099541 0.052256945569185267 0 0.23380950856256619 0.064544021335642118 0 0.2398240155596181 0.047967347758872132 0 0.2192457667099541 0.052256945569185267 0 0.24683678386874991 0.011759387503803471 0 0.2331828806617299 0.02901204680372935 0 0.25222260686987391 0.030896380053868761 0 0.24683678386874991 0.011759387503803471 0 0.2331828806617299 0.02901204680372935 0 0.22677223899630891 0.01369550584974533 0 0.2331828806617299 0.02901204680372935 0 0.22677223899630891 0.01369550584974533 0 0.21158873281324009 0.03322821857484512 0 0.22677223899630891 0.01369550584974533 0 0.20923784945252041 0.0098223260899010824 0 0.22643588993749281 -0.0029050851839538929 0 0.24683678386874991 0.011759387503803471 0 0.22677223899630891 0.01369550584974533 0 0.22643588993749281 -0.0029050851839538929 0 0.20923784945252041 0.0098223260899010824 0 0.1943347960245187 0.02263458405324319 0 0.21158873281324009 0.03322821857484512 0 0.22677223899630891 0.01369550584974533 0 0.20923784945252041 0.0098223260899010824 0 0.21158873281324009 0.03322821857484512 0 0.1943347960245187 0.02263458405324319 0 0.21158873281324009 0.03322821857484512 0 0.19052621622741581 0.036902948417308401 0 0.20923784945252041 0.0098223260899010824 0 0.1893930781060881 0.0033881031404621731 0 0.20690236083747379 -0.011107369894935401 0 0.1943347960245187 0.02263458405324319 0 0.1893930781060881 0.0033881031404621731 0 0.18138283609121611 0.011645950235277199 0 0.20923784945252041 0.0098223260899010824 0 0.1943347960245187 0.02263458405324319 0 0.1893930781060881 0.0033881031404621731 0 0.2192457667099541 0.052256945569185267 0 0.20689186650085839 0.058836700058207507 0 0.19875517794935649 0.048821617337379941 0 0.21714005736007189 0.064337849890020032 0 0.2192457667099541 0.052256945569185267 0 0.20689186650085839 0.058836700058207507 0 0.2192457667099541 0.052256945569185267 0 0.21158873281324009 0.03322821857484512 0 0.19875517794935649 0.048821617337379941 0 0.19052621622741581 0.036902948417308401 0 0.19875517794935649 0.048821617337379941 0 0.1776960298692373 0.048537178832354602 0 0.21158873281324009 0.03322821857484512 0 0.19052621622741581 0.036902948417308401 0 0.19875517794935649 0.048821617337379941 0 0.20689186650085839 0.058836700058207507 0 0.18754560202129811 0.062205910075521002 0 0.19875517794935649 0.048821617337379941 0 0.18754560202129811 0.062205910075521002 0 0.19875517794935649 0.048821617337379941 0 0.1776960298692373 0.048537178832354602 0 0.18754560202129811 0.062205910075521002 0 0.1776960298692373 0.048537178832354602 0 0.1663277010689812 0.05724010564638965 0 0.19052621622741581 0.036902948417308401 0 0.1776960298692373 0.048537178832354602 0 0.17487944742087611 0.026676491303802039 0 0.1776960298692373 0.048537178832354602 0 0.17487944742087611 0.026676491303802039 0 0.1776960298692373 0.048537178832354602 0 0.1588651646601365 0.04191133693892312 0 0.17487944742087611 0.026676491303802039 0 0.1588651646601365 0.04191133693892312 0 0.1663277010689812 0.05724010564638965 0 0.152380479391066 0.065273195759883634 0 0.1776960298692373 0.048537178832354602 0 0.1588651646601365 0.04191133693892312 0 0.1663277010689812 0.05724010564638965 0 0.17206286497251441 0.0048158037752495672 0 0.18138283609121611 0.011645950235277199 0 0.17487944742087611 0.026676491303802039 0 0.17206286497251441 0.0048158037752495672 0 0.17504892260782259 0.0050211824361357446 0 0.18138283609121611 0.011645950235277199 0 0.17206286497251441 0.0048158037752495672 0 0.17504892260782259 0.0050211824361357446 0 0.18037517114347609 0.0008153331900191184 0 0.17206286497251441 0.0048158037752495672 0 0.17504892260782259 0.0050211824361357446 0 0.17504892260782259 0.0050211824361357446 0 0.1816316691858702 0.005025707522054371 0 0.18138283609121611 0.011645950235277199 0 0.17504892260782259 0.0050211824361357446 0 0.18037517114347609 0.0008153331900191184 0 0.1816316691858702 0.005025707522054371 0 0.1893930781060881 0.0033881031404621731 0 0.1816316691858702 0.005025707522054371 0 0.18138283609121611 0.011645950235277199 0 0.1893930781060881 0.0033881031404621731 0 0.18037517114347609 0.0008153331900191184 0 0.1816316691858702 0.005025707522054371 0 0.1943347960245187 0.02263458405324319 0 0.19052621622741581 0.036902948417308401 0 0.17487944742087611 0.026676491303802039 0 0.1943347960245187 0.02263458405324319 0 0.18138283609121611 0.011645950235277199 0 0.17487944742087611 0.026676491303802039 0 0.17206286497251441 0.0048158037752495672 0 0.17487944742087611 0.026676491303802039 0 0.17206286497251441 0.0048158037752495672 0 0.17487944742087611 0.026676491303802039 0 0.15846989451487159 0.01841674353528918 0 0.1588651646601365 0.04191133693892312 0 0.17487944742087611 0.026676491303802039 0 0.15846989451487159 0.01841674353528918 0 0.17206286497251441 0.0048158037752495672 0 0.15846989451487159 0.01841674353528918 0 0.15092663000695719 0.003362070403861992 0 0.17206286497251441 0.0048158037752495672 0 0.15092663000695719 0.003362070403861992 0 0.15846989451487159 0.01841674353528918 0 0.15092663000695719 0.003362070403861992 0 0.13834254672427801 0.01350984960024202 0 0.15846989451487159 0.01841674353528918 0 0.1448386600247768 0.028576569376524971 0 0.13834254672427801 0.01350984960024202 0 0.1588651646601365 0.04191133693892312 0 0.15846989451487159 0.01841674353528918 0 0.1448386600247768 0.028576569376524971 0 0.124266104505753 0.01076668718673477 0 0.1297049872092044 0.024734329021407112 0 0.13834254672427801 0.01350984960024202 0 0.1448386600247768 0.028576569376524971 0 0.1297049872092044 0.024734329021407112 0 0.13834254672427801 0.01350984960024202 0 0.15092663000695719 0.003362070403861992 0 0.12979039504140011 0.0019083370324715679 0 0.15092663000695719 0.003362070403861992 0 0.13834254672427801 0.01350984960024202 0 0.12979039504140011 0.0019083370324715679 0 0.124266104505753 0.01076668718673477 0 0.13834254672427801 0.01350984960024202 0 0.12979039504140011 0.0019083370324715679 0 0.124266104505753 0.01076668718673477 0 0.12979039504140011 0.0019083370324715679 0 0.1588651646601365 0.04191133693892312 0 0.13864306507697871 0.048827115582547771 0 0.152380479391066 0.065273195759883634 0 0.1588651646601365 0.04191133693892312 0 0.1448386600247768 0.028576569376524971 0 0.13864306507697871 0.048827115582547771 0 0.119878082227169 0.037034007354733188 0 0.1297049872092044 0.024734329021407112 0 0.13864306507697871 0.048827115582547771 0 0.119878082227169 0.037034007354733188 0 0.13864306507697871 0.048827115582547771 0 0.1448386600247768 0.028576569376524971 0 0.1297049872092044 0.024734329021407112 0 0.13864306507697871 0.048827115582547771 0 0.13864306507697871 0.048827115582547771 0 0.1290074287148136 0.058924044505645728 0 0.152380479391066 0.065273195759883634 0 0.119878082227169 0.037034007354733188 0 0.13864306507697871 0.048827115582547771 0 0.1290074287148136 0.058924044505645728 0 0.1290074287148136 0.058924044505645728 0 0.13235235897695169 0.075324323404691085 0 0.152380479391066 0.065273195759883634 0 0.11413249712685331 0.061627248170872437 0 0.1290074287148136 0.058924044505645728 0 0.13235235897695169 0.075324323404691085 0 0.152380479391066 0.065273195759883634 0 0.14978437956517099 0.083215413968425356 0 0.16458081978249839 0.083448701844854478 0 0.13235235897695169 0.075324323404691085 0 0.152380479391066 0.065273195759883634 0 0.14978437956517099 0.083215413968425356 0 0.14978437956517099 0.083215413968425356 0 0.13807216851621781 0.096239437265063815 0 0.1579992228848211 0.098242327332712612 0 0.1146517881473199 0.087816030685176627 0 0.13235235897695169 0.075324323404691085 0 0.13807216851621781 0.096239437265063815 0 0.13235235897695169 0.075324323404691085 0 0.14978437956517099 0.083215413968425356 0 0.13807216851621781 0.096239437265063815 0 0.12229001127661079 0.11608782895182911 0 0.13807216851621781 0.096239437265063815 0 0.14832788267816541 0.1142822762218864 0 0.12229001127661079 0.11608782895182911 0 0.1146517881473199 0.087816030685176627 0 0.13807216851621781 0.096239437265063815 0 0.12229001127661079 0.11608782895182911 0 0.14242621007528419 0.13041429978285329 0 0.14832788267816541 0.1142822762218864 0 0.14242621007528419 0.13041429978285329 0 0.1603417937121005 0.12979820936297709 0 0.14832788267816541 0.1142822762218864 0 0.13807216851621781 0.096239437265063815 0 0.14832788267816541 0.1142822762218864 0 0.1579992228848211 0.098242327332712612 0 0.1579992228848211 0.098242327332712612 0 0.167091414948245 0.1138670124321241 0 0.1758065411962263 0.098729547898278397 0 0.14832788267816541 0.1142822762218864 0 0.1579992228848211 0.098242327332712612 0 0.167091414948245 0.1138670124321241 0 0.1603417937121005 0.12979820936297709 0 0.14832788267816541 0.1142822762218864 0 0.167091414948245 0.1138670124321241 0 0.17581536919415111 0.1283826102141829 0 0.1603417937121005 0.12979820936297709 0 0.167091414948245 0.1138670124321241 0 0.17581536919415111 0.1283826102141829 0 0.167091414948245 0.1138670124321241 0 0.18343726518739459 0.1153363614163182 0 0.1940002704781765 0.098111161490792437 0 0.18343726518739459 0.1153363614163182 0 0.1758065411962263 0.098729547898278397 0 0.167091414948245 0.1138670124321241 0 0.18343726518739459 0.1153363614163182 0 0.1758065411962263 0.098729547898278397 0 0.1940002704781765 0.098111161490792437 0 0.1758065411962263 0.098729547898278397 0 0.1796100618657559 0.084571286359360259 0 0.1758065411962263 0.098729547898278397 0 0.1796100618657559 0.084571286359360259 0 0.16458081978249839 0.083448701844854478 0 0.1796100618657559 0.084571286359360259 0 0.17190423379195061 0.070660439750466528 0 0.16458081978249839 0.083448701844854478 0 0.1935856020753032 0.077933805189749739 0 0.1796100618657559 0.084571286359360259 0 0.1831613749385769 0.07384286034377438 0 0.18754560202129811 0.062205910075521002 0 0.1831613749385769 0.07384286034377438 0 0.17190423379195061 0.070660439750466528 0 0.18754560202129811 0.062205910075521002 0 0.1663277010689812 0.05724010564638965 0 0.17190423379195061 0.070660439750466528 0 0.1796100618657559 0.084571286359360259 0 0.1831613749385769 0.07384286034377438 0 0.17190423379195061 0.070660439750466528 0 0.152380479391066 0.065273195759883634 0 0.17190423379195061 0.070660439750466528 0 0.16458081978249839 0.083448701844854478 0 0.1663277010689812 0.05724010564638965 0 0.152380479391066 0.065273195759883634 0 0.17190423379195061 0.070660439750466528 0 0.1579992228848211 0.098242327332712612 0 0.1758065411962263 0.098729547898278397 0 0.16458081978249839 0.083448701844854478 0 0.14978437956517099 0.083215413968425356 0 0.1579992228848211 0.098242327332712612 0 0.16458081978249839 0.083448701844854478 0 0.097205749476315967 0.4758417181507355 0 0.098925634576218585 0.47686424316731019 0 0.096984276812783987 0.50000000000000167 0 0.098925634576218585 0.47686424316731019 0 0.10816559881148741 0.48683639522950078 0 0.1108558930011689 0.47614439769192868 0 0.098925634576218585 0.47686424316731019 0 0.1108558930011689 0.47614439769192868 0 0.1030764764483558 0.46792485095394792 0 0.097205749476315967 0.4758417181507355 0 0.098925634576218585 0.47686424316731019 0 0.1030764764483558 0.46792485095394792 0 0.097205749476315967 0.4758417181507355 0 0.098925634576218585 0.47686424316731019 0 0.097205749476315967 0.4758417181507355 0 0.096984276812783987 0.50000000000000167 0 0.089506092948060889 0.48477218397205402 0 0.096984276812783987 0.50000000000000167 0 0.10816559881148741 0.48683639522950078 0 0.1222220387075891 0.5 0 0.098925634576218585 0.47686424316731019 0 0.096984276812783987 0.50000000000000167 0 0.10816559881148741 0.48683639522950078 0 0.097205749476315967 0.4758417181507355 0 0.096984276812783987 0.50000000000000167 0 0.10816559881148741 0.48683639522950078 0 0.1222220387075891 0.5 0 0.1189307255613999 0.48432218398866927 0 0.1189307255613999 0.48432218398866927 0 0.1108558930011689 0.47614439769192868 0 0.12403912622496539 0.47448368195361967 0 0.10816559881148741 0.48683639522950078 0 0.1189307255613999 0.48432218398866927 0 0.1108558930011689 0.47614439769192868 0 0.1108558930011689 0.47614439769192868 0 0.1149436683652591 0.46682383568409491 0 0.1030764764483558 0.46792485095394792 0 0.1108558930011689 0.47614439769192868 0 0.12403912622496539 0.47448368195361967 0 0.1149436683652591 0.46682383568409491 0 0.12403912622496539 0.47448368195361967 0 0.1235657929076949 0.45743785159519362 0 0.1149436683652591 0.46682383568409491 0 0.1235657929076949 0.45743785159519362 0 0.1095897460094141 0.45461541845053488 0 0.1149436683652591 0.46682383568409491 0 0.1095897460094141 0.45461541845053488 0 0.122431196238569 0.44368730251370347 0 0.109183139371307 0.43288828789193701 0 0.1235657929076949 0.45743785159519362 0 0.1095897460094141 0.45461541845053488 0 0.122431196238569 0.44368730251370347 0 0.097498012154117283 0.44396164757361289 0 0.097351880815217007 0.4599016828621742 0 0.1095897460094141 0.45461541845053488 0 0.097498012154117283 0.44396164757361289 0 0.109183139371307 0.43288828789193701 0 0.1095897460094141 0.45461541845053488 0 0.097498012154117283 0.44396164757361289 0 0.097351880815217007 0.4599016828621742 0 0.097205749476315967 0.4758417181507355 0 0.097351880815217007 0.4599016828621742 0 0.097205749476315967 0.4758417181507355 0 0.1030764764483558 0.46792485095394792 0 0.097351880815217007 0.4599016828621742 0 0.1095897460094141 0.45461541845053488 0 0.1149436683652591 0.46682383568409491 0 0.1030764764483558 0.46792485095394792 0 0.1095897460094141 0.45461541845053488 0 0.1030764764483558 0.46792485095394792 0 0.097351880815217007 0.4599016828621742 0 0.097351880815217007 0.4599016828621742 0 0.085765099524775845 0.45182477279157368 0 0.074850401840414804 0.46255077085825791 0 0.097205749476315967 0.4758417181507355 0 0.097351880815217007 0.4599016828621742 0 0.074850401840414804 0.46255077085825791 0 0.097498012154117283 0.44396164757361289 0 0.076432675817404538 0.44122566539579172 0 0.088893970854358517 0.42997630674629811 0 0.097498012154117283 0.44396164757361289 0 0.097351880815217007 0.4599016828621742 0 0.085765099524775845 0.45182477279157368 0 0.097498012154117283 0.44396164757361289 0 0.085765099524775845 0.45182477279157368 0 0.076432675817404538 0.44122566539579172 0 0.085765099524775845 0.45182477279157368 0 0.076432675817404538 0.44122566539579172 0 0.074850401840414804 0.46255077085825791 0 0.076432675817404538 0.44122566539579172 0 0.074850401840414804 0.46255077085825791 0 0.05249505420451385 0.44925982356577998 0 0.076432675817404538 0.44122566539579172 0 0.05249505420451385 0.44925982356577998 0 0.059664043557368533 0.43101956867315783 0 0.074850401840414804 0.46255077085825791 0 0.05249505420451385 0.44925982356577998 0 0.074850401840414804 0.46255077085825791 0 0.068495096790200494 0.48297238419235827 0 0.058200956221542227 0.46856909021867182 0 0.074850401840414804 0.46255077085825791 0 0.068495096790200494 0.48297238419235827 0 0.082737257938379702 0.4758500918215588 0 0.068495096790200494 0.48297238419235827 0 0.082737257938379702 0.4758500918215588 0 0.081097087564763859 0.48739692591592182 0 0.097205749476315967 0.4758417181507355 0 0.074850401840414804 0.46255077085825791 0 0.097205749476315967 0.4758417181507355 0 0.074850401840414804 0.46255077085825791 0 0.082737257938379702 0.4758500918215588 0 0.082737257938379702 0.4758500918215588 0 0.089506092948060889 0.48477218397205402 0 0.081097087564763859 0.48739692591592182 0 0.097205749476315967 0.4758417181507355 0 0.082737257938379702 0.4758500918215588 0 0.089506092948060889 0.48477218397205402 0 0.096984276812783987 0.50000000000000167 0 0.081097087564763859 0.48739692591592182 0 0.067265599025332801 0.5 0 0.096984276812783987 0.50000000000000167 0 0.089506092948060889 0.48477218397205402 0 0.081097087564763859 0.48739692591592182 0 0.068495096790200494 0.48297238419235827 0 0.081097087564763859 0.48739692591592182 0 0.067265599025332801 0.5 0 0.068495096790200494 0.48297238419235827 0 0.067265599025332801 0.5 0 0.052406260131607207 0.49036886853490802 0 0.067265599025332801 0.5 0 0.052406260131607207 0.49036886853490802 0 0.037546921237881559 0.5 0 0.068495096790200494 0.48297238419235827 0 0.052406260131607207 0.49036886853490802 0 0.04192262861736637 0.47552899379205887 0 0.068495096790200494 0.48297238419235827 0 0.04192262861736637 0.47552899379205887 0 0.068495096790200494 0.48297238419235827 0 0.04192262861736637 0.47552899379205887 0 0.058200956221542227 0.46856909021867182 0 0.052406260131607207 0.49036886853490802 0 0.04192262861736637 0.47552899379205887 0 0.037546921237881559 0.5 0 0.04192262861736637 0.47552899379205887 0 0.037546921237881559 0.5 0 0.01896074780478612 0.48459691919399989 0 0.037546921237881559 0.5 0 0.01896074780478612 0.48459691919399989 0 0.0078282434504303722 0.5 0 0.04192262861736637 0.47552899379205887 0 0.0153501604445323 0.46808560339175959 0 0.04192262861736637 0.47552899379205887 0 0.01896074780478612 0.48459691919399989 0 0.0153501604445323 0.46808560339175959 0 -0.00065462977569910325 0.47406899451073758 0 0.01896074780478612 0.48459691919399989 0 0.0153501604445323 0.46808560339175959 0 -0.002504903111400929 0.48865815071454061 0 -0.00065462977569910325 0.47406899451073758 0 0.01896074780478612 0.48459691919399989 0 -0.002504903111400929 0.48865815071454061 0 0.01896074780478612 0.48459691919399989 0 0.0078282434504303722 0.5 0 0.0053080445473378327 0.45227336431711868 0 0.019500549498717962 0.4498549983421099 0 0.011475021653931239 0.43578637022276501 0 -0.0057895499775989651 0.4405992072919957 0 0.0053080445473378327 0.45227336431711868 0 0.011475021653931239 0.43578637022276501 0 0.0053080445473378327 0.45227336431711868 0 0.0153501604445323 0.46808560339175959 0 0.019500549498717962 0.4498549983421099 0 -0.011222307728302169 0.46064221299146202 0 -0.00065462977569910325 0.47406899451073758 0 0.0153501604445323 0.46808560339175959 0 -0.011222307728302169 0.46064221299146202 0 0.0053080445473378327 0.45227336431711868 0 0.0153501604445323 0.46808560339175959 0 -0.011222307728302169 0.46064221299146202 0 0.0153501604445323 0.46808560339175959 0 0.0153501604445323 0.46808560339175959 0 0.019500549498717962 0.4498549983421099 0 0.035229814279175542 0.45716077750560441 0 0.04192262861736637 0.47552899379205887 0 0.0153501604445323 0.46808560339175959 0 0.035229814279175542 0.45716077750560441 0 0.019500549498717962 0.4498549983421099 0 0.030139706568612899 0.43596887627330211 0 0.011475021653931239 0.43578637022276501 0 0.019500549498717962 0.4498549983421099 0 0.035229814279175542 0.45716077750560441 0 0.030139706568612899 0.43596887627330211 0 0.05249505420451385 0.44925982356577998 0 0.030139706568612899 0.43596887627330211 0 0.035229814279175542 0.45716077750560441 0 0.05249505420451385 0.44925982356577998 0 0.030139706568612899 0.43596887627330211 0 0.04192262861736637 0.47552899379205887 0 0.035229814279175542 0.45716077750560441 0 0.058200956221542227 0.46856909021867182 0 0.035229814279175542 0.45716077750560441 0 0.058200956221542227 0.46856909021867182 0 0.05249505420451385 0.44925982356577998 0 0.074850401840414804 0.46255077085825791 0 0.058200956221542227 0.46856909021867182 0 0.05249505420451385 0.44925982356577998 0 0.05249505420451385 0.44925982356577998 0 0.059664043557368533 0.43101956867315783 0 0.030139706568612899 0.43596887627330211 0 0.059664043557368533 0.43101956867315783 0 0.06012012300875165 0.4108474951797943 0 0.044817007938727477 0.41820747115134149 0 0.06012012300875165 0.4108474951797943 0 0.044817007938727477 0.41820747115134149 0 0.041789669728677183 0.40213825584342261 0 0.032613293089127221 0.41470322576162533 0 0.024242275846403271 0.40679924025984998 0 0.041789669728677183 0.40213825584342261 0 0.044817007938727477 0.41820747115134149 0 0.032613293089127221 0.41470322576162533 0 0.041789669728677183 0.40213825584342261 0 0.059664043557368533 0.43101956867315783 0 0.044817007938727477 0.41820747115134149 0 0.030139706568612899 0.43596887627330211 0 0.044817007938727477 0.41820747115134149 0 0.032613293089127221 0.41470322576162533 0 0.030139706568612899 0.43596887627330211 0 0.032613293089127221 0.41470322576162533 0 0.030139706568612899 0.43596887627330211 0 0.021256251730343661 0.41659122154158601 0 0.030139706568612899 0.43596887627330211 0 0.021256251730343661 0.41659122154158601 0 0.011475021653931239 0.43578637022276501 0 0.032613293089127221 0.41470322576162533 0 0.024242275846403271 0.40679924025984998 0 0.021256251730343661 0.41659122154158601 0 0.024242275846403271 0.40679924025984998 0 0.021256251730343661 0.41659122154158601 0 0.01795785809805539 0.40504795976918351 0 0.021256251730343661 0.41659122154158601 0 0.011694235523254329 0.40140066107697792 0 0.01795785809805539 0.40504795976918351 0 -0.00035679222689577629 0.42055620159252949 0 0.021256251730343661 0.41659122154158601 0 0.0050759655238069544 0.40051319589306322 0 -0.00035679222689577629 0.42055620159252949 0 0.0050759655238069544 0.40051319589306322 0 0.021256251730343661 0.41659122154158601 0 0.0050759655238069544 0.40051319589306322 0 -0.00035679222689577629 0.42055620159252949 0 -0.0057895499775989651 0.4405992072919957 0 0.011475021653931239 0.43578637022276501 0 -0.00035679222689577629 0.42055620159252949 0 0.021256251730343661 0.41659122154158601 0 0.011475021653931239 0.43578637022276501 0 -0.0017659085872152841 0.39371456291236251 0 -0.00095304987135879531 0.37767319038413988 0 0.01435818342609572 0.37956848106916058 0 -0.0017659085872152841 0.39371456291236251 0 0.01330595144639486 0.39011138187843442 0 0.01435818342609572 0.37956848106916058 0 -0.0017659085872152841 0.39371456291236251 0 0.01435818342609572 0.37956848106916058 0 -0.00095304987135879531 0.37767319038413988 0 0.01435818342609572 0.37956848106916058 0 0.0089800691112377311 0.37056447803136411 0 -0.0017659085872152841 0.39371456291236251 0 0.0057543059717396951 0.39801060290291468 0 0.010043359176006151 0.395354827320054 0 -0.0017659085872152841 0.39371456291236251 0 0.01330595144639486 0.39011138187843442 0 0.010043359176006151 0.395354827320054 0 0.021256251730343661 0.41659122154158601 0 0.0050759655238069544 0.40051319589306322 0 0.011694235523254329 0.40140066107697792 0 -0.0017659085872152841 0.39371456291236251 0 0.0050759655238069544 0.40051319589306322 0 -0.0017659085872152841 0.39371456291236251 0 0.0057543059717396951 0.39801060290291468 0 0.0050759655238069544 0.40051319589306322 0 0.0057543059717396951 0.39801060290291468 0 0.0050759655238069544 0.40051319589306322 0 0.0057543059717396951 0.39801060290291468 0 0.0050759655238069544 0.40051319589306322 0 0.0081419665487017824 0.39881982179825248 0 0.0050759655238069544 0.40051319589306322 0 0.011694235523254329 0.40140066107697792 0 0.0081419665487017824 0.39881982179825248 0 0.011694235523254329 0.40140066107697792 0 0.0081419665487017824 0.39881982179825248 0 0.010043359176006151 0.395354827320054 0 0.0057543059717396951 0.39801060290291468 0 0.0081419665487017824 0.39881982179825248 0 0.010043359176006151 0.395354827320054 0 0.011694235523254329 0.40140066107697792 0 0.010043359176006151 0.395354827320054 0 0.017434325955503208 0.3974708150079006 0 0.01330595144639486 0.39011138187843442 0 0.010043359176006151 0.395354827320054 0 0.017434325955503208 0.3974708150079006 0 0.024242275846403271 0.40679924025984998 0 0.017434325955503208 0.3974708150079006 0 0.027362275642905279 0.38611081974290451 0 0.024242275846403271 0.40679924025984998 0 0.027362275642905279 0.38611081974290451 0 0.041789669728677183 0.40213825584342261 0 0.01330595144639486 0.39011138187843442 0 0.017434325955503208 0.3974708150079006 0 0.027362275642905279 0.38611081974290451 0 0.024242275846403271 0.40679924025984998 0 0.027362275642905279 0.38611081974290451 0 0.024242275846403271 0.40679924025984998 0 0.017434325955503208 0.3974708150079006 0 0.01795785809805539 0.40504795976918351 0 0.011694235523254329 0.40140066107697792 0 0.017434325955503208 0.3974708150079006 0 0.01795785809805539 0.40504795976918351 0 0.027362275642905279 0.38611081974290451 0 0.03048227543940682 0.36542239922595898 0 0.01435818342609572 0.37956848106916058 0 0.027362275642905279 0.38611081974290451 0 0.03048227543940682 0.36542239922595898 0 0.01330595144639486 0.39011138187843442 0 0.01435818342609572 0.37956848106916058 0 0.027362275642905279 0.38611081974290451 0 0.027362275642905279 0.38611081974290451 0 0.044030508885968871 0.38629506210330189 0 0.03893293756256698 0.3734283947339519 0 0.044030508885968871 0.38629506210330189 0 0.051576318754581379 0.37612939453677208 0 0.03893293756256698 0.3734283947339519 0 0.027362275642905279 0.38611081974290451 0 0.044030508885968871 0.38629506210330189 0 0.041789669728677183 0.40213825584342261 0 0.044030508885968871 0.38629506210330189 0 0.041789669728677183 0.40213825584342261 0 0.059211496917585253 0.39231618276660479 0 0.06012012300875165 0.4108474951797943 0 0.041789669728677183 0.40213825584342261 0 0.059211496917585253 0.39231618276660479 0 0.044030508885968871 0.38629506210330189 0 0.059211496917585253 0.39231618276660479 0 0.051576318754581379 0.37612939453677208 0 0.059211496917585253 0.39231618276660479 0 0.051576318754581379 0.37612939453677208 0 0.064782345364425717 0.37427572915239787 0 0.059211496917585253 0.39231618276660479 0 0.080533354468352469 0.37746978050859298 0 0.0793763713238686 0.40141672508237708 0 0.059211496917585253 0.39231618276660479 0 0.080533354468352469 0.37746978050859298 0 0.064782345364425717 0.37427572915239787 0 0.059211496917585253 0.39231618276660479 0 0.080533354468352469 0.37746978050859298 0 0.0793763713238686 0.40141672508237708 0 0.096683819197108917 0.41432100957736051 0 0.1037165789938591 0.39387082096151221 0 0.080533354468352469 0.37746978050859298 0 0.0793763713238686 0.40141672508237708 0 0.1037165789938591 0.39387082096151221 0 0.06012012300875165 0.4108474951797943 0 0.059211496917585253 0.39231618276660479 0 0.0793763713238686 0.40141672508237708 0 0.059664043557368533 0.43101956867315783 0 0.06012012300875165 0.4108474951797943 0 0.075862148586282915 0.41998676756186182 0 0.06012012300875165 0.4108474951797943 0 0.0793763713238686 0.40141672508237708 0 0.075862148586282915 0.41998676756186182 0 0.076432675817404538 0.44122566539579172 0 0.059664043557368533 0.43101956867315783 0 0.075862148586282915 0.41998676756186182 0 0.076432675817404538 0.44122566539579172 0 0.075862148586282915 0.41998676756186182 0 0.088893970854358517 0.42997630674629811 0 0.075862148586282915 0.41998676756186182 0 0.088893970854358517 0.42997630674629811 0 0.096683819197108917 0.41432100957736051 0 0.0793763713238686 0.40141672508237708 0 0.075862148586282915 0.41998676756186182 0 0.096683819197108917 0.41432100957736051 0 0.096683819197108917 0.41432100957736051 0 0.109183139371307 0.43288828789193701 0 0.1181870658861582 0.41103089047793939 0 0.096683819197108917 0.41432100957736051 0 0.1181870658861582 0.41103089047793939 0 0.1037165789938591 0.39387082096151221 0 0.088893970854358517 0.42997630674629811 0 0.096683819197108917 0.41432100957736051 0 0.109183139371307 0.43288828789193701 0 0.097498012154117283 0.44396164757361289 0 0.088893970854358517 0.42997630674629811 0 0.109183139371307 0.43288828789193701 0 0.109183139371307 0.43288828789193701 0 0.1181870658861582 0.41103089047793939 0 0.13050023848874989 0.4276930947070825 0 0.122431196238569 0.44368730251370347 0 0.109183139371307 0.43288828789193701 0 0.13050023848874989 0.4276930947070825 0 0.1037165789938591 0.39387082096151221 0 0.129141314825131 0.38962274306418437 0 0.1181870658861582 0.41103089047793939 0 0.1037165789938591 0.39387082096151221 0 0.129141314825131 0.38962274306418437 0 0.1037165789938591 0.39387082096151221 0 0.1213755573139664 0.37197883584600439 0 0.129141314825131 0.38962274306418437 0 0.080533354468352469 0.37746978050859298 0 0.1037165789938591 0.39387082096151221 0 0.10185521201911971 0.36262337825058127 0 0.1037165789938591 0.39387082096151221 0 0.10185521201911971 0.36262337825058127 0 0.1213755573139664 0.37197883584600439 0 0.10185521201911971 0.36262337825058127 0 0.1113827595682001 0.34479623253152142 0 0.1022546160837038 0.33911802054802792 0 0.10185521201911971 0.36262337825058127 0 0.1022546160837038 0.33911802054802792 0 0.092742970680347869 0.34370682150715359 0 0.1213755573139664 0.37197883584600439 0 0.1201709423638405 0.35974568090265141 0 0.131535148721732 0.35493511837226138 0 0.10185521201911971 0.36262337825058127 0 0.1213755573139664 0.37197883584600439 0 0.1201709423638405 0.35974568090265141 0 0.10185521201911971 0.36262337825058127 0 0.123177069569887 0.34777697599256963 0 0.10185521201911971 0.36262337825058127 0 0.1113827595682001 0.34479623253152142 0 0.123177069569887 0.34777697599256963 0 0.1201709423638405 0.35974568090265141 0 0.123177069569887 0.34777697599256963 0 0.131535148721732 0.35493511837226138 0 0.10185521201911971 0.36262337825058127 0 0.1201709423638405 0.35974568090265141 0 0.123177069569887 0.34777697599256963 0 0.1113827595682001 0.34479623253152142 0 0.123177069569887 0.34777697599256963 0 0.1179641290020314 0.34112194633724591 0 0.12481482618670139 0.33719959393898719 0 0.1126615743016595 0.32774369653702851 0 0.1164988879828652 0.32079255147347419 0 0.12481482618670139 0.33719959393898719 0 0.1180945036516703 0.31946406950571332 0 0.123177069569887 0.34777697599256963 0 0.1179641290020314 0.34112194633724591 0 0.12481482618670139 0.33719959393898719 0 0.1179641290020314 0.34112194633724591 0 0.12481482618670139 0.33719959393898719 0 0.11248186068333731 0.3347149828859054 0 0.12481482618670139 0.33719959393898719 0 0.11248186068333731 0.3347149828859054 0 0.1126615743016595 0.32774369653702851 0 0.11248186068333731 0.3347149828859054 0 0.1126615743016595 0.32774369653702851 0 0.1063890900915888 0.330953853583628 0 0.1113827595682001 0.34479623253152142 0 0.1179641290020314 0.34112194633724591 0 0.11248186068333731 0.3347149828859054 0 0.12481482618670139 0.33719959393898719 0 0.1180945036516703 0.31946406950571332 0 0.1164988879828652 0.32079255147347419 0 0.1180945036516703 0.31946406950571332 0 0.1164988879828652 0.32079255147347419 0 0.1126615743016595 0.32774369653702851 0 0.1164988879828652 0.32079255147347419 0 0.11005551057377889 0.31994970771077319 0 0.1180945036516703 0.31946406950571332 0 0.11005551057377889 0.31994970771077319 0 0.1043592720935845 0.31113529038990573 0 0.1180945036516703 0.31946406950571332 0 0.1164988879828652 0.32079255147347419 0 0.11005551057377889 0.31994970771077319 0 0.11005551057377889 0.31994970771077319 0 0.1035632919865839 0.31770194816449049 0 0.1043592720935845 0.31113529038990573 0 0.1126615743016595 0.32774369653702851 0 0.10468162931837879 0.32356251872866898 0 0.1063890900915888 0.330953853583628 0 0.1126615743016595 0.32774369653702851 0 0.11005551057377889 0.31994970771077319 0 0.10468162931837879 0.32356251872866898 0 0.11005551057377889 0.31994970771077319 0 0.1035632919865839 0.31770194816449049 0 0.10468162931837879 0.32356251872866898 0 0.10468162931837879 0.32356251872866898 0 0.1063890900915888 0.330953853583628 0 0.099865770070864321 0.32963004921850891 0 0.10468162931837879 0.32356251872866898 0 0.095425204864832525 0.31829223715088178 0 0.099865770070864321 0.32963004921850891 0 0.095425204864832525 0.31829223715088178 0 0.099865770070864321 0.32963004921850891 0 0.091115387138314505 0.33088442666183548 0 0.1035632919865839 0.31770194816449049 0 0.095425204864832525 0.31829223715088178 0 0.1043592720935845 0.31113529038990573 0 0.1035632919865839 0.31770194816449049 0 0.10468162931837879 0.32356251872866898 0 0.095425204864832525 0.31829223715088178 0 0.1113827595682001 0.34479623253152142 0 0.11248186068333731 0.3347149828859054 0 0.1022546160837038 0.33911802054802792 0 0.1022546160837038 0.33911802054802792 0 0.1063890900915888 0.330953853583628 0 0.099865770070864321 0.32963004921850891 0 0.11248186068333731 0.3347149828859054 0 0.1022546160837038 0.33911802054802792 0 0.1063890900915888 0.330953853583628 0 0.1022546160837038 0.33911802054802792 0 0.099865770070864321 0.32963004921850891 0 0.091115387138314505 0.33088442666183548 0 0.1022546160837038 0.33911802054802792 0 0.092742970680347869 0.34370682150715359 0 0.091115387138314505 0.33088442666183548 0 0.092742970680347869 0.34370682150715359 0 0.091115387138314505 0.33088442666183548 0 0.084803271007805769 0.33696014258382612 0 0.092742970680347869 0.34370682150715359 0 0.084803271007805769 0.33696014258382612 0 0.083686367152795565 0.34894813949149728 0 0.091115387138314505 0.33088442666183548 0 0.078372924190820911 0.33092439514885469 0 0.084803271007805769 0.33696014258382612 0 0.078372924190820911 0.33092439514885469 0 0.084803271007805769 0.33696014258382612 0 0.07703054355175315 0.34046924059317601 0 0.084803271007805769 0.33696014258382612 0 0.07703054355175315 0.34046924059317601 0 0.083686367152795565 0.34894813949149728 0 0.095425204864832525 0.31829223715088178 0 0.08761517857484194 0.3147120758943886 0 0.084786367013857833 0.32195152801170468 0 0.095425204864832525 0.31829223715088178 0 0.091115387138314505 0.33088442666183548 0 0.084786367013857833 0.32195152801170468 0 0.091115387138314505 0.33088442666183548 0 0.078372924190820911 0.33092439514885469 0 0.084786367013857833 0.32195152801170468 0 0.078372924190820911 0.33092439514885469 0 0.084786367013857833 0.32195152801170468 0 0.076156918949213503 0.3227746707974376 0 0.08761517857484194 0.3147120758943886 0 0.084786367013857833 0.32195152801170468 0 0.080639183380315366 0.31202870437473601 0 0.084786367013857833 0.32195152801170468 0 0.076156918949213503 0.3227746707974376 0 0.080639183380315366 0.31202870437473601 0 0.070401494113538673 0.31420067058398399 0 0.076156918949213503 0.3227746707974376 0 0.080639183380315366 0.31202870437473601 0 0.070401494113538673 0.31420067058398399 0 0.076156918949213503 0.3227746707974376 0 0.066799850459924801 0.32349597922959072 0 0.076156918949213503 0.3227746707974376 0 0.066799850459924801 0.32349597922959072 0 0.072637714059283057 0.32901236768147712 0 0.078372924190820911 0.33092439514885469 0 0.076156918949213503 0.3227746707974376 0 0.072637714059283057 0.32901236768147712 0 0.066799850459924801 0.32349597922959072 0 0.072637714059283057 0.32901236768147712 0 0.067371279065984141 0.33157581273890802 0 0.062814616750303282 0.32799885837061887 0 0.066799850459924801 0.32349597922959072 0 0.067371279065984141 0.33157581273890802 0 0.062814616750303282 0.32799885837061887 0 0.066799850459924801 0.32349597922959072 0 0.059111763459905139 0.32362127559201093 0 0.070401494113538673 0.31420067058398399 0 0.066799850459924801 0.32349597922959072 0 0.059808964596031078 0.31702713439487568 0 0.070401494113538673 0.31420067058398399 0 0.059808964596031078 0.31702713439487568 0 0.061895183144112277 0.31008065782188893 0 0.07703054355175315 0.34046924059317601 0 0.072886011010444007 0.33505280085410177 0 0.068324329637473313 0.34018515050777942 0 0.07703054355175315 0.34046924059317601 0 0.068324329637473313 0.34018515050777942 0 0.071106697631162313 0.34933592579806533 0 0.078372924190820911 0.33092439514885469 0 0.07703054355175315 0.34046924059317601 0 0.072886011010444007 0.33505280085410177 0 0.078372924190820911 0.33092439514885469 0 0.072637714059283057 0.32901236768147712 0 0.072886011010444007 0.33505280085410177 0 0.072637714059283057 0.32901236768147712 0 0.072886011010444007 0.33505280085410177 0 0.067371279065984141 0.33157581273890802 0 0.072886011010444007 0.33505280085410177 0 0.067371279065984141 0.33157581273890802 0 0.068324329637473313 0.34018515050777942 0 0.067371279065984141 0.33157581273890802 0 0.062906573013723807 0.33449338485721558 0 0.068324329637473313 0.34018515050777942 0 0.062814616750303282 0.32799885837061887 0 0.067371279065984141 0.33157581273890802 0 0.062906573013723807 0.33449338485721558 0 0.062906573013723807 0.33449338485721558 0 0.068324329637473313 0.34018515050777942 0 0.058710544562371868 0.3408188759487305 0 0.068324329637473313 0.34018515050777942 0 0.064658351525869212 0.34544744219029611 0 0.058710544562371868 0.3408188759487305 0 0.064658351525869212 0.34544744219029611 0 0.071106697631162313 0.34933592579806533 0 0.060491834272469368 0.35144981650660928 0 0.068324329637473313 0.34018515050777942 0 0.064658351525869212 0.34544744219029611 0 0.071106697631162313 0.34933592579806533 0 0.071106697631162313 0.34933592579806533 0 0.073903080806487206 0.36134405975837408 0 0.060491834272469368 0.35144981650660928 0 0.073903080806487206 0.36134405975837408 0 0.058687475875122283 0.36411922819164533 0 0.060491834272469368 0.35144981650660928 0 0.071106697631162313 0.34933592579806533 0 0.083686367152795565 0.34894813949149728 0 0.073903080806487206 0.36134405975837408 0 0.07703054355175315 0.34046924059317601 0 0.071106697631162313 0.34933592579806533 0 0.083686367152795565 0.34894813949149728 0 0.10185521201911971 0.36262337825058127 0 0.092742970680347869 0.34370682150715359 0 0.083686367152795565 0.34894813949149728 0 0.10185521201911971 0.36262337825058127 0 0.083686367152795565 0.34894813949149728 0 0.073903080806487206 0.36134405975837408 0 0.080533354468352469 0.37746978050859298 0 0.10185521201911971 0.36262337825058127 0 0.073903080806487206 0.36134405975837408 0 0.080533354468352469 0.37746978050859298 0 0.10185521201911971 0.36262337825058127 0 0.080533354468352469 0.37746978050859298 0 0.073903080806487206 0.36134405975837408 0 0.064782345364425717 0.37427572915239787 0 0.073903080806487206 0.36134405975837408 0 0.064782345364425717 0.37427572915239787 0 0.058687475875122283 0.36411922819164533 0 0.051576318754581379 0.37612939453677208 0 0.064782345364425717 0.37427572915239787 0 0.058687475875122283 0.36411922819164533 0 0.058687475875122283 0.36411922819164533 0 0.053953877855968793 0.35678514027323421 0 0.045207189214132512 0.36510034337894648 0 0.051576318754581379 0.37612939453677208 0 0.058687475875122283 0.36411922819164533 0 0.045207189214132512 0.36510034337894648 0 0.064658351525869212 0.34544744219029611 0 0.060491834272469368 0.35144981650660928 0 0.058710544562371868 0.3408188759487305 0 0.060491834272469368 0.35144981650660928 0 0.052478653200702087 0.34917200593394881 0 0.058710544562371868 0.3408188759487305 0 0.058687475875122283 0.36411922819164533 0 0.060491834272469368 0.35144981650660928 0 0.053953877855968793 0.35678514027323421 0 0.060491834272469368 0.35144981650660928 0 0.053953877855968793 0.35678514027323421 0 0.052478653200702087 0.34917200593394881 0 0.053953877855968793 0.35678514027323421 0 0.046610516829163763 0.35519000825574371 0 0.045207189214132512 0.36510034337894648 0 0.053953877855968793 0.35678514027323421 0 0.052478653200702087 0.34917200593394881 0 0.046610516829163763 0.35519000825574371 0 0.052478653200702087 0.34917200593394881 0 0.05034956612394334 0.34186910053230563 0 0.058710544562371868 0.3408188759487305 0 0.052478653200702087 0.34917200593394881 0 0.044305575106518197 0.34673087464712721 0 0.046610516829163763 0.35519000825574371 0 0.052478653200702087 0.34917200593394881 0 0.044305575106518197 0.34673087464712721 0 0.05034956612394334 0.34186910053230563 0 0.040904126728702438 0.35283795029959492 0 0.033580266404557052 0.34487991716664163 0 0.034939057438407292 0.36151234941582822 0 0.033580266404557052 0.34487991716664163 0 0.03048227543940682 0.36542239922595898 0 0.033580266404557052 0.34487991716664163 0 0.034939057438407292 0.36151234941582822 0 0.03048227543940682 0.36542239922595898 0 0.044305575106518197 0.34673087464712721 0 0.040904126728702438 0.35283795029959492 0 0.033580266404557052 0.34487991716664163 0 0.040904126728702438 0.35283795029959492 0 0.041523730095835813 0.35934491024216653 0 0.034939057438407292 0.36151234941582822 0 0.044305575106518197 0.34673087464712721 0 0.040904126728702438 0.35283795029959492 0 0.046610516829163763 0.35519000825574371 0 0.040904126728702438 0.35283795029959492 0 0.046610516829163763 0.35519000825574371 0 0.041523730095835813 0.35934491024216653 0 0.027362275642905279 0.38611081974290451 0 0.03893293756256698 0.3734283947339519 0 0.03048227543940682 0.36542239922595898 0 0.051576318754581379 0.37612939453677208 0 0.045207189214132512 0.36510034337894648 0 0.03893293756256698 0.3734283947339519 0 0.046610516829163763 0.35519000825574371 0 0.041523730095835813 0.35934491024216653 0 0.045207189214132512 0.36510034337894648 0 0.045207189214132512 0.36510034337894648 0 0.034939057438407292 0.36151234941582822 0 0.03893293756256698 0.3734283947339519 0 0.041523730095835813 0.35934491024216653 0 0.045207189214132512 0.36510034337894648 0 0.034939057438407292 0.36151234941582822 0 0.034939057438407292 0.36151234941582822 0 0.03893293756256698 0.3734283947339519 0 0.03048227543940682 0.36542239922595898 0 0.034939057438407292 0.36151234941582822 0 0.03048227543940682 0.36542239922595898 0 0.01435818342609572 0.37956848106916058 0 0.026016288270820351 0.36245768992662158 0 0.03048227543940682 0.36542239922595898 0 0.01435818342609572 0.37956848106916058 0 0.026016288270820351 0.36245768992662158 0 0.0089800691112377311 0.37056447803136411 0 0.01435818342609572 0.37956848106916058 0 0.03048227543940682 0.36542239922595898 0 0.026016288270820351 0.36245768992662158 0 0.03048227543940682 0.36542239922595898 0 0.02503437386482537 0.35161882473577721 0 0.02503437386482537 0.35161882473577721 0 0.0081969799948278261 0.35085900386981522 0 0.015711448780474899 0.33457941842930861 0 0.02503437386482537 0.35161882473577721 0 0.013936624187466801 0.35687351731943712 0 0.0081969799948278261 0.35085900386981522 0 0.033580266404557052 0.34487991716664163 0 0.03048227543940682 0.36542239922595898 0 0.02503437386482537 0.35161882473577721 0 0.026016288270820351 0.36245768992662158 0 0.02503437386482537 0.35161882473577721 0 0.013936624187466801 0.35687351731943712 0 -0.0035011453806063492 0.36255855074553422 0 0.013936624187466801 0.35687351731943712 0 0.0081969799948278261 0.35085900386981522 0 -0.0020463162591698482 0.35396806797965119 0 -0.0052553598087585933 0.34482140175129239 0 0.0081969799948278261 0.35085900386981522 0 -0.0035011453806063492 0.36255855074553422 0 -0.0020463162591698482 0.35396806797965119 0 0.0081969799948278261 0.35085900386981522 0 -0.0035011453806063492 0.36255855074553422 0 0.026016288270820351 0.36245768992662158 0 -0.0035011453806063492 0.36255855074553422 0 0.026016288270820351 0.36245768992662158 0 0.013936624187466801 0.35687351731943712 0 -0.0035011453806063492 0.36255855074553422 0 0.026016288270820351 0.36245768992662158 0 0.0089800691112377311 0.37056447803136411 0 -0.0035011453806063492 0.36255855074553422 0 -0.00095304987135879531 0.37767319038413988 0 0.0089800691112377311 0.37056447803136411 0 0.013912202589993801 0.31309419793256349 0 0.0028937517168451852 0.3302129616722384 0 0.022766868570571169 0.32244085090497132 0 0.013912202589993801 0.31309419793256349 0 0.0010950197022403111 0.31679193839657172 0 0.0028937517168451852 0.3302129616722384 0 -0.0052553598087585933 0.34482140175129239 0 0.0028937517168451852 0.3302129616722384 0 0.015711448780474899 0.33457941842930861 0 -0.0052553598087585933 0.34482140175129239 0 0.0081969799948278261 0.35085900386981522 0 0.015711448780474899 0.33457941842930861 0 0.0028937517168451852 0.3302129616722384 0 0.015711448780474899 0.33457941842930861 0 0.022766868570571169 0.32244085090497132 0 -0.0052553598087585933 0.34482140175129239 0 0.015711448780474899 0.33457941842930861 0 0.015711448780474899 0.33457941842930861 0 0.036678257369708062 0.32433743510732449 0 0.033580266404557052 0.34487991716664163 0 0.015711448780474899 0.33457941842930861 0 0.036678257369708062 0.32433743510732449 0 0.033580266404557052 0.34487991716664163 0 0.02503437386482537 0.35161882473577721 0 0.015711448780474899 0.33457941842930861 0 0.015711448780474899 0.33457941842930861 0 0.022766868570571169 0.32244085090497132 0 0.036678257369708062 0.32433743510732449 0 0.013912202589993801 0.31309419793256349 0 0.022766868570571169 0.32244085090497132 0 0.02604608480415261 0.30878909237902352 0 0.022766868570571169 0.32244085090497132 0 0.036678257369708062 0.32433743510732449 0 0.02604608480415261 0.30878909237902352 0 0.036678257369708062 0.32433743510732449 0 0.039762894276007488 0.32283063450797622 0 0.036678257369708062 0.32433743510732449 0 0.039762894276007488 0.32283063450797622 0 0.044089170923344148 0.31405009544338419 0 0.036678257369708062 0.32433743510732449 0 0.039762894276007488 0.32283063450797622 0 0.043045641884890733 0.32673648797181282 0 0.043045641884890733 0.32673648797181282 0 0.046699400266099617 0.32249035366354589 0 0.048222488122565833 0.32863286276018477 0 0.039762894276007488 0.32283063450797622 0 0.043045641884890733 0.32673648797181282 0 0.046699400266099617 0.32249035366354589 0 0.039762894276007488 0.32283063450797622 0 0.046699400266099617 0.32249035366354589 0 0.044575386054961343 0.31919867513160088 0 0.046699400266099617 0.32249035366354589 0 0.044575386054961343 0.31919867513160088 0 0.047750078754394111 0.31742361691149762 0 0.039762894276007488 0.32283063450797622 0 0.044575386054961343 0.31919867513160088 0 0.044089170923344148 0.31405009544338419 0 0.044575386054961343 0.31919867513160088 0 0.044089170923344148 0.31405009544338419 0 0.047750078754394111 0.31742361691149762 0 0.033580266404557052 0.34487991716664163 0 0.036678257369708062 0.32433743510732449 0 0.041910321352040487 0.3364362656945285 0 0.033580266404557052 0.34487991716664163 0 0.036678257369708062 0.32433743510732449 0 0.036678257369708062 0.32433743510732449 0 0.043045641884890733 0.32673648797181282 0 0.041910321352040487 0.3364362656945285 0 0.043045641884890733 0.32673648797181282 0 0.041910321352040487 0.3364362656945285 0 0.048222488122565833 0.32863286276018477 0 0.044305575106518197 0.34673087464712721 0 0.033580266404557052 0.34487991716664163 0 0.041910321352040487 0.3364362656945285 0 0.044305575106518197 0.34673087464712721 0 0.041910321352040487 0.3364362656945285 0 0.05034956612394334 0.34186910053230563 0 0.05034956612394334 0.34186910053230563 0 0.05202660353078499 0.3348105679963912 0 0.058710544562371868 0.3408188759487305 0 0.041910321352040487 0.3364362656945285 0 0.05034956612394334 0.34186910053230563 0 0.05202660353078499 0.3348105679963912 0 0.05202660353078499 0.3348105679963912 0 0.048222488122565833 0.32863286276018477 0 0.05378864735906598 0.32608483005685113 0 0.041910321352040487 0.3364362656945285 0 0.05202660353078499 0.3348105679963912 0 0.048222488122565833 0.32863286276018477 0 0.05202660353078499 0.3348105679963912 0 0.058202859558705473 0.33100410014521048 0 0.05378864735906598 0.32608483005685113 0 0.062906573013723807 0.33449338485721558 0 0.058202859558705473 0.33100410014521048 0 0.058710544562371868 0.3408188759487305 0 0.05202660353078499 0.3348105679963912 0 0.058202859558705473 0.33100410014521048 0 0.058710544562371868 0.3408188759487305 0 0.062814616750303282 0.32799885837061887 0 0.062906573013723807 0.33449338485721558 0 0.058202859558705473 0.33100410014521048 0 0.052379359091215993 0.31925464307362078 0 0.051591625389110267 0.31335309700254882 0 0.059808964596031078 0.31702713439487568 0 0.044089170923344148 0.31405009544338419 0 0.051591625389110267 0.31335309700254882 0 0.047750078754394111 0.31742361691149762 0 0.052379359091215993 0.31925464307362078 0 0.051591625389110267 0.31335309700254882 0 0.047750078754394111 0.31742361691149762 0 0.046699400266099617 0.32249035366354589 0 0.052379359091215993 0.31925464307362078 0 0.047750078754394111 0.31742361691149762 0 0.046699400266099617 0.32249035366354589 0 0.048222488122565833 0.32863286276018477 0 0.05378864735906598 0.32608483005685113 0 0.046699400266099617 0.32249035366354589 0 0.052379359091215993 0.31925464307362078 0 0.05378864735906598 0.32608483005685113 0 0.052379359091215993 0.31925464307362078 0 0.05378864735906598 0.32608483005685113 0 0.059111763459905139 0.32362127559201093 0 0.058202859558705473 0.33100410014521048 0 0.05378864735906598 0.32608483005685113 0 0.059111763459905139 0.32362127559201093 0 0.062814616750303282 0.32799885837061887 0 0.058202859558705473 0.33100410014521048 0 0.059111763459905139 0.32362127559201093 0 0.066799850459924801 0.32349597922959072 0 0.059111763459905139 0.32362127559201093 0 0.059808964596031078 0.31702713439487568 0 0.051591625389110267 0.31335309700254882 0 0.059808964596031078 0.31702713439487568 0 0.061895183144112277 0.31008065782188893 0 0.052379359091215993 0.31925464307362078 0 0.059111763459905139 0.32362127559201093 0 0.059808964596031078 0.31702713439487568 0 0.051591625389110267 0.31335309700254882 0 0.061895183144112277 0.31008065782188893 0 0.05079983389047505 0.30563207583819568 0 0.059248206991177832 0.30181006744058769 0 0.053909813749631948 0.29288915355060807 0 0.07038799718049206 0.29863838255165809 0 0.061895183144112277 0.31008065782188893 0 0.059248206991177832 0.30181006744058769 0 0.05079983389047505 0.30563207583819568 0 0.059248206991177832 0.30181006744058769 0 0.05079983389047505 0.30563207583819568 0 0.053909813749631948 0.29288915355060807 0 0.05079983389047505 0.30563207583819568 0 0.053909813749631948 0.29288915355060807 0 0.040790762464800609 0.29706780679492162 0 0.044089170923344148 0.31405009544338419 0 0.051591625389110267 0.31335309700254882 0 0.05079983389047505 0.30563207583819568 0 0.053909813749631948 0.29288915355060807 0 0.033534721852605767 0.28839475620343868 0 0.058303188135699222 0.27549718977769683 0 0.053909813749631948 0.29288915355060807 0 0.058303188135699222 0.27549718977769683 0 0.07038799718049206 0.29863838255165809 0 0.033534721852605767 0.28839475620343868 0 0.058303188135699222 0.27549718977769683 0 0.053909813749631948 0.29288915355060807 0 0.033534721852605767 0.28839475620343868 0 0.040790762464800609 0.29706780679492162 0 0.033534721852605767 0.28839475620343868 0 0.040790762464800609 0.29706780679492162 0 0.030045590681609231 0.29868562704533141 0 0.036678257369708062 0.32433743510732449 0 0.040790762464800609 0.29706780679492162 0 0.044089170923344148 0.31405009544338419 0 0.05079983389047505 0.30563207583819568 0 0.040790762464800609 0.29706780679492162 0 0.036678257369708062 0.32433743510732449 0 0.040790762464800609 0.29706780679492162 0 0.02604608480415261 0.30878909237902352 0 0.036678257369708062 0.32433743510732449 0 0.044089170923344148 0.31405009544338419 0 0.040790762464800609 0.29706780679492162 0 0.040790762464800609 0.29706780679492162 0 0.02604608480415261 0.30878909237902352 0 0.030045590681609231 0.29868562704533141 0 0.013912202589993801 0.31309419793256349 0 0.02604608480415261 0.30878909237902352 0 0.0087662555695123632 0.30129232262918049 0 0.02604608480415261 0.30878909237902352 0 0.030045590681609231 0.29868562704533141 0 0.0087662555695123632 0.30129232262918049 0 0.033534721852605767 0.28839475620343868 0 0.015692228675685111 0.2846282142711376 0 0.0087662555695123632 0.30129232262918049 0 0.033534721852605767 0.28839475620343868 0 0.015692228675685111 0.2846282142711376 0 0.026167041807190729 0.27767049255592952 0 0.033534721852605767 0.28839475620343868 0 0.030045590681609231 0.29868562704533141 0 0.0087662555695123632 0.30129232262918049 0 0.033534721852605767 0.28839475620343868 0 0.0087662555695123632 0.30129232262918049 0 -0.0022586230721503009 0.28774745583177708 0 0.015692228675685111 0.2846282142711376 0 0.0087662555695123632 0.30129232262918049 0 -0.0022586230721503009 0.28774745583177708 0 0.015692228675685111 0.2846282142711376 0 0.0053449175321244697 0.27715163150546163 0 0.013912202589993801 0.31309419793256349 0 0.0010950197022403111 0.31679193839657172 0 0.0087662555695123632 0.30129232262918049 0 -0.0027776851774954509 0.25257493582532792 0 0.023999282035763351 0.24359914253080089 0 0.0061393108742415709 0.26306138642428062 0 -0.003382447522311832 0.27165366474939667 0 0.0061393108742415709 0.26306138642428062 0 0.0053449175321244697 0.27715163150546163 0 0.015692228675685111 0.2846282142711376 0 0.0053449175321244697 0.27715163150546163 0 0.01891777333566895 0.26974841660485271 0 0.0061393108742415709 0.26306138642428062 0 0.0053449175321244697 0.27715163150546163 0 0.01891777333566895 0.26974841660485271 0 0.01891777333566895 0.26974841660485271 0 0.026167041807190729 0.27767049255592952 0 0.036233938338755871 0.26769902129821349 0 0.015692228675685111 0.2846282142711376 0 0.01891777333566895 0.26974841660485271 0 0.026167041807190729 0.27767049255592952 0 0.023999282035763351 0.24359914253080089 0 0.0061393108742415709 0.26306138642428062 0 0.01891777333566895 0.26974841660485271 0 0.023999282035763351 0.24359914253080089 0 0.01891777333566895 0.26974841660485271 0 0.036233938338755871 0.26769902129821349 0 0.023999282035763351 0.24359914253080089 0 0.036233938338755871 0.26769902129821349 0 0.050354998163758158 0.2543889014659465 0 0.033534721852605767 0.28839475620343868 0 0.036233938338755871 0.26769902129821349 0 0.058303188135699222 0.27549718977769683 0 0.033534721852605767 0.28839475620343868 0 0.026167041807190729 0.27767049255592952 0 0.036233938338755871 0.26769902129821349 0 0.036233938338755871 0.26769902129821349 0 0.058303188135699222 0.27549718977769683 0 0.050354998163758158 0.2543889014659465 0 0.058303188135699222 0.27549718977769683 0 0.050354998163758158 0.2543889014659465 0 0.073062354807743687 0.25328454769075631 0 0.093626826958157341 0.2408364381341962 0 0.073062354807743687 0.25328454769075631 0 0.097157224110459878 0.26420874047443449 0 0.073062354807743687 0.25328454769075631 0 0.082891501948613944 0.28119667471681747 0 0.097157224110459878 0.26420874047443449 0 0.058303188135699222 0.27549718977769683 0 0.073062354807743687 0.25328454769075631 0 0.082891501948613944 0.28119667471681747 0 0.058303188135699222 0.27549718977769683 0 0.082891501948613944 0.28119667471681747 0 0.07038799718049206 0.29863838255165809 0 0.070401494113538673 0.31420067058398399 0 0.061895183144112277 0.31008065782188893 0 0.07038799718049206 0.29863838255165809 0 0.061895183144112277 0.31008065782188893 0 0.059248206991177832 0.30181006744058769 0 0.07038799718049206 0.29863838255165809 0 0.070401494113538673 0.31420067058398399 0 0.07038799718049206 0.29863838255165809 0 0.080639183380315366 0.31202870437473601 0 0.07038799718049206 0.29863838255165809 0 0.080639183380315366 0.31202870437473601 0 0.090812383576223607 0.30371478281628589 0 0.08761517857484194 0.3147120758943886 0 0.080639183380315366 0.31202870437473601 0 0.090812383576223607 0.30371478281628589 0 0.095425204864832525 0.31829223715088178 0 0.08761517857484194 0.3147120758943886 0 0.090812383576223607 0.30371478281628589 0 0.082891501948613944 0.28119667471681747 0 0.07038799718049206 0.29863838255165809 0 0.090812383576223607 0.30371478281628589 0 0.082891501948613944 0.28119667471681747 0 0.090812383576223607 0.30371478281628589 0 0.10762586388106531 0.29183640499007379 0 0.090812383576223607 0.30371478281628589 0 0.10762586388106531 0.29183640499007379 0 0.1043592720935845 0.31113529038990573 0 0.095425204864832525 0.31829223715088178 0 0.090812383576223607 0.30371478281628589 0 0.1043592720935845 0.31113529038990573 0 0.1180945036516703 0.31946406950571332 0 0.10762586388106531 0.29183640499007379 0 0.1228384346263648 0.30062118262991028 0 0.1180945036516703 0.31946406950571332 0 0.10762586388106531 0.29183640499007379 0 0.1180945036516703 0.31946406950571332 0 0.10762586388106531 0.29183640499007379 0 0.1043592720935845 0.31113529038990573 0 0.10762586388106531 0.29183640499007379 0 0.1228384346263648 0.30062118262991028 0 0.12936732892117939 0.28684949463581561 0 0.10762586388106531 0.29183640499007379 0 0.1230526862221317 0.26777391949864099 0 0.12936732892117939 0.28684949463581561 0 0.1160311557347623 0.24436958391682351 0 0.1230526862221317 0.26777391949864099 0 0.097157224110459878 0.26420874047443449 0 0.082891501948613944 0.28119667471681747 0 0.10762586388106531 0.29183640499007379 0 0.097157224110459878 0.26420874047443449 0 0.10762586388106531 0.29183640499007379 0 0.097157224110459878 0.26420874047443449 0 0.10762586388106531 0.29183640499007379 0 0.1230526862221317 0.26777391949864099 0 0.097157224110459878 0.26420874047443449 0 0.139967173851379 0.24782138501883791 0 0.14708532205023009 0.27082288058994131 0 0.16048112692306479 0.25744682028509069 0 0.1160311557347623 0.24436958391682351 0 0.139967173851379 0.24782138501883791 0 0.1230526862221317 0.26777391949864099 0 0.139967173851379 0.24782138501883791 0 0.1230526862221317 0.26777391949864099 0 0.14708532205023009 0.27082288058994131 0 0.1230526862221317 0.26777391949864099 0 0.14708532205023009 0.27082288058994131 0 0.12936732892117939 0.28684949463581561 0 0.12936732892117939 0.28684949463581561 0 0.136266042051544 0.3043347613880385 0 0.15443758045141859 0.28920545327036462 0 0.1180945036516703 0.31946406950571332 0 0.136266042051544 0.3043347613880385 0 0.1180945036516703 0.31946406950571332 0 0.1228384346263648 0.30062118262991028 0 0.136266042051544 0.3043347613880385 0 0.1228384346263648 0.30062118262991028 0 0.12936732892117939 0.28684949463581561 0 0.136266042051544 0.3043347613880385 0 0.136266042051544 0.3043347613880385 0 0.15443758045141859 0.28920545327036462 0 0.152636167961094 0.31887328660776232 0 0.14708532205023009 0.27082288058994131 0 0.12936732892117939 0.28684949463581561 0 0.15443758045141859 0.28920545327036462 0 0.136266042051544 0.3043347613880385 0 0.15443758045141859 0.28920545327036462 0 0.15443758045141859 0.28920545327036462 0 0.17260911885129321 0.2740761451526908 0 0.15443758045141859 0.28920545327036462 0 0.17803753867673519 0.29043254965715842 0 0.17260911885129321 0.2740761451526908 0 0.15443758045141859 0.28920545327036462 0 0.16921428387288021 0.30795467551344241 0 0.17803753867673519 0.29043254965715842 0 0.15443758045141859 0.28920545327036462 0 0.16921428387288021 0.30795467551344241 0 0.152636167961094 0.31887328660776232 0 0.16921428387288021 0.30795467551344241 0 0.17803753867673519 0.29043254965715842 0 0.19027783557892361 0.30858688037897408 0 0.17803753867673519 0.29043254965715842 0 0.18719595390039809 0.27543868594675308 0 0.195453132374418 0.28386543112137869 0 0.17260911885129321 0.2740761451526908 0 0.19078065725116791 0.25894683703501692 0 0.17803753867673519 0.29043254965715842 0 0.17260911885129321 0.2740761451526908 0 0.18719595390039809 0.27543868594675308 0 0.17260911885129321 0.2740761451526908 0 0.18719595390039809 0.27543868594675308 0 0.19078065725116791 0.25894683703501692 0 0.14708532205023009 0.27082288058994131 0 0.17260911885129321 0.2740761451526908 0 0.16048112692306479 0.25744682028509069 0 0.14708532205023009 0.27082288058994131 0 0.15443758045141859 0.28920545327036462 0 0.17260911885129321 0.2740761451526908 0 0.17260911885129321 0.2740761451526908 0 0.16048112692306479 0.25744682028509069 0 0.17780608738777809 0.25705026945876192 0 0.16874983862555221 0.2400451405179696 0 0.16048112692306479 0.25744682028509069 0 0.17780608738777809 0.25705026945876192 0 0.17260911885129321 0.2740761451526908 0 0.17780608738777809 0.25705026945876192 0 0.19078065725116791 0.25894683703501692 0 0.19078065725116791 0.25894683703501692 0 0.19909932234837649 0.26987246676752069 0 0.20480194690244569 0.25525960942045761 0 0.18719595390039809 0.27543868594675308 0 0.19078065725116791 0.25894683703501692 0 0.19909932234837649 0.26987246676752069 0 0.18719595390039809 0.27543868594675308 0 0.19909932234837649 0.26987246676752069 0 0.195453132374418 0.28386543112137869 0 0.19909932234837649 0.26987246676752069 0 0.218371746871488 0.27950112261338789 0 0.195453132374418 0.28386543112137869 0 0.19909932234837649 0.26987246676752069 0 0.218371746871488 0.27950112261338789 0 0.20480194690244569 0.25525960942045761 0 0.218371746871488 0.27950112261338789 0 0.20480194690244569 0.25525960942045761 0 0.2197545742336772 0.24675856098265139 0 0.20480194690244569 0.25525960942045761 0 0.2311707380788057 0.25749821458281719 0 0.218371746871488 0.27950112261338789 0 0.20480194690244569 0.25525960942045761 0 0.2311707380788057 0.25749821458281719 0 0.218371746871488 0.27950112261338789 0 0.23410993606614561 0.2739769798848336 0 0.23772592747999149 0.28990764062930913 0 0.218371746871488 0.27950112261338789 0 0.2311707380788057 0.25749821458281719 0 0.23410993606614561 0.2739769798848336 0 0.23410993606614561 0.2739769798848336 0 0.23772592747999149 0.28990764062930913 0 0.25062153209682803 0.27383868758805202 0 0.2311707380788057 0.25749821458281719 0 0.23410993606614561 0.2739769798848336 0 0.25062153209682803 0.27383868758805202 0 0.2311707380788057 0.25749821458281719 0 0.25674229319332992 0.25781570880075683 0 0.25062153209682803 0.27383868758805202 0 0.23791684407509101 0.30979084104493892 0 0.2486573374751776 0.29929677771612212 0 0.23772592747999149 0.28990764062930913 0 0.23791684407509101 0.30979084104493892 0 0.2486573374751776 0.29929677771612212 0 0.25412084660844331 0.30948377448199033 0 0.23772592747999149 0.28990764062930913 0 0.25301159348787822 0.28878875444533147 0 0.25062153209682803 0.27383868758805202 0 0.2486573374751776 0.29929677771612212 0 0.23772592747999149 0.28990764062930913 0 0.25301159348787822 0.28878875444533147 0 0.218371746871488 0.27950112261338789 0 0.23772592747999149 0.28990764062930913 0 0.22316380349321849 0.30362390634489739 0 0.23791684407509101 0.30979084104493892 0 0.23772592747999149 0.28990764062930913 0 0.22316380349321849 0.30362390634489739 0 0.23791684407509101 0.30979084104493892 0 0.22316380349321849 0.30362390634489739 0 0.23021838694069999 0.32251082580957291 0 0.22316380349321849 0.30362390634489739 0 0.20608943517126219 0.29788788591586057 0 0.2096151129861451 0.32048891531848411 0 0.218371746871488 0.27950112261338789 0 0.20608943517126219 0.29788788591586057 0 0.195453132374418 0.28386543112137869 0 0.218371746871488 0.27950112261338789 0 0.22316380349321849 0.30362390634489739 0 0.20608943517126219 0.29788788591586057 0 0.17803753867673519 0.29043254965715842 0 0.195453132374418 0.28386543112137869 0 0.19027783557892361 0.30858688037897408 0 0.20608943517126219 0.29788788591586057 0 0.195453132374418 0.28386543112137869 0 0.19027783557892361 0.30858688037897408 0 0.20608943517126219 0.29788788591586057 0 0.19027783557892361 0.30858688037897408 0 0.2096151129861451 0.32048891531848411 0 0.19027783557892361 0.30858688037897408 0 0.19276246870074251 0.32621651614808489 0 0.2096151129861451 0.32048891531848411 0 0.19276246870074251 0.32621651614808489 0 0.20412143147795869 0.34087776567992611 0 0.2096151129861451 0.32048891531848411 0 0.19276246870074251 0.32621651614808489 0 0.20412143147795869 0.34087776567992611 0 0.1836192063361044 0.34023176362563418 0 0.20412143147795869 0.34087776567992611 0 0.2096151129861451 0.32048891531848411 0 0.2223682164577179 0.33827021063285212 0 0.2096151129861451 0.32048891531848411 0 0.23021838694069999 0.32251082580957291 0 0.2223682164577179 0.33827021063285212 0 0.22316380349321849 0.30362390634489739 0 0.2096151129861451 0.32048891531848411 0 0.23021838694069999 0.32251082580957291 0 0.2223682164577179 0.33827021063285212 0 0.24157575885834939 0.33744349484782749 0 0.23341080179662821 0.34965850994212372 0 0.23021838694069999 0.32251082580957291 0 0.2223682164577179 0.33827021063285212 0 0.24157575885834939 0.33744349484782749 0 0.24157575885834939 0.33744349484782749 0 0.2498024738269416 0.35536015624222739 0 0.25710497453668713 0.33647232278684081 0 0.24157575885834939 0.33744349484782749 0 0.2476904742205393 0.3234252158892445 0 0.25710497453668713 0.33647232278684081 0 0.23791684407509101 0.30979084104493892 0 0.2476904742205393 0.3234252158892445 0 0.25412084660844331 0.30948377448199033 0 0.23021838694069999 0.32251082580957291 0 0.24157575885834939 0.33744349484782749 0 0.2476904742205393 0.3234252158892445 0 0.23791684407509101 0.30979084104493892 0 0.23021838694069999 0.32251082580957291 0 0.2476904742205393 0.3234252158892445 0 0.24245383387187089 0.37214504599554488 0 0.2498024738269416 0.35536015624222739 0 0.23430373866983381 0.36214134106911799 0 0.24245383387187089 0.37214504599554488 0 0.23430373866983381 0.36214134106911799 0 0.227560083143859 0.37317849769811151 0 0.24157575885834939 0.33744349484782749 0 0.2498024738269416 0.35536015624222739 0 0.23341080179662821 0.34965850994212372 0 0.2498024738269416 0.35536015624222739 0 0.23341080179662821 0.34965850994212372 0 0.23430373866983381 0.36214134106911799 0 0.23341080179662821 0.34965850994212372 0 0.23430373866983381 0.36214134106911799 0 0.21838932478814241 0.35840953195827008 0 0.2223682164577179 0.33827021063285212 0 0.23341080179662821 0.34965850994212372 0 0.21838932478814241 0.35840953195827008 0 0.23430373866983381 0.36214134106911799 0 0.227560083143859 0.37317849769811151 0 0.21838932478814241 0.35840953195827008 0 0.227560083143859 0.37317849769811151 0 0.21838932478814241 0.35840953195827008 0 0.20541552231894669 0.37687850937220141 0 0.21838932478814241 0.35840953195827008 0 0.19849046357701561 0.35591233124536159 0 0.20541552231894669 0.37687850937220141 0 0.20412143147795869 0.34087776567992611 0 0.21838932478814241 0.35840953195827008 0 0.19849046357701561 0.35591233124536159 0 0.20412143147795869 0.34087776567992611 0 0.2223682164577179 0.33827021063285212 0 0.21838932478814241 0.35840953195827008 0 0.20412143147795869 0.34087776567992611 0 0.19849046357701561 0.35591233124536159 0 0.1836192063361044 0.34023176362563418 0 0.19849046357701561 0.35591233124536159 0 0.1809068329639256 0.36316408559077568 0 0.1836192063361044 0.34023176362563418 0 0.1809068329639256 0.36316408559077568 0 0.17999078648767469 0.38112658726952858 0 0.20541552231894669 0.37687850937220141 0 0.19849046357701561 0.35591233124536159 0 0.1809068329639256 0.36316408559077568 0 0.20541552231894669 0.37687850937220141 0 0.1809068329639256 0.36316408559077568 0 0.20541552231894669 0.37687850937220141 0 0.1809068329639256 0.36316408559077568 0 0.1664850503554467 0.37058032192429857 0 0.17999078648767469 0.38112658726952858 0 0.1809068329639256 0.36316408559077568 0 0.1664850503554467 0.37058032192429857 0 0.1688479259088457 0.35095684080151562 0 0.1664850503554467 0.37058032192429857 0 0.15630597520669159 0.35853971768295001 0 0.1688479259088457 0.35095684080151562 0 0.1664850503554467 0.37058032192429857 0 0.15630597520669159 0.35853971768295001 0 0.1543795406659465 0.37092994038781868 0 0.1688479259088457 0.35095684080151562 0 0.16042133639532949 0.33384861031155721 0 0.1550267627713165 0.34657492211543189 0 0.15630597520669159 0.35853971768295001 0 0.1688479259088457 0.35095684080151562 0 0.1550267627713165 0.34657492211543189 0 0.1809068329639256 0.36316408559077568 0 0.1688479259088457 0.35095684080151562 0 0.1836192063361044 0.34023176362563418 0 0.1836192063361044 0.34023176362563418 0 0.1748294189357408 0.32381447233538802 0 0.16042133639532949 0.33384861031155721 0 0.19276246870074251 0.32621651614808489 0 0.1836192063361044 0.34023176362563418 0 0.1748294189357408 0.32381447233538802 0 0.19027783557892361 0.30858688037897408 0 0.19276246870074251 0.32621651614808489 0 0.1748294189357408 0.32381447233538802 0 0.16921428387288021 0.30795467551344241 0 0.19027783557892361 0.30858688037897408 0 0.1748294189357408 0.32381447233538802 0 0.1748294189357408 0.32381447233538802 0 0.16042133639532949 0.33384861031155721 0 0.152636167961094 0.31887328660776232 0 0.16921428387288021 0.30795467551344241 0 0.1748294189357408 0.32381447233538802 0 0.152636167961094 0.31887328660776232 0 0.1688479259088457 0.35095684080151562 0 0.1836192063361044 0.34023176362563418 0 0.16042133639532949 0.33384861031155721 0 0.16042133639532949 0.33384861031155721 0 0.14514238106760849 0.33619801863963911 0 0.152636167961094 0.31887328660776232 0 0.16042133639532949 0.33384861031155721 0 0.14514238106760849 0.33619801863963911 0 0.1550267627713165 0.34657492211543189 0 0.136266042051544 0.3043347613880385 0 0.152636167961094 0.31887328660776232 0 0.13588058312874751 0.32350938396624718 0 0.14514238106760849 0.33619801863963911 0 0.152636167961094 0.31887328660776232 0 0.13588058312874751 0.32350938396624718 0 0.1180945036516703 0.31946406950571332 0 0.136266042051544 0.3043347613880385 0 0.13588058312874751 0.32350938396624718 0 0.12481482618670139 0.33719959393898719 0 0.1180945036516703 0.31946406950571332 0 0.13588058312874751 0.32350938396624718 0 0.14514238106760849 0.33619801863963911 0 0.13614589402550781 0.3431033466684158 0 0.13549592110214129 0.33500258580332232 0 0.14514238106760849 0.33619801863963911 0 0.13588058312874751 0.32350938396624718 0 0.13549592110214129 0.33500258580332232 0 0.12481482618670139 0.33719959393898719 0 0.13588058312874751 0.32350938396624718 0 0.13549592110214129 0.33500258580332232 0 0.12481482618670139 0.33719959393898719 0 0.13614589402550781 0.3431033466684158 0 0.13549592110214129 0.33500258580332232 0 0.12481482618670139 0.33719959393898719 0 0.13614589402550781 0.3431033466684158 0 0.131535148721732 0.35493511837226138 0 0.12481482618670139 0.33719959393898719 0 0.131535148721732 0.35493511837226138 0 0.123177069569887 0.34777697599256963 0 0.12481482618670139 0.33719959393898719 0 0.131535148721732 0.35493511837226138 0 0.13614589402550781 0.3431033466684158 0 0.131535148721732 0.35493511837226138 0 0.1444161952781072 0.35333142314149768 0 0.1213755573139664 0.37197883584600439 0 0.131535148721732 0.35493511837226138 0 0.14183414696011609 0.37107527352483571 0 0.131535148721732 0.35493511837226138 0 0.14183414696011609 0.37107527352483571 0 0.1444161952781072 0.35333142314149768 0 0.15630597520669159 0.35853971768295001 0 0.14183414696011609 0.37107527352483571 0 0.1444161952781072 0.35333142314149768 0 0.15630597520669159 0.35853971768295001 0 0.14183414696011609 0.37107527352483571 0 0.1543795406659465 0.37092994038781868 0 0.14514238106760849 0.33619801863963911 0 0.1550267627713165 0.34657492211543189 0 0.1444161952781072 0.35333142314149768 0 0.15630597520669159 0.35853971768295001 0 0.1550267627713165 0.34657492211543189 0 0.1444161952781072 0.35333142314149768 0 0.14514238106760849 0.33619801863963911 0 0.13614589402550781 0.3431033466684158 0 0.1444161952781072 0.35333142314149768 0 0.1545660506564028 0.38537466516685648 0 0.129141314825131 0.38962274306418437 0 0.13989730444079351 0.40778938666556019 0 0.1545660506564028 0.38537466516685648 0 0.13989730444079351 0.40778938666556019 0 0.155874936087465 0.40940903878093188 0 0.14183414696011609 0.37107527352483571 0 0.1545660506564028 0.38537466516685648 0 0.129141314825131 0.38962274306418437 0 0.1545660506564028 0.38537466516685648 0 0.129141314825131 0.38962274306418437 0 0.14183414696011609 0.37107527352483571 0 0.1543795406659465 0.37092994038781868 0 0.1545660506564028 0.38537466516685648 0 0.1213755573139664 0.37197883584600439 0 0.14183414696011609 0.37107527352483571 0 0.129141314825131 0.38962274306418437 0 0.1181870658861582 0.41103089047793939 0 0.129141314825131 0.38962274306418437 0 0.13989730444079351 0.40778938666556019 0 0.1181870658861582 0.41103089047793939 0 0.13989730444079351 0.40778938666556019 0 0.13050023848874989 0.4276930947070825 0 0.13989730444079351 0.40778938666556019 0 0.13050023848874989 0.4276930947070825 0 0.14927737003294969 0.42521592790830143 0 0.13050023848874989 0.4276930947070825 0 0.14927737003294969 0.42521592790830143 0 0.13931706441567909 0.44580185992376969 0 0.14927737003294969 0.42521592790830143 0 0.160077532267799 0.43907467796214128 0 0.13931706441567909 0.44580185992376969 0 0.13989730444079351 0.40778938666556019 0 0.14927737003294969 0.42521592790830143 0 0.155874936087465 0.40940903878093188 0 0.14927737003294969 0.42521592790830143 0 0.155874936087465 0.40940903878093188 0 0.16568458847793149 0.42188001162472749 0 0.155874936087465 0.40940903878093188 0 0.16994936682924761 0.40678520253921369 0 0.16568458847793149 0.42188001162472749 0 0.14927737003294969 0.42521592790830143 0 0.16568458847793149 0.42188001162472749 0 0.160077532267799 0.43907467796214128 0 0.16568458847793149 0.42188001162472749 0 0.17543232617966811 0.43519482504176082 0 0.160077532267799 0.43907467796214128 0 0.17543232617966811 0.43519482504176082 0 0.18337028864682961 0.41617710371521882 0 0.2017094500865047 0.42844959389513643 0 0.16568458847793149 0.42188001162472749 0 0.17543232617966811 0.43519482504176082 0 0.18337028864682961 0.41617710371521882 0 0.16994936682924761 0.40678520253921369 0 0.16568458847793149 0.42188001162472749 0 0.18337028864682961 0.41617710371521882 0 0.16994936682924761 0.40678520253921369 0 0.18337028864682961 0.41617710371521882 0 0.18180221557994211 0.39637470787799978 0 0.18180221557994211 0.39637470787799978 0 0.17999078648767469 0.38112658726952858 0 0.1972259780581132 0.39994110488409218 0 0.18337028864682961 0.41617710371521882 0 0.18180221557994211 0.39637470787799978 0 0.1972259780581132 0.39994110488409218 0 0.1545660506564028 0.38537466516685648 0 0.155874936087465 0.40940903878093188 0 0.16994936682924761 0.40678520253921369 0 0.1545660506564028 0.38537466516685648 0 0.16994936682924761 0.40678520253921369 0 0.18180221557994211 0.39637470787799978 0 0.1545660506564028 0.38537466516685648 0 0.17999078648767469 0.38112658726952858 0 0.1664850503554467 0.37058032192429857 0 0.1545660506564028 0.38537466516685648 0 0.17999078648767469 0.38112658726952858 0 0.1664850503554467 0.37058032192429857 0 0.1543795406659465 0.37092994038781868 0 0.1545660506564028 0.38537466516685648 0 0.1545660506564028 0.38537466516685648 0 0.18180221557994211 0.39637470787799978 0 0.17999078648767469 0.38112658726952858 0 0.17999078648767469 0.38112658726952858 0 0.1972259780581132 0.39994110488409218 0 0.20541552231894669 0.37687850937220141 0 0.17999078648767469 0.38112658726952858 0 0.20541552231894669 0.37687850937220141 0 0.21591222431653961 0.40570984938816579 0 0.21095543341564099 0.39262922678029932 0 0.22526800896896459 0.38798744347673791 0 0.1972259780581132 0.39994110488409218 0 0.21591222431653961 0.40570984938816579 0 0.21095543341564099 0.39262922678029932 0 0.21095543341564099 0.39262922678029932 0 0.20541552231894669 0.37687850937220141 0 0.22526800896896459 0.38798744347673791 0 0.20541552231894669 0.37687850937220141 0 0.22526800896896459 0.38798744347673791 0 0.227560083143859 0.37317849769811151 0 0.20541552231894669 0.37687850937220141 0 0.1972259780581132 0.39994110488409218 0 0.21095543341564099 0.39262922678029932 0 0.20541552231894669 0.37687850937220141 0 0.227560083143859 0.37317849769811151 0 0.20541552231894669 0.37687850937220141 0 0.22526800896896459 0.38798744347673791 0 0.227560083143859 0.37317849769811151 0 0.22526800896896459 0.38798744347673791 0 0.2393829010497367 0.38605648548976201 0 0.21591222431653961 0.40570984938816579 0 0.22526800896896459 0.38798744347673791 0 0.23371020015960131 0.40589143295931529 0 0.22526800896896459 0.38798744347673791 0 0.24512049561898311 0.3990963775812737 0 0.22526800896896459 0.38798744347673791 0 0.23371020015960131 0.40589143295931529 0 0.24512049561898311 0.3990963775812737 0 0.24512049561898311 0.3990963775812737 0 0.2393829010497367 0.38605648548976201 0 0.25928559359573472 0.38778951337144141 0 0.22526800896896459 0.38798744347673791 0 0.24512049561898311 0.3990963775812737 0 0.2393829010497367 0.38605648548976201 0 0.24245383387187089 0.37214504599554488 0 0.2393829010497367 0.38605648548976201 0 0.25928559359573472 0.38778951337144141 0 0.24245383387187089 0.37214504599554488 0 0.227560083143859 0.37317849769811151 0 0.2393829010497367 0.38605648548976201 0 0.24995727272902341 0.43268012710755699 0 0.2279865739933413 0.42170436274851192 0 0.25426369790017778 0.41495913160188752 0 0.24995727272902341 0.43268012710755699 0 0.2279865739933413 0.42170436274851192 0 0.23690345795038889 0.43867745041884088 0 0.2279865739933413 0.42170436274851192 0 0.25426369790017778 0.41495913160188752 0 0.23371020015960131 0.40589143295931529 0 0.2279865739933413 0.42170436274851192 0 0.25426369790017778 0.41495913160188752 0 0.23371020015960131 0.40589143295931529 0 0.24512049561898311 0.3990963775812737 0 0.25426369790017778 0.41495913160188752 0 0.21591222431653961 0.40570984938816579 0 0.23371020015960131 0.40589143295931529 0 0.2279865739933413 0.42170436274851192 0 0.2279865739933413 0.42170436274851192 0 0.22464920828544799 0.44826410146975992 0 0.23690345795038889 0.43867745041884088 0 0.2279865739933413 0.42170436274851192 0 0.2017094500865047 0.42844959389513643 0 0.22464920828544799 0.44826410146975992 0 0.2279865739933413 0.42170436274851192 0 0.2017094500865047 0.42844959389513643 0 0.1972259780581132 0.39994110488409218 0 0.21591222431653961 0.40570984938816579 0 0.2017094500865047 0.42844959389513643 0 0.21591222431653961 0.40570984938816579 0 0.2279865739933413 0.42170436274851192 0 0.2017094500865047 0.42844959389513643 0 0.18337028864682961 0.41617710371521882 0 0.1972259780581132 0.39994110488409218 0 0.2017094500865047 0.42844959389513643 0 0.17543232617966811 0.43519482504176082 0 0.2017094500865047 0.42844959389513643 0 0.2017094500865047 0.42844959389513643 0 0.20618133057568869 0.45090943603715722 0 0.18406923556170349 0.45234499480747842 0 0.20380224338647729 0.46258355950590407 0 0.20618133057568869 0.45090943603715722 0 0.18406923556170349 0.45234499480747842 0 0.19977420028839679 0.47597813245472459 0 0.18164720793810951 0.47098929930198341 0 0.18406923556170349 0.45234499480747842 0 0.20380224338647729 0.46258355950590407 0 0.19977420028839679 0.47597813245472459 0 0.18406923556170349 0.45234499480747842 0 0.19977420028839679 0.47597813245472459 0 0.18406923556170349 0.45234499480747842 0 0.20618133057568869 0.45090943603715722 0 0.22464920828544799 0.44826410146975992 0 0.21881564972134679 0.46248104091180309 0 0.20380224338647729 0.46258355950590407 0 0.21881564972134679 0.46248104091180309 0 0.2101708007852508 0.47120419331835678 0 0.20380224338647729 0.46258355950590407 0 0.20618133057568869 0.45090943603715722 0 0.21881564972134679 0.46248104091180309 0 0.2017094500865047 0.42844959389513643 0 0.20618133057568869 0.45090943603715722 0 0.22464920828544799 0.44826410146975992 0 0.22464920828544799 0.44826410146975992 0 0.21881564972134679 0.46248104091180309 0 0.2415693043808303 0.46896466168795481 0 0.24596315281190881 0.45061517806106388 0 0.2415693043808303 0.46896466168795481 0 0.25758842717090291 0.46261278833229058 0 0.22464920828544799 0.44826410146975992 0 0.24596315281190881 0.45061517806106388 0 0.2415693043808303 0.46896466168795481 0 0.22464920828544799 0.44826410146975992 0 0.23690345795038889 0.43867745041884088 0 0.24596315281190881 0.45061517806106388 0 0.24995727272902341 0.43268012710755699 0 0.23690345795038889 0.43867745041884088 0 0.24596315281190881 0.45061517806106388 0 0.24530858072629549 0.5 0 0.23265443333220401 0.48660616531394441 0 0.25326129250108809 0.48329889019814432 0 0.2415693043808303 0.46896466168795481 0 0.23265443333220401 0.48660616531394441 0 0.25326129250108809 0.48329889019814432 0 0.21881564972134679 0.46248104091180309 0 0.2415693043808303 0.46896466168795481 0 0.2225432592986018 0.47528767730230059 0 0.2415693043808303 0.46896466168795481 0 0.2225432592986018 0.47528767730230059 0 0.23265443333220401 0.48660616531394441 0 0.2415693043808303 0.46896466168795481 0 0.2225432592986018 0.47528767730230059 0 0.2225432592986018 0.47528767730230059 0 0.23265443333220401 0.48660616531394441 0 0.21778260261130861 0.48653001311640748 0 0.23265443333220401 0.48660616531394441 0 0.21573748828252279 0.5 0 0.21778260261130861 0.48653001311640748 0 0.24530858072629549 0.5 0 0.23265443333220401 0.48660616531394441 0 0.21573748828252279 0.5 0 0.21573748828252279 0.5 0 0.20351721421637331 0.48161069291664638 0 0.1932195002747307 0.5 0 0.21573748828252279 0.5 0 0.21778260261130861 0.48653001311640748 0 0.20351721421637331 0.48161069291664638 0 0.21573748828252279 0.5 0 0.20351721421637331 0.48161069291664638 0 0.2225432592986018 0.47528767730230059 0 0.21778260261130861 0.48653001311640748 0 0.20351721421637331 0.48161069291664638 0 0.2225432592986018 0.47528767730230059 0 0.20351721421637331 0.48161069291664638 0 0.2225432592986018 0.47528767730230059 0 0.20351721421637331 0.48161069291664638 0 0.2101708007852508 0.47120419331835678 0 0.21881564972134679 0.46248104091180309 0 0.2225432592986018 0.47528767730230059 0 0.2101708007852508 0.47120419331835678 0 0.2101708007852508 0.47120419331835678 0 0.19977420028839679 0.47597813245472459 0 0.20380224338647729 0.46258355950590407 0 0.2101708007852508 0.47120419331835678 0 0.19977420028839679 0.47597813245472459 0 0.20351721421637331 0.48161069291664638 0 0.2101708007852508 0.47120419331835678 0 0.19977420028839679 0.47597813245472459 0 0.20351721421637331 0.48161069291664638 0 0.19977420028839679 0.47597813245472459 0 0.17585036923776029 0.49080534645832541 0 0.20351721421637331 0.48161069291664638 0 0.19977420028839679 0.47597813245472459 0 0.20351721421637331 0.48161069291664638 0 0.17585036923776029 0.49080534645832541 0 0.20351721421637331 0.48161069291664638 0 0.1932195002747307 0.5 0 0.17585036923776029 0.49080534645832541 0 0.1932195002747307 0.5 0 0.17585036923776029 0.49080534645832541 0 0.17070151226693861 0.5 0 0.19977420028839679 0.47597813245472459 0 0.1736170004453956 0.48798906622736321 0 0.17585036923776029 0.49080534645832541 0 0.1736170004453956 0.48798906622736321 0 0.14745980060239419 0.50000000000000089 0 0.15217975529367919 0.47704632806457531 0 0.17585036923776029 0.49080534645832541 0 0.17070151226693861 0.5 0 0.14745980060239419 0.50000000000000089 0 0.1736170004453956 0.48798906622736321 0 0.17585036923776029 0.49080534645832541 0 0.14745980060239419 0.50000000000000089 0 0.17585036923776029 0.49080534645832541 0 0.14745980060239419 0.50000000000000089 0 0.1736170004453956 0.48798906622736321 0 0.14745980060239419 0.50000000000000089 0 0.1736170004453956 0.48798906622736321 0 0.1661376039313964 0.46820834916855952 0 0.15217975529367919 0.47704632806457531 0 0.19977420028839679 0.47597813245472459 0 0.1736170004453956 0.48798906622736321 0 0.1736170004453956 0.48798906622736321 0 0.18164720793810951 0.47098929930198341 0 0.1661376039313964 0.46820834916855952 0 0.19977420028839679 0.47597813245472459 0 0.1736170004453956 0.48798906622736321 0 0.18164720793810951 0.47098929930198341 0 0.18164720793810951 0.47098929930198341 0 0.18406923556170349 0.45234499480747842 0 0.1661376039313964 0.46820834916855952 0 0.18406923556170349 0.45234499480747842 0 0.168344248854286 0.45018194626464342 0 0.1661376039313964 0.46820834916855952 0 0.17543232617966811 0.43519482504176082 0 0.2017094500865047 0.42844959389513643 0 0.18406923556170349 0.45234499480747842 0 0.17543232617966811 0.43519482504176082 0 0.18406923556170349 0.45234499480747842 0 0.168344248854286 0.45018194626464342 0 0.168344248854286 0.45018194626464342 0 0.160077532267799 0.43907467796214128 0 0.156004546330863 0.45608688434327682 0 0.17543232617966811 0.43519482504176082 0 0.168344248854286 0.45018194626464342 0 0.160077532267799 0.43907467796214128 0 0.168344248854286 0.45018194626464342 0 0.1661376039313964 0.46820834916855952 0 0.156004546330863 0.45608688434327682 0 0.1661376039313964 0.46820834916855952 0 0.156004546330863 0.45608688434327682 0 0.15217975529367919 0.47704632806457531 0 0.156004546330863 0.45608688434327682 0 0.13561054107493159 0.46538730039660692 0 0.15217975529367919 0.47704632806457531 0 0.156004546330863 0.45608688434327682 0 0.13931706441567909 0.44580185992376969 0 0.13561054107493159 0.46538730039660692 0 0.160077532267799 0.43907467796214128 0 0.156004546330863 0.45608688434327682 0 0.13931706441567909 0.44580185992376969 0 0.122431196238569 0.44368730251370347 0 0.13050023848874989 0.4276930947070825 0 0.13931706441567909 0.44580185992376969 0 0.1235657929076949 0.45743785159519362 0 0.122431196238569 0.44368730251370347 0 0.13931706441567909 0.44580185992376969 0 0.12403912622496539 0.47448368195361967 0 0.1235657929076949 0.45743785159519362 0 0.13561054107493159 0.46538730039660692 0 0.1235657929076949 0.45743785159519362 0 0.13931706441567909 0.44580185992376969 0 0.13561054107493159 0.46538730039660692 0 0.12403912622496539 0.47448368195361967 0 0.13561054107493159 0.46538730039660692 0 0.1340558545288795 0.48438019965948892 0 0.13561054107493159 0.46538730039660692 0 0.1340558545288795 0.48438019965948892 0 0.15217975529367919 0.47704632806457531 0 0.1189307255613999 0.48432218398866927 0 0.12403912622496539 0.47448368195361967 0 0.1340558545288795 0.48438019965948892 0 0.1222220387075891 0.5 0 0.1189307255613999 0.48432218398866927 0 0.1340558545288795 0.48438019965948892 0 0.1222220387075891 0.5 0 0.1340558545288795 0.48438019965948892 0 0.14745980060239419 0.50000000000000089 0 0.1340558545288795 0.48438019965948892 0 0.14745980060239419 0.50000000000000089 0 0.15217975529367919 0.47704632806457531 0 0.3635929505013864 0.5 0 0.37138926614346762 0.47343953077055462 0 0.3445777425907926 0.46708808687990322 0 0.3635929505013864 0.5 0 0.3445777425907926 0.46708808687990322 0 0.3340218580576137 0.5 0 0.3635929505013864 0.5 0 0.37138926614346762 0.47343953077055462 0 0.38591749702153427 0.48325521994250031 0 0.37138926614346762 0.47343953077055462 0 0.36636443174205752 0.44880924381662812 0 0.3445777425907926 0.46708808687990322 0 0.37138926614346762 0.47343953077055462 0 0.36636443174205752 0.44880924381662812 0 0.3811742015566395 0.45562926842028312 0 0.36636443174205752 0.44880924381662812 0 0.34760903798901499 0.44672585270692949 0 0.36581725510251878 0.4260337798625804 0 0.36636443174205752 0.44880924381662812 0 0.3445777425907926 0.46708808687990322 0 0.36636443174205752 0.44880924381662812 0 0.34760903798901499 0.44672585270692949 0 0.3445777425907926 0.46708808687990322 0 0.3445777425907926 0.46708808687990322 0 0.32879007817259109 0.44260540225526651 0 0.31701557964424648 0.45852854130349491 0 0.3445777425907926 0.46708808687990322 0 0.31701557964424648 0.45852854130349491 0 0.31261036405682968 0.47910003794471279 0 0.34760903798901499 0.44672585270692949 0 0.3445777425907926 0.46708808687990322 0 0.32879007817259109 0.44260540225526651 0 0.34760903798901499 0.44672585270692949 0 0.32879007817259109 0.44260540225526651 0 0.34064698858970899 0.43000118044812868 0 0.32879007817259109 0.44260540225526651 0 0.31701557964424648 0.45852854130349491 0 0.30978087276732608 0.43472291549913078 0 0.3445777425907926 0.46708808687990322 0 0.31261036405682968 0.47910003794471279 0 0.3340218580576137 0.5 0 0.31261036405682968 0.47910003794471279 0 0.3340218580576137 0.5 0 0.30445076561384099 0.5 0 0.31261036405682968 0.47910003794471279 0 0.30445076561384099 0.5 0 0.28682024180477239 0.48302693850153178 0 0.31261036405682968 0.47910003794471279 0 0.28682024180477239 0.48302693850153178 0 0.29248953920417242 0.46632713236358259 0 0.28682024180477239 0.48302693850153178 0 0.26749587133636182 0.47148578482449449 0 0.29248953920417242 0.46632713236358259 0 0.30445076561384099 0.5 0 0.28682024180477239 0.48302693850153178 0 0.27487967317006817 0.5 0 0.28682024180477239 0.48302693850153178 0 0.27487967317006817 0.5 0 0.26749587133636182 0.47148578482449449 0 0.26749587133636182 0.47148578482449449 0 0.25326129250108809 0.48329889019814432 0 0.25758842717090291 0.46261278833229058 0 0.2415693043808303 0.46896466168795481 0 0.25326129250108809 0.48329889019814432 0 0.25758842717090291 0.46261278833229058 0 0.24530858072629549 0.5 0 0.27487967317006817 0.5 0 0.25326129250108809 0.48329889019814432 0 0.27487967317006817 0.5 0 0.26749587133636182 0.47148578482449449 0 0.25326129250108809 0.48329889019814432 0 0.24596315281190881 0.45061517806106388 0 0.26070900772311612 0.44580814029368437 0 0.25758842717090291 0.46261278833229058 0 0.24995727272902341 0.43268012710755699 0 0.24596315281190881 0.45061517806106388 0 0.26070900772311612 0.44580814029368437 0 0.26070900772311612 0.44580814029368437 0 0.27181884979027793 0.43968026710015679 0 0.26290603988073208 0.43431533083421581 0 0.24995727272902341 0.43268012710755699 0 0.26070900772311612 0.44580814029368437 0 0.26290603988073208 0.43431533083421581 0 0.26070900772311612 0.44580814029368437 0 0.25758842717090291 0.46261278833229058 0 0.27653193427211242 0.45550407492840139 0 0.26749587133636182 0.47148578482449449 0 0.27653193427211242 0.45550407492840139 0 0.29248953920417242 0.46632713236358259 0 0.26749587133636182 0.47148578482449449 0 0.25758842717090291 0.46261278833229058 0 0.27653193427211242 0.45550407492840139 0 0.26070900772311612 0.44580814029368437 0 0.27653193427211242 0.45550407492840139 0 0.27181884979027793 0.43968026710015679 0 0.27653193427211242 0.45550407492840139 0 0.27181884979027793 0.43968026710015679 0 0.28353418263917102 0.4410914889330213 0 0.27653193427211242 0.45550407492840139 0 0.28353418263917102 0.4410914889330213 0 0.29685714381112882 0.44791840826177348 0 0.28353418263917102 0.4410914889330213 0 0.29685714381112882 0.44791840826177348 0 0.29142574777007879 0.43242946476335598 0 0.27653193427211242 0.45550407492840139 0 0.29685714381112882 0.44791840826177348 0 0.29248953920417242 0.46632713236358259 0 0.31701557964424648 0.45852854130349491 0 0.29685714381112882 0.44791840826177348 0 0.29248953920417242 0.46632713236358259 0 0.31701557964424648 0.45852854130349491 0 0.31261036405682968 0.47910003794471279 0 0.29248953920417242 0.46632713236358259 0 0.29685714381112882 0.44791840826177348 0 0.30978087276732608 0.43472291549913078 0 0.29142574777007879 0.43242946476335598 0 0.31701557964424648 0.45852854130349491 0 0.29685714381112882 0.44791840826177348 0 0.30978087276732608 0.43472291549913078 0 0.30978087276732608 0.43472291549913078 0 0.29294911304346238 0.41907844812323441 0 0.30978087276732608 0.43472291549913078 0 0.29294911304346238 0.41907844812323441 0 0.29142574777007879 0.43242946476335598 0 0.30978087276732608 0.43472291549913078 0 0.30730414114933202 0.4181936070905331 0 0.29294911304346238 0.41907844812323441 0 0.30990688266911182 0.40801835394690628 0 0.30730414114933202 0.4181936070905331 0 0.29930800143822989 0.41128357884905431 0 0.30730414114933202 0.4181936070905331 0 0.29930800143822989 0.41128357884905431 0 0.29294911304346238 0.41907844812323441 0 0.29930800143822989 0.41128357884905431 0 0.29198924530019432 0.40627555182660929 0 0.30034380513644748 0.40270474179518101 0 0.30990688266911182 0.40801835394690628 0 0.29930800143822989 0.41128357884905431 0 0.30034380513644748 0.40270474179518101 0 0.29294911304346238 0.41907844812323441 0 0.28482546891901972 0.42131424579034532 0 0.27611735331959858 0.40343398074733788 0 0.29294911304346238 0.41907844812323441 0 0.27611735331959858 0.40343398074733788 0 0.29294911304346238 0.41907844812323441 0 0.27611735331959858 0.40343398074733788 0 0.285662538360479 0.40382000241822968 0 0.29930800143822989 0.41128357884905431 0 0.29198924530019432 0.40627555182660929 0 0.29294911304346238 0.41907844812323441 0 0.29198924530019432 0.40627555182660929 0 0.29294911304346238 0.41907844812323441 0 0.285662538360479 0.40382000241822968 0 0.29294911304346238 0.41907844812323441 0 0.28482546891901972 0.42131424579034532 0 0.29142574777007879 0.43242946476335598 0 0.28482546891901972 0.42131424579034532 0 0.29142574777007879 0.43242946476335598 0 0.27880822513313119 0.43064106812199632 0 0.28353418263917102 0.4410914889330213 0 0.29142574777007879 0.43242946476335598 0 0.27880822513313119 0.43064106812199632 0 0.27181884979027793 0.43968026710015679 0 0.28353418263917102 0.4410914889330213 0 0.27880822513313119 0.43064106812199632 0 0.27181884979027793 0.43968026710015679 0 0.27880822513313119 0.43064106812199632 0 0.26991356176120218 0.42922295455335457 0 0.27181884979027793 0.43968026710015679 0 0.26991356176120218 0.42922295455335457 0 0.26290603988073208 0.43431533083421581 0 0.27226534252790802 0.42222958997886367 0 0.26991356176120218 0.42922295455335457 0 0.26213150740004121 0.42418516511632592 0 0.27880822513313119 0.43064106812199632 0 0.27226534252790802 0.42222958997886367 0 0.26991356176120218 0.42922295455335457 0 0.28482546891901972 0.42131424579034532 0 0.27880822513313119 0.43064106812199632 0 0.27226534252790802 0.42222958997886367 0 0.28482546891901972 0.42131424579034532 0 0.26497298226900151 0.41020531168580948 0 0.27611735331959858 0.40343398074733788 0 0.28482546891901972 0.42131424579034532 0 0.26497298226900151 0.41020531168580948 0 0.28482546891901972 0.42131424579034532 0 0.27226534252790802 0.42222958997886367 0 0.26497298226900151 0.41020531168580948 0 0.27226534252790802 0.42222958997886367 0 0.26497298226900151 0.41020531168580948 0 0.26213150740004121 0.42418516511632592 0 0.24512049561898311 0.3990963775812737 0 0.26497298226900151 0.41020531168580948 0 0.25426369790017778 0.41495913160188752 0 0.26497298226900151 0.41020531168580948 0 0.25426369790017778 0.41495913160188752 0 0.26213150740004121 0.42418516511632592 0 0.24995727272902341 0.43268012710755699 0 0.25426369790017778 0.41495913160188752 0 0.26213150740004121 0.42418516511632592 0 0.24995727272902341 0.43268012710755699 0 0.26290603988073208 0.43431533083421581 0 0.26213150740004121 0.42418516511632592 0 0.26991356176120218 0.42922295455335457 0 0.26290603988073208 0.43431533083421581 0 0.26213150740004121 0.42418516511632592 0 0.24245383387187089 0.37214504599554488 0 0.25928559359573472 0.38778951337144141 0 0.25811486834001779 0.37126792942840298 0 0.24245383387187089 0.37214504599554488 0 0.25928559359573472 0.38778951337144141 0 0.25928559359573472 0.38778951337144141 0 0.27347973713902157 0.37651771951711072 0 0.25811486834001779 0.37126792942840298 0 0.24512049561898311 0.3990963775812737 0 0.26497298226900151 0.41020531168580948 0 0.24512049561898311 0.3990963775812737 0 0.26497298226900151 0.41020531168580948 0 0.25928559359573472 0.38778951337144141 0 0.25928559359573472 0.38778951337144141 0 0.27611735331959858 0.40343398074733788 0 0.26497298226900151 0.41020531168580948 0 0.25928559359573472 0.38778951337144141 0 0.27611735331959858 0.40343398074733788 0 0.25928559359573472 0.38778951337144141 0 0.27611735331959858 0.40343398074733788 0 0.27331314758838388 0.38833203162994667 0 0.27611735331959858 0.40343398074733788 0 0.28041867356641231 0.39512619124517312 0 0.285662538360479 0.40382000241822968 0 0.27611735331959858 0.40343398074733788 0 0.28041867356641231 0.39512619124517312 0 0.27331314758838388 0.38833203162994667 0 0.28041867356641231 0.39512619124517312 0 0.27331314758838388 0.38833203162994667 0 0.2814788691543697 0.38833253368652088 0 0.27331314758838388 0.38833203162994667 0 0.27980585198051883 0.38166390788761789 0 0.2814788691543697 0.38833253368652088 0 0.25928559359573472 0.38778951337144141 0 0.27331314758838388 0.38833203162994667 0 0.27347973713902157 0.37651771951711072 0 0.27331314758838388 0.38833203162994667 0 0.27347973713902157 0.37651771951711072 0 0.27980585198051883 0.38166390788761789 0 0.27347973713902157 0.37651771951711072 0 0.27980585198051883 0.38166390788761789 0 0.28253103231276527 0.37343292465635641 0 0.28933107714594419 0.38880585363697112 0 0.28992635340373901 0.38118723302171892 0 0.30418727168589821 0.3713529888789604 0 0.27980585198051883 0.38166390788761789 0 0.28542891485545763 0.37864331188842132 0 0.28253103231276527 0.37343292465635641 0 0.28542891485545763 0.37864331188842132 0 0.28992635340373901 0.38118723302171892 0 0.28972644843236017 0.37273591062096179 0 0.28933107714594419 0.38880585363697112 0 0.30418727168589821 0.3713529888789604 0 0.28542891485545763 0.37864331188842132 0 0.28515488814790457 0.38419658325545147 0 0.28992635340373901 0.38118723302171892 0 0.27980585198051883 0.38166390788761789 0 0.28542891485545763 0.37864331188842132 0 0.28515488814790457 0.38419658325545147 0 0.27980585198051883 0.38166390788761789 0 0.28515488814790457 0.38419658325545147 0 0.2814788691543697 0.38833253368652088 0 0.28515488814790457 0.38419658325545147 0 0.2814788691543697 0.38833253368652088 0 0.28672833029058897 0.38821902436569311 0 0.2814788691543697 0.38833253368652088 0 0.28672833029058897 0.38821902436569311 0 0.28401908286323452 0.39207964339470741 0 0.28672833029058897 0.38821902436569311 0 0.28401908286323452 0.39207964339470741 0 0.2869013901527524 0.39147098039977518 0 0.28672833029058897 0.38821902436569311 0 0.28933107714594419 0.38880585363697112 0 0.28672833029058897 0.38821902436569311 0 0.28764347236933802 0.38569662865509258 0 0.28933107714594419 0.38880585363697112 0 0.28672833029058897 0.38821902436569311 0 0.28933107714594419 0.38880585363697112 0 0.2869013901527524 0.39147098039977518 0 0.28515488814790457 0.38419658325545147 0 0.28672833029058897 0.38821902436569311 0 0.28764347236933802 0.38569662865509258 0 0.28515488814790457 0.38419658325545147 0 0.28764347236933802 0.38569662865509258 0 0.28992635340373901 0.38118723302171892 0 0.28764347236933802 0.38569662865509258 0 0.28933107714594419 0.38880585363697112 0 0.28992635340373901 0.38118723302171892 0 0.28992635340373901 0.38118723302171892 0 0.30418727168589821 0.3713529888789604 0 0.28972644843236017 0.37273591062096179 0 0.28041867356641231 0.39512619124517312 0 0.285662538360479 0.40382000241822968 0 0.28543646295754588 0.39742602837335711 0 0.29198924530019432 0.40627555182660929 0 0.285662538360479 0.40382000241822968 0 0.28833508481979209 0.40123655463242419 0 0.285662538360479 0.40382000241822968 0 0.28833508481979209 0.40123655463242419 0 0.28543646295754588 0.39742602837335711 0 0.28833508481979209 0.40123655463242419 0 0.28543646295754588 0.39742602837335711 0 0.28916317374644601 0.39744797037658119 0 0.28543646295754588 0.39742602837335711 0 0.28401908286323452 0.39207964339470741 0 0.28736123269241032 0.39420772438980711 0 0.28543646295754588 0.39742602837335711 0 0.28736123269241032 0.39420772438980711 0 0.28916317374644601 0.39744797037658119 0 0.28736123269241032 0.39420772438980711 0 0.29016129608280988 0.39477903901347322 0 0.28916317374644601 0.39744797037658119 0 0.28041867356641231 0.39512619124517312 0 0.28543646295754588 0.39742602837335711 0 0.28401908286323452 0.39207964339470741 0 0.28041867356641231 0.39512619124517312 0 0.2814788691543697 0.38833253368652088 0 0.28401908286323452 0.39207964339470741 0 0.28401908286323452 0.39207964339470741 0 0.2869013901527524 0.39147098039977518 0 0.28736123269241032 0.39420772438980711 0 0.28736123269241032 0.39420772438980711 0 0.28905403692248932 0.39240688126972217 0 0.29016129608280988 0.39477903901347322 0 0.2869013901527524 0.39147098039977518 0 0.28736123269241032 0.39420772438980711 0 0.28905403692248932 0.39240688126972217 0 0.28933107714594419 0.38880585363697112 0 0.2869013901527524 0.39147098039977518 0 0.28905403692248932 0.39240688126972217 0 0.28933107714594419 0.38880585363697112 0 0.29236976562871331 0.39315412049170961 0 0.29660495291689931 0.39606747150309612 0 0.28933107714594419 0.38880585363697112 0 0.28905403692248932 0.39240688126972217 0 0.29236976562871331 0.39315412049170961 0 0.28905403692248932 0.39240688126972217 0 0.29236976562871331 0.39315412049170961 0 0.29016129608280988 0.39477903901347322 0 0.29236976562871331 0.39315412049170961 0 0.29660495291689931 0.39606747150309612 0 0.29271372679738811 0.39658086075664511 0 0.29660495291689931 0.39606747150309612 0 0.29271372679738811 0.39658086075664511 0 0.29321575555729512 0.40006846477890629 0 0.29271372679738811 0.39658086075664511 0 0.28916317374644601 0.39744797037658119 0 0.29321575555729512 0.40006846477890629 0 0.29236976562871331 0.39315412049170961 0 0.29271372679738811 0.39658086075664511 0 0.29016129608280988 0.39477903901347322 0 0.29271372679738811 0.39658086075664511 0 0.29016129608280988 0.39477903901347322 0 0.28916317374644601 0.39744797037658119 0 0.29198924530019432 0.40627555182660929 0 0.29321575555729512 0.40006846477890629 0 0.30034380513644748 0.40270474179518101 0 0.28833508481979209 0.40123655463242419 0 0.28916317374644601 0.39744797037658119 0 0.29321575555729512 0.40006846477890629 0 0.29660495291689931 0.39606747150309612 0 0.29321575555729512 0.40006846477890629 0 0.30034380513644748 0.40270474179518101 0 0.29198924530019432 0.40627555182660929 0 0.28833508481979209 0.40123655463242419 0 0.29321575555729512 0.40006846477890629 0 0.29660495291689931 0.39606747150309612 0 0.30034380513644748 0.40270474179518101 0 0.31239998982595629 0.39400709446811771 0 0.28933107714594419 0.38880585363697112 0 0.29660495291689931 0.39606747150309612 0 0.31239998982595629 0.39400709446811771 0 0.28933107714594419 0.38880585363697112 0 0.31239998982595629 0.39400709446811771 0 0.30990688266911182 0.40801835394690628 0 0.30034380513644748 0.40270474179518101 0 0.31239998982595629 0.39400709446811771 0 0.28933107714594419 0.38880585363697112 0 0.31239998982595629 0.39400709446811771 0 0.30286202931574652 0.38426335433076209 0 0.28933107714594419 0.38880585363697112 0 0.30286202931574652 0.38426335433076209 0 0.30418727168589821 0.3713529888789604 0 0.31239998982595629 0.39400709446811771 0 0.30286202931574652 0.38426335433076209 0 0.31103933656858151 0.38157237728497528 0 0.31103933656858151 0.38157237728497528 0 0.31635129918207472 0.37351135016497272 0 0.30418727168589821 0.3713529888789604 0 0.30286202931574652 0.38426335433076209 0 0.31103933656858151 0.38157237728497528 0 0.30418727168589821 0.3713529888789604 0 0.31239998982595629 0.39400709446811771 0 0.31939609283323178 0.38472709858206378 0 0.33041375764587788 0.38842504977289549 0 0.31103933656858151 0.38157237728497528 0 0.31939609283323178 0.38472709858206378 0 0.31635129918207472 0.37351135016497272 0 0.31239998982595629 0.39400709446811771 0 0.31103933656858151 0.38157237728497528 0 0.31939609283323178 0.38472709858206378 0 0.31939609283323178 0.38472709858206378 0 0.33041375764587788 0.38842504977289549 0 0.31635129918207472 0.37351135016497272 0 0.33041375764587788 0.38842504977289549 0 0.33851596219275543 0.36910534307468712 0 0.33041375764587788 0.38842504977289549 0 0.34914239851362971 0.38579992350869308 0 0.33851596219275543 0.36910534307468712 0 0.33041375764587788 0.38842504977289549 0 0.33851596219275543 0.36910534307468712 0 0.31635129918207472 0.37351135016497272 0 0.33041375764587788 0.38842504977289549 0 0.33546890250596872 0.39920833529926331 0 0.34914239851362971 0.38579992350869308 0 0.31239998982595629 0.39400709446811771 0 0.33041375764587788 0.38842504977289549 0 0.33546890250596872 0.39920833529926331 0 0.31239998982595629 0.39400709446811771 0 0.33546890250596872 0.39920833529926331 0 0.31239998982595629 0.39400709446811771 0 0.33546890250596872 0.39920833529926331 0 0.32058790270739163 0.40477463068715658 0 0.30990688266911182 0.40801835394690628 0 0.31239998982595629 0.39400709446811771 0 0.32058790270739163 0.40477463068715658 0 0.30990688266911182 0.40801835394690628 0 0.32058790270739163 0.40477463068715658 0 0.32457583582852939 0.41786473903433952 0 0.33546890250596872 0.39920833529926331 0 0.32058790270739163 0.40477463068715658 0 0.32457583582852939 0.41786473903433952 0 0.30990688266911182 0.40801835394690628 0 0.30730414114933202 0.4181936070905331 0 0.32457583582852939 0.41786473903433952 0 0.32879007817259109 0.44260540225526651 0 0.30978087276732608 0.43472291549913078 0 0.32457583582852939 0.41786473903433952 0 0.30978087276732608 0.43472291549913078 0 0.30730414114933202 0.4181936070905331 0 0.32457583582852939 0.41786473903433952 0 0.32879007817259109 0.44260540225526651 0 0.32457583582852939 0.41786473903433952 0 0.34064698858970899 0.43000118044812868 0 0.32457583582852939 0.41786473903433952 0 0.34064698858970899 0.43000118044812868 0 0.34500935944254141 0.41550352215494413 0 0.33546890250596872 0.39920833529926331 0 0.32457583582852939 0.41786473903433952 0 0.34500935944254141 0.41550352215494413 0 0.33546890250596872 0.39920833529926331 0 0.34500935944254141 0.41550352215494413 0 0.35853781518598099 0.40440957613040879 0 0.34500935944254141 0.41550352215494413 0 0.36581725510251878 0.4260337798625804 0 0.35853781518598099 0.40440957613040879 0 0.34760903798901499 0.44672585270692949 0 0.34064698858970899 0.43000118044812868 0 0.36581725510251878 0.4260337798625804 0 0.34064698858970899 0.43000118044812868 0 0.34500935944254141 0.41550352215494413 0 0.36581725510251878 0.4260337798625804 0 0.36636443174205752 0.44880924381662812 0 0.36581725510251878 0.4260337798625804 0 0.3881511208933226 0.43053040075335303 0 0.35853781518598099 0.40440957613040879 0 0.38160672786599331 0.40961081696155438 0 0.35853781518598099 0.40440957613040879 0 0.38160672786599331 0.40961081696155438 0 0.37821791307384228 0.42215441111559598 0 0.36581725510251878 0.4260337798625804 0 0.35853781518598099 0.40440957613040879 0 0.37821791307384228 0.42215441111559598 0 0.36820531177321197 0.38922423401188322 0 0.35853781518598099 0.40440957613040879 0 0.38160672786599331 0.40961081696155438 0 0.36820531177321197 0.38922423401188322 0 0.36511454312596692 0.36381793869922868 0 0.38662507417448921 0.38248291475953039 0 0.36820531177321197 0.38922423401188322 0 0.34914239851362971 0.38579992350869308 0 0.36511454312596692 0.36381793869922868 0 0.33546890250596872 0.39920833529926331 0 0.35853781518598099 0.40440957613040879 0 0.33546890250596872 0.39920833529926331 0 0.34914239851362971 0.38579992350869308 0 0.35853781518598099 0.40440957613040879 0 0.36820531177321197 0.38922423401188322 0 0.34914239851362971 0.38579992350869308 0 0.35853781518598099 0.40440957613040879 0 0.34856283975615709 0.34514856357908791 0 0.36511454312596692 0.36381793869922868 0 0.33851596219275543 0.36910534307468712 0 0.34914239851362971 0.38579992350869308 0 0.36511454312596692 0.36381793869922868 0 0.33851596219275543 0.36910534307468712 0 0.36511454312596692 0.36381793869922868 0 0.33851596219275543 0.36910534307468712 0 0.34856283975615709 0.34514856357908791 0 0.36511454312596692 0.36381793869922868 0 0.36462351396194531 0.33779891589424532 0 0.36511454312596692 0.36381793869922868 0 0.36462351396194531 0.33779891589424532 0 0.37643470096558029 0.34987718482028618 0 0.36462351396194531 0.33779891589424532 0 0.35860971731956148 0.32119178408348958 0 0.38215669488957349 0.33566580933459039 0 0.35860971731956148 0.32119178408348958 0 0.38215669488957349 0.33566580933459039 0 0.36462351396194531 0.33779891589424532 0 0.38215669488957349 0.33566580933459039 0 0.37643470096558029 0.34987718482028618 0 0.37303941882830072 0.31523448777240992 0 0.35860971731956148 0.32119178408348958 0 0.38215669488957349 0.33566580933459039 0 0.35860971731956148 0.32119178408348958 0 0.33353276198415782 0.3057773011135978 0 0.35860971731956148 0.32119178408348958 0 0.34875585530576497 0.31899439460493167 0 0.33353276198415782 0.3057773011135978 0 0.35860971731956148 0.32119178408348958 0 0.34875585530576497 0.31899439460493167 0 0.34716056392325029 0.33090534276997569 0 0.34856283975615709 0.34514856357908791 0 0.35860971731956148 0.32119178408348958 0 0.34856283975615709 0.34514856357908791 0 0.36462351396194531 0.33779891589424532 0 0.35860971731956148 0.32119178408348958 0 0.34856283975615709 0.34514856357908791 0 0.35860971731956148 0.32119178408348958 0 0.34716056392325029 0.33090534276997569 0 0.34856283975615709 0.34514856357908791 0 0.34716056392325029 0.33090534276997569 0 0.33389966076580929 0.33644725936294129 0 0.34875585530576497 0.31899439460493167 0 0.34716056392325029 0.33090534276997569 0 0.33389966076580929 0.33644725936294129 0 0.34875585530576497 0.31899439460493167 0 0.33389966076580929 0.33644725936294129 0 0.32940798471419402 0.3209955230035404 0 0.34875585530576497 0.31899439460493167 0 0.33389966076580929 0.33644725936294129 0 0.34875585530576497 0.31899439460493167 0 0.32940798471419402 0.3209955230035404 0 0.33353276198415782 0.3057773011135978 0 0.32940798471419402 0.3209955230035404 0 0.31508693715755898 0.32133988756889359 0 0.31756706946460389 0.33759402516903669 0 0.32940798471419402 0.3209955230035404 0 0.31508693715755898 0.32133988756889359 0 0.31768562474088902 0.30933849063193469 0 0.33389966076580929 0.33644725936294129 0 0.31756706946460389 0.33759402516903669 0 0.31904346622585378 0.35390012412095079 0 0.33389966076580929 0.33644725936294129 0 0.32940798471419402 0.3209955230035404 0 0.31756706946460389 0.33759402516903669 0 0.33389966076580929 0.33644725936294129 0 0.31904346622585378 0.35390012412095079 0 0.31756706946460389 0.33759402516903669 0 0.31904346622585378 0.35390012412095079 0 0.30433932890094328 0.35401154302781918 0 0.33389966076580929 0.33644725936294129 0 0.31904346622585378 0.35390012412095079 0 0.33455266222902319 0.35205246932611228 0 0.34856283975615709 0.34514856357908791 0 0.33851596219275543 0.36910534307468712 0 0.34856283975615709 0.34514856357908791 0 0.33455266222902319 0.35205246932611228 0 0.33851596219275543 0.36910534307468712 0 0.31904346622585378 0.35390012412095079 0 0.33455266222902319 0.35205246932611228 0 0.33851596219275543 0.36910534307468712 0 0.34856283975615709 0.34514856357908791 0 0.33389966076580929 0.33644725936294129 0 0.33455266222902319 0.35205246932611228 0 0.31904346622585378 0.35390012412095079 0 0.31635129918207472 0.37351135016497272 0 0.30418727168589821 0.3713529888789604 0 0.33851596219275543 0.36910534307468712 0 0.31635129918207472 0.37351135016497272 0 0.31904346622585378 0.35390012412095079 0 0.33851596219275543 0.36910534307468712 0 0.31635129918207472 0.37351135016497272 0 0.31904346622585378 0.35390012412095079 0 0.30418727168589821 0.3713529888789604 0 0.30433932890094328 0.35401154302781918 0 0.30418727168589821 0.3713529888789604 0 0.30433932890094328 0.35401154302781918 0 0.29418847400122011 0.3630299620394466 0 0.31904346622585378 0.35390012412095079 0 0.30418727168589821 0.3713529888789604 0 0.30433932890094328 0.35401154302781918 0 0.29078286181638008 0.35311745511245168 0 0.29598963701797609 0.33441071112155069 0 0.29078286181638008 0.35311745511245168 0 0.27525079292245608 0.34458686255512949 0 0.29598963701797609 0.33441071112155069 0 0.29078286181638008 0.35311745511245168 0 0.28190645917051899 0.36393191255703972 0 0.27525079292245608 0.34458686255512949 0 0.30433932890094328 0.35401154302781918 0 0.29078286181638008 0.35311745511245168 0 0.29418847400122011 0.3630299620394466 0 0.30418727168589821 0.3713529888789604 0 0.28972644843236017 0.37273591062096179 0 0.29418847400122011 0.3630299620394466 0 0.28972644843236017 0.37273591062096179 0 0.29418847400122011 0.3630299620394466 0 0.28190645917051899 0.36393191255703972 0 0.29078286181638008 0.35311745511245168 0 0.29418847400122011 0.3630299620394466 0 0.28190645917051899 0.36393191255703972 0 0.28972644843236017 0.37273591062096179 0 0.28190645917051899 0.36393191255703972 0 0.28253103231276527 0.37343292465635641 0 0.28542891485545763 0.37864331188842132 0 0.28972644843236017 0.37273591062096179 0 0.28253103231276527 0.37343292465635641 0 0.27347973713902157 0.37651771951711072 0 0.28190645917051899 0.36393191255703972 0 0.28253103231276527 0.37343292465635641 0 0.27347973713902157 0.37651771951711072 0 0.26712820712238289 0.36102344927610491 0 0.25811486834001779 0.37126792942840298 0 0.27347973713902157 0.37651771951711072 0 0.28190645917051899 0.36393191255703972 0 0.26712820712238289 0.36102344927610491 0 0.28190645917051899 0.36393191255703972 0 0.26712820712238289 0.36102344927610491 0 0.27525079292245608 0.34458686255512949 0 0.26712820712238289 0.36102344927610491 0 0.27525079292245608 0.34458686255512949 0 0.26238680820536719 0.34931008550864939 0 0.2498024738269416 0.35536015624222739 0 0.26238680820536719 0.34931008550864939 0 0.25710497453668713 0.33647232278684081 0 0.2498024738269416 0.35536015624222739 0 0.26712820712238289 0.36102344927610491 0 0.26238680820536719 0.34931008550864939 0 0.2498024738269416 0.35536015624222739 0 0.26712820712238289 0.36102344927610491 0 0.25811486834001779 0.37126792942840298 0 0.24245383387187089 0.37214504599554488 0 0.2498024738269416 0.35536015624222739 0 0.25811486834001779 0.37126792942840298 0 0.2476904742205393 0.3234252158892445 0 0.26830165722032301 0.3221725647529341 0 0.25412084660844331 0.30948377448199033 0 0.2476904742205393 0.3234252158892445 0 0.25710497453668713 0.33647232278684081 0 0.26830165722032301 0.3221725647529341 0 0.27525079292245608 0.34458686255512949 0 0.26238680820536719 0.34931008550864939 0 0.25710497453668713 0.33647232278684081 0 0.27525079292245608 0.34458686255512949 0 0.25710497453668713 0.33647232278684081 0 0.26830165722032301 0.3221725647529341 0 0.27525079292245608 0.34458686255512949 0 0.26830165722032301 0.3221725647529341 0 0.29598963701797609 0.33441071112155069 0 0.29598963701797609 0.33441071112155069 0 0.30194463319978121 0.30821692332993211 0 0.28295535367451807 0.30897304157115663 0 0.26830165722032301 0.3221725647529341 0 0.29598963701797609 0.33441071112155069 0 0.28295535367451807 0.30897304157115663 0 0.29598963701797609 0.33441071112155069 0 0.28295535367451807 0.30897304157115663 0 0.31756706946460389 0.33759402516903669 0 0.30433932890094328 0.35401154302781918 0 0.29598963701797609 0.33441071112155069 0 0.31508693715755898 0.32133988756889359 0 0.31756706946460389 0.33759402516903669 0 0.29598963701797609 0.33441071112155069 0 0.31508693715755898 0.32133988756889359 0 0.29598963701797609 0.33441071112155069 0 0.30194463319978121 0.30821692332993211 0 0.31508693715755898 0.32133988756889359 0 0.30194463319978121 0.30821692332993211 0 0.31768562474088902 0.30933849063193469 0 0.30194463319978121 0.30821692332993211 0 0.30845580664875288 0.29036281814370779 0 0.31768562474088902 0.30933849063193469 0 0.30845580664875288 0.29036281814370779 0 0.28918843848990589 0.28694909508223693 0 0.30194463319978121 0.30821692332993211 0 0.30845580664875288 0.29036281814370779 0 0.28918843848990589 0.28694909508223693 0 0.30845580664875288 0.29036281814370779 0 0.28873885369968211 0.27824305992798137 0 0.28918843848990589 0.28694909508223693 0 0.26992107033105939 0.28353537202076279 0 0.28873885369968211 0.27824305992798137 0 0.30845580664875288 0.29036281814370779 0 0.28918843848990589 0.28694909508223693 0 0.28873885369968211 0.27824305992798137 0 0.30194463319978121 0.30821692332993211 0 0.28918843848990589 0.28694909508223693 0 0.28295535367451807 0.30897304157115663 0 0.26830165722032301 0.3221725647529341 0 0.28295535367451807 0.30897304157115663 0 0.26499952156164092 0.29785602486462692 0 0.28295535367451807 0.30897304157115663 0 0.26992107033105939 0.28353537202076279 0 0.28295535367451807 0.30897304157115663 0 0.26992107033105939 0.28353537202076279 0 0.26499952156164092 0.29785602486462692 0 0.28918843848990589 0.28694909508223693 0 0.26992107033105939 0.28353537202076279 0 0.28918843848990589 0.28694909508223693 0 0.28295535367451807 0.30897304157115663 0 0.26992107033105939 0.28353537202076279 0 0.26992107033105939 0.28353537202076279 0 0.26529767174433172 0.28271621487134069 0 0.26499952156164092 0.29785602486462692 0 0.26992107033105939 0.28353537202076279 0 0.26529767174433172 0.28271621487134069 0 0.2486573374751776 0.29929677771612212 0 0.25301159348787822 0.28878875444533147 0 0.26499952156164092 0.29785602486462692 0 0.26529767174433172 0.28271621487134069 0 0.25301159348787822 0.28878875444533147 0 0.26499952156164092 0.29785602486462692 0 0.26529767174433172 0.28271621487134069 0 0.25301159348787822 0.28878875444533147 0 0.25062153209682803 0.27383868758805202 0 0.2486573374751776 0.29929677771612212 0 0.25412084660844331 0.30948377448199033 0 0.26499952156164092 0.29785602486462692 0 0.26830165722032301 0.3221725647529341 0 0.25412084660844331 0.30948377448199033 0 0.26499952156164092 0.29785602486462692 0 0.26529767174433172 0.28271621487134069 0 0.25674229319332992 0.25781570880075683 0 0.25062153209682803 0.27383868758805202 0 0.26992107033105939 0.28353537202076279 0 0.26529767174433172 0.28271621487134069 0 0.25674229319332992 0.25781570880075683 0 0.26992107033105939 0.28353537202076279 0 0.25674229319332992 0.25781570880075683 0 0.26992107033105939 0.28353537202076279 0 0.25674229319332992 0.25781570880075683 0 0.27640496938221992 0.26483977935501068 0 0.26992107033105939 0.28353537202076279 0 0.27640496938221992 0.26483977935501068 0 0.28873885369968211 0.27824305992798137 0 0.25674229319332992 0.25781570880075683 0 0.27640496938221992 0.26483977935501068 0 0.27503382485623667 0.24990743960488171 0 0.27640496938221992 0.26483977935501068 0 0.28969520554158162 0.25361530847655173 0 0.27503382485623667 0.24990743960488171 0 0.27640496938221992 0.26483977935501068 0 0.28969520554158162 0.25361530847655173 0 0.29379562728223652 0.26594080286950877 0 0.28969520554158162 0.25361530847655173 0 0.29379562728223652 0.26594080286950877 0 0.30246165055933338 0.25689856379792242 0 0.27640496938221992 0.26483977935501068 0 0.28873885369968211 0.27824305992798137 0 0.29379562728223652 0.26594080286950877 0 0.28873885369968211 0.27824305992798137 0 0.29379562728223652 0.26594080286950877 0 0.30582684850133268 0.27229698494536869 0 0.30845580664875288 0.29036281814370779 0 0.28873885369968211 0.27824305992798137 0 0.30582684850133268 0.27229698494536869 0 0.30582684850133268 0.27229698494536869 0 0.30246165055933338 0.25689856379792242 0 0.31709834950094701 0.25617832786861672 0 0.28969520554158162 0.25361530847655173 0 0.30246165055933338 0.25689856379792242 0 0.30394283732888921 0.24305680199495941 0 0.29379562728223652 0.26594080286950877 0 0.30582684850133268 0.27229698494536869 0 0.30246165055933338 0.25689856379792242 0 0.30246165055933338 0.25689856379792242 0 0.31709834950094701 0.25617832786861672 0 0.30394283732888921 0.24305680199495941 0 0.31709834950094701 0.25617832786861672 0 0.32720433369626978 0.27496803002129611 0 0.33629414603184549 0.24948389160898929 0 0.32720433369626978 0.27496803002129611 0 0.352015654756409 0.26903340414610472 0 0.33629414603184549 0.24948389160898929 0 0.32720433369626978 0.27496803002129611 0 0.33781567536078638 0.29556469419018272 0 0.352015654756409 0.26903340414610472 0 0.30845580664875288 0.29036281814370779 0 0.30582684850133268 0.27229698494536869 0 0.32720433369626978 0.27496803002129611 0 0.30582684850133268 0.27229698494536869 0 0.31709834950094701 0.25617832786861672 0 0.32720433369626978 0.27496803002129611 0 0.30845580664875288 0.29036281814370779 0 0.32720433369626978 0.27496803002129611 0 0.33781567536078638 0.29556469419018272 0 0.30845580664875288 0.29036281814370779 0 0.33781567536078638 0.29556469419018272 0 0.30845580664875288 0.29036281814370779 0 0.33353276198415782 0.3057773011135978 0 0.32940798471419402 0.3209955230035404 0 0.31768562474088902 0.30933849063193469 0 0.33353276198415782 0.3057773011135978 0 0.30845580664875288 0.29036281814370779 0 0.31768562474088902 0.30933849063193469 0 0.33353276198415782 0.3057773011135978 0 0.30845580664875288 0.29036281814370779 0 0.33353276198415782 0.3057773011135978 0 0.33781567536078638 0.29556469419018272 0 0.33353276198415782 0.3057773011135978 0 0.33781567536078638 0.29556469419018272 0 0.35020241689794651 0.30676376270050232 0 0.33781567536078638 0.29556469419018272 0 0.35788682141891842 0.28855045109599159 0 0.352015654756409 0.26903340414610472 0 0.33781567536078638 0.29556469419018272 0 0.35788682141891842 0.28855045109599159 0 0.36717554407281999 0.30076657023665648 0 0.35860971731956148 0.32119178408348958 0 0.35020241689794651 0.30676376270050232 0 0.36717554407281999 0.30076657023665648 0 0.33781567536078638 0.29556469419018272 0 0.35020241689794651 0.30676376270050232 0 0.36717554407281999 0.30076657023665648 0 0.33781567536078638 0.29556469419018272 0 0.36717554407281999 0.30076657023665648 0 0.35860971731956148 0.32119178408348958 0 0.33353276198415782 0.3057773011135978 0 0.35020241689794651 0.30676376270050232 0 0.35860971731956148 0.32119178408348958 0 0.36717554407281999 0.30076657023665648 0 0.37303941882830072 0.31523448777240992 0 0.36717554407281999 0.30076657023665648 0 0.38351705662252522 0.30366190071409099 0 0.37303941882830072 0.31523448777240992 0 0.35860971731956148 0.32119178408348958 0 0.36717554407281999 0.30076657023665648 0 0.35788682141891842 0.28855045109599159 0 0.36497977407997001 0.28317044707562522 0 0.37311065849541969 0.28661428992807458 0 0.35788682141891842 0.28855045109599159 0 0.36497977407997001 0.28317044707562522 0 0.36385536763364518 0.27441219124965038 0 0.35788682141891842 0.28855045109599159 0 0.36717554407281999 0.30076657023665648 0 0.37311065849541969 0.28661428992807458 0 0.36717554407281999 0.30076657023665648 0 0.37311065849541969 0.28661428992807458 0 0.36717554407281999 0.30076657023665648 0 0.37311065849541969 0.28661428992807458 0 0.37872118271653848 0.29353963983186471 0 0.36497977407997001 0.28317044707562522 0 0.37311065849541969 0.28661428992807458 0 0.37077332902918531 0.27678794784728611 0 0.37311065849541969 0.28661428992807458 0 0.37077332902918531 0.27678794784728611 0 0.37904577291801611 0.27246200961949152 0 0.36385536763364518 0.27441219124965038 0 0.37039157618443708 0.26518835621852438 0 0.352015654756409 0.26903340414610472 0 0.36497977407997001 0.28317044707562522 0 0.37077332902918531 0.27678794784728611 0 0.36385536763364518 0.27441219124965038 0 0.37077332902918531 0.27678794784728611 0 0.36385536763364518 0.27441219124965038 0 0.37039157618443708 0.26518835621852438 0 0.37077332902918531 0.27678794784728611 0 0.37039157618443708 0.26518835621852438 0 0.37904577291801611 0.27246200961949152 0 0.37039157618443708 0.26518835621852438 0 0.3667343882300374 0.25345367499627008 0 0.352015654756409 0.26903340414610472 0 0.37039157618443708 0.26518835621852438 0 0.3667343882300374 0.25345367499627008 0 0.37982453712078251 0.25945495570527649 0 0.3667343882300374 0.25345367499627008 0 0.352015654756409 0.26903340414610472 0 0.35334076569371908 0.247514274483976 0 0.352015654756409 0.26903340414610472 0 0.33629414603184549 0.24948389160898929 0 0.35334076569371908 0.247514274483976 0 0.35788682141891842 0.28855045109599159 0 0.36385536763364518 0.27441219124965038 0 0.352015654756409 0.26903340414610472 0 0.3984053627520735 0.2761391217061181 0 0.40529807640253412 0.26112098510350612 0 0.41251929924330127 0.27821538901699011 0 0.3984053627520735 0.2761391217061181 0 0.40529807640253412 0.26112098510350612 0 0.39031199818487933 0.26773730246597832 0 0.3984053627520735 0.2761391217061181 0 0.38729170002700292 0.27655047616353801 0 0.39129288243360932 0.28371523807187321 0 0.3984053627520735 0.2761391217061181 0 0.39031199818487933 0.26773730246597832 0 0.38729170002700292 0.27655047616353801 0 0.3984053627520735 0.2761391217061181 0 0.40171573549839262 0.28910545112966479 0 0.41251929924330127 0.27821538901699011 0 0.40529807640253412 0.26112098510350612 0 0.3915052518867283 0.25530621538822312 0 0.39547701868722551 0.24088884175490591 0 0.40529807640253412 0.26112098510350612 0 0.3915052518867283 0.25530621538822312 0 0.39031199818487933 0.26773730246597832 0 0.3915052518867283 0.25530621538822312 0 0.37982453712078251 0.25945495570527649 0 0.39031199818487933 0.26773730246597832 0 0.3667343882300374 0.25345367499627008 0 0.37982453712078251 0.25945495570527649 0 0.38095823532059681 0.24258217554317121 0 0.3915052518867283 0.25530621538822312 0 0.37982453712078251 0.25945495570527649 0 0.38095823532059681 0.24258217554317121 0 0.37039157618443708 0.26518835621852438 0 0.37982453712078251 0.25945495570527649 0 0.37904577291801611 0.27246200961949152 0 0.37904577291801611 0.27246200961949152 0 0.39031199818487933 0.26773730246597832 0 0.38729170002700292 0.27655047616353801 0 0.37982453712078251 0.25945495570527649 0 0.37904577291801611 0.27246200961949152 0 0.39031199818487933 0.26773730246597832 0 0.38729170002700292 0.27655047616353801 0 0.37991557987054042 0.28225121512316032 0 0.39129288243360932 0.28371523807187321 0 0.37311065849541969 0.28661428992807458 0 0.37904577291801611 0.27246200961949152 0 0.37991557987054042 0.28225121512316032 0 0.37904577291801611 0.27246200961949152 0 0.38729170002700292 0.27655047616353801 0 0.37991557987054042 0.28225121512316032 0 0.37311065849541969 0.28661428992807458 0 0.37904577291801611 0.27246200961949152 0 0.37311065849541969 0.28661428992807458 0 0.37991557987054042 0.28225121512316032 0 0.37872118271653848 0.29353963983186471 0 0.37991557987054042 0.28225121512316032 0 0.37872118271653848 0.29353963983186471 0 0.3898870745213866 0.29440422315734149 0 0.37991557987054042 0.28225121512316032 0 0.3898870745213866 0.29440422315734149 0 0.37991557987054042 0.28225121512316032 0 0.3898870745213866 0.29440422315734149 0 0.39129288243360932 0.28371523807187321 0 0.36717554407281999 0.30076657023665648 0 0.37872118271653848 0.29353963983186471 0 0.38351705662252522 0.30366190071409099 0 0.38351705662252522 0.30366190071409099 0 0.39985856917223073 0.30655723119152428 0 0.38651333666677318 0.31686202462533641 0 0.36717554407281999 0.30076657023665648 0 0.38351705662252522 0.30366190071409099 0 0.37303941882830072 0.31523448777240992 0 0.38351705662252522 0.30366190071409099 0 0.38651333666677318 0.31686202462533641 0 0.37872118271653848 0.29353963983186471 0 0.3898870745213866 0.29440422315734149 0 0.38351705662252522 0.30366190071409099 0 0.38351705662252522 0.30366190071409099 0 0.39985856917223073 0.30655723119152428 0 0.3898870745213866 0.29440422315734149 0 0.38351705662252522 0.30366190071409099 0 0.39985856917223073 0.30655723119152428 0 0.3898870745213866 0.29440422315734149 0 0.39985856917223073 0.30655723119152428 0 0.39985856917223073 0.30655723119152428 0 0.40716557617501309 0.31546282838833511 0 0.39985856917223073 0.30655723119152428 0 0.40171573549839262 0.28910545112966479 0 0.4168390695961508 0.29303320600584087 0 0.3898870745213866 0.29440422315734149 0 0.39985856917223073 0.30655723119152428 0 0.40171573549839262 0.28910545112966479 0 0.3984053627520735 0.2761391217061181 0 0.39129288243360932 0.28371523807187321 0 0.40171573549839262 0.28910545112966479 0 0.3898870745213866 0.29440422315734149 0 0.39129288243360932 0.28371523807187321 0 0.40171573549839262 0.28910545112966479 0 0.4168390695961508 0.29303320600584087 0 0.43452022443526978 0.2810034883544148 0 0.41251929924330127 0.27821538901699011 0 0.40171573549839262 0.28910545112966479 0 0.4168390695961508 0.29303320600584087 0 0.41251929924330127 0.27821538901699011 0 0.39985856917223073 0.30655723119152428 0 0.42476245274484942 0.31096961180164301 0 0.40716557617501309 0.31546282838833511 0 0.39985856917223073 0.30655723119152428 0 0.4168390695961508 0.29303320600584087 0 0.42476245274484942 0.31096961180164301 0 0.39985856917223073 0.30655723119152428 0 0.42476245274484942 0.31096961180164301 0 0.42476245274484942 0.31096961180164301 0 0.4301844128894759 0.2970056434202003 0 0.44401290337450511 0.30605416878383063 0 0.42476245274484942 0.31096961180164301 0 0.44041121953226692 0.31374220407399589 0 0.42476245274484942 0.31096961180164301 0 0.44401290337450511 0.30605416878383063 0 0.44041121953226692 0.31374220407399589 0 0.42476245274484942 0.31096961180164301 0 0.44401290337450511 0.30605416878383063 0 0.4168390695961508 0.29303320600584087 0 0.42476245274484942 0.31096961180164301 0 0.4301844128894759 0.2970056434202003 0 0.4168390695961508 0.29303320600584087 0 0.4301844128894759 0.2970056434202003 0 0.43452022443526978 0.2810034883544148 0 0.4301844128894759 0.2970056434202003 0 0.43452022443526978 0.2810034883544148 0 0.44401290337450511 0.30605416878383063 0 0.42234731830589772 0.26760926798509849 0 0.43452022443526978 0.2810034883544148 0 0.41251929924330127 0.27821538901699011 0 0.42234731830589772 0.26760926798509849 0 0.43452022443526978 0.2810034883544148 0 0.4414163743974816 0.26372246769229007 0 0.40529807640253412 0.26112098510350612 0 0.42234731830589772 0.26760926798509849 0 0.41251929924330127 0.27821538901699011 0 0.40529807640253412 0.26112098510350612 0 0.42234731830589772 0.26760926798509849 0 0.42493863084263162 0.25206398068088692 0 0.42493863084263162 0.25206398068088692 0 0.4414163743974816 0.26372246769229007 0 0.44263850808419281 0.2464533929682087 0 0.42234731830589772 0.26760926798509849 0 0.42493863084263162 0.25206398068088692 0 0.4414163743974816 0.26372246769229007 0 0.4414163743974816 0.26372246769229007 0 0.46803140868643112 0.25478506118214472 0 0.44263850808419281 0.2464533929682087 0 0.43452022443526978 0.2810034883544148 0 0.4414163743974816 0.26372246769229007 0 0.45602215603046709 0.28041961498298712 0 0.45602215603046709 0.28041961498298712 0 0.46803140868643112 0.25478506118214472 0 0.45602215603046709 0.28041961498298712 0 0.46803140868643112 0.25478506118214472 0 0.47830921911271029 0.27730296597030413 0 0.4414163743974816 0.26372246769229007 0 0.45602215603046709 0.28041961498298712 0 0.46803140868643112 0.25478506118214472 0 0.46803140868643112 0.25478506118214472 0 0.48581798150208888 0.26109046748610681 0 0.48508737362871951 0.24612109100136781 0 0.46803140868643112 0.25478506118214472 0 0.47830921911271029 0.27730296597030413 0 0.48581798150208888 0.26109046748610681 0 0.47830921911271029 0.27730296597030413 0 0.5 0.27130824275736531 0 0.50000000000000089 0.29175832768952931 0 0.47830921911271029 0.27730296597030413 0 0.5 0.27130824275736531 0 0.48581798150208888 0.26109046748610681 0 0.5 0.27130824275736531 0 0.49708634542855618 0.25156806938198978 0 0.5 0.27130824275736531 0 0.5 0.25212007683424881 0 0.49708634542855618 0.25156806938198978 0 0.5 0.27130824275736531 0 0.49708634542855618 0.25156806938198978 0 0.48581798150208888 0.26109046748610681 0 0.49708634542855618 0.25156806938198978 0 0.48581798150208888 0.26109046748610681 0 0.48508737362871951 0.24612109100136781 0 0.48887206291021362 0.30991237839049429 0 0.49999999999999539 0.29946804251043208 0 0.47200645168725308 0.29890624823668083 0 0.48887206291021362 0.30991237839049429 0 0.49999999999999539 0.29946804251043208 0 0.50000000000000011 0.32429993009089181 0 0.48887206291021362 0.30991237839049429 0 0.49999999999999539 0.29946804251043208 0 0.50000000000000089 0.29175832768952931 0 0.47200645168725308 0.29890624823668083 0 0.49999999999999539 0.29946804251043208 0 0.50000000000000089 0.29175832768952931 0 0.47200645168725308 0.29890624823668083 0 0.45602215603046709 0.28041961498298712 0 0.47830921911271029 0.27730296597030413 0 0.47200645168725308 0.29890624823668083 0 0.47830921911271029 0.27730296597030413 0 0.50000000000000089 0.29175832768952931 0 0.47200645168725308 0.29890624823668083 0 0.48887206291021362 0.30991237839049429 0 0.47200645168725308 0.29890624823668083 0 0.47774412582043729 0.3203567142705625 0 0.47200645168725308 0.29890624823668083 0 0.4590776726763518 0.31704945917228128 0 0.47774412582043729 0.3203567142705625 0 0.47200645168725308 0.29890624823668083 0 0.44401290337450511 0.30605416878383063 0 0.47200645168725308 0.29890624823668083 0 0.44401290337450511 0.30605416878383063 0 0.4590776726763518 0.31704945917228128 0 0.45602215603046709 0.28041961498298712 0 0.47200645168725308 0.29890624823668083 0 0.44401290337450511 0.30605416878383063 0 0.43452022443526978 0.2810034883544148 0 0.45602215603046709 0.28041961498298712 0 0.44401290337450511 0.30605416878383063 0 0.45602215603046709 0.28041961498298712 0 0.44401290337450511 0.30605416878383063 0 0.44401290337450511 0.30605416878383063 0 0.44041121953226692 0.31374220407399589 0 0.4590776726763518 0.31704945917228128 0 0.44401290337450511 0.30605416878383063 0 0.44041121953226692 0.31374220407399589 0 0.44041121953226692 0.31374220407399589 0 0.44620958245784331 0.3299946305394183 0 0.4590776726763518 0.31704945917228128 0 0.44041121953226692 0.31374220407399589 0 0.4590776726763518 0.31704945917228128 0 0.50000000000000011 0.32429993009089181 0 0.48347957832028993 0.36403339598681211 0 0.5 0.3886048574377321 0 0.44041121953226692 0.31374220407399589 0 0.44620958245784331 0.3299946305394183 0 0.42781495491116062 0.34062977421425111 0 0.44620958245784331 0.3299946305394183 0 0.44334391884667512 0.34191648088550181 0 0.42781495491116062 0.34062977421425111 0 0.44620958245784331 0.3299946305394183 0 0.44334391884667512 0.34191648088550181 0 0.46040014632276738 0.33663523435106402 0 0.4590776726763518 0.31704945917228128 0 0.47774412582043729 0.3203567142705625 0 0.46040014632276738 0.33663523435106402 0 0.4590776726763518 0.31704945917228128 0 0.47774412582043729 0.3203567142705625 0 0.44620958245784331 0.3299946305394183 0 0.46040014632276738 0.33663523435106402 0 0.4590776726763518 0.31704945917228128 0 0.48887206291021362 0.30991237839049429 0 0.47774412582043729 0.3203567142705625 0 0.46040014632276738 0.33663523435106402 0 0.47774412582043729 0.3203567142705625 0 0.47896621607001327 0.34301734053334232 0 0.46040014632276738 0.33663523435106402 0 0.47896621607001327 0.34301734053334232 0 0.46759957263444651 0.34727993397300599 0 0.46040014632276738 0.33663523435106402 0 0.47774412582043729 0.3203567142705625 0 0.47774412582043729 0.3203567142705625 0 0.47896621607001327 0.34301734053334232 0 0.50000000000000011 0.32429993009089181 0 0.47774412582043729 0.3203567142705625 0 0.50000000000000011 0.32429993009089181 0 0.48887206291021362 0.30991237839049429 0 0.47774412582043729 0.3203567142705625 0 0.50000000000000011 0.32429993009089181 0 0.47896621607001327 0.34301734053334232 0 0.50000000000000011 0.32429993009089181 0 0.48347957832028993 0.36403339598681211 0 0.47896621607001327 0.34301734053334232 0 0.46973575813609059 0.35821758595139208 0 0.48347957832028993 0.36403339598681211 0 0.47896621607001327 0.34301734053334232 0 0.46973575813609059 0.35821758595139208 0 0.46759957263444651 0.34727993397300599 0 0.46973575813609059 0.35821758595139208 0 0.48347957832028993 0.36403339598681211 0 0.46943351952803469 0.37734625771157848 0 0.45340228137715533 0.36247747899092331 0 0.45332265528795329 0.38123105130785062 0 0.46943351952803469 0.37734625771157848 0 0.46973575813609059 0.35821758595139208 0 0.45340228137715533 0.36247747899092331 0 0.46943351952803469 0.37734625771157848 0 0.46040014632276738 0.33663523435106402 0 0.45911182783131238 0.3514764394858837 0 0.44305616682510113 0.35291375443156919 0 0.46973575813609059 0.35821758595139208 0 0.45340228137715533 0.36247747899092331 0 0.45911182783131238 0.3514764394858837 0 0.46040014632276738 0.33663523435106402 0 0.46759957263444651 0.34727993397300599 0 0.45911182783131238 0.3514764394858837 0 0.46973575813609059 0.35821758595139208 0 0.46759957263444651 0.34727993397300599 0 0.45911182783131238 0.3514764394858837 0 0.44334391884667512 0.34191648088550181 0 0.46040014632276738 0.33663523435106402 0 0.44305616682510113 0.35291375443156919 0 0.45340228137715533 0.36247747899092331 0 0.45911182783131238 0.3514764394858837 0 0.44305616682510113 0.35291375443156919 0 0.46040014632276738 0.33663523435106402 0 0.44305616682510113 0.35291375443156919 0 0.44334391884667512 0.34191648088550181 0 0.43770934083748442 0.35268880406547731 0 0.44305616682510113 0.35291375443156919 0 0.45340228137715533 0.36247747899092331 0 0.4421309590443932 0.3723315141425585 0 0.45332265528795329 0.38123105130785062 0 0.45340228137715533 0.36247747899092331 0 0.44107539864352102 0.36422875551928141 0 0.4421309590443932 0.3723315141425585 0 0.45340228137715533 0.36247747899092331 0 0.44305616682510113 0.35291375443156919 0 0.44107539864352102 0.36422875551928141 0 0.44305616682510113 0.35291375443156919 0 0.42571218732743482 0.36919227451207448 0 0.44305616682510113 0.35291375443156919 0 0.44107539864352102 0.36422875551928141 0 0.42571218732743482 0.36919227451207448 0 0.44107539864352102 0.36422875551928141 0 0.4421309590443932 0.3723315141425585 0 0.42571218732743482 0.36919227451207448 0 0.42571218732743482 0.36919227451207448 0 0.40752691986538547 0.36825233568605081 0 0.4183117049923899 0.35324312994831081 0 0.42571218732743482 0.36919227451207448 0 0.40752691986538547 0.36825233568605081 0 0.40836820782976829 0.38547079459257971 0 0.4183117049923899 0.35324312994831081 0 0.41652071867042439 0.34019729129831261 0 0.39782498379807851 0.34307930276140869 0 0.4183117049923899 0.35324312994831081 0 0.42238432357848371 0.34672348405224629 0 0.41652071867042439 0.34019729129831261 0 0.43770934083748442 0.35268880406547731 0 0.44305616682510113 0.35291375443156919 0 0.42571218732743482 0.36919227451207448 0 0.42571218732743482 0.36919227451207448 0 0.4183117049923899 0.35324312994831081 0 0.42733588668186218 0.35187178591534252 0 0.42238432357848371 0.34672348405224629 0 0.42733588668186218 0.35187178591534252 0 0.42781495491116062 0.34062977421425111 0 0.43770934083748442 0.35268880406547731 0 0.42571218732743482 0.36919227451207448 0 0.42733588668186218 0.35187178591534252 0 0.4183117049923899 0.35324312994831081 0 0.42238432357848371 0.34672348405224629 0 0.42733588668186218 0.35187178591534252 0 0.43770934083748442 0.35268880406547731 0 0.42781495491116062 0.34062977421425111 0 0.43770934083748442 0.35268880406547731 0 0.42733588668186218 0.35187178591534252 0 0.42781495491116062 0.34062977421425111 0 0.44334391884667512 0.34191648088550181 0 0.43770934083748442 0.35268880406547731 0 0.42781495491116062 0.34062977421425111 0 0.42781495491116062 0.34062977421425111 0 0.41749026554308699 0.32804630130129298 0 0.42238432357848371 0.34672348405224629 0 0.42781495491116062 0.34062977421425111 0 0.41652071867042439 0.34019729129831261 0 0.42476245274484942 0.31096961180164301 0 0.44041121953226692 0.31374220407399589 0 0.41749026554308699 0.32804630130129298 0 0.44041121953226692 0.31374220407399589 0 0.42781495491116062 0.34062977421425111 0 0.41749026554308699 0.32804630130129298 0 0.44041121953226692 0.31374220407399589 0 0.42781495491116062 0.34062977421425111 0 0.42476245274484942 0.31096961180164301 0 0.41749026554308699 0.32804630130129298 0 0.40716557617501309 0.31546282838833511 0 0.42476245274484942 0.31096961180164301 0 0.40716557617501309 0.31546282838833511 0 0.41749026554308699 0.32804630130129298 0 0.40716557617501309 0.31546282838833511 0 0.41749026554308699 0.32804630130129298 0 0.40716557617501309 0.31546282838833511 0 0.40472413156774423 0.32909916565557018 0 0.41652071867042439 0.34019729129831261 0 0.40472413156774423 0.32909916565557018 0 0.39782498379807851 0.34307930276140869 0 0.42781495491116062 0.34062977421425111 0 0.41749026554308699 0.32804630130129298 0 0.41652071867042439 0.34019729129831261 0 0.41749026554308699 0.32804630130129298 0 0.41652071867042439 0.34019729129831261 0 0.40472413156774423 0.32909916565557018 0 0.39356939965496052 0.32857197029209478 0 0.39782498379807851 0.34307930276140869 0 0.38215669488957349 0.33566580933459039 0 0.40472413156774423 0.32909916565557018 0 0.39356939965496052 0.32857197029209478 0 0.39782498379807851 0.34307930276140869 0 0.39985856917223073 0.30655723119152428 0 0.40716557617501309 0.31546282838833511 0 0.39662785135263301 0.31815354908356808 0 0.40716557617501309 0.31546282838833511 0 0.39662785135263301 0.31815354908356808 0 0.40716557617501309 0.31546282838833511 0 0.40472413156774423 0.32909916565557018 0 0.39662785135263301 0.31815354908356808 0 0.39356939965496052 0.32857197029209478 0 0.39662785135263301 0.31815354908356808 0 0.38651333666677318 0.31686202462533641 0 0.40472413156774423 0.32909916565557018 0 0.39356939965496052 0.32857197029209478 0 0.39662785135263301 0.31815354908356808 0 0.39985856917223073 0.30655723119152428 0 0.39662785135263301 0.31815354908356808 0 0.38651333666677318 0.31686202462533641 0 0.39356939965496052 0.32857197029209478 0 0.38651333666677318 0.31686202462533641 0 0.38215669488957349 0.33566580933459039 0 0.37303941882830072 0.31523448777240992 0 0.38651333666677318 0.31686202462533641 0 0.38215669488957349 0.33566580933459039 0 0.39782498379807851 0.34307930276140869 0 0.38215669488957349 0.33566580933459039 0 0.37643470096558029 0.34987718482028618 0 0.36511454312596692 0.36381793869922868 0 0.37643470096558029 0.34987718482028618 0 0.39171312405917841 0.35853053432376969 0 0.39782498379807851 0.34307930276140869 0 0.37643470096558029 0.34987718482028618 0 0.39171312405917841 0.35853053432376969 0 0.36511454312596692 0.36381793869922868 0 0.39171312405917841 0.35853053432376969 0 0.38662507417448921 0.38248291475953039 0 0.36511454312596692 0.36381793869922868 0 0.39171312405917841 0.35853053432376969 0 0.40752691986538547 0.36825233568605081 0 0.4183117049923899 0.35324312994831081 0 0.39171312405917841 0.35853053432376969 0 0.40752691986538547 0.36825233568605081 0 0.39171312405917841 0.35853053432376969 0 0.38662507417448921 0.38248291475953039 0 0.4183117049923899 0.35324312994831081 0 0.39171312405917841 0.35853053432376969 0 0.4183117049923899 0.35324312994831081 0 0.39782498379807851 0.34307930276140869 0 0.39171312405917841 0.35853053432376969 0 0.39625774794723129 0.40034452232138351 0 0.40993781004458762 0.41225155769007782 0 0.40836820782976829 0.38547079459257971 0 0.39625774794723129 0.40034452232138351 0 0.38662507417448921 0.38248291475953039 0 0.40836820782976829 0.38547079459257971 0 0.40752691986538547 0.36825233568605081 0 0.38662507417448921 0.38248291475953039 0 0.40836820782976829 0.38547079459257971 0 0.36820531177321197 0.38922423401188322 0 0.38662507417448921 0.38248291475953039 0 0.38160672786599331 0.40961081696155438 0 0.39625774794723129 0.40034452232138351 0 0.38662507417448921 0.38248291475953039 0 0.38160672786599331 0.40961081696155438 0 0.38160672786599331 0.40961081696155438 0 0.37821791307384228 0.42215441111559598 0 0.39083426396499538 0.41497834176839299 0 0.39625774794723129 0.40034452232138351 0 0.38160672786599331 0.40961081696155438 0 0.39083426396499538 0.41497834176839299 0 0.3881511208933226 0.43053040075335303 0 0.39934136499244027 0.43065828053516608 0 0.38298488644449358 0.43994609448713201 0 0.36581725510251878 0.4260337798625804 0 0.37821791307384228 0.42215441111559598 0 0.3881511208933226 0.43053040075335303 0 0.37821791307384228 0.42215441111559598 0 0.3881511208933226 0.43053040075335303 0 0.39083426396499538 0.41497834176839299 0 0.39934136499244027 0.43065828053516608 0 0.40623967586166859 0.439585796779837 0 0.38298488644449358 0.43994609448713201 0 0.3881511208933226 0.43053040075335303 0 0.39934136499244027 0.43065828053516608 0 0.40993781004458762 0.41225155769007782 0 0.39934136499244027 0.43065828053516608 0 0.40623967586166859 0.439585796779837 0 0.39625774794723129 0.40034452232138351 0 0.39083426396499538 0.41497834176839299 0 0.40993781004458762 0.41225155769007782 0 0.3881511208933226 0.43053040075335303 0 0.40993781004458762 0.41225155769007782 0 0.3881511208933226 0.43053040075335303 0 0.39083426396499538 0.41497834176839299 0 0.40993781004458762 0.41225155769007782 0 0.40993781004458762 0.41225155769007782 0 0.43018761239688053 0.42260455291456539 0 0.42439349850594271 0.40279155500913127 0 0.40993781004458762 0.41225155769007782 0 0.41401432603718558 0.42747918004254271 0 0.43018761239688053 0.42260455291456539 0 0.39934136499244027 0.43065828053516608 0 0.40993781004458762 0.41225155769007782 0 0.41401432603718558 0.42747918004254271 0 0.41401432603718558 0.42747918004254271 0 0.42696761746794942 0.43926464874861848 0 0.40623967586166859 0.439585796779837 0 0.39934136499244027 0.43065828053516608 0 0.41401432603718558 0.42747918004254271 0 0.40623967586166859 0.439585796779837 0 0.43018761239688053 0.42260455291456539 0 0.44769555907423009 0.43894350071740101 0 0.42696761746794942 0.43926464874861848 0 0.41401432603718558 0.42747918004254271 0 0.43018761239688053 0.42260455291456539 0 0.42696761746794942 0.43926464874861848 0 0.43018761239688053 0.42260455291456539 0 0.42439349850594271 0.40279155500913127 0 0.44123116958132019 0.40793798471580223 0 0.42439349850594271 0.40279155500913127 0 0.40836820782976829 0.38547079459257971 0 0.43423996151588451 0.38803097935026432 0 0.42439349850594271 0.40279155500913127 0 0.43423996151588451 0.38803097935026432 0 0.44123116958132019 0.40793798471580223 0 0.40993781004458762 0.41225155769007782 0 0.42439349850594271 0.40279155500913127 0 0.40836820782976829 0.38547079459257971 0 0.42571218732743482 0.36919227451207448 0 0.40836820782976829 0.38547079459257971 0 0.42571218732743482 0.36919227451207448 0 0.40836820782976829 0.38547079459257971 0 0.43423996151588451 0.38803097935026432 0 0.4421309590443932 0.3723315141425585 0 0.42571218732743482 0.36919227451207448 0 0.43423996151588451 0.38803097935026432 0 0.4421309590443932 0.3723315141425585 0 0.43423996151588451 0.38803097935026432 0 0.45332265528795329 0.38123105130785062 0 0.43423996151588451 0.38803097935026432 0 0.44747314056325238 0.39436088964867022 0 0.45332265528795329 0.38123105130785062 0 0.44747314056325238 0.39436088964867022 0 0.46109877586785158 0.4002435432207635 0 0.44123116958132019 0.40793798471580223 0 0.43423996151588451 0.38803097935026432 0 0.44747314056325238 0.39436088964867022 0 0.44123116958132019 0.40793798471580223 0 0.44747314056325238 0.39436088964867022 0 0.46109877586785158 0.4002435432207635 0 0.45332265528795329 0.38123105130785062 0 0.46109877586785158 0.4002435432207635 0 0.45332265528795329 0.38123105130785062 0 0.46943351952803469 0.37734625771157848 0 0.46109877586785158 0.4002435432207635 0 0.46943351952803469 0.37734625771157848 0 0.48138735953594552 0.39216917103704008 0 0.48347957832028993 0.36403339598681211 0 0.46943351952803469 0.37734625771157848 0 0.48138735953594552 0.39216917103704008 0 0.46109877586785158 0.4002435432207635 0 0.48138735953594552 0.39216917103704008 0 0.47411707661013541 0.41912687827778072 0 0.48138735953594552 0.39216917103704008 0 0.47411707661013541 0.41912687827778072 0 0.48138735953594552 0.39216917103704008 0 0.5 0.3886048574377321 0 0.47411707661013541 0.41912687827778072 0 0.48347957832028993 0.36403339598681211 0 0.48138735953594552 0.39216917103704008 0 0.5 0.3886048574377321 0 0.5 0.3886048574377321 0 0.5 0.43669924714742192 0 0.47411707661013541 0.41912687827778072 0 0.47411707661013541 0.41912687827778072 0 0.46882975136412969 0.43873191532006522 0 0.5 0.43669924714742192 0 0.47411707661013541 0.41912687827778072 0 0.46882975136412969 0.43873191532006522 0 0.45379228236848801 0.42124646875541599 0 0.44769555907423009 0.43894350071740101 0 0.46882975136412969 0.43873191532006522 0 0.47411707661013541 0.41912687827778072 0 0.45379228236848801 0.42124646875541599 0 0.46882975136412969 0.43873191532006522 0 0.46109877586785158 0.4002435432207635 0 0.47411707661013541 0.41912687827778072 0 0.45379228236848801 0.42124646875541599 0 0.43018761239688053 0.42260455291456539 0 0.45379228236848801 0.42124646875541599 0 0.44123116958132019 0.40793798471580223 0 0.46109877586785158 0.4002435432207635 0 0.45379228236848801 0.42124646875541599 0 0.44123116958132019 0.40793798471580223 0 0.43018761239688053 0.42260455291456539 0 0.45379228236848801 0.42124646875541599 0 0.44769555907423009 0.43894350071740101 0 0.5 0.43669924714742192 0 0.5 0.5 0 0.45957651075851508 0.4730422927592618 0 0.44769555907423009 0.43894350071740101 0 0.45203752004736819 0.45654986303502387 0 0.43627432539750127 0.45258939319141223 0 0.45203752004736819 0.45654986303502387 0 0.43669813827517312 0.47900391277071003 0 0.43627432539750127 0.45258939319141223 0 0.46684679368432519 0.44608458551852131 0 0.45957651075851508 0.4730422927592618 0 0.45203752004736819 0.45654986303502387 0 0.46684679368432519 0.44608458551852131 0 0.45957651075851508 0.4730422927592618 0 0.44769555907423009 0.43894350071740101 0 0.46882975136412969 0.43873191532006522 0 0.44769555907423009 0.43894350071740101 0 0.46684679368432519 0.44608458551852131 0 0.46882975136412969 0.43873191532006522 0 0.44769555907423009 0.43894350071740101 0 0.45203752004736819 0.45654986303502387 0 0.46684679368432519 0.44608458551852131 0 0.46684679368432519 0.44608458551852131 0 0.46882975136412969 0.43873191532006522 0 0.5 0.43669924714742192 0 0.46684679368432519 0.44608458551852131 0 0.46882975136412969 0.43873191532006522 0 0.5 0.43669924714742192 0 0.46684679368432519 0.44608458551852131 0 0.45957651075851508 0.4730422927592618 0 0.5 0.5 0 0.45957651075851508 0.4730422927592618 0 0.45230622783270452 0.50000000000000222 0 0.45957651075851508 0.4730422927592618 0 0.45230622783270452 0.50000000000000222 0 0.45957651075851508 0.4730422927592618 0 0.45230622783270452 0.50000000000000222 0 0.43669813827517312 0.47900391277071003 0 0.45203752004736819 0.45654986303502387 0 0.45957651075851508 0.4730422927592618 0 0.43669813827517312 0.47900391277071003 0 0.45230622783270452 0.50000000000000222 0 0.43669813827517312 0.47900391277071003 0 0.45230622783270452 0.50000000000000222 0 0.42273513538893182 0.5 0 0.43669813827517312 0.47900391277071003 0 0.42273513538893182 0.5 0 0.40903296273239931 0.4770752300692791 0 0.43669813827517312 0.47900391277071003 0 0.42273513538893182 0.5 0 0.40903296273239931 0.4770752300692791 0 0.39316404294515922 0.5 0 0.43669813827517312 0.47900391277071003 0 0.42146890706842027 0.45929485477527388 0 0.40903296273239931 0.4770752300692791 0 0.43669813827517312 0.47900391277071003 0 0.42146890706842027 0.45929485477527388 0 0.43669813827517312 0.47900391277071003 0 0.43627432539750127 0.45258939319141223 0 0.42146890706842027 0.45929485477527388 0 0.44769555907423009 0.43894350071740101 0 0.42696761746794942 0.43926464874861848 0 0.43627432539750127 0.45258939319141223 0 0.42696761746794942 0.43926464874861848 0 0.42146890706842027 0.45929485477527388 0 0.44769555907423009 0.43894350071740101 0 0.43627432539750127 0.45258939319141223 0 0.42696761746794942 0.43926464874861848 0 0.42696761746794942 0.43926464874861848 0 0.42146890706842027 0.45929485477527388 0 0.40623967586166859 0.439585796779837 0 0.42146890706842027 0.45929485477527388 0 0.40464657479524579 0.45851650472658501 0 0.40623967586166859 0.439585796779837 0 0.42146890706842027 0.45929485477527388 0 0.40623967586166859 0.439585796779837 0 0.42696761746794942 0.43926464874861848 0 0.40623967586166859 0.439585796779837 0 0.40903296273239931 0.4770752300692791 0 0.42146890706842027 0.45929485477527388 0 0.40464657479524579 0.45851650472658501 0 0.40903296273239931 0.4770752300692791 0 0.40464657479524579 0.45851650472658501 0 0.39240826278525881 0.46576133887266791 0 0.40464657479524579 0.45851650472658501 0 0.39240826278525881 0.46576133887266791 0 0.39408306552848171 0.45086530313586742 0 0.40623967586166859 0.439585796779837 0 0.38298488644449358 0.43994609448713201 0 0.40623967586166859 0.439585796779837 0 0.39408306552848171 0.45086530313586742 0 0.38298488644449358 0.43994609448713201 0 0.40464657479524579 0.45851650472658501 0 0.40623967586166859 0.439585796779837 0 0.39408306552848171 0.45086530313586742 0 0.39408306552848171 0.45086530313586742 0 0.38298488644449358 0.43994609448713201 0 0.3811742015566395 0.45562926842028312 0 0.36636443174205752 0.44880924381662812 0 0.3881511208933226 0.43053040075335303 0 0.36636443174205752 0.44880924381662812 0 0.38298488644449358 0.43994609448713201 0 0.3811742015566395 0.45562926842028312 0 0.36636443174205752 0.44880924381662812 0 0.3881511208933226 0.43053040075335303 0 0.38298488644449358 0.43994609448713201 0 0.37138926614346762 0.47343953077055462 0 0.39240826278525881 0.46576133887266791 0 0.3811742015566395 0.45562926842028312 0 0.39240826278525881 0.46576133887266791 0 0.39408306552848171 0.45086530313586742 0 0.3811742015566395 0.45562926842028312 0 0.37138926614346762 0.47343953077055462 0 0.39240826278525881 0.46576133887266791 0 0.38591749702153427 0.48325521994250031 0 0.3635929505013864 0.5 0 0.38591749702153427 0.48325521994250031 0 0.39316404294515922 0.5 0 0.40903296273239931 0.4770752300692791 0 0.38591749702153427 0.48325521994250031 0 0.39316404294515922 0.5 0 0.40903296273239931 0.4770752300692791 0 0.39240826278525881 0.46576133887266791 0 0.38591749702153427 0.48325521994250031 0 0.32622638635267559 0.074159271201844262 0 0.32069132252882648 0.092173584049835069 0 0.33808902562343279 0.099417362480411886 0 0.32622638635267559 0.074159271201844262 0 0.33808902562343279 0.099417362480411886 0 0.32622638635267559 0.074159271201844262 0 0.33808902562343279 0.099417362480411886 0 0.34757157905244301 0.087870326036721014 0 0.32622638635267559 0.074159271201844262 0 0.35011016524974742 0.070980856061443151 0 0.33549874801376922 0.057091403392637852 0 0.32622638635267559 0.074159271201844262 0 0.34757157905244301 0.087870326036721014 0 0.35011016524974742 0.070980856061443151 0 0.32622638635267559 0.074159271201844262 0 0.30462101888311049 0.080940967852755841 0 0.31096180380816141 0.064821990067938262 0 0.32622638635267559 0.074159271201844262 0 0.31436374708191839 0.048901179923276632 0 0.31096180380816141 0.064821990067938262 0 0.32622638635267559 0.074159271201844262 0 0.32069132252882648 0.092173584049835069 0 0.30462101888311049 0.080940967852755841 0 0.32069132252882648 0.092173584049835069 0 0.3133145302797099 0.10951530642775301 0 0.3287091370470786 0.1151082291622111 0 0.32069132252882648 0.092173584049835069 0 0.3133145302797099 0.10951530642775301 0 0.30462101888311049 0.080940967852755841 0 0.3133145302797099 0.10951530642775301 0 0.3287091370470786 0.1151082291622111 0 0.320074687745316 0.13173498492475491 0 0.3133145302797099 0.10951530642775301 0 0.320074687745316 0.13173498492475491 0 0.31547985983484739 0.12809546292699131 0 0.3133145302797099 0.10951530642775301 0 0.320074687745316 0.13173498492475491 0 0.3133145302797099 0.10951530642775301 0 0.3287091370470786 0.1151082291622111 0 0.3287091370470786 0.1151082291622111 0 0.33808902562343279 0.099417362480411886 0 0.34995166489419333 0.124675453758978 0 0.3287091370470786 0.1151082291622111 0 0.34995166489419333 0.124675453758978 0 0.33521036296599521 0.12903974231308141 0 0.32069132252882648 0.092173584049835069 0 0.3287091370470786 0.1151082291622111 0 0.33808902562343279 0.099417362480411886 0 0.33808902562343279 0.099417362480411886 0 0.34958750304622682 0.1028349195924442 0 0.34757157905244301 0.087870326036721014 0 0.34958750304622682 0.1028349195924442 0 0.34995166489419333 0.124675453758978 0 0.36126799824001232 0.097927777570670213 0 0.33808902562343279 0.099417362480411886 0 0.34958750304622682 0.1028349195924442 0 0.34995166489419333 0.124675453758978 0 0.34958750304622682 0.1028349195924442 0 0.36126799824001232 0.097927777570670213 0 0.34757157905244301 0.087870326036721014 0 0.33808902562343279 0.099417362480411886 0 0.34995166489419333 0.124675453758978 0 0.34995166489419333 0.124675453758978 0 0.36126799824001232 0.097927777570670213 0 0.34995166489419333 0.124675453758978 0 0.36126799824001232 0.097927777570670213 0 0.35986929120433447 0.12772614233421331 0 0.37090762131216942 0.1009397134064559 0 0.35986929120433447 0.12772614233421331 0 0.3758013789533543 0.1138604956643943 0 0.35986929120433447 0.12772614233421331 0 0.37335062942813679 0.12672392842364019 0 0.3758013789533543 0.1138604956643943 0 0.37090762131216942 0.1009397134064559 0 0.35986929120433447 0.12772614233421331 0 0.36126799824001232 0.097927777570670213 0 0.37090762131216942 0.1009397134064559 0 0.35986929120433447 0.12772614233421331 0 0.36126799824001232 0.097927777570670213 0 0.37258433158582632 0.071180101382360347 0 0.36126799824001232 0.097927777570670213 0 0.35976564987161808 0.081524488448149218 0 0.37258433158582632 0.071180101382360347 0 0.36126799824001232 0.097927777570670213 0 0.37090762131216942 0.1009397134064559 0 0.37258433158582632 0.071180101382360347 0 0.36126799824001232 0.097927777570670213 0 0.35976564987161808 0.081524488448149218 0 0.34757157905244301 0.087870326036721014 0 0.35976564987161808 0.081524488448149218 0 0.34757157905244301 0.087870326036721014 0 0.35011016524974742 0.070980856061443151 0 0.35976564987161808 0.081524488448149218 0 0.35011016524974742 0.070980856061443151 0 0.36106016914387412 0.072067692211055592 0 0.35011016524974742 0.070980856061443151 0 0.36178052986830489 0.06458532295226968 0 0.35371201126997681 0.055438901234466827 0 0.35011016524974742 0.070980856061443151 0 0.36178052986830489 0.06458532295226968 0 0.36106016914387412 0.072067692211055592 0 0.36178052986830489 0.06458532295226968 0 0.36106016914387412 0.072067692211055592 0 0.37258433158582632 0.071180101382360347 0 0.35976564987161808 0.081524488448149218 0 0.36106016914387412 0.072067692211055592 0 0.37258433158582632 0.071180101382360347 0 0.36178052986830489 0.06458532295226968 0 0.37258433158582632 0.071180101382360347 0 0.37143674944992022 0.057980209652502328 0 0.37143674944992022 0.057980209652502328 0 0.36748147141390969 0.051722989081328899 0 0.38390066493164021 0.044432425194050447 0 0.36178052986830489 0.06458532295226968 0 0.36748147141390969 0.051722989081328899 0 0.35371201126997681 0.055438901234466827 0 0.36178052986830489 0.06458532295226968 0 0.37143674944992022 0.057980209652502328 0 0.36748147141390969 0.051722989081328899 0 0.36748147141390969 0.051722989081328899 0 0.35989945868798973 0.042612133932212373 0 0.35371201126997681 0.055438901234466827 0 0.36748147141390969 0.051722989081328899 0 0.37173802307509402 0.041063158052647507 0 0.38390066493164021 0.044432425194050447 0 0.37173802307509402 0.041063158052647507 0 0.36768038635939482 0.030547237249543231 0 0.37730275797050988 0.0362208683635038 0 0.37173802307509402 0.041063158052647507 0 0.35989945868798973 0.042612133932212373 0 0.36768038635939482 0.030547237249543231 0 0.36748147141390969 0.051722989081328899 0 0.37173802307509402 0.041063158052647507 0 0.35989945868798973 0.042612133932212373 0 0.35989945868798973 0.042612133932212373 0 0.34957766718139061 0.03167731536296485 0 0.34750169438614048 0.045640701986909012 0 0.35989945868798973 0.042612133932212373 0 0.34957766718139061 0.03167731536296485 0 0.36768038635939482 0.030547237249543231 0 0.34957766718139061 0.03167731536296485 0 0.34750169438614048 0.045640701986909012 0 0.33601333964024072 0.042268189483438939 0 0.34750169438614048 0.045640701986909012 0 0.35371201126997681 0.055438901234466827 0 0.33549874801376922 0.057091403392637852 0 0.35011016524974742 0.070980856061443151 0 0.35371201126997681 0.055438901234466827 0 0.33549874801376922 0.057091403392637852 0 0.35989945868798973 0.042612133932212373 0 0.34750169438614048 0.045640701986909012 0 0.35371201126997681 0.055438901234466827 0 0.3597563791897308 0.0018133103492004501 0 0.37153690395508099 0.01629170074198116 0 0.37935437576721898 0.0017834357210366871 0 0.3597563791897308 0.0018133103492004501 0 0.37153690395508099 0.01629170074198116 0 0.35493776309049069 0.016925007675361141 0 0.37153690395508099 0.01629170074198116 0 0.36768038635939482 0.030547237249543231 0 0.35493776309049069 0.016925007675361141 0 0.37153690395508099 0.01629170074198116 0 0.36768038635939482 0.030547237249543231 0 0.38289048529716813 0.028237361467120119 0 0.34957766718139061 0.03167731536296485 0 0.36768038635939482 0.030547237249543231 0 0.35493776309049069 0.016925007675361141 0 0.34957766718139061 0.03167731536296485 0 0.35493776309049069 0.016925007675361141 0 0.34074657384679408 0.01753251188229232 0 0.3597563791897308 0.0018133103492004501 0 0.35493776309049069 0.016925007675361141 0 0.34641115475807138 0.0057691814534639096 0 0.35493776309049069 0.016925007675361141 0 0.34641115475807138 0.0057691814534639096 0 0.34074657384679408 0.01753251188229232 0 0.34641115475807138 0.0057691814534639096 0 0.34074657384679408 0.01753251188229232 0 0.32637205515816831 0.0054060553350579969 0 0.34074657384679408 0.01753251188229232 0 0.31988804534445858 0.021248136720623811 0 0.32637205515816831 0.0054060553350579969 0 0.34957766718139061 0.03167731536296485 0 0.33312484153798461 0.028030346751406351 0 0.34074657384679408 0.01753251188229232 0 0.33312484153798461 0.028030346751406351 0 0.34074657384679408 0.01753251188229232 0 0.31988804534445858 0.021248136720623811 0 0.31988804534445858 0.021248136720623811 0 0.32637205515816831 0.0054060553350579969 0 0.30250110781116307 0.023643088644708161 0 0.32637205515816831 0.0054060553350579969 0 0.30250110781116307 0.023643088644708161 0 0.32637205515816831 0.0054060553350579969 0 0.30312307274936412 0.01406956014008471 0 0.31466635431493811 -0.0083120406826240611 0 0.33549874801376922 0.057091403392637852 0 0.33601333964024072 0.042268189483438939 0 0.31436374708191839 0.048901179923276632 0 0.34750169438614048 0.045640701986909012 0 0.33549874801376922 0.057091403392637852 0 0.33601333964024072 0.042268189483438939 0 0.34957766718139061 0.03167731536296485 0 0.33312484153798461 0.028030346751406351 0 0.33601333964024072 0.042268189483438939 0 0.33312484153798461 0.028030346751406351 0 0.31988804534445858 0.021248136720623811 0 0.31436374708191839 0.048901179923276632 0 0.33312484153798461 0.028030346751406351 0 0.33601333964024072 0.042268189483438939 0 0.31436374708191839 0.048901179923276632 0 0.32622638635267559 0.074159271201844262 0 0.33549874801376922 0.057091403392637852 0 0.31436374708191839 0.048901179923276632 0 0.32622638635267559 0.074159271201844262 0 0.31436374708191839 0.048901179923276632 0 0.31436374708191839 0.048901179923276632 0 0.29592750748650981 0.052366629277759091 0 0.31096180380816141 0.064821990067938262 0 0.29592750748650981 0.052366629277759091 0 0.30250110781116307 0.023643088644708161 0 0.31436374708191839 0.048901179923276632 0 0.29592750748650981 0.052366629277759091 0 0.30250110781116307 0.023643088644708161 0 0.29592750748650981 0.052366629277759091 0 0.30250110781116307 0.023643088644708161 0 0.29716810982064529 0.027717416344383201 0 0.31436374708191839 0.048901179923276632 0 0.30250110781116307 0.023643088644708161 0 0.31988804534445858 0.021248136720623811 0 0.31436374708191839 0.048901179923276632 0 0.30250110781116307 0.023643088644708161 0 0.29126880612318751 0.037054138846395468 0 0.29592750748650981 0.052366629277759091 0 0.29716810982064529 0.027717416344383201 0 0.29126880612318751 0.037054138846395468 0 0.28193701501155372 0.055147817185180512 0 0.29126880612318751 0.037054138846395468 0 0.29592750748650981 0.052366629277759091 0 0.29126880612318751 0.037054138846395468 0 0.28193701501155372 0.055147817185180512 0 0.27711234018345099 0.04303597350140493 0 0.29126880612318751 0.037054138846395468 0 0.28193701501155372 0.055147817185180512 0 0.29592750748650981 0.052366629277759091 0 0.28193701501155372 0.055147817185180512 0 0.29592750748650981 0.052366629277759091 0 0.29145729095330031 0.076158532398486259 0 0.30312307274936412 0.01406956014008471 0 0.31466635431493811 -0.0083120406826240611 0 0.32637205515816831 0.0054060553350579969 0 0.30312307274936412 0.01406956014008471 0 0.30250110781116307 0.023643088644708161 0 0.30312307274936412 0.01406956014008471 0 0.3072150660094447 -0.007709319359657428 0 0.30312307274936412 0.01406956014008471 0 0.30044425181046858 0.019263603150228431 0 0.28829131966070071 -0.0066125836354222764 0 0.30312307274936412 0.01406956014008471 0 0.30166057766244497 0.021853420533405849 0 0.30250110781116307 0.023643088644708161 0 0.30044425181046858 0.019263603150228431 0 0.30166057766244497 0.021853420533405849 0 0.29716810982064529 0.027717416344383201 0 0.30044425181046858 0.019263603150228431 0 0.30166057766244497 0.021853420533405849 0 0.30166057766244497 0.021853420533405849 0 0.30250110781116307 0.023643088644708161 0 0.30312307274936412 0.01406956014008471 0 0.30044425181046858 0.019263603150228431 0 0.30166057766244497 0.021853420533405849 0 0.30312307274936412 0.01406956014008471 0 0.30044425181046858 0.019263603150228431 0 0.30312307274936412 0.01406956014008471 0 0.30166057766244497 0.021853420533405849 0 0.30166057766244497 0.021853420533405849 0 0.30250110781116307 0.023643088644708161 0 0.29716810982064529 0.027717416344383201 0 0.30250110781116307 0.023643088644708161 0 0.29716810982064529 0.027717416344383201 0 0.29126880612318751 0.037054138846395468 0 0.28307447064341351 0.01012052068978851 0 0.27162785083080898 0.03050284778708192 0 0.29126880612318751 0.037054138846395468 0 0.30044425181046858 0.019263603150228431 0 0.29716810982064529 0.027717416344383201 0 0.29126880612318751 0.037054138846395468 0 0.30044425181046858 0.019263603150228431 0 0.29126880612318751 0.037054138846395468 0 0.28307447064341351 0.01012052068978851 0 0.29126880612318751 0.037054138846395468 0 0.30044425181046858 0.019263603150228431 0 0.28307447064341351 0.01012052068978851 0 0.30044425181046858 0.019263603150228431 0 0.28829131966070071 -0.0066125836354222764 0 0.30044425181046858 0.019263603150228431 0 0.28307447064341351 0.01012052068978851 0 0.28829131966070071 -0.0066125836354222764 0 0.28307447064341351 0.01012052068978851 0 0.26551010073206821 -0.002818362008196715 0 0.28829131966070071 -0.0066125836354222764 0 0.28307447064341351 0.01012052068978851 0 0.2649708735952962 0.0140434302992923 0 0.26551010073206821 -0.002818362008196715 0 0.28307447064341351 0.01012052068978851 0 0.27162785083080898 0.03050284778708192 0 0.2649708735952962 0.0140434302992923 0 0.24683678386874991 0.011759387503803471 0 0.25222260686987391 0.030896380053868761 0 0.2649708735952962 0.0140434302992923 0 0.27162785083080898 0.03050284778708192 0 0.25222260686987391 0.030896380053868761 0 0.2649708735952962 0.0140434302992923 0 0.24683678386874991 0.011759387503803471 0 0.2649708735952962 0.0140434302992923 0 0.26551010073206821 -0.002818362008196715 0 0.28193701501155372 0.055147817185180512 0 0.27711234018345099 0.04303597350140493 0 0.26361568876825309 0.049439090186961403 0 0.28193701501155372 0.055147817185180512 0 0.26361568876825309 0.049439090186961403 0 0.27260522389991892 0.073241495523965139 0 0.27162785083080898 0.03050284778708192 0 0.27711234018345099 0.04303597350140493 0 0.26361568876825309 0.049439090186961403 0 0.29126880612318751 0.037054138846395468 0 0.27162785083080898 0.03050284778708192 0 0.27711234018345099 0.04303597350140493 0 0.2398240155596181 0.047967347758872132 0 0.25222260686987391 0.030896380053868761 0 0.26361568876825309 0.049439090186961403 0 0.27162785083080898 0.03050284778708192 0 0.25222260686987391 0.030896380053868761 0 0.26361568876825309 0.049439090186961403 0 0.2398240155596181 0.047967347758872132 0 0.26361568876825309 0.049439090186961403 0 0.25335968314542351 0.066303674114439173 0 0.26361568876825309 0.049439090186961403 0 0.25335968314542351 0.066303674114439173 0 0.27260522389991892 0.073241495523965139 0 0.25335968314542351 0.066303674114439173 0 0.26327343278828402 0.091335173862749586 0 0.27260522389991892 0.073241495523965139 0 0.243114688678367 0.084011420815061466 0 0.26327343278828402 0.091335173862749586 0 0.243114688678367 0.084011420815061466 0 0.25335968314542351 0.066303674114439173 0 0.26327343278828402 0.091335173862749586 0 0.26327343278828402 0.091335173862749586 0 0.27858075551539863 0.085171409326103648 0 0.28698707442009308 0.099950435519213898 0 0.27858075551539863 0.085171409326103648 0 0.27260522389991892 0.073241495523965139 0 0.29145729095330031 0.076158532398486259 0 0.26327343278828402 0.091335173862749586 0 0.27858075551539863 0.085171409326103648 0 0.27260522389991892 0.073241495523965139 0 0.26327343278828402 0.091335173862749586 0 0.27260522389991892 0.073241495523965139 0 0.28193701501155372 0.055147817185180512 0 0.27260522389991892 0.073241495523965139 0 0.29592750748650981 0.052366629277759091 0 0.29145729095330031 0.076158532398486259 0 0.28193701501155372 0.055147817185180512 0 0.27260522389991892 0.073241495523965139 0 0.29145729095330031 0.076158532398486259 0 0.29145729095330031 0.076158532398486259 0 0.30462101888311049 0.080940967852755841 0 0.28698707442009308 0.099950435519213898 0 0.27858075551539863 0.085171409326103648 0 0.29145729095330031 0.076158532398486259 0 0.28698707442009308 0.099950435519213898 0 0.29145729095330031 0.076158532398486259 0 0.28698707442009308 0.099950435519213898 0 0.29592750748650981 0.052366629277759091 0 0.30462101888311049 0.080940967852755841 0 0.29592750748650981 0.052366629277759091 0 0.29145729095330031 0.076158532398486259 0 0.30462101888311049 0.080940967852755841 0 0.29592750748650981 0.052366629277759091 0 0.30462101888311049 0.080940967852755841 0 0.31096180380816141 0.064821990067938262 0 0.3133145302797099 0.10951530642775301 0 0.30510507902871242 0.1205036357610791 0 0.31547985983484739 0.12809546292699131 0 0.3133145302797099 0.10951530642775301 0 0.30510507902871242 0.1205036357610791 0 0.29475264719526789 0.1150798989181334 0 0.30510507902871242 0.1205036357610791 0 0.29475264719526789 0.1150798989181334 0 0.29613337453139471 0.12585652229469629 0 0.3133145302797099 0.10951530642775301 0 0.28698707442009308 0.099950435519213898 0 0.29475264719526789 0.1150798989181334 0 0.3133145302797099 0.10951530642775301 0 0.28698707442009308 0.099950435519213898 0 0.3133145302797099 0.10951530642775301 0 0.30462101888311049 0.080940967852755841 0 0.28698707442009308 0.099950435519213898 0 0.3133145302797099 0.10951530642775301 0 0.30462101888311049 0.080940967852755841 0 0.28698707442009308 0.099950435519213898 0 0.28139520888276343 0.12971210861488261 0 0.28698707442009308 0.099950435519213898 0 0.29475264719526789 0.1150798989181334 0 0.28139520888276343 0.12971210861488261 0 0.29475264719526789 0.1150798989181334 0 0.29613337453139471 0.12585652229469629 0 0.28139520888276343 0.12971210861488261 0 0.28698707442009308 0.099950435519213898 0 0.26819511903530791 0.11825843462965489 0 0.28139520888276343 0.12971210861488261 0 0.26327343278828402 0.091335173862749586 0 0.28698707442009308 0.099950435519213898 0 0.28698707442009308 0.099950435519213898 0 0.26819511903530791 0.11825843462965489 0 0.26853342961138832 0.1039015105794584 0 0.26327343278828402 0.091335173862749586 0 0.28698707442009308 0.099950435519213898 0 0.26853342961138832 0.1039015105794584 0 0.24334447048378879 0.099290364181984087 0 0.26327343278828402 0.091335173862749586 0 0.25567809220186771 0.1060619983062154 0 0.26327343278828402 0.091335173862749586 0 0.25567809220186771 0.1060619983062154 0 0.26327343278828402 0.091335173862749586 0 0.26853342961138832 0.1039015105794584 0 0.25567809220186771 0.1060619983062154 0 0.24808275161545071 0.1207888227496809 0 0.26819511903530791 0.11825843462965489 0 0.26704066594490089 0.13569679056715189 0 0.24808275161545071 0.1207888227496809 0 0.26819511903530791 0.11825843462965489 0 0.25567809220186771 0.1060619983062154 0 0.26819511903530791 0.11825843462965489 0 0.26853342961138832 0.1039015105794584 0 0.25567809220186771 0.1060619983062154 0 0.24808275161545071 0.1207888227496809 0 0.25567809220186771 0.1060619983062154 0 0.24808275161545071 0.1207888227496809 0 0.26704066594490089 0.13569679056715189 0 0.25240810899499322 0.14204669382305679 0 0.24808275161545071 0.1207888227496809 0 0.26704066594490089 0.13569679056715189 0 0.26704066594490089 0.13569679056715189 0 0.28139520888276343 0.12971210861488261 0 0.28599858027435221 0.15060475838462159 0 0.26819511903530791 0.11825843462965489 0 0.26704066594490089 0.13569679056715189 0 0.28139520888276343 0.12971210861488261 0 0.26704066594490089 0.13569679056715189 0 0.28599858027435221 0.15060475838462159 0 0.26704066594490089 0.13569679056715189 0 0.26579471994747678 0.15181871719932771 0 0.28599858027435221 0.15060475838462159 0 0.2451536813182742 0.15765208325205629 0 0.26579471994747678 0.15181871719932771 0 0.25240810899499322 0.14204669382305679 0 0.26704066594490089 0.13569679056715189 0 0.26579471994747678 0.15181871719932771 0 0.25240810899499322 0.14204669382305679 0 0.2451536813182742 0.15765208325205629 0 0.26579471994747678 0.15181871719932771 0 0.25371488617394888 0.17028876903168511 0 0.26579471994747678 0.15181871719932771 0 0.25371488617394888 0.17028876903168511 0 0.26794283981505068 0.16784539747929481 0 0.24526457073502539 0.18633975808042899 0 0.25371488617394888 0.17028876903168511 0 0.26722351437062442 0.18768815274823661 0 0.25371488617394888 0.17028876903168511 0 0.26794283981505068 0.16784539747929481 0 0.26722351437062442 0.18768815274823661 0 0.28443996667087279 0.17458490631660609 0 0.26722351437062442 0.18768815274823661 0 0.28637822904211507 0.19306963110735739 0 0.26794283981505068 0.16784539747929481 0 0.28443996667087279 0.17458490631660609 0 0.26722351437062442 0.18768815274823661 0 0.26794283981505068 0.16784539747929481 0 0.28443996667087279 0.17458490631660609 0 0.28599858027435221 0.15060475838462159 0 0.26579471994747678 0.15181871719932771 0 0.26794283981505068 0.16784539747929481 0 0.28599858027435221 0.15060475838462159 0 0.28443996667087279 0.17458490631660609 0 0.29939753486472648 0.16531337436109969 0 0.28599858027435221 0.15060475838462159 0 0.28443996667087279 0.17458490631660609 0 0.2978414408592554 0.1821235274104511 0 0.29939753486472648 0.16531337436109969 0 0.28443996667087279 0.17458490631660609 0 0.2978414408592554 0.1821235274104511 0 0.28637822904211507 0.19306963110735739 0 0.2978414408592554 0.1821235274104511 0 0.31086644384944218 0.1787505566058484 0 0.29939753486472648 0.16531337436109969 0 0.2978414408592554 0.1821235274104511 0 0.31086644384944218 0.1787505566058484 0 0.31504563113159101 0.19533197701899399 0 0.29939753486472648 0.16531337436109969 0 0.31232062436916391 0.15369469378707151 0 0.31676755766795611 0.1679937809026418 0 0.31086644384944218 0.1787505566058484 0 0.29939753486472648 0.16531337436109969 0 0.31676755766795611 0.1679937809026418 0 0.29939753486472648 0.16531337436109969 0 0.31232062436916391 0.15369469378707151 0 0.30005304850764652 0.14994190982593339 0 0.31232062436916391 0.15369469378707151 0 0.30005304850764652 0.14994190982593339 0 0.30726623557960481 0.1416812795847846 0 0.30005304850764652 0.14994190982593339 0 0.30726623557960481 0.1416812795847846 0 0.29528226745038522 0.13841544301208961 0 0.31232062436916391 0.15369469378707151 0 0.30726623557960481 0.1416812795847846 0 0.31626773491610222 0.1426911503583487 0 0.30726623557960481 0.1416812795847846 0 0.31304799307130771 0.1355517643556359 0 0.31626773491610222 0.1426911503583487 0 0.30726623557960481 0.1416812795847846 0 0.30567353018436028 0.1308168028155148 0 0.31304799307130771 0.1355517643556359 0 0.30510507902871242 0.1205036357610791 0 0.30567353018436028 0.1308168028155148 0 0.31547985983484739 0.12809546292699131 0 0.30567353018436028 0.1308168028155148 0 0.31547985983484739 0.12809546292699131 0 0.31304799307130771 0.1355517643556359 0 0.30510507902871242 0.1205036357610791 0 0.30567353018436028 0.1308168028155148 0 0.29613337453139471 0.12585652229469629 0 0.30567353018436028 0.1308168028155148 0 0.29528226745038522 0.13841544301208961 0 0.29613337453139471 0.12585652229469629 0 0.30726623557960481 0.1416812795847846 0 0.30567353018436028 0.1308168028155148 0 0.29528226745038522 0.13841544301208961 0 0.29528226745038522 0.13841544301208961 0 0.28139520888276343 0.12971210861488261 0 0.28599858027435221 0.15060475838462159 0 0.29528226745038522 0.13841544301208961 0 0.29613337453139471 0.12585652229469629 0 0.28139520888276343 0.12971210861488261 0 0.29939753486472648 0.16531337436109969 0 0.30005304850764652 0.14994190982593339 0 0.28599858027435221 0.15060475838462159 0 0.30005304850764652 0.14994190982593339 0 0.29528226745038522 0.13841544301208961 0 0.28599858027435221 0.15060475838462159 0 0.25674229319332992 0.25781570880075683 0 0.27503382485623667 0.24990743960488171 0 0.26600627655941211 0.23379240370828039 0 0.27503382485623667 0.24990743960488171 0 0.26600627655941211 0.23379240370828039 0 0.28500278547763119 0.23665916780289881 0 0.2435635160555997 0.23209604558075109 0 0.25674229319332992 0.25781570880075683 0 0.26600627655941211 0.23379240370828039 0 0.2435635160555997 0.23209604558075109 0 0.25674229319332992 0.25781570880075683 0 0.2435635160555997 0.23209604558075109 0 0.26600627655941211 0.23379240370828039 0 0.25472824108373948 0.2097414374489398 0 0.26600627655941211 0.23379240370828039 0 0.27893149601001521 0.21399962302733089 0 0.28500278547763119 0.23665916780289881 0 0.26600627655941211 0.23379240370828039 0 0.27893149601001521 0.21399962302733089 0 0.25472824108373948 0.2097414374489398 0 0.27893149601001521 0.21399962302733089 0 0.25472824108373948 0.2097414374489398 0 0.26722351437062442 0.18768815274823661 0 0.24526457073502539 0.18633975808042899 0 0.25472824108373948 0.2097414374489398 0 0.26722351437062442 0.18768815274823661 0 0.27893149601001521 0.21399962302733089 0 0.26722351437062442 0.18768815274823661 0 0.28637822904211507 0.19306963110735739 0 0.2978414408592554 0.1821235274104511 0 0.28637822904211507 0.19306963110735739 0 0.29973940570158197 0.205222753217011 0 0.2978414408592554 0.1821235274104511 0 0.29973940570158197 0.205222753217011 0 0.31504563113159101 0.19533197701899399 0 0.29973940570158197 0.205222753217011 0 0.31290875880029928 0.2256205742329499 0 0.32239446169774377 0.21211348967940929 0 0.29973940570158197 0.205222753217011 0 0.32239446169774377 0.21211348967940929 0 0.31504563113159101 0.19533197701899399 0 0.27893149601001521 0.21399962302733089 0 0.29973940570158197 0.205222753217011 0 0.29640707256965282 0.22558343000538911 0 0.27893149601001521 0.21399962302733089 0 0.28637822904211507 0.19306963110735739 0 0.29973940570158197 0.205222753217011 0 0.27893149601001521 0.21399962302733089 0 0.29640707256965282 0.22558343000538911 0 0.28500278547763119 0.23665916780289881 0 0.29640707256965282 0.22558343000538911 0 0.30394283732888921 0.24305680199495941 0 0.31290875880029928 0.2256205742329499 0 0.29973940570158197 0.205222753217011 0 0.29640707256965282 0.22558343000538911 0 0.31290875880029928 0.2256205742329499 0 0.29640707256965282 0.22558343000538911 0 0.30394283732888921 0.24305680199495941 0 0.28500278547763119 0.23665916780289881 0 0.28969520554158162 0.25361530847655173 0 0.27503382485623667 0.24990743960488171 0 0.28500278547763119 0.23665916780289881 0 0.28969520554158162 0.25361530847655173 0 0.30394283732888921 0.24305680199495941 0 0.28500278547763119 0.23665916780289881 0 0.33629414603184549 0.24948389160898929 0 0.33129195690231278 0.22835455328725579 0 0.34909567940226011 0.22995570899655171 0 0.33629414603184549 0.24948389160898929 0 0.32130779791332592 0.24062773906726029 0 0.33129195690231278 0.22835455328725579 0 0.30394283732888921 0.24305680199495941 0 0.32130779791332592 0.24062773906726029 0 0.31290875880029928 0.2256205742329499 0 0.31709834950094701 0.25617832786861672 0 0.30394283732888921 0.24305680199495941 0 0.32130779791332592 0.24062773906726029 0 0.31709834950094701 0.25617832786861672 0 0.33629414603184549 0.24948389160898929 0 0.32130779791332592 0.24062773906726029 0 0.31290875880029928 0.2256205742329499 0 0.33129195690231278 0.22835455328725579 0 0.32239446169774377 0.21211348967940929 0 0.32130779791332592 0.24062773906726029 0 0.31290875880029928 0.2256205742329499 0 0.33129195690231278 0.22835455328725579 0 0.33129195690231278 0.22835455328725579 0 0.34006524791650727 0.21529068858697911 0 0.34909567940226011 0.22995570899655171 0 0.33328050838927009 0.20328492595581771 0 0.34006524791650727 0.21529068858697911 0 0.34903494543350089 0.20002692325504251 0 0.33129195690231278 0.22835455328725579 0 0.34006524791650727 0.21529068858697911 0 0.32239446169774377 0.21211348967940929 0 0.33328050838927009 0.20328492595581771 0 0.34006524791650727 0.21529068858697911 0 0.32239446169774377 0.21211348967940929 0 0.33328050838927009 0.20328492595581771 0 0.32239446169774377 0.21211348967940929 0 0.31504563113159101 0.19533197701899399 0 0.33328050838927009 0.20328492595581771 0 0.31504563113159101 0.19533197701899399 0 0.32528005472368221 0.18299012333605541 0 0.33328050838927009 0.20328492595581771 0 0.33937263332435591 0.1898905966969078 0 0.32528005472368221 0.18299012333605541 0 0.33328050838927009 0.20328492595581771 0 0.33937263332435591 0.1898905966969078 0 0.34903494543350089 0.20002692325504251 0 0.33937263332435591 0.1898905966969078 0 0.34903494543350089 0.20002692325504251 0 0.34881266970217722 0.18466241505196851 0 0.34903494543350089 0.20002692325504251 0 0.3603948063245111 0.19815815947839921 0 0.36016479522088002 0.2079936282661943 0 0.34903494543350089 0.20002692325504251 0 0.3603948063245111 0.19815815947839921 0 0.36159909009626162 0.1863812991959794 0 0.34903494543350089 0.20002692325504251 0 0.34881266970217722 0.18466241505196851 0 0.36159909009626162 0.1863812991959794 0 0.37446602789923339 0.19763778043006411 0 0.3603948063245111 0.19815815947839921 0 0.36159909009626162 0.1863812991959794 0 0.37446602789923339 0.19763778043006411 0 0.36159909009626162 0.1863812991959794 0 0.37672406052392782 0.18806868598641299 0 0.37446602789923339 0.19763778043006411 0 0.36758723645368879 0.2029460661551406 0 0.3603948063245111 0.19815815947839921 0 0.36758723645368879 0.2029460661551406 0 0.3603948063245111 0.19815815947839921 0 0.36016479522088002 0.2079936282661943 0 0.36758723645368879 0.2029460661551406 0 0.36016479522088002 0.2079936282661943 0 0.37112162558992529 0.2119735159506482 0 0.37446602789923339 0.19763778043006411 0 0.36758723645368879 0.2029460661551406 0 0.37112162558992529 0.2119735159506482 0 0.36016479522088002 0.2079936282661943 0 0.37112162558992529 0.2119735159506482 0 0.36174044772896519 0.2208806399942583 0 0.36016479522088002 0.2079936282661943 0 0.35187533926266468 0.2142717139127778 0 0.36174044772896519 0.2208806399942583 0 0.34903494543350089 0.20002692325504251 0 0.36016479522088002 0.2079936282661943 0 0.35187533926266468 0.2142717139127778 0 0.34006524791650727 0.21529068858697911 0 0.34903494543350089 0.20002692325504251 0 0.35187533926266468 0.2142717139127778 0 0.35187533926266468 0.2142717139127778 0 0.34909567940226011 0.22995570899655171 0 0.36174044772896519 0.2208806399942583 0 0.34006524791650727 0.21529068858697911 0 0.35187533926266468 0.2142717139127778 0 0.34909567940226011 0.22995570899655171 0 0.34909567940226011 0.22995570899655171 0 0.36174044772896519 0.2208806399942583 0 0.3641636952073839 0.23646907163545799 0 0.37112162558992529 0.2119735159506482 0 0.36174044772896519 0.2208806399942583 0 0.37576975201945312 0.22484982145902371 0 0.36174044772896519 0.2208806399942583 0 0.3641636952073839 0.23646907163545799 0 0.37576975201945312 0.22484982145902371 0 0.3641636952073839 0.23646907163545799 0 0.38095823532059681 0.24258217554317121 0 0.37576975201945312 0.22484982145902371 0 0.3667343882300374 0.25345367499627008 0 0.3641636952073839 0.23646907163545799 0 0.35334076569371908 0.247514274483976 0 0.3667343882300374 0.25345367499627008 0 0.3641636952073839 0.23646907163545799 0 0.38095823532059681 0.24258217554317121 0 0.34909567940226011 0.22995570899655171 0 0.3641636952073839 0.23646907163545799 0 0.35334076569371908 0.247514274483976 0 0.33629414603184549 0.24948389160898929 0 0.34909567940226011 0.22995570899655171 0 0.35334076569371908 0.247514274483976 0 0.34021545166880252 0.14768830347761819 0 0.32065429850058152 0.1336400832454567 0 0.32402903235446939 0.14190870508797329 0 0.34021545166880252 0.14768830347761819 0 0.32439995354353429 0.14906739481153461 0 0.33274775319624228 0.1653392134068368 0 0.34021545166880252 0.14768830347761819 0 0.32402903235446939 0.14190870508797329 0 0.32439995354353429 0.14906739481153461 0 0.34021545166880252 0.14768830347761819 0 0.33274775319624228 0.1653392134068368 0 0.34883096109650008 0.15451257126197079 0 0.34021545166880252 0.14768830347761819 0 0.33521036296599521 0.12903974231308141 0 0.320074687745316 0.13173498492475491 0 0.34995166489419333 0.124675453758978 0 0.34021545166880252 0.14768830347761819 0 0.33521036296599521 0.12903974231308141 0 0.34021545166880252 0.14768830347761819 0 0.320074687745316 0.13173498492475491 0 0.3287091370470786 0.1151082291622111 0 0.33521036296599521 0.12903974231308141 0 0.320074687745316 0.13173498492475491 0 0.34021545166880252 0.14768830347761819 0 0.32065429850058152 0.1336400832454567 0 0.320074687745316 0.13173498492475491 0 0.32065429850058152 0.1336400832454567 0 0.31860772314332653 0.13645659354690839 0 0.32402903235446939 0.14190870508797329 0 0.32065429850058152 0.1336400832454567 0 0.320074687745316 0.13173498492475491 0 0.320074687745316 0.13173498492475491 0 0.31547985983484739 0.12809546292699131 0 0.320074687745316 0.13173498492475491 0 0.31547985983484739 0.12809546292699131 0 0.31304799307130771 0.1355517643556359 0 0.31860772314332653 0.13645659354690839 0 0.31626773491610222 0.1426911503583487 0 0.32402903235446939 0.14190870508797329 0 0.320074687745316 0.13173498492475491 0 0.31860772314332653 0.13645659354690839 0 0.31304799307130771 0.1355517643556359 0 0.32065429850058152 0.1336400832454567 0 0.320074687745316 0.13173498492475491 0 0.31860772314332653 0.13645659354690839 0 0.31860772314332653 0.13645659354690839 0 0.31304799307130771 0.1355517643556359 0 0.31626773491610222 0.1426911503583487 0 0.31626773491610222 0.1426911503583487 0 0.32402903235446939 0.14190870508797329 0 0.32439995354353429 0.14906739481153461 0 0.31232062436916391 0.15369469378707151 0 0.32439995354353429 0.14906739481153461 0 0.32155897219422408 0.1590237707270212 0 0.31232062436916391 0.15369469378707151 0 0.31626773491610222 0.1426911503583487 0 0.32439995354353429 0.14906739481153461 0 0.32439995354353429 0.14906739481153461 0 0.32155897219422408 0.1590237707270212 0 0.33274775319624228 0.1653392134068368 0 0.31232062436916391 0.15369469378707151 0 0.31676755766795611 0.1679937809026418 0 0.32155897219422408 0.1590237707270212 0 0.31676755766795611 0.1679937809026418 0 0.32155897219422408 0.1590237707270212 0 0.33274775319624228 0.1653392134068368 0 0.31676755766795611 0.1679937809026418 0 0.32528005472368221 0.18299012333605541 0 0.33274775319624228 0.1653392134068368 0 0.31086644384944218 0.1787505566058484 0 0.31504563113159101 0.19533197701899399 0 0.32528005472368221 0.18299012333605541 0 0.31086644384944218 0.1787505566058484 0 0.31676755766795611 0.1679937809026418 0 0.32528005472368221 0.18299012333605541 0 0.32528005472368221 0.18299012333605541 0 0.34047822460742538 0.1747819399192885 0 0.33274775319624228 0.1653392134068368 0 0.32528005472368221 0.18299012333605541 0 0.33274775319624228 0.1653392134068368 0 0.33937263332435591 0.1898905966969078 0 0.32528005472368221 0.18299012333605541 0 0.34047822460742538 0.1747819399192885 0 0.33937263332435591 0.1898905966969078 0 0.34047822460742538 0.1747819399192885 0 0.34881266970217722 0.18466241505196851 0 0.34047822460742538 0.1747819399192885 0 0.33274775319624228 0.1653392134068368 0 0.34883096109650008 0.15451257126197079 0 0.34021545166880252 0.14768830347761819 0 0.33274775319624228 0.1653392134068368 0 0.34047822460742538 0.1747819399192885 0 0.35357845504934238 0.17223131619262461 0 0.34883096109650008 0.15451257126197079 0 0.34047822460742538 0.1747819399192885 0 0.34883096109650008 0.15451257126197079 0 0.36815465231886019 0.16981869385287929 0 0.34883096109650008 0.15451257126197079 0 0.35357845504934238 0.17223131619262461 0 0.36815465231886019 0.16981869385287929 0 0.34883096109650008 0.15451257126197079 0 0.34047822460742538 0.1747819399192885 0 0.34881266970217722 0.18466241505196851 0 0.35357845504934238 0.17223131619262461 0 0.34881266970217722 0.18466241505196851 0 0.35357845504934238 0.17223131619262461 0 0.36159909009626162 0.1863812991959794 0 0.35357845504934238 0.17223131619262461 0 0.36159909009626162 0.1863812991959794 0 0.36815465231886019 0.16981869385287929 0 0.36159909009626162 0.1863812991959794 0 0.36815465231886019 0.16981869385287929 0 0.37672406052392782 0.18806868598641299 0 0.36815465231886019 0.16981869385287929 0 0.36847151619733631 0.1553283987829176 0 0.34883096109650008 0.15451257126197079 0 0.36815465231886019 0.16981869385287929 0 0.36847151619733631 0.1553283987829176 0 0.38500226402645688 0.162671184577422 0 0.36847151619733631 0.1553283987829176 0 0.36400825472357989 0.1438729436417118 0 0.34883096109650008 0.15451257126197079 0 0.36400825472357989 0.1438729436417118 0 0.37059106781015361 0.1357577314326924 0 0.37636144882128331 0.1457666005806055 0 0.36847151619733631 0.1553283987829176 0 0.36400825472357989 0.1438729436417118 0 0.37636144882128331 0.1457666005806055 0 0.34883096109650008 0.15451257126197079 0 0.35614307192023043 0.1367684618741998 0 0.34021545166880252 0.14768830347761819 0 0.34883096109650008 0.15451257126197079 0 0.35614307192023043 0.1367684618741998 0 0.36400825472357989 0.1438729436417118 0 0.34883096109650008 0.15451257126197079 0 0.35614307192023043 0.1367684618741998 0 0.34021545166880252 0.14768830347761819 0 0.34883096109650008 0.15451257126197079 0 0.34995166489419333 0.124675453758978 0 0.34021545166880252 0.14768830347761819 0 0.34995166489419333 0.124675453758978 0 0.34021545166880252 0.14768830347761819 0 0.35614307192023043 0.1367684618741998 0 0.35614307192023043 0.1367684618741998 0 0.35986929120433447 0.12772614233421331 0 0.34995166489419333 0.124675453758978 0 0.35614307192023043 0.1367684618741998 0 0.35986929120433447 0.12772614233421331 0 0.34995166489419333 0.124675453758978 0 0.35614307192023043 0.1367684618741998 0 0.36400825472357989 0.1438729436417118 0 0.35986929120433447 0.12772614233421331 0 0.37059106781015361 0.1357577314326924 0 0.36400825472357989 0.1438729436417118 0 0.35614307192023043 0.1367684618741998 0 0.35986929120433447 0.12772614233421331 0 0.35986929120433447 0.12772614233421331 0 0.37059106781015361 0.1357577314326924 0 0.37335062942813679 0.12672392842364019 0 0.37059106781015361 0.1357577314326924 0 0.37335062942813679 0.12672392842364019 0 0.37931578202781913 0.13407755070441069 0 0.37335062942813679 0.12672392842364019 0 0.37931578202781913 0.13407755070441069 0 0.38409826692070931 0.1220429913097083 0 0.37931578202781913 0.13407755070441069 0 0.39207763146758318 0.13885351881764579 0 0.37636144882128331 0.1457666005806055 0 0.37931578202781913 0.13407755070441069 0 0.39207763146758318 0.13885351881764579 0 0.38409826692070931 0.1220429913097083 0 0.37059106781015361 0.1357577314326924 0 0.37931578202781913 0.13407755070441069 0 0.37636144882128331 0.1457666005806055 0 0.3963688887951593 0.126335582669382 0 0.39207763146758318 0.13885351881764579 0 0.38409826692070931 0.1220429913097083 0 0.39207763146758318 0.13885351881764579 0 0.40702081205114682 0.13054234589104649 0 0.4116660256008684 0.14513905367210411 0 0.3963688887951593 0.126335582669382 0 0.39207763146758318 0.13885351881764579 0 0.40702081205114682 0.13054234589104649 0 0.39207763146758318 0.13885351881764579 0 0.38500226402645688 0.162671184577422 0 0.40293591991916983 0.1569930060353345 0 0.39207763146758318 0.13885351881764579 0 0.40293591991916983 0.1569930060353345 0 0.4116660256008684 0.14513905367210411 0 0.36847151619733631 0.1553283987829176 0 0.37636144882128331 0.1457666005806055 0 0.38500226402645688 0.162671184577422 0 0.39207763146758318 0.13885351881764579 0 0.37636144882128331 0.1457666005806055 0 0.38500226402645688 0.162671184577422 0 0.36815465231886019 0.16981869385287929 0 0.38747834354121968 0.1851248164437882 0 0.37672406052392782 0.18806868598641299 0 0.36815465231886019 0.16981869385287929 0 0.38500226402645688 0.162671184577422 0 0.38747834354121968 0.1851248164437882 0 0.36815465231886019 0.16981869385287929 0 0.38747834354121968 0.1851248164437882 0 0.38747834354121968 0.1851248164437882 0 0.37672406052392782 0.18806868598641299 0 0.38747834354121968 0.1851248164437882 0 0.41064287528589227 0.17878377452005201 0 0.38500226402645688 0.162671184577422 0 0.38747834354121968 0.1851248164437882 0 0.41064287528589227 0.17878377452005201 0 0.38747834354121968 0.1851248164437882 0 0.41064287528589227 0.17878377452005201 0 0.39451500759420632 0.19069849496031649 0 0.38500226402645688 0.162671184577422 0 0.40293591991916983 0.1569930060353345 0 0.41064287528589227 0.17878377452005201 0 0.40293591991916983 0.1569930060353345 0 0.41854425687870911 0.16276365453435909 0 0.41064287528589227 0.17878377452005201 0 0.41854425687870911 0.16276365453435909 0 0.41064287528589227 0.17878377452005201 0 0.43380740703056542 0.1724427325963177 0 0.41064287528589227 0.17878377452005201 0 0.43380740703056542 0.1724427325963177 0 0.43380740703056542 0.1724427325963177 0 0.42780023998921118 0.19597970995498051 0 0.44785308938554141 0.18307901965628931 0 0.41064287528589227 0.17878377452005201 0 0.43380740703056542 0.1724427325963177 0 0.42780023998921118 0.19597970995498051 0 0.41854425687870911 0.16276365453435909 0 0.43353445656443512 0.15828847371930249 0 0.42559113668118598 0.14863405470212129 0 0.41854425687870911 0.16276365453435909 0 0.43380740703056542 0.1724427325963177 0 0.43353445656443512 0.15828847371930249 0 0.43353445656443512 0.15828847371930249 0 0.42559113668118598 0.14863405470212129 0 0.43892700524100869 0.14262638405875189 0 0.42559113668118598 0.14863405470212129 0 0.42255868138207803 0.13436026776727489 0 0.43892700524100869 0.14262638405875189 0 0.42255868138207803 0.13436026776727489 0 0.43892700524100869 0.14262638405875189 0 0.43634453743769058 0.1195499220794666 0 0.42255868138207803 0.13436026776727489 0 0.40702081205114682 0.13054234589104649 0 0.41727705546174931 0.1203629447111757 0 0.42255868138207803 0.13436026776727489 0 0.40702081205114682 0.13054234589104649 0 0.4116660256008684 0.14513905367210411 0 0.41854425687870911 0.16276365453435909 0 0.42559113668118598 0.14863405470212129 0 0.4116660256008684 0.14513905367210411 0 0.40293591991916983 0.1569930060353345 0 0.41854425687870911 0.16276365453435909 0 0.4116660256008684 0.14513905367210411 0 0.42559113668118598 0.14863405470212129 0 0.42255868138207803 0.13436026776727489 0 0.4116660256008684 0.14513905367210411 0 0.40529807640253412 0.26112098510350612 0 0.39547701868722551 0.24088884175490591 0 0.41247125522340877 0.2360944941366078 0 0.39547701868722551 0.24088884175490591 0 0.38095823532059681 0.24258217554317121 0 0.39335856877866032 0.22567837160172849 0 0.3915052518867283 0.25530621538822312 0 0.39547701868722551 0.24088884175490591 0 0.38095823532059681 0.24258217554317121 0 0.37576975201945312 0.22484982145902371 0 0.39335856877866032 0.22567837160172849 0 0.38288097496152412 0.2107698001192603 0 0.38095823532059681 0.24258217554317121 0 0.37576975201945312 0.22484982145902371 0 0.39335856877866032 0.22567837160172849 0 0.39547701868722551 0.24088884175490591 0 0.39335856877866032 0.22567837160172849 0 0.41247125522340877 0.2360944941366078 0 0.39335856877866032 0.22567837160172849 0 0.40737529240719911 0.2153836643359599 0 0.41247125522340877 0.2360944941366078 0 0.39335856877866032 0.22567837160172849 0 0.39673660556765072 0.2052359662441775 0 0.38288097496152412 0.2107698001192603 0 0.39335856877866032 0.22567837160172849 0 0.39673660556765072 0.2052359662441775 0 0.40737529240719911 0.2153836643359599 0 0.39673660556765072 0.2052359662441775 0 0.40847992944703748 0.1967604676041689 0 0.40737529240719911 0.2153836643359599 0 0.37112162558992529 0.2119735159506482 0 0.37576975201945312 0.22484982145902371 0 0.38288097496152412 0.2107698001192603 0 0.37446602789923339 0.19763778043006411 0 0.37112162558992529 0.2119735159506482 0 0.38288097496152412 0.2107698001192603 0 0.39673660556765072 0.2052359662441775 0 0.38288097496152412 0.2107698001192603 0 0.385727772858034 0.1961002650428979 0 0.37446602789923339 0.19763778043006411 0 0.38288097496152412 0.2107698001192603 0 0.385727772858034 0.1961002650428979 0 0.37446602789923339 0.19763778043006411 0 0.385727772858034 0.1961002650428979 0 0.37672406052392782 0.18806868598641299 0 0.38747834354121968 0.1851248164437882 0 0.385727772858034 0.1961002650428979 0 0.39451500759420632 0.19069849496031649 0 0.38747834354121968 0.1851248164437882 0 0.385727772858034 0.1961002650428979 0 0.37672406052392782 0.18806868598641299 0 0.38747834354121968 0.1851248164437882 0 0.39451500759420632 0.19069849496031649 0 0.41064287528589227 0.17878377452005201 0 0.39451500759420632 0.19069849496031649 0 0.40847992944703748 0.1967604676041689 0 0.39673660556765072 0.2052359662441775 0 0.385727772858034 0.1961002650428979 0 0.39451500759420632 0.19069849496031649 0 0.39673660556765072 0.2052359662441775 0 0.39451500759420632 0.19069849496031649 0 0.40847992944703748 0.1967604676041689 0 0.41064287528589227 0.17878377452005201 0 0.40847992944703748 0.1967604676041689 0 0.42780023998921118 0.19597970995498051 0 0.40847992944703748 0.1967604676041689 0 0.42780023998921118 0.19597970995498051 0 0.40737529240719911 0.2153836643359599 0 0.42780023998921118 0.19597970995498051 0 0.40737529240719911 0.2153836643359599 0 0.43159708205226349 0.2199726120177401 0 0.40737529240719911 0.2153836643359599 0 0.43159708205226349 0.2199726120177401 0 0.40737529240719911 0.2153836643359599 0 0.43159708205226349 0.2199726120177401 0 0.41247125522340877 0.2360944941366078 0 0.43159708205226349 0.2199726120177401 0 0.42954249996024668 0.23628276470928711 0 0.41247125522340877 0.2360944941366078 0 0.42493863084263162 0.25206398068088692 0 0.42954249996024668 0.23628276470928711 0 0.41247125522340877 0.2360944941366078 0 0.42493863084263162 0.25206398068088692 0 0.42954249996024668 0.23628276470928711 0 0.44263850808419281 0.2464533929682087 0 0.40529807640253412 0.26112098510350612 0 0.42493863084263162 0.25206398068088692 0 0.41247125522340877 0.2360944941366078 0 0.46803140868643112 0.25478506118214472 0 0.4558188716973281 0.2245615596995203 0 0.48004066134239248 0.22915050738130119 0 0.46803140868643112 0.25478506118214472 0 0.44263850808419281 0.2464533929682087 0 0.4558188716973281 0.2245615596995203 0 0.42954249996024668 0.23628276470928711 0 0.44263850808419281 0.2464533929682087 0 0.4558188716973281 0.2245615596995203 0 0.43159708205226349 0.2199726120177401 0 0.42954249996024668 0.23628276470928711 0 0.4558188716973281 0.2245615596995203 0 0.43159708205226349 0.2199726120177401 0 0.4558188716973281 0.2245615596995203 0 0.4558188716973281 0.2245615596995203 0 0.48004066134239248 0.22915050738130119 0 0.4558188716973281 0.2245615596995203 0 0.45374508391515678 0.20066042712209251 0 0.47059664722838229 0.21277946784176011 0 0.43159708205226349 0.2199726120177401 0 0.4558188716973281 0.2245615596995203 0 0.45374508391515678 0.20066042712209251 0 0.42780023998921118 0.19597970995498051 0 0.43159708205226349 0.2199726120177401 0 0.45374508391515678 0.20066042712209251 0 0.42780023998921118 0.19597970995498051 0 0.45374508391515678 0.20066042712209251 0 0.44785308938554141 0.18307901965628931 0 0.45374508391515678 0.20066042712209251 0 0.44785308938554141 0.18307901965628931 0 0.46694077721753552 0.1802105379354722 0 0.45374508391515678 0.20066042712209251 0 0.47722310018256447 0.19507945486332021 0 0.46694077721753552 0.1802105379354722 0 0.45374508391515678 0.20066042712209251 0 0.47722310018256447 0.19507945486332021 0 0.47059664722838229 0.21277946784176011 0 0.45374508391515678 0.20066042712209251 0 0.46694077721753552 0.1802105379354722 0 0.49055597904131831 0.20732447031151849 0 0.49999999999999761 0.18654596276016891 0 0.47722310018256447 0.19507945486332021 0 0.49055597904131831 0.20732447031151849 0 0.49999999999999761 0.18654596276016891 0 0.5 0.20973893683565051 0 0.49055597904131831 0.20732447031151849 0 0.49999999999999761 0.18654596276016891 0 0.5 0.20973893683565051 0 0.49055597904131831 0.20732447031151849 0 0.49417269085711341 0.23182789600661399 0 0.49055597904131831 0.20732447031151849 0 0.48004066134239248 0.22915050738130119 0 0.47722310018256447 0.19507945486332021 0 0.49055597904131831 0.20732447031151849 0 0.47059664722838229 0.21277946784176011 0 0.49055597904131831 0.20732447031151849 0 0.47059664722838229 0.21277946784176011 0 0.48004066134239248 0.22915050738130119 0 0.4558188716973281 0.2245615596995203 0 0.47059664722838229 0.21277946784176011 0 0.48004066134239248 0.22915050738130119 0 0.49055597904131831 0.20732447031151849 0 0.48004066134239248 0.22915050738130119 0 0.49417269085711341 0.23182789600661399 0 0.49055597904131831 0.20732447031151849 0 0.49417269085711341 0.23182789600661399 0 0.5 0.20973893683565051 0 0.49999999999999928 0.23293191091113211 0 0.49417269085711341 0.23182789600661399 0 0.49999999999999928 0.23293191091113211 0 0.49417269085711341 0.23182789600661399 0 0.48004066134239248 0.22915050738130119 0 0.49417269085711341 0.23182789600661399 0 0.49708634542855618 0.25156806938198978 0 0.49417269085711341 0.23182789600661399 0 0.49708634542855618 0.25156806938198978 0 0.49999999999999928 0.23293191091113211 0 0.49417269085711341 0.23182789600661399 0 0.5 0.25212007683424881 0 0.49708634542855618 0.25156806938198978 0 0.49999999999999928 0.23293191091113211 0 0.49708634542855618 0.25156806938198978 0 0.49417269085711341 0.23182789600661399 0 0.48508737362871951 0.24612109100136781 0 0.48004066134239248 0.22915050738130119 0 0.49417269085711341 0.23182789600661399 0 0.48508737362871951 0.24612109100136781 0 0.46803140868643112 0.25478506118214472 0 0.48004066134239248 0.22915050738130119 0 0.46803140868643112 0.25478506118214472 0 0.48004066134239248 0.22915050738130119 0 0.48508737362871951 0.24612109100136781 0 0.46329668849639227 0.1530477317172764 0 0.45688020840354648 0.13312280327535311 0 0.44764285277679677 0.16080295188971669 0 0.46329668849639227 0.1530477317172764 0 0.45688020840354648 0.13312280327535311 0 0.4741674208774489 0.14269988440029721 0 0.45688020840354648 0.13312280327535311 0 0.43892700524100869 0.14262638405875189 0 0.43634453743769058 0.1195499220794666 0 0.45688020840354648 0.13312280327535311 0 0.44764285277679677 0.16080295188971669 0 0.43353445656443512 0.15828847371930249 0 0.43892700524100869 0.14262638405875189 0 0.44764285277679677 0.16080295188971669 0 0.45688020840354648 0.13312280327535311 0 0.43892700524100869 0.14262638405875189 0 0.44764285277679677 0.16080295188971669 0 0.43380740703056542 0.1724427325963177 0 0.44764285277679677 0.16080295188971669 0 0.45697193877523851 0.16610169067258329 0 0.43380740703056542 0.1724427325963177 0 0.43353445656443512 0.15828847371930249 0 0.44764285277679677 0.16080295188971669 0 0.43380740703056542 0.1724427325963177 0 0.45697193877523851 0.16610169067258329 0 0.43380740703056542 0.1724427325963177 0 0.44785308938554141 0.18307901965628931 0 0.45697193877523851 0.16610169067258329 0 0.44785308938554141 0.18307901965628931 0 0.46694077721753552 0.1802105379354722 0 0.45697193877523851 0.16610169067258329 0 0.46329668849639227 0.1530477317172764 0 0.45697193877523851 0.16610169067258329 0 0.48013647051991221 0.15976064874885071 0 0.46694077721753552 0.1802105379354722 0 0.45697193877523851 0.16610169067258329 0 0.48013647051991221 0.15976064874885071 0 0.46329668849639227 0.1530477317172764 0 0.44764285277679677 0.16080295188971669 0 0.45697193877523851 0.16610169067258329 0 0.45697193877523851 0.16610169067258329 0 0.48013647051991221 0.15976064874885071 0 0.46694077721753552 0.1802105379354722 0 0.48013647051991221 0.15976064874885071 0 0.47722310018256447 0.19507945486332021 0 0.46694077721753552 0.1802105379354722 0 0.48452502144286302 0.1784684014677233 0 0.46694077721753552 0.1802105379354722 0 0.48013647051991221 0.15976064874885071 0 0.48452502144286302 0.1784684014677233 0 0.47722310018256447 0.19507945486332021 0 0.48452502144286302 0.1784684014677233 0 0.49999999999999761 0.18654596276016891 0 0.48452502144286302 0.1784684014677233 0 0.49999999999999761 0.18654596276016891 0 0.5 0.17043459176160539 0 0.48013647051991221 0.15976064874885071 0 0.48452502144286302 0.1784684014677233 0 0.5 0.17043459176160539 0 0.48013647051991221 0.15976064874885071 0 0.5 0.17043459176160539 0 0.50000000000000211 0.15432322076304189 0 0.48013647051991221 0.15976064874885071 0 0.50000000000000211 0.15432322076304189 0 0.48013647051991221 0.15976064874885071 0 0.50000000000000211 0.15432322076304189 0 0.49006823525995752 0.1443689990865448 0 0.50000000000000211 0.15432322076304189 0 0.49006823525995752 0.1443689990865448 0 0.50000000000000044 0.12897734942423739 0 0.48013647051991221 0.15976064874885071 0 0.49006823525995752 0.1443689990865448 0 0.46329668849639227 0.1530477317172764 0 0.48013647051991221 0.15976064874885071 0 0.4741674208774489 0.14269988440029721 0 0.48013647051991221 0.15976064874885071 0 0.49006823525995752 0.1443689990865448 0 0.4741674208774489 0.14269988440029721 0 0.49006823525995752 0.1443689990865448 0 0.4741674208774489 0.14269988440029721 0 0.48045550170743639 0.1231992391734629 0 0.45688020840354648 0.13312280327535311 0 0.4741674208774489 0.14269988440029721 0 0.48045550170743639 0.1231992391734629 0 0.49006823525995752 0.1443689990865448 0 0.50000000000000044 0.12897734942423739 0 0.48045550170743639 0.1231992391734629 0 0.49006823525995752 0.1443689990865448 0 0.50000000000000044 0.12897734942423739 0 0.50000000000000044 0.12897734942423739 0 0.5 0.10274226190856239 0 0.48045550170743639 0.1231992391734629 0 0.5 0.10274226190856239 0 0.48237285062872282 0.095485922713505478 0 0.48045550170743639 0.1231992391734629 0 0.48237285062872282 0.095485922713505478 0 0.48045550170743639 0.1231992391734629 0 0.46611756403029619 0.1054426546609895 0 0.5 0.076507174392887234 0 0.47535491965704602 0.077762506046625851 0 0.48422639700076581 0.062818988881172474 0 0.5 0.076507174392887234 0 0.48422639700076581 0.062818988881172474 0 0.5 0.050272086877212192 0 0.5 0.10274226190856239 0 0.48237285062872282 0.095485922713505478 0 0.5 0.076507174392887234 0 0.48237285062872282 0.095485922713505478 0 0.5 0.076507174392887234 0 0.47535491965704602 0.077762506046625851 0 0.47535491965704602 0.077762506046625851 0 0.46611756403029619 0.1054426546609895 0 0.48237285062872282 0.095485922713505478 0 0.47535491965704602 0.077762506046625851 0 0.46611756403029619 0.1054426546609895 0 0.47535491965704602 0.077762506046625851 0 0.48422639700076581 0.062818988881172474 0 0.45943250043896872 0.064290925709272334 0 0.47535491965704602 0.077762506046625851 0 0.45943250043896872 0.064290925709272334 0 0.44987601474635691 0.085133956814422596 0 0.47535491965704602 0.077762506046625851 0 0.44987601474635691 0.085133956814422596 0 0.46611756403029619 0.1054426546609895 0 0.44987601474635691 0.085133956814422596 0 0.42753116830459109 0.086527658597363083 0 0.43596408174073648 0.071699349842537147 0 0.44987601474635691 0.085133956814422596 0 0.43961033724311349 0.100022581062241 0 0.42753116830459109 0.086527658597363083 0 0.45943250043896872 0.064290925709272334 0 0.44987601474635691 0.085133956814422596 0 0.43596408174073648 0.071699349842537147 0 0.45688020840354648 0.13312280327535311 0 0.46611756403029619 0.1054426546609895 0 0.45688020840354648 0.13312280327535311 0 0.48045550170743639 0.1231992391734629 0 0.46611756403029619 0.1054426546609895 0 0.46611756403029619 0.1054426546609895 0 0.43961033724311349 0.100022581062241 0 0.43634453743769058 0.1195499220794666 0 0.44987601474635691 0.085133956814422596 0 0.46611756403029619 0.1054426546609895 0 0.43961033724311349 0.100022581062241 0 0.45688020840354648 0.13312280327535311 0 0.46611756403029619 0.1054426546609895 0 0.43634453743769058 0.1195499220794666 0 0.42255868138207803 0.13436026776727489 0 0.43634453743769058 0.1195499220794666 0 0.41727705546174931 0.1203629447111757 0 0.43634453743769058 0.1195499220794666 0 0.41727705546174931 0.1203629447111757 0 0.4181824016966329 0.103458713158963 0 0.41727705546174931 0.1203629447111757 0 0.4181824016966329 0.103458713158963 0 0.40227884474119779 0.1139034746591272 0 0.40702081205114682 0.13054234589104649 0 0.41727705546174931 0.1203629447111757 0 0.40227884474119779 0.1139034746591272 0 0.4181824016966329 0.103458713158963 0 0.40227884474119779 0.1139034746591272 0 0.3988307745514742 0.097738487594870083 0 0.4181824016966329 0.103458713158963 0 0.41015039142426313 0.085580550641072783 0 0.3988307745514742 0.097738487594870083 0 0.43961033724311349 0.100022581062241 0 0.43634453743769058 0.1195499220794666 0 0.4181824016966329 0.103458713158963 0 0.43961033724311349 0.100022581062241 0 0.4181824016966329 0.103458713158963 0 0.42753116830459109 0.086527658597363083 0 0.42753116830459109 0.086527658597363083 0 0.43596408174073648 0.071699349842537147 0 0.42049991287082611 0.074725978929471831 0 0.43596408174073648 0.071699349842537147 0 0.42049991287082611 0.074725978929471831 0 0.42216093548346312 0.060933816940111803 0 0.42049991287082611 0.074725978929471831 0 0.40669298740107662 0.068888518626274348 0 0.41015039142426313 0.085580550641072783 0 0.42049991287082611 0.074725978929471831 0 0.40669298740107662 0.068888518626274348 0 0.42216093548346312 0.060933816940111803 0 0.42753116830459109 0.086527658597363083 0 0.42049991287082611 0.074725978929471831 0 0.41015039142426313 0.085580550641072783 0 0.4181824016966329 0.103458713158963 0 0.42753116830459109 0.086527658597363083 0 0.41015039142426313 0.085580550641072783 0 0.41015039142426313 0.085580550641072783 0 0.39469020844383729 0.083230581475899956 0 0.3988307745514742 0.097738487594870083 0 0.40669298740107662 0.068888518626274348 0 0.41015039142426313 0.085580550641072783 0 0.39469020844383729 0.083230581475899956 0 0.39469020844383729 0.083230581475899956 0 0.38851684113287871 0.098051232156813398 0 0.3988307745514742 0.097738487594870083 0 0.40669298740107662 0.068888518626274348 0 0.39423803954561282 0.06841195159838305 0 0.40039359145175801 0.059604723321952588 0 0.40669298740107662 0.068888518626274348 0 0.39469020844383729 0.083230581475899956 0 0.39423803954561282 0.06841195159838305 0 0.37258433158582632 0.071180101382360347 0 0.3819459514200042 0.074153284478698567 0 0.38390066493164021 0.044432425194050447 0 0.39423803954561282 0.06841195159838305 0 0.3819459514200042 0.074153284478698567 0 0.39298428152783899 0.047366855550941209 0 0.39469020844383729 0.083230581475899956 0 0.39423803954561282 0.06841195159838305 0 0.3819459514200042 0.074153284478698567 0 0.37090762131216942 0.1009397134064559 0 0.3819459514200042 0.074153284478698567 0 0.37090762131216942 0.1009397134064559 0 0.3819459514200042 0.074153284478698567 0 0.38309463766486829 0.09094186765605311 0 0.39469020844383729 0.083230581475899956 0 0.3819459514200042 0.074153284478698567 0 0.38309463766486829 0.09094186765605311 0 0.37090762131216942 0.1009397134064559 0 0.37258433158582632 0.071180101382360347 0 0.3819459514200042 0.074153284478698567 0 0.39469020844383729 0.083230581475899956 0 0.38309463766486829 0.09094186765605311 0 0.38851684113287871 0.098051232156813398 0 0.37090762131216942 0.1009397134064559 0 0.38309463766486829 0.09094186765605311 0 0.38084658811081579 0.1014850618750841 0 0.38309463766486829 0.09094186765605311 0 0.38084658811081579 0.1014850618750841 0 0.38851684113287871 0.098051232156813398 0 0.38084658811081579 0.1014850618750841 0 0.38851684113287871 0.098051232156813398 0 0.38803309572184441 0.1074289771719668 0 0.37090762131216942 0.1009397134064559 0 0.38084658811081579 0.1014850618750841 0 0.3758013789533543 0.1138604956643943 0 0.38084658811081579 0.1014850618750841 0 0.38803309572184441 0.1074289771719668 0 0.3758013789533543 0.1138604956643943 0 0.38803309572184441 0.1074289771719668 0 0.3758013789533543 0.1138604956643943 0 0.38409826692070931 0.1220429913097083 0 0.37335062942813679 0.12672392842364019 0 0.3758013789533543 0.1138604956643943 0 0.38409826692070931 0.1220429913097083 0 0.38803309572184441 0.1074289771719668 0 0.38409826692070931 0.1220429913097083 0 0.40227884474119779 0.1139034746591272 0 0.3963688887951593 0.126335582669382 0 0.38409826692070931 0.1220429913097083 0 0.40227884474119779 0.1139034746591272 0 0.3963688887951593 0.126335582669382 0 0.40702081205114682 0.13054234589104649 0 0.40227884474119779 0.1139034746591272 0 0.38803309572184441 0.1074289771719668 0 0.40227884474119779 0.1139034746591272 0 0.3988307745514742 0.097738487594870083 0 0.38851684113287871 0.098051232156813398 0 0.38803309572184441 0.1074289771719668 0 0.3988307745514742 0.097738487594870083 0 0.39521699827745499 0.017684749005740821 0 0.40188839452374647 0.03997346628719177 0 0.40892878778349889 0.031429983155315658 0 0.39521699827745499 0.017684749005740821 0 0.40892878778349889 0.031429983155315658 0 0.39521699827745499 0.017684749005740821 0 0.37935437576721898 0.0017834357210366871 0 0.40588673964794708 -0.0075346200663563914 0 0.39521699827745499 0.017684749005740821 0 0.417386808036734 0.0093776739953230562 0 0.40588673964794708 -0.0075346200663563914 0 0.39521699827745499 0.017684749005740821 0 0.40588673964794708 -0.0075346200663563914 0 0.37153690395508099 0.01629170074198116 0 0.39521699827745499 0.017684749005740821 0 0.37935437576721898 0.0017834357210366871 0 0.39521699827745499 0.017684749005740821 0 0.37935437576721898 0.0017834357210366871 0 0.39521699827745499 0.017684749005740821 0 0.38289048529716813 0.028237361467120119 0 0.38390066493164021 0.044432425194050447 0 0.37153690395508099 0.01629170074198116 0 0.39521699827745499 0.017684749005740821 0 0.38289048529716813 0.028237361467120119 0 0.39521699827745499 0.017684749005740821 0 0.38390066493164021 0.044432425194050447 0 0.36768038635939482 0.030547237249543231 0 0.38289048529716813 0.028237361467120119 0 0.37730275797050988 0.0362208683635038 0 0.38289048529716813 0.028237361467120119 0 0.37730275797050988 0.0362208683635038 0 0.38390066493164021 0.044432425194050447 0 0.37173802307509402 0.041063158052647507 0 0.37730275797050988 0.0362208683635038 0 0.38390066493164021 0.044432425194050447 0 0.3819459514200042 0.074153284478698567 0 0.38390066493164021 0.044432425194050447 0 0.39298428152783899 0.047366855550941209 0 0.3819459514200042 0.074153284478698567 0 0.39298428152783899 0.047366855550941209 0 0.37258433158582632 0.071180101382360347 0 0.38390066493164021 0.044432425194050447 0 0.37258433158582632 0.071180101382360347 0 0.37143674944992022 0.057980209652502328 0 0.38390066493164021 0.044432425194050447 0 0.39423803954561282 0.06841195159838305 0 0.39298428152783899 0.047366855550941209 0 0.40039359145175801 0.059604723321952588 0 0.39298428152783899 0.047366855550941209 0 0.40039359145175801 0.059604723321952588 0 0.40765905733250329 0.053751567512211718 0 0.39298428152783899 0.047366855550941209 0 0.40188839452374647 0.03997346628719177 0 0.40765905733250329 0.053751567512211718 0 0.40669298740107662 0.068888518626274348 0 0.40039359145175801 0.059604723321952588 0 0.40765905733250329 0.053751567512211718 0 0.38390066493164021 0.044432425194050447 0 0.39298428152783899 0.047366855550941209 0 0.40188839452374647 0.03997346628719177 0 0.39521699827745499 0.017684749005740821 0 0.38390066493164021 0.044432425194050447 0 0.40188839452374647 0.03997346628719177 0 0.40188839452374647 0.03997346628719177 0 0.40892878778349889 0.031429983155315658 0 0.42264057728954268 0.045175217304890783 0 0.40892878778349889 0.031429983155315658 0 0.42264057728954268 0.045175217304890783 0 0.43066196712127619 0.03505629742164456 0 0.40188839452374647 0.03997346628719177 0 0.40765905733250329 0.053751567512211718 0 0.42264057728954268 0.045175217304890783 0 0.40892878778349889 0.031429983155315658 0 0.42264057728954268 0.045175217304890783 0 0.40765905733250329 0.053751567512211718 0 0.42216093548346312 0.060933816940111803 0 0.42264057728954268 0.045175217304890783 0 0.40669298740107662 0.068888518626274348 0 0.40765905733250329 0.053751567512211718 0 0.42216093548346312 0.060933816940111803 0 0.42216093548346312 0.060933816940111803 0 0.42264057728954268 0.045175217304890783 0 0.4396642513404791 0.049403181014407251 0 0.43596408174073648 0.071699349842537147 0 0.42216093548346312 0.060933816940111803 0 0.4396642513404791 0.049403181014407251 0 0.42264057728954268 0.045175217304890783 0 0.43066196712127619 0.03505629742164456 0 0.4396642513404791 0.049403181014407251 0 0.43066196712127619 0.03505629742164456 0 0.42940605227015738 0.02125701613947768 0 0.44412485306051469 0.030203976007709191 0 0.42940605227015738 0.02125701613947768 0 0.43797703974049768 0.01071791565146071 0 0.44412485306051469 0.030203976007709191 0 0.40892878778349889 0.031429983155315658 0 0.43066196712127619 0.03505629742164456 0 0.42940605227015738 0.02125701613947768 0 0.39521699827745499 0.017684749005740821 0 0.40892878778349889 0.031429983155315658 0 0.417386808036734 0.0093776739953230562 0 0.40892878778349889 0.031429983155315658 0 0.42940605227015738 0.02125701613947768 0 0.417386808036734 0.0093776739953230562 0 0.42940605227015738 0.02125701613947768 0 0.417386808036734 0.0093776739953230562 0 0.43797703974049768 0.01071791565146071 0 0.417386808036734 0.0093776739953230562 0 0.41937758257554658 -0.0041794656863655931 0 0.42890459665496178 -0.00053893992362197848 0 0.417386808036734 0.0093776739953230562 0 0.43797703974049768 0.01071791565146071 0 0.42890459665496178 -0.00053893992362197848 0 0.43797703974049768 0.01071791565146071 0 0.44283824067598537 -0.003633377472082372 0 0.42890459665496178 -0.00053893992362197848 0 0.45106022168231619 0.0138391781922306 0 0.44283824067598537 -0.003633377472082372 0 0.45719980641642299 -0.00043223940852063459 0 0.45106022168231619 0.0138391781922306 0 0.43797703974049768 0.01071791565146071 0 0.44283824067598537 -0.003633377472082372 0 0.45106022168231619 0.0138391781922306 0 0.43797703974049768 0.01071791565146071 0 0.44412485306051469 0.030203976007709191 0 0.45106022168231619 0.0138391781922306 0 0.44412485306051469 0.030203976007709191 0 0.45983941674560302 0.027473022190733411 0 0.45983941674560302 0.027473022190733411 0 0.46571315561509963 0.01283443470861005 0 0.47689128774164191 0.02493571561048372 0 0.45106022168231619 0.0138391781922306 0 0.45983941674560302 0.027473022190733411 0 0.46571315561509963 0.01283443470861005 0 0.46571315561509963 0.01283443470861005 0 0.47008623465099619 0.00018929750482334581 0 0.45719980641642299 -0.00043223940852063459 0 0.45106022168231619 0.0138391781922306 0 0.46571315561509963 0.01283443470861005 0 0.45719980641642299 -0.00043223940852063459 0 0.45943250043896872 0.064290925709272334 0 0.4396642513404791 0.049403181014407251 0 0.45690141669685508 0.047311097653324877 0 0.45943250043896872 0.064290925709272334 0 0.43596408174073648 0.071699349842537147 0 0.4396642513404791 0.049403181014407251 0 0.43066196712127619 0.03505629742164456 0 0.44412485306051469 0.030203976007709191 0 0.4396642513404791 0.049403181014407251 0 0.44412485306051469 0.030203976007709191 0 0.4396642513404791 0.049403181014407251 0 0.45690141669685508 0.047311097653324877 0 0.44412485306051469 0.030203976007709191 0 0.45983941674560302 0.027473022190733411 0 0.45690141669685508 0.047311097653324877 0 0.45983941674560302 0.027473022190733411 0 0.45690141669685508 0.047311097653324877 0 0.47604645860103112 0.045128717910182803 0 0.45943250043896872 0.064290925709272334 0 0.45690141669685508 0.047311097653324877 0 0.47604645860103112 0.045128717910182803 0 0.48422639700076581 0.062818988881172474 0 0.45943250043896872 0.064290925709272334 0 0.47604645860103112 0.045128717910182803 0 0.45983941674560302 0.027473022190733411 0 0.47604645860103112 0.045128717910182803 0 0.47689128774164191 0.02493571561048372 0 0.47604645860103112 0.045128717910182803 0 0.4875159131620912 0.033192911306639747 0 0.47689128774164191 0.02493571561048372 0 0.4875159131620912 0.033192911306639747 0 0.5 0.050272086877212192 0 0.5 0.02403699936153714 0 0.47604645860103112 0.045128717910182803 0 0.4875159131620912 0.033192911306639747 0 0.5 0.050272086877212192 0 0.48422639700076581 0.062818988881172474 0 0.47604645860103112 0.045128717910182803 0 0.5 0.050272086877212192 0 0.47988825193385459 0.011553845764419051 0 0.48197098039998332 6.1446678653979958e-06 0 0.47008623465099619 0.00018929750482334581 0 0.46571315561509963 0.01283443470861005 0 0.47988825193385459 0.011553845764419051 0 0.47008623465099619 0.00018929750482334581 0 0.46571315561509963 0.01283443470861005 0 0.47988825193385459 0.011553845764419051 0 0.47689128774164191 0.02493571561048372 0 0.4875159131620912 0.033192911306639747 0 0.47689128774164191 0.02493571561048372 0 0.4873831070697156 0.020091897654041849 0 0.47988825193385459 0.011553845764419051 0 0.47689128774164191 0.02493571561048372 0 0.4873831070697156 0.020091897654041849 0 0.4873831070697156 0.020091897654041849 0 0.5 0.02403699936153714 0 0.49262008251098999 0.0067400162271295666 0 0.4875159131620912 0.033192911306639747 0 0.4873831070697156 0.020091897654041849 0 0.5 0.02403699936153714 0 0.5 0.02403699936153714 0 0.49262008251098999 0.0067400162271295666 0 0.5 -0.0021980881541378561 0 0.47988825193385459 0.011553845764419051 0 0.4873831070697156 0.020091897654041849 0 0.49262008251098999 0.0067400162271295666 0 0.47988825193385459 0.011553845764419051 0 0.48197098039998332 6.1446678653979958e-06 0 0.49262008251098999 0.0067400162271295666 0 0.49262008251098999 0.0067400162271295666 0 0.5 -0.0021980881541378561 0 0.49131858152504498 -0.010678809641920729 0 0.48197098039998332 6.1446678653979958e-06 0 0.49262008251098999 0.0067400162271295666 0 0.49131858152504498 -0.010678809641920729 0 0.49262008251098999 0.0067400162271295666 0 0.49131858152504498 -0.010678809641920729 0 0.5 -0.0021980881541378561 0 0.49131858152504498 -0.010678809641920729 0 0.50000000000000155 -0.028433175669812839 0 0.49131858152504498 -0.010678809641920729 0 0.47690213769492013 -0.0091746034812110241 0 0.485453567624618 -0.01899862289752282 0 0.48197098039998332 6.1446678653979958e-06 0 0.49131858152504498 -0.010678809641920729 0 0.47690213769492013 -0.0091746034812110241 0 0.47690213769492013 -0.0091746034812110241 0 0.47507076562332767 -0.018566384496552311 0 0.485453567624618 -0.01899862289752282 0 0.47690213769492013 -0.0091746034812110241 0 0.47507076562332767 -0.018566384496552311 0 0.46408554110054739 -0.011750583991940761 0 0.48197098039998332 6.1446678653979958e-06 0 0.47008623465099619 0.00018929750482334581 0 0.47690213769492013 -0.0091746034812110241 0 0.47008623465099619 0.00018929750482334581 0 0.47690213769492013 -0.0091746034812110241 0 0.46408554110054739 -0.011750583991940761 0 0.47507076562332767 -0.018566384496552311 0 0.4900170805390982 -0.028097635510970841 0 0.45995940204792318 -0.027087354074277811 0 0.4900170805390982 -0.028097635510970841 0 0.47659914796332292 -0.034461098052259449 0 0.45995940204792318 -0.027087354074277811 0 0.4900170805390982 -0.028097635510970841 0 0.45995940204792318 -0.027087354074277811 0 0.47507076562332767 -0.018566384496552311 0 0.4900170805390982 -0.028097635510970841 0 0.485453567624618 -0.01899862289752282 0 0.49131858152504498 -0.010678809641920729 0 0.4900170805390982 -0.028097635510970841 0 0.485453567624618 -0.01899862289752282 0 0.49131858152504498 -0.010678809641920729 0 0.4900170805390982 -0.028097635510970841 0 0.50000000000000155 -0.028433175669812839 0 0.49131858152504498 -0.010678809641920729 0 0.4900170805390982 -0.028097635510970841 0 0.4900170805390982 -0.028097635510970841 0 0.50000000000000155 -0.028433175669812839 0 0.4900170805390982 -0.028097635510970841 0 0.4880464189036679 -0.054472269295454609 0 0.4900170805390982 -0.028097635510970841 0 0.50000000000000155 -0.028433175669812839 0 0.5 -0.044213099971446179 0 0.4900170805390982 -0.028097635510970841 0 0.5 -0.044213099971446179 0 0.4880464189036679 -0.054472269295454609 0 0.4900170805390982 -0.028097635510970841 0 0.4880464189036679 -0.054472269295454609 0 0.47969740010759349 -0.050616279470708077 0 0.5 -0.044213099971446179 0 0.49999999999999939 -0.059993024273079558 0 0.4880464189036679 -0.054472269295454609 0 0.49999999999999939 -0.059993024273079558 0 0.4880464189036679 -0.054472269295454609 0 0.4880464189036679 -0.054472269295454609 0 0.47969740010759349 -0.050616279470708077 0 0.48280517252699051 -0.066821102352996931 0 0.47969740010759349 -0.050616279470708077 0 0.47316629307607122 -0.060648550001592687 0 0.48280517252699051 -0.066821102352996931 0 0.47969740010759349 -0.050616279470708077 0 0.48280517252699051 -0.066821102352996931 0 0.4880464189036679 -0.054472269295454609 0 0.47969740010759349 -0.050616279470708077 0 0.47969740010759349 -0.050616279470708077 0 0.47316629307607122 -0.060648550001592687 0 0.46616203118149518 -0.05382361562529641 0 0.4900170805390982 -0.028097635510970841 0 0.47969740010759349 -0.050616279470708077 0 0.47659914796332292 -0.034461098052259449 0 0.47969740010759349 -0.050616279470708077 0 0.47659914796332292 -0.034461098052259449 0 0.47969740010759349 -0.050616279470708077 0 0.45971080753593718 -0.041385482478866913 0 0.47969740010759349 -0.050616279470708077 0 0.47659914796332292 -0.034461098052259449 0 0.45971080753593718 -0.041385482478866913 0 0.47659914796332292 -0.034461098052259449 0 0.45971080753593718 -0.041385482478866913 0 0.45995940204792318 -0.027087354074277811 0 0.45971080753593718 -0.041385482478866913 0 0.43972421496428132 -0.032154685487025228 0 0.45995940204792318 -0.027087354074277811 0 0.47969740010759349 -0.050616279470708077 0 0.45971080753593718 -0.041385482478866913 0 0.46616203118149518 -0.05382361562529641 0 0.45539747019827359 -0.054353739001609842 0 0.46172264753675479 -0.064597742208831466 0 0.44561574073223331 -0.066416688777919369 0 0.47316629307607122 -0.060648550001592687 0 0.46616203118149518 -0.05382361562529641 0 0.46172264753675479 -0.064597742208831466 0 0.46616203118149518 -0.05382361562529641 0 0.45539747019827359 -0.054353739001609842 0 0.46172264753675479 -0.064597742208831466 0 0.45971080753593718 -0.041385482478866913 0 0.46616203118149518 -0.05382361562529641 0 0.45539747019827359 -0.054353739001609842 0 0.45971080753593718 -0.041385482478866913 0 0.45539747019827359 -0.054353739001609842 0 0.4428309961755249 -0.049507349435999271 0 0.45539747019827359 -0.054353739001609842 0 0.4428309961755249 -0.049507349435999271 0 0.44561574073223331 -0.066416688777919369 0 0.4428309961755249 -0.049507349435999271 0 0.44561574073223331 -0.066416688777919369 0 0.42722622238893299 -0.057973358210550219 0 0.4428309961755249 -0.049507349435999271 0 0.43972421496428132 -0.032154685487025228 0 0.43073376650610579 -0.041662475657769517 0 0.45971080753593718 -0.041385482478866913 0 0.43972421496428132 -0.032154685487025228 0 0.45971080753593718 -0.041385482478866913 0 0.4428309961755249 -0.049507349435999271 0 0.43972421496428132 -0.032154685487025228 0 0.43972421496428132 -0.032154685487025228 0 0.45995940204792318 -0.027087354074277811 0 0.42990172355674838 -0.02607707263758487 0 0.44243399464777827 -0.016709921550320112 0 0.45110224446471597 -0.01291468614277746 0 0.45995940204792318 -0.027087354074277811 0 0.44243399464777827 -0.016709921550320112 0 0.45995940204792318 -0.027087354074277811 0 0.42990172355674838 -0.02607707263758487 0 0.45995940204792318 -0.027087354074277811 0 0.42990172355674838 -0.02607707263758487 0 0.44243399464777827 -0.016709921550320112 0 0.44283824067598537 -0.003633377472082372 0 0.42821901154536912 -0.013542915272651069 0 0.44283824067598537 -0.003633377472082372 0 0.45110224446471597 -0.01291468614277746 0 0.45719980641642299 -0.00043223940852063459 0 0.44243399464777827 -0.016709921550320112 0 0.44283824067598537 -0.003633377472082372 0 0.45110224446471597 -0.01291468614277746 0 0.45110224446471597 -0.01291468614277746 0 0.45719980641642299 -0.00043223940852063459 0 0.46408554110054739 -0.011750583991940761 0 0.47008623465099619 0.00018929750482334581 0 0.45719980641642299 -0.00043223940852063459 0 0.46408554110054739 -0.011750583991940761 0 0.47507076562332767 -0.018566384496552311 0 0.46408554110054739 -0.011750583991940761 0 0.45995940204792318 -0.027087354074277811 0 0.45110224446471597 -0.01291468614277746 0 0.46408554110054739 -0.011750583991940761 0 0.45995940204792318 -0.027087354074277811 0 0.46795968230274643 -0.1167073898190603 0 0.46204322165313078 -0.1308685292825949 0 0.479388625814124 -0.12616148355817011 0 0.48123389066896971 -0.11131348358147471 0 0.46795968230274643 -0.1167073898190603 0 0.479388625814124 -0.12616148355817011 0 0.5 -0.11673538704895479 0 0.4933708278968385 -0.12191348068646821 0 0.49138528775611379 -0.13369042680796669 0 0.4933708278968385 -0.12191348068646821 0 0.48964188642161249 -0.1024697029608771 0 0.5 -0.11673538704895479 0 0.4933708278968385 -0.12191348068646821 0 0.48964188642161249 -0.1024697029608771 0 0.48123389066896971 -0.11131348358147471 0 0.4933708278968385 -0.12191348068646821 0 0.48964188642161249 -0.1024697029608771 0 0.48123389066896971 -0.11131348358147471 0 0.4933708278968385 -0.12191348068646821 0 0.479388625814124 -0.12616148355817011 0 0.48964188642161249 -0.1024697029608771 0 0.4815626626429908 -0.095955286195218412 0 0.48565937275213372 -0.086419645212914412 0 0.5 -0.11673538704895479 0 0.48964188642161249 -0.1024697029608771 0 0.5 -0.088364205661017159 0 0.48123389066896971 -0.11131348358147471 0 0.47150257472371232 -0.098234941212199292 0 0.46795968230274643 -0.1167073898190603 0 0.4815626626429908 -0.095955286195218412 0 0.47150257472371232 -0.098234941212199292 0 0.47862298702473632 -0.089064538531884813 0 0.48123389066896971 -0.11131348358147471 0 0.4815626626429908 -0.095955286195218412 0 0.47150257472371232 -0.098234941212199292 0 0.48123389066896971 -0.11131348358147471 0 0.48964188642161249 -0.1024697029608771 0 0.4815626626429908 -0.095955286195218412 0 0.47150257472371232 -0.098234941212199292 0 0.47258542902809209 -0.083736452218264437 0 0.47862298702473632 -0.089064538531884813 0 0.47258542902809209 -0.083736452218264437 0 0.48591294494638598 -0.083025925235286124 0 0.47257809558295361 -0.073595295981542685 0 0.47258542902809209 -0.083736452218264437 0 0.47862298702473632 -0.089064538531884813 0 0.48591294494638598 -0.083025925235286124 0 0.4815626626429908 -0.095955286195218412 0 0.47862298702473632 -0.089064538531884813 0 0.48565937275213372 -0.086419645212914412 0 0.47862298702473632 -0.089064538531884813 0 0.48565937275213372 -0.086419645212914412 0 0.48591294494638598 -0.083025925235286124 0 0.48964188642161249 -0.1024697029608771 0 0.5 -0.088364205661017159 0 0.48591294494638598 -0.083025925235286124 0 0.48964188642161249 -0.1024697029608771 0 0.48591294494638598 -0.083025925235286124 0 0.48964188642161249 -0.1024697029608771 0 0.48565937275213372 -0.086419645212914412 0 0.48591294494638598 -0.083025925235286124 0 0.48565937275213372 -0.086419645212914412 0 0.48591294494638598 -0.083025925235286124 0 0.4880464189036679 -0.054472269295454609 0 0.48591294494638598 -0.083025925235286124 0 0.4880464189036679 -0.054472269295454609 0 0.48591294494638598 -0.083025925235286124 0 0.48280517252699051 -0.066821102352996931 0 0.49999999999999939 -0.059993024273079558 0 0.4880464189036679 -0.054472269295454609 0 0.48591294494638598 -0.083025925235286124 0 0.49999999999999939 -0.059993024273079558 0 0.5 -0.088364205661017159 0 0.48591294494638598 -0.083025925235286124 0 0.48591294494638598 -0.083025925235286124 0 0.48280517252699051 -0.066821102352996931 0 0.48591294494638598 -0.083025925235286124 0 0.48280517252699051 -0.066821102352996931 0 0.47257809558295361 -0.073595295981542685 0 0.47316629307607122 -0.060648550001592687 0 0.48280517252699051 -0.066821102352996931 0 0.47257809558295361 -0.073595295981542685 0 0.47316629307607122 -0.060648550001592687 0 0.47257809558295361 -0.073595295981542685 0 0.46172264753675479 -0.064597742208831466 0 0.47257809558295361 -0.073595295981542685 0 0.46172264753675479 -0.064597742208831466 0 0.45927608638342632 -0.0827420038722846 0 0.46172264753675479 -0.064597742208831466 0 0.44561574073223331 -0.066416688777919369 0 0.45927608638342632 -0.0827420038722846 0 0.44561574073223331 -0.066416688777919369 0 0.45927608638342632 -0.0827420038722846 0 0.4303537534173173 -0.083631010780197593 0 0.45927608638342632 -0.0827420038722846 0 0.4423327918001308 -0.1023638965480918 0 0.4303537534173173 -0.083631010780197593 0 0.47258542902809209 -0.083736452218264437 0 0.47257809558295361 -0.073595295981542685 0 0.45927608638342632 -0.0827420038722846 0 0.47150257472371232 -0.098234941212199292 0 0.47258542902809209 -0.083736452218264437 0 0.45927608638342632 -0.0827420038722846 0 0.47150257472371232 -0.098234941212199292 0 0.45880087309900819 -0.1048392260601691 0 0.46795968230274643 -0.1167073898190603 0 0.45927608638342632 -0.0827420038722846 0 0.45880087309900819 -0.1048392260601691 0 0.4423327918001308 -0.1023638965480918 0 0.47150257472371232 -0.098234941212199292 0 0.45927608638342632 -0.0827420038722846 0 0.45880087309900819 -0.1048392260601691 0 0.45880087309900819 -0.1048392260601691 0 0.4423327918001308 -0.1023638965480918 0 0.450670867287502 -0.1182239354478858 0 0.450670867287502 -0.1182239354478858 0 0.4342442768840668 -0.1179042360572342 0 0.43721580927791781 -0.1350344527553512 0 0.4423327918001308 -0.1023638965480918 0 0.450670867287502 -0.1182239354478858 0 0.4342442768840668 -0.1179042360572342 0 0.45880087309900819 -0.1048392260601691 0 0.450670867287502 -0.1182239354478858 0 0.46795968230274643 -0.1167073898190603 0 0.450670867287502 -0.1182239354478858 0 0.46795968230274643 -0.1167073898190603 0 0.46204322165313078 -0.1308685292825949 0 0.41763019435124998 -0.1206557512100787 0 0.40211903147969891 -0.1063383633242978 0 0.40315717850713217 -0.1250207652859732 0 0.41763019435124998 -0.1206557512100787 0 0.42119588237113942 -0.1023806203968041 0 0.40211903147969891 -0.1063383633242978 0 0.41763019435124998 -0.1206557512100787 0 0.4342442768840668 -0.1179042360572342 0 0.42119588237113942 -0.1023806203968041 0 0.41763019435124998 -0.1206557512100787 0 0.4342442768840668 -0.1179042360572342 0 0.43721580927791781 -0.1350344527553512 0 0.4423327918001308 -0.1023638965480918 0 0.42119588237113942 -0.1023806203968041 0 0.4303537534173173 -0.083631010780197593 0 0.4423327918001308 -0.1023638965480918 0 0.4342442768840668 -0.1179042360572342 0 0.42119588237113942 -0.1023806203968041 0 0.42119588237113942 -0.1023806203968041 0 0.40523260967746172 -0.089715805182620456 0 0.40211903147969891 -0.1063383633242978 0 0.42119588237113942 -0.1023806203968041 0 0.4303537534173173 -0.083631010780197593 0 0.40523260967746172 -0.089715805182620456 0 0.4303537534173173 -0.083631010780197593 0 0.41419191219747098 -0.072870360065941026 0 0.40523260967746172 -0.089715805182620456 0 0.4303537534173173 -0.083631010780197593 0 0.41419191219747098 -0.072870360065941026 0 0.42722622238893299 -0.057973358210550219 0 0.44561574073223331 -0.066416688777919369 0 0.4303537534173173 -0.083631010780197593 0 0.42722622238893299 -0.057973358210550219 0 0.41419191219747098 -0.072870360065941026 0 0.39668539737840541 -0.072231922647281746 0 0.40906487591965263 -0.055822049730268927 0 0.39668539737840541 -0.072231922647281746 0 0.37752392610822172 -0.076362466609876667 0 0.38278709897404289 -0.061547333989650677 0 0.37752392610822172 -0.076362466609876667 0 0.38278709897404289 -0.061547333989650677 0 0.36631958178036778 -0.066880114204011409 0 0.39668539737840541 -0.072231922647281746 0 0.37752392610822172 -0.076362466609876667 0 0.39030733193134298 -0.093436149081565029 0 0.37752392610822172 -0.076362466609876667 0 0.39030733193134298 -0.093436149081565029 0 0.37549924204530938 -0.097590425518224055 0 0.37752392610822172 -0.076362466609876667 0 0.37549924204530938 -0.097590425518224055 0 0.41419191219747098 -0.072870360065941026 0 0.39668539737840541 -0.072231922647281746 0 0.40523260967746172 -0.089715805182620456 0 0.39668539737840541 -0.072231922647281746 0 0.39030733193134298 -0.093436149081565029 0 0.40523260967746172 -0.089715805182620456 0 0.39030733193134298 -0.093436149081565029 0 0.40523260967746172 -0.089715805182620456 0 0.40211903147969891 -0.1063383633242978 0 0.39030733193134298 -0.093436149081565029 0 0.40211903147969891 -0.1063383633242978 0 0.39162547536392239 -0.10746370732413039 0 0.37549924204530938 -0.097590425518224055 0 0.38270629520846922 -0.10538521729641059 0 0.37697667654897721 -0.11432232332569579 0 0.39030733193134298 -0.093436149081565029 0 0.37549924204530938 -0.097590425518224055 0 0.38270629520846922 -0.10538521729641059 0 0.39030733193134298 -0.093436149081565029 0 0.39162547536392239 -0.10746370732413039 0 0.38270629520846922 -0.10538521729641059 0 0.39162547536392239 -0.10746370732413039 0 0.38270629520846922 -0.10538521729641059 0 0.38750752642824432 -0.1148535103282165 0 0.38270629520846922 -0.10538521729641059 0 0.38750752642824432 -0.1148535103282165 0 0.37697667654897721 -0.11432232332569579 0 0.38750752642824432 -0.1148535103282165 0 0.37697667654897721 -0.11432232332569579 0 0.37382079859698292 -0.12300829506131759 0 0.38750752642824432 -0.1148535103282165 0 0.37382079859698292 -0.12300829506131759 0 0.38750752642824432 -0.1148535103282165 0 0.37382079859698292 -0.12300829506131759 0 0.38559191724468961 -0.12679046736267011 0 0.38750752642824432 -0.1148535103282165 0 0.39396849925603022 -0.1193750252539349 0 0.38559191724468961 -0.12679046736267011 0 0.40211903147969891 -0.1063383633242978 0 0.39396849925603022 -0.1193750252539349 0 0.40315717850713217 -0.1250207652859732 0 0.40211903147969891 -0.1063383633242978 0 0.39162547536392239 -0.10746370732413039 0 0.39396849925603022 -0.1193750252539349 0 0.39162547536392239 -0.10746370732413039 0 0.38750752642824432 -0.1148535103282165 0 0.39396849925603022 -0.1193750252539349 0 0.41655648101844012 -0.032753989138453267 0 0.40588673964794708 -0.0075346200663563914 0 0.41973762239262519 -0.02292388849518354 0 0.41655648101844012 -0.032753989138453267 0 0.40588673964794708 -0.0075346200663563914 0 0.41655648101844012 -0.032753989138453267 0 0.40130416689942222 -0.021108371106094231 0 0.40588673964794708 -0.0075346200663563914 0 0.41973762239262519 -0.02292388849518354 0 0.42668802122036309 -0.032373759694607887 0 0.41655648101844012 -0.032753989138453267 0 0.41655648101844012 -0.032753989138453267 0 0.40130416689942222 -0.021108371106094231 0 0.40432805881315781 -0.031237119901113681 0 0.417386808036734 0.0093776739953230562 0 0.41937758257554658 -0.0041794656863655931 0 0.40588673964794708 -0.0075346200663563914 0 0.41973762239262519 -0.02292388849518354 0 0.41937758257554658 -0.0041794656863655931 0 0.40588673964794708 -0.0075346200663563914 0 0.41973762239262519 -0.02292388849518354 0 0.41937758257554658 -0.0041794656863655931 0 0.42821901154536912 -0.013542915272651069 0 0.41937758257554658 -0.0041794656863655931 0 0.42821901154536912 -0.013542915272651069 0 0.42890459665496178 -0.00053893992362197848 0 0.44283824067598537 -0.003633377472082372 0 0.42821901154536912 -0.013542915272651069 0 0.42890459665496178 -0.00053893992362197848 0 0.43972421496428132 -0.032154685487025228 0 0.41973762239262519 -0.02292388849518354 0 0.42668802122036309 -0.032373759694607887 0 0.43972421496428132 -0.032154685487025228 0 0.41973762239262519 -0.02292388849518354 0 0.43972421496428132 -0.032154685487025228 0 0.41973762239262519 -0.02292388849518354 0 0.42990172355674838 -0.02607707263758487 0 0.44243399464777827 -0.016709921550320112 0 0.42821901154536912 -0.013542915272651069 0 0.42990172355674838 -0.02607707263758487 0 0.41973762239262519 -0.02292388849518354 0 0.42821901154536912 -0.013542915272651069 0 0.42990172355674838 -0.02607707263758487 0 0.42722622238893299 -0.057973358210550219 0 0.41655648101844012 -0.032753989138453267 0 0.43073376650610579 -0.041662475657769517 0 0.42722622238893299 -0.057973358210550219 0 0.41655648101844012 -0.032753989138453267 0 0.43972421496428132 -0.032154685487025228 0 0.43073376650610579 -0.041662475657769517 0 0.42668802122036309 -0.032373759694607887 0 0.43073376650610579 -0.041662475657769517 0 0.42668802122036309 -0.032373759694607887 0 0.41655648101844012 -0.032753989138453267 0 0.4428309961755249 -0.049507349435999271 0 0.43073376650610579 -0.041662475657769517 0 0.42722622238893299 -0.057973358210550219 0 0.41419191219747098 -0.072870360065941026 0 0.42722622238893299 -0.057973358210550219 0 0.40906487591965263 -0.055822049730268927 0 0.42722622238893299 -0.057973358210550219 0 0.40906487591965263 -0.055822049730268927 0 0.41655648101844012 -0.032753989138453267 0 0.40906487591965263 -0.055822049730268927 0 0.41655648101844012 -0.032753989138453267 0 0.4022774121604572 -0.041402278669731021 0 0.41655648101844012 -0.032753989138453267 0 0.4022774121604572 -0.041402278669731021 0 0.40432805881315781 -0.031237119901113681 0 0.4022774121604572 -0.041402278669731021 0 0.39452501080750302 -0.052306959197886201 0 0.3847408332696165 -0.041282556495419953 0 0.4022774121604572 -0.041402278669731021 0 0.39466073553119391 -0.030851012940111021 0 0.40432805881315781 -0.031237119901113681 0 0.4022774121604572 -0.041402278669731021 0 0.3847408332696165 -0.041282556495419953 0 0.39466073553119391 -0.030851012940111021 0 0.39668539737840541 -0.072231922647281746 0 0.40906487591965263 -0.055822049730268927 0 0.39452501080750302 -0.052306959197886201 0 0.39668539737840541 -0.072231922647281746 0 0.39452501080750302 -0.052306959197886201 0 0.38278709897404289 -0.061547333989650677 0 0.40906487591965263 -0.055822049730268927 0 0.4022774121604572 -0.041402278669731021 0 0.39452501080750302 -0.052306959197886201 0 0.39452501080750302 -0.052306959197886201 0 0.38278709897404289 -0.061547333989650677 0 0.3847408332696165 -0.041282556495419953 0 0.38278709897404289 -0.061547333989650677 0 0.3847408332696165 -0.041282556495419953 0 0.36894936657637928 -0.048559567936694449 0 0.3847408332696165 -0.041282556495419953 0 0.37411394985217761 -0.031068011284242761 0 0.36894936657637928 -0.048559567936694449 0 0.3847408332696165 -0.041282556495419953 0 0.39466073553119391 -0.030851012940111021 0 0.37411394985217761 -0.031068011284242761 0 0.38644274242710941 -0.016887138421086089 0 0.39466073553119391 -0.030851012940111021 0 0.37411394985217761 -0.031068011284242761 0 0.38644274242710941 -0.016887138421086089 0 0.39466073553119391 -0.030851012940111021 0 0.40130416689942222 -0.021108371106094231 0 0.39466073553119391 -0.030851012940111021 0 0.40130416689942222 -0.021108371106094231 0 0.40432805881315781 -0.031237119901113681 0 0.38644274242710941 -0.016887138421086089 0 0.40130416689942222 -0.021108371106094231 0 0.40588673964794708 -0.0075346200663563914 0 0.37935437576721898 0.0017834357210366871 0 0.38644274242710941 -0.016887138421086089 0 0.40588673964794708 -0.0075346200663563914 0 0.37935437576721898 0.0017834357210366871 0 0.38644274242710941 -0.016887138421086089 0 0.3634917532569828 -0.014117877563667291 0 0.37935437576721898 0.0017834357210366871 0 0.3634917532569828 -0.014117877563667291 0 0.3597563791897308 0.0018133103492004501 0 0.37935437576721898 0.0017834357210366871 0 0.3634917532569828 -0.014117877563667291 0 0.37411394985217761 -0.031068011284242761 0 0.35024300250517282 -0.01283097797459235 0 0.38644274242710941 -0.016887138421086089 0 0.3634917532569828 -0.014117877563667291 0 0.37411394985217761 -0.031068011284242761 0 0.3634917532569828 -0.014117877563667291 0 0.37411394985217761 -0.031068011284242761 0 0.35024300250517282 -0.01283097797459235 0 0.37411394985217761 -0.031068011284242761 0 0.35024300250517282 -0.01283097797459235 0 0.3503288266865841 -0.036142358055027239 0 0.35024300250517282 -0.01283097797459235 0 0.3395890877745909 -0.023471501415688541 0 0.3503288266865841 -0.036142358055027239 0 0.3597563791897308 0.0018133103492004501 0 0.3634917532569828 -0.014117877563667291 0 0.35024300250517282 -0.01283097797459235 0 0.3597563791897308 0.0018133103492004501 0 0.34641115475807138 0.0057691814534639096 0 0.35024300250517282 -0.01283097797459235 0 0.32637205515816831 0.0054060553350579969 0 0.35024300250517282 -0.01283097797459235 0 0.34641115475807138 0.0057691814534639096 0 0.32637205515816831 0.0054060553350579969 0 0.35024300250517282 -0.01283097797459235 0 0.32637205515816831 0.0054060553350579969 0 0.35024300250517282 -0.01283097797459235 0 0.33157488602609497 -0.01421902812780172 0 0.35024300250517282 -0.01283097797459235 0 0.33157488602609497 -0.01421902812780172 0 0.3395890877745909 -0.023471501415688541 0 0.33157488602609497 -0.01421902812780172 0 0.3395890877745909 -0.023471501415688541 0 0.32620963588051172 -0.03069364150533287 0 0.3395890877745909 -0.023471501415688541 0 0.32620963588051172 -0.03069364150533287 0 0.3503288266865841 -0.036142358055027239 0 0.33157488602609497 -0.01421902812780172 0 0.32620963588051172 -0.03069364150533287 0 0.31466635431493811 -0.0083120406826240611 0 0.32620963588051172 -0.03069364150533287 0 0.31267737272612328 -0.023073951876764531 0 0.31466635431493811 -0.0083120406826240611 0 0.32620963588051172 -0.03069364150533287 0 0.31466635431493811 -0.0083120406826240611 0 0.31267737272612328 -0.023073951876764531 0 0.31827127982883369 -0.032063360512569757 0 0.31130705926952562 -0.029488198859399531 0 0.32620963588051172 -0.03069364150533287 0 0.31267737272612328 -0.023073951876764531 0 0.31827127982883369 -0.032063360512569757 0 0.32637205515816831 0.0054060553350579969 0 0.33157488602609497 -0.01421902812780172 0 0.31466635431493811 -0.0083120406826240611 0 0.31703792776206369 -0.059989689549852301 0 0.31961392554707968 -0.04848837579871533 0 0.31371139561421901 -0.042284835657113912 0 0.31703792776206369 -0.059989689549852301 0 0.31371139561421901 -0.042284835657113912 0 0.30793232063720333 -0.045284881717135163 0 0.31703792776206369 -0.059989689549852301 0 0.31371139561421901 -0.042284835657113912 0 0.32110028577193922 -0.056524928594911532 0 0.32773762281720659 -0.046646897156934319 0 0.32868717116166302 -0.057644014508220758 0 0.32110028577193922 -0.056524928594911532 0 0.31961392554707968 -0.04848837579871533 0 0.32773762281720659 -0.046646897156934319 0 0.32110028577193922 -0.056524928594911532 0 0.31703792776206369 -0.059989689549852301 0 0.32501600693490529 -0.065575738050368149 0 0.32110028577193922 -0.056524928594911532 0 0.32868717116166302 -0.057644014508220758 0 0.32501600693490529 -0.065575738050368149 0 0.32110028577193922 -0.056524928594911532 0 0.31703792776206369 -0.059989689549852301 0 0.31961392554707968 -0.04848837579871533 0 0.32110028577193922 -0.056524928594911532 0 0.31703792776206369 -0.059989689549852301 0 0.32620963588051172 -0.03069364150533287 0 0.32235254475713448 -0.03858536070225075 0 0.32773762281720659 -0.046646897156934319 0 0.31371139561421901 -0.042284835657113912 0 0.3177376746931061 -0.040194704842888597 0 0.31371139561421901 -0.042284835657113912 0 0.3177376746931061 -0.040194704842888597 0 0.31834245827612229 -0.043770427609520733 0 0.3177376746931061 -0.040194704842888597 0 0.31834245827612229 -0.043770427609520733 0 0.32180651056601423 -0.043328199493528202 0 0.31961392554707968 -0.04848837579871533 0 0.31371139561421901 -0.042284835657113912 0 0.31834245827612229 -0.043770427609520733 0 0.31961392554707968 -0.04848837579871533 0 0.31834245827612229 -0.043770427609520733 0 0.32180651056601423 -0.043328199493528202 0 0.31371139561421901 -0.042284835657113912 0 0.3177376746931061 -0.040194704842888597 0 0.31130705926952562 -0.029488198859399531 0 0.3177376746931061 -0.040194704842888597 0 0.31827127982883369 -0.032063360512569757 0 0.32235254475713448 -0.03858536070225075 0 0.31371139561421901 -0.042284835657113912 0 0.31130705926952562 -0.029488198859399531 0 0.3177376746931061 -0.040194704842888597 0 0.31827127982883369 -0.032063360512569757 0 0.31130705926952562 -0.029488198859399531 0 0.32620963588051172 -0.03069364150533287 0 0.31827127982883369 -0.032063360512569757 0 0.32235254475713448 -0.03858536070225075 0 0.32235254475713448 -0.03858536070225075 0 0.32773762281720659 -0.046646897156934319 0 0.32180651056601423 -0.043328199493528202 0 0.31961392554707968 -0.04848837579871533 0 0.32773762281720659 -0.046646897156934319 0 0.32180651056601423 -0.043328199493528202 0 0.3177376746931061 -0.040194704842888597 0 0.32235254475713448 -0.03858536070225075 0 0.32180651056601423 -0.043328199493528202 0 0.32620963588051172 -0.03069364150533287 0 0.33775291744608521 -0.053075242328041589 0 0.32620963588051172 -0.03069364150533287 0 0.32773762281720659 -0.046646897156934319 0 0.33775291744608521 -0.053075242328041589 0 0.32620963588051172 -0.03069364150533287 0 0.33775291744608521 -0.053075242328041589 0 0.3503288266865841 -0.036142358055027239 0 0.32773762281720659 -0.046646897156934319 0 0.33775291744608521 -0.053075242328041589 0 0.32868717116166302 -0.057644014508220758 0 0.33775291744608521 -0.053075242328041589 0 0.32868717116166302 -0.057644014508220758 0 0.33182902283817861 -0.066397266410848213 0 0.33775291744608521 -0.053075242328041589 0 0.35399729620378068 -0.056275819990368528 0 0.3503288266865841 -0.036142358055027239 0 0.33775291744608521 -0.053075242328041589 0 0.35399729620378068 -0.056275819990368528 0 0.3492961990116587 -0.075456843150750352 0 0.35399729620378068 -0.056275819990368528 0 0.3503288266865841 -0.036142358055027239 0 0.36894936657637928 -0.048559567936694449 0 0.37411394985217761 -0.031068011284242761 0 0.3503288266865841 -0.036142358055027239 0 0.36894936657637928 -0.048559567936694449 0 0.35399729620378068 -0.056275819990368528 0 0.36894936657637928 -0.048559567936694449 0 0.36631958178036778 -0.066880114204011409 0 0.38278709897404289 -0.061547333989650677 0 0.36894936657637928 -0.048559567936694449 0 0.36631958178036778 -0.066880114204011409 0 0.37752392610822172 -0.076362466609876667 0 0.36631958178036778 -0.066880114204011409 0 0.36536360380812372 -0.083078653546727874 0 0.36631958178036778 -0.066880114204011409 0 0.36536360380812372 -0.083078653546727874 0 0.3492961990116587 -0.075456843150750352 0 0.37752392610822172 -0.076362466609876667 0 0.37549924204530938 -0.097590425518224055 0 0.36536360380812372 -0.083078653546727874 0 0.37549924204530938 -0.097590425518224055 0 0.36536360380812372 -0.083078653546727874 0 0.36083948057723231 -0.097838443973459213 0 0.34807754401515489 -0.092444136986842104 0 0.3492961990116587 -0.075456843150750352 0 0.36083948057723231 -0.097838443973459213 0 0.36536360380812372 -0.083078653546727874 0 0.3492961990116587 -0.075456843150750352 0 0.36083948057723231 -0.097838443973459213 0 0.3492961990116587 -0.075456843150750352 0 0.36083948057723231 -0.097838443973459213 0 0.34807754401515489 -0.092444136986842104 0 0.3492961990116587 -0.075456843150750352 0 0.33848270169113048 -0.079370215601770169 0 0.35399729620378068 -0.056275819990368528 0 0.36631958178036778 -0.066880114204011409 0 0.3492961990116587 -0.075456843150750352 0 0.37238276214280952 -0.1202200447961662 0 0.36079293792189771 -0.11623095456181121 0 0.36083948057723231 -0.097838443973459213 0 0.37549924204530938 -0.097590425518224055 0 0.37697667654897721 -0.11432232332569579 0 0.37238276214280952 -0.1202200447961662 0 0.36079293792189771 -0.11623095456181121 0 0.35539835740838338 -0.1253017398118545 0 0.36708467456578647 -0.12702179208463271 0 0.37238276214280952 -0.1202200447961662 0 0.36079293792189771 -0.11623095456181121 0 0.36708467456578647 -0.12702179208463271 0 0.37697667654897721 -0.11432232332569579 0 0.37382079859698292 -0.12300829506131759 0 0.37238276214280952 -0.1202200447961662 0 0.37238276214280952 -0.1202200447961662 0 0.36708467456578647 -0.12702179208463271 0 0.37382079859698292 -0.12300829506131759 0 0.37238276214280952 -0.1202200447961662 0 0.36708467456578647 -0.12702179208463271 0 0.37382079859698292 -0.12300829506131759 0 0.37238276214280952 -0.1202200447961662 0 0.37697667654897721 -0.11432232332569579 0 0.37238276214280952 -0.1202200447961662 0 0.37238276214280952 -0.1202200447961662 0 0.36083948057723231 -0.097838443973459213 0 0.37549924204530938 -0.097590425518224055 0 0.37238276214280952 -0.1202200447961662 0 0.36083948057723231 -0.097838443973459213 0 0.37549924204530938 -0.097590425518224055 0 0.37238276214280952 -0.1202200447961662 0 0.36079293792189771 -0.11623095456181121 0 0.36083948057723231 -0.097838443973459213 0 0.35223595315996897 -0.1073997300621532 0 0.34807754401515489 -0.092444136986842104 0 0.36083948057723231 -0.097838443973459213 0 0.35223595315996897 -0.1073997300621532 0 0.34807754401515489 -0.092444136986842104 0 0.35223595315996897 -0.1073997300621532 0 0.33763271757814711 -0.1014410230136977 0 0.35223595315996897 -0.1073997300621532 0 0.34377751568529819 -0.11358246064858241 0 0.33763271757814711 -0.1014410230136977 0 0.36079293792189771 -0.11623095456181121 0 0.35223595315996897 -0.1073997300621532 0 0.35134767517009519 -0.1187462493860186 0 0.35223595315996897 -0.1073997300621532 0 0.34377751568529819 -0.11358246064858241 0 0.35134767517009519 -0.1187462493860186 0 0.35134767517009519 -0.1187462493860186 0 0.34454142793642728 -0.12101200713148549 0 0.34625778742515201 -0.12820748806571561 0 0.35134767517009519 -0.1187462493860186 0 0.35539835740838338 -0.1253017398118545 0 0.34625778742515201 -0.12820748806571561 0 0.34377751568529819 -0.11358246064858241 0 0.35134767517009519 -0.1187462493860186 0 0.34454142793642728 -0.12101200713148549 0 0.36079293792189771 -0.11623095456181121 0 0.35134767517009519 -0.1187462493860186 0 0.35539835740838338 -0.1253017398118545 0 0.33678273346516358 -0.1235118304256253 0 0.33763271757814711 -0.1014410230136977 0 0.33578459770778257 -0.1178055720975011 0 0.33678273346516358 -0.1235118304256253 0 0.33763271757814711 -0.1014410230136977 0 0.34377751568529819 -0.11358246064858241 0 0.33678273346516358 -0.1235118304256253 0 0.33763271757814711 -0.1014410230136977 0 0.33578459770778257 -0.1178055720975011 0 0.32870692572008292 -0.1225199295892932 0 0.32194630411017761 -0.116861499671204 0 0.33578459770778257 -0.1178055720975011 0 0.32870692572008292 -0.1225199295892932 0 0.33678273346516358 -0.1235118304256253 0 0.34454142793642728 -0.12101200713148549 0 0.33678273346516358 -0.1235118304256253 0 0.34625778742515201 -0.12820748806571561 0 0.34377751568529819 -0.11358246064858241 0 0.34454142793642728 -0.12101200713148549 0 0.33678273346516358 -0.1235118304256253 0 0.33578459770778257 -0.1178055720975011 0 0.32860090690335458 -0.1042034123147917 0 0.33763271757814711 -0.1014410230136977 0 0.33763271757814711 -0.1014410230136977 0 0.32361731650484632 -0.095007272791978084 0 0.32872999299094913 -0.084983218396845889 0 0.32860090690335458 -0.1042034123147917 0 0.33763271757814711 -0.1014410230136977 0 0.32361731650484632 -0.095007272791978084 0 0.33578459770778257 -0.1178055720975011 0 0.32860090690335458 -0.1042034123147917 0 0.31736899582264239 -0.1025597813559898 0 0.32860090690335458 -0.1042034123147917 0 0.32361731650484632 -0.095007272791978084 0 0.31736899582264239 -0.1025597813559898 0 0.32361731650484632 -0.095007272791978084 0 0.31736899582264239 -0.1025597813559898 0 0.31246589014179349 -0.087028398154133643 0 0.33578459770778257 -0.1178055720975011 0 0.31736899582264239 -0.1025597813559898 0 0.32194630411017761 -0.116861499671204 0 0.33578459770778257 -0.1178055720975011 0 0.31736899582264239 -0.1025597813559898 0 0.31736899582264239 -0.1025597813559898 0 0.32194630411017761 -0.116861499671204 0 0.30956019103790822 -0.1138844469367243 0 0.32194630411017761 -0.116861499671204 0 0.31465036980217281 -0.12434864011112851 0 0.32235694425880768 -0.12752567326658451 0 0.32194630411017761 -0.116861499671204 0 0.31465036980217281 -0.12434864011112851 0 0.30956019103790822 -0.1138844469367243 0 0.32870692572008292 -0.1225199295892932 0 0.32194630411017761 -0.116861499671204 0 0.32235694425880768 -0.12752567326658451 0 0.33775291744608521 -0.053075242328041589 0 0.3492961990116587 -0.075456843150750352 0 0.33182902283817861 -0.066397266410848213 0 0.33775291744608521 -0.053075242328041589 0 0.3492961990116587 -0.075456843150750352 0 0.3492961990116587 -0.075456843150750352 0 0.33182902283817861 -0.066397266410848213 0 0.33848270169113048 -0.079370215601770169 0 0.32958197071229239 -0.075393953680878673 0 0.33182902283817861 -0.066397266410848213 0 0.33848270169113048 -0.079370215601770169 0 0.32958197071229239 -0.075393953680878673 0 0.33182902283817861 -0.066397266410848213 0 0.32501600693490529 -0.065575738050368149 0 0.32868717116166302 -0.057644014508220758 0 0.33182902283817861 -0.066397266410848213 0 0.32501600693490529 -0.065575738050368149 0 0.33763271757814711 -0.1014410230136977 0 0.33848270169113048 -0.079370215601770169 0 0.32872999299094913 -0.084983218396845889 0 0.33763271757814711 -0.1014410230136977 0 0.33848270169113048 -0.079370215601770169 0 0.34807754401515489 -0.092444136986842104 0 0.33763271757814711 -0.1014410230136977 0 0.33848270169113048 -0.079370215601770169 0 0.32958197071229239 -0.075393953680878673 0 0.33848270169113048 -0.079370215601770169 0 0.32872999299094913 -0.084983218396845889 0 0.32361731650484632 -0.095007272791978084 0 0.32872999299094913 -0.084983218396845889 0 0.32032762213345312 -0.077498481170915581 0 0.32958197071229239 -0.075393953680878673 0 0.32872999299094913 -0.084983218396845889 0 0.32032762213345312 -0.077498481170915581 0 0.32361731650484632 -0.095007272791978084 0 0.32032762213345312 -0.077498481170915581 0 0.31246589014179349 -0.087028398154133643 0 0.32361731650484632 -0.095007272791978084 0 0.32032762213345312 -0.077498481170915581 0 0.31703792776206369 -0.059989689549852301 0 0.32032762213345312 -0.077498481170915581 0 0.30206212231052493 -0.072762464837306001 0 0.31703792776206369 -0.059989689549852301 0 0.32032762213345312 -0.077498481170915581 0 0.32501600693490529 -0.065575738050368149 0 0.31703792776206369 -0.059989689549852301 0 0.32032762213345312 -0.077498481170915581 0 0.32958197071229239 -0.075393953680878673 0 0.32032762213345312 -0.077498481170915581 0 0.32501600693490529 -0.065575738050368149 0 0.31703792776206369 -0.059989689549852301 0 0.30206212231052493 -0.072762464837306001 0 0.30206212231052493 -0.072762464837306001 0 0.2918732303865062 -0.081452510083600438 0 0.31736899582264239 -0.1025597813559898 0 0.31246589014179349 -0.087028398154133643 0 0.29895339393750192 -0.087313990614479003 0 0.32032762213345312 -0.077498481170915581 0 0.30206212231052493 -0.072762464837306001 0 0.31246589014179349 -0.087028398154133643 0 0.30206212231052493 -0.072762464837306001 0 0.29895339393750192 -0.087313990614479003 0 0.30206212231052493 -0.072762464837306001 0 0.31246589014179349 -0.087028398154133643 0 0.29895339393750192 -0.087313990614479003 0 0.30206212231052493 -0.072762464837306001 0 0.29895339393750192 -0.087313990614479003 0 0.2918732303865062 -0.081452510083600438 0 0.2918732303865062 -0.081452510083600438 0 0.28999045198328072 -0.092335949015971322 0 0.27566265744216101 -0.095278411212527725 0 0.2918732303865062 -0.081452510083600438 0 0.27566265744216101 -0.095278411212527725 0 0.29895339393750192 -0.087313990614479003 0 0.2918732303865062 -0.081452510083600438 0 0.29895339393750192 -0.087313990614479003 0 0.2918732303865062 -0.081452510083600438 0 0.28999045198328072 -0.092335949015971322 0 0.30206212231052493 -0.072762464837306001 0 0.28941114947791269 -0.068247621553731805 0 0.28957200895157231 -0.054816126934128503 0 0.2918732303865062 -0.081452510083600438 0 0.27121169726594008 -0.064347372151119547 0 0.2918732303865062 -0.081452510083600438 0 0.28941114947791269 -0.068247621553731805 0 0.27121169726594008 -0.064347372151119547 0 0.30206212231052493 -0.072762464837306001 0 0.2918732303865062 -0.081452510083600438 0 0.28941114947791269 -0.068247621553731805 0 0.30956019103790822 -0.1138844469367243 0 0.29472796973241999 -0.1070926144959695 0 0.30427239881837681 -0.12542171103814109 0 0.31465036980217281 -0.12434864011112851 0 0.30956019103790822 -0.1138844469367243 0 0.30427239881837681 -0.12542171103814109 0 0.31736899582264239 -0.1025597813559898 0 0.29895339393750192 -0.087313990614479003 0 0.31736899582264239 -0.1025597813559898 0 0.29895339393750192 -0.087313990614479003 0 0.30515263763261802 -0.1027127083507906 0 0.29895339393750192 -0.087313990614479003 0 0.30515263763261802 -0.1027127083507906 0 0.29472796973241999 -0.1070926144959695 0 0.30956019103790822 -0.1138844469367243 0 0.30515263763261802 -0.1027127083507906 0 0.29472796973241999 -0.1070926144959695 0 0.31736899582264239 -0.1025597813559898 0 0.30956019103790822 -0.1138844469367243 0 0.30515263763261802 -0.1027127083507906 0 0.29895339393750192 -0.087313990614479003 0 0.28999045198328072 -0.092335949015971322 0 0.29472796973241999 -0.1070926144959695 0 0.29895339393750192 -0.087313990614479003 0 0.29472796973241999 -0.1070926144959695 0 0.28999045198328072 -0.092335949015971322 0 0.28667858952443531 -0.099757478989872875 0 0.29472796973241999 -0.1070926144959695 0 0.28999045198328072 -0.092335949015971322 0 0.28667858952443531 -0.099757478989872875 0 0.27566265744216101 -0.095278411212527725 0 0.28667858952443531 -0.099757478989872875 0 0.28571677358664521 -0.11025429378044869 0 0.27566265744216101 -0.095278411212527725 0 0.28667858952443531 -0.099757478989872875 0 0.29472796973241999 -0.1070926144959695 0 0.28571677358664521 -0.11025429378044869 0 0.27789459767294372 -0.1236820405587717 0 0.2797956002438387 -0.1108929097088911 0 0.29050254552734162 -0.1268712383774607 0 0.29472796973241999 -0.1070926144959695 0 0.28571677358664521 -0.11025429378044869 0 0.29050254552734162 -0.1268712383774607 0 0.29472796973241999 -0.1070926144959695 0 0.29050254552734162 -0.1268712383774607 0 0.30427239881837681 -0.12542171103814109 0 0.28571677358664521 -0.11025429378044869 0 0.2797956002438387 -0.1108929097088911 0 0.29050254552734162 -0.1268712383774607 0 0.2797956002438387 -0.1108929097088911 0 0.29050254552734162 -0.1268712383774607 0 0.29472796973241999 -0.1070926144959695 0 0.29050254552734162 -0.1268712383774607 0 0.27789459767294372 -0.1236820405587717 0 0.26918952028613591 -0.1161249156824522 0 0.26811979715534262 -0.13065984817790871 0 0.27789459767294372 -0.1236820405587717 0 0.2797956002438387 -0.1108929097088911 0 0.26918952028613591 -0.1161249156824522 0 0.26918952028613591 -0.1161249156824522 0 0.27566265744216101 -0.095278411212527725 0 0.25952857979713628 -0.1090390699561984 0 0.27566265744216101 -0.095278411212527725 0 0.25952857979713628 -0.1090390699561984 0 0.2797956002438387 -0.1108929097088911 0 0.26918952028613591 -0.1161249156824522 0 0.27566265744216101 -0.095278411212527725 0 0.28571677358664521 -0.11025429378044869 0 0.2797956002438387 -0.1108929097088911 0 0.27566265744216101 -0.095278411212527725 0 0.28571677358664521 -0.11025429378044869 0 0.27566265744216101 -0.095278411212527725 0 0.27566265744216101 -0.095278411212527725 0 0.25952857979713628 -0.1090390699561984 0 0.24771348206734081 -0.093011461863686695 0 0.25952857979713628 -0.1090390699561984 0 0.25731749019477168 -0.12594871318621209 0 0.24339450215211089 -0.1227997286998682 0 0.25952857979713628 -0.1090390699561984 0 0.24339450215211089 -0.1227997286998682 0 0.26918952028613591 -0.1161249156824522 0 0.25952857979713628 -0.1090390699561984 0 0.25731749019477168 -0.12594871318621209 0 0.26918952028613591 -0.1161249156824522 0 0.25731749019477168 -0.12594871318621209 0 0.26811979715534262 -0.13065984817790871 0 0.2918732303865062 -0.081452510083600438 0 0.27121169726594008 -0.064347372151119547 0 0.27528631600214731 -0.078659855458645581 0 0.27121169726594008 -0.064347372151119547 0 0.27528631600214731 -0.078659855458645581 0 0.25911341479341748 -0.070627859047226349 0 0.27566265744216101 -0.095278411212527725 0 0.25911341479341748 -0.070627859047226349 0 0.27566265744216101 -0.095278411212527725 0 0.27528631600214731 -0.078659855458645581 0 0.25911341479341748 -0.070627859047226349 0 0.2918732303865062 -0.081452510083600438 0 0.27566265744216101 -0.095278411212527725 0 0.27528631600214731 -0.078659855458645581 0 0.27566265744216101 -0.095278411212527725 0 0.25911341479341748 -0.070627859047226349 0 0.24771348206734081 -0.093011461863686695 0 0.25911341479341748 -0.070627859047226349 0 0.24771348206734081 -0.093011461863686695 0 0.25911341479341748 -0.070627859047226349 0 0.24865985591140999 -0.07605453343057085 0 0.24771348206734081 -0.093011461863686695 0 0.25911341479341748 -0.070627859047226349 0 0.24865985591140999 -0.07605453343057085 0 0.25911341479341748 -0.070627859047226349 0 0.25097550182825579 -0.067858360500835699 0 0.24865985591140999 -0.07605453343057085 0 0.27121169726594008 -0.064347372151119547 0 0.25911341479341748 -0.070627859047226349 0 0.26398545536117279 -0.058364957206727443 0 0.27121169726594008 -0.064347372151119547 0 0.25911341479341748 -0.070627859047226349 0 0.25911341479341748 -0.070627859047226349 0 0.26398545536117279 -0.058364957206727443 0 0.25911341479341748 -0.070627859047226349 0 0.25097550182825579 -0.067858360500835699 0 0.25011840933587692 -0.057229550981744648 0 0.25911341479341748 -0.070627859047226349 0 0.25011840933587692 -0.057229550981744648 0 0.26398545536117279 -0.058364957206727443 0 0.24192092630024439 -0.040098315965731553 0 0.25911341479341748 -0.070627859047226349 0 0.25011840933587692 -0.057229550981744648 0 0.26398545536117279 -0.058364957206727443 0 0.25011840933587692 -0.057229550981744648 0 0.26398545536117279 -0.058364957206727443 0 0.24192092630024439 -0.040098315965731553 0 0.27121169726594008 -0.064347372151119547 0 0.26398545536117279 -0.058364957206727443 0 0.28957200895157231 -0.054816126934128503 0 0.26398545536117279 -0.058364957206727443 0 0.27613838751093822 -0.03248877042107555 0 0.28957200895157231 -0.054816126934128503 0 0.27121169726594008 -0.064347372151119547 0 0.28957200895157231 -0.054816126934128503 0 0.27121169726594008 -0.064347372151119547 0 0.26398545536117279 -0.058364957206727443 0 0.26398545536117279 -0.058364957206727443 0 0.27613838751093822 -0.03248877042107555 0 0.26398545536117279 -0.058364957206727443 0 0.27613838751093822 -0.03248877042107555 0 0.26162422404882868 -0.035350330703332447 0 0.26398545536117279 -0.058364957206727443 0 0.25375313424769591 -0.039650162925027828 0 0.24192092630024439 -0.040098315965731553 0 0.26398545536117279 -0.058364957206727443 0 0.26162422404882868 -0.035350330703332447 0 0.25375313424769591 -0.039650162925027828 0 0.26162422404882868 -0.035350330703332447 0 0.25375313424769591 -0.039650162925027828 0 0.25178175771781741 -0.028332578758821132 0 0.25178175771781741 -0.028332578758821132 0 0.26462077412580809 -0.01996201495963534 0 0.24437885508449611 -0.014169464230963959 0 0.26162422404882868 -0.035350330703332447 0 0.25178175771781741 -0.028332578758821132 0 0.26462077412580809 -0.01996201495963534 0 0.26462077412580809 -0.01996201495963534 0 0.26551010073206821 -0.002818362008196715 0 0.24437885508449611 -0.014169464230963959 0 0.24683678386874991 0.011759387503803471 0 0.26551010073206821 -0.002818362008196715 0 0.24437885508449611 -0.014169464230963959 0 0.26462077412580809 -0.01996201495963534 0 0.26551010073206821 -0.002818362008196715 0 0.28829131966070071 -0.0066125836354222764 0 0.27613838751093822 -0.03248877042107555 0 0.26462077412580809 -0.01996201495963534 0 0.28829131966070071 -0.0066125836354222764 0 0.27613838751093822 -0.03248877042107555 0 0.26162422404882868 -0.035350330703332447 0 0.26462077412580809 -0.01996201495963534 0 0.27613838751093822 -0.03248877042107555 0 0.29510575377019949 -0.02276801052700856 0 0.29347087893149493 -0.037392288578006722 0 0.27613838751093822 -0.03248877042107555 0 0.28829131966070071 -0.0066125836354222764 0 0.27613838751093822 -0.03248877042107555 0 0.29510575377019949 -0.02276801052700856 0 0.28829131966070071 -0.0066125836354222764 0 0.29510575377019949 -0.02276801052700856 0 0.28829131966070071 -0.0066125836354222764 0 0.3072150660094447 -0.007709319359657428 0 0.30312307274936412 0.01406956014008471 0 0.31466635431493811 -0.0083120406826240611 0 0.3072150660094447 -0.007709319359657428 0 0.30312307274936412 0.01406956014008471 0 0.28829131966070071 -0.0066125836354222764 0 0.3072150660094447 -0.007709319359657428 0 0.31267737272612328 -0.023073951876764531 0 0.31466635431493811 -0.0083120406826240611 0 0.3072150660094447 -0.007709319359657428 0 0.29510575377019949 -0.02276801052700856 0 0.31130705926952562 -0.029488198859399531 0 0.29347087893149493 -0.037392288578006722 0 0.29510575377019949 -0.02276801052700856 0 0.3072150660094447 -0.007709319359657428 0 0.31130705926952562 -0.029488198859399531 0 0.31267737272612328 -0.023073951876764531 0 0.3072150660094447 -0.007709319359657428 0 0.31130705926952562 -0.029488198859399531 0 0.3072150660094447 -0.007709319359657428 0 0.31130705926952562 -0.029488198859399531 0 0.31267737272612328 -0.023073951876764531 0 0.31130705926952562 -0.029488198859399531 0 0.31130705926952562 -0.029488198859399531 0 0.30793232063720333 -0.045284881717135163 0 0.30793232063720333 -0.045284881717135163 0 0.28957200895157231 -0.054816126934128503 0 0.29347087893149493 -0.037392288578006722 0 0.31130705926952562 -0.029488198859399531 0 0.30793232063720333 -0.045284881717135163 0 0.29347087893149493 -0.037392288578006722 0 0.31371139561421901 -0.042284835657113912 0 0.31130705926952562 -0.029488198859399531 0 0.30793232063720333 -0.045284881717135163 0 0.31371139561421901 -0.042284835657113912 0 0.30793232063720333 -0.045284881717135163 0 0.30793232063720333 -0.045284881717135163 0 0.28957200895157231 -0.054816126934128503 0 0.30206212231052493 -0.072762464837306001 0 0.30793232063720333 -0.045284881717135163 0 0.30206212231052493 -0.072762464837306001 0 0.30793232063720333 -0.045284881717135163 0 0.28957200895157231 -0.054816126934128503 0 0.31703792776206369 -0.059989689549852301 0 0.30206212231052493 -0.072762464837306001 0 0.30793232063720333 -0.045284881717135163 0 0.28941114947791269 -0.068247621553731805 0 0.27121169726594008 -0.064347372151119547 0 0.28957200895157231 -0.054816126934128503 0 0.27613838751093822 -0.03248877042107555 0 0.28957200895157231 -0.054816126934128503 0 0.29347087893149493 -0.037392288578006722 0 0.2901895543718942 -0.20331358251174389 0 0.28882855761837217 -0.21822828656883059 0 0.27276318420427342 -0.21171587410284631 0 0.2901895543718942 -0.20331358251174389 0 0.28882855761837217 -0.21822828656883059 0 0.30257728722900651 -0.20641095801939141 0 0.2901895543718942 -0.20331358251174389 0 0.2864673315485971 -0.18857269096870971 0 0.27276318420427342 -0.21171587410284631 0 0.2901895543718942 -0.20331358251174389 0 0.2864673315485971 -0.18857269096870971 0 0.30031141125922212 -0.19164010289894151 0 0.2901895543718942 -0.20331358251174389 0 0.30031141125922212 -0.19164010289894151 0 0.30257728722900651 -0.20641095801939141 0 0.30257728722900651 -0.20641095801939141 0 0.31873946476964099 -0.20927867747335119 0 0.31580565348166872 -0.19285440386061531 0 0.30031141125922212 -0.19164010289894151 0 0.31492602693197308 -0.18223776800018221 0 0.31580565348166872 -0.19285440386061531 0 0.30031141125922212 -0.19164010289894151 0 0.30257728722900651 -0.20641095801939141 0 0.31580565348166872 -0.19285440386061531 0 0.30257728722900651 -0.20641095801939141 0 0.30328234079198207 -0.2277988607956889 0 0.31873946476964099 -0.20927867747335119 0 0.30328234079198207 -0.2277988607956889 0 0.31873946476964099 -0.20927867747335119 0 0.28882855761837217 -0.21822828656883059 0 0.30257728722900651 -0.20641095801939141 0 0.30328234079198207 -0.2277988607956889 0 0.30328234079198207 -0.2277988607956889 0 0.31977706647397991 -0.2285397872168615 0 0.31130958313709772 -0.25056939357745778 0 0.30328234079198207 -0.2277988607956889 0 0.28782521681432333 -0.2463190441180266 0 0.31130958313709772 -0.25056939357745778 0 0.30328234079198207 -0.2277988607956889 0 0.28782521681432333 -0.2463190441180266 0 0.28882855761837217 -0.21822828656883059 0 0.28782521681432333 -0.2463190441180266 0 0.27519627496391352 -0.2287856402620693 0 0.28882855761837217 -0.21822828656883059 0 0.30328234079198207 -0.2277988607956889 0 0.28782521681432333 -0.2463190441180266 0 0.27519627496391352 -0.2287856402620693 0 0.25905903685994958 -0.2348590572369828 0 0.27276318420427342 -0.21171587410284631 0 0.25905903685994958 -0.2348590572369828 0 0.27276318420427342 -0.21171587410284631 0 0.28882855761837217 -0.21822828656883059 0 0.27519627496391352 -0.2287856402620693 0 0.27276318420427342 -0.21171587410284631 0 0.28782521681432333 -0.2463190441180266 0 0.27519627496391352 -0.2287856402620693 0 0.2630291194435031 -0.25044460028586613 0 0.27519627496391352 -0.2287856402620693 0 0.25905903685994958 -0.2348590572369828 0 0.2630291194435031 -0.25044460028586613 0 0.25905903685994958 -0.2348590572369828 0 0.2630291194435031 -0.25044460028586613 0 0.24535488951562551 -0.25800224037111918 0 0.25905903685994958 -0.2348590572369828 0 0.24535488951562551 -0.25800224037111918 0 0.25905903685994958 -0.2348590572369828 0 0.25377173369077372 -0.2124540150332884 0 0.27276318420427342 -0.21171587410284631 0 0.25905903685994958 -0.2348590572369828 0 0.25377173369077372 -0.2124540150332884 0 0.246779265349475 -0.2239407451329273 0 0.25377173369077372 -0.2124540150332884 0 0.27276318420427342 -0.21171587410284631 0 0.26428846876708367 -0.19263317335286001 0 0.2864673315485971 -0.18857269096870971 0 0.27276318420427342 -0.21171587410284631 0 0.2864673315485971 -0.18857269096870971 0 0.27276318420427342 -0.21171587410284631 0 0.26428846876708367 -0.19263317335286001 0 0.26428846876708367 -0.19263317335286001 0 0.26138513676447039 -0.18815136968462029 0 0.23675620859229421 -0.20398690512122819 0 0.25377173369077372 -0.2124540150332884 0 0.26428846876708367 -0.19263317335286001 0 0.23675620859229421 -0.20398690512122819 0 0.26428846876708367 -0.19263317335286001 0 0.23675620859229421 -0.20398690512122819 0 0.26138513676447039 -0.18815136968462029 0 0.25281650411849421 -0.1846040055569744 0 0.24663725417394089 -0.1905812705241178 0 0.25281650411849421 -0.1846040055569744 0 0.25262994893466689 -0.17791068797942161 0 0.2449674821271535 -0.18293464922919139 0 0.26138513676447039 -0.18815136968462029 0 0.25281650411849421 -0.1846040055569744 0 0.25808188072313482 -0.1824945048360759 0 0.25281650411849421 -0.1846040055569744 0 0.25808188072313482 -0.1824945048360759 0 0.25262994893466689 -0.17791068797942161 0 0.25808188072313482 -0.1824945048360759 0 0.26082609047061939 -0.17826782134071259 0 0.26717344057860842 -0.17920306991830409 0 0.26138513676447039 -0.18815136968462029 0 0.25808188072313482 -0.1824945048360759 0 0.26717344057860842 -0.17920306991830409 0 0.26082609047061939 -0.17826782134071259 0 0.26406130906314701 -0.17038826627577469 0 0.26956002999817108 -0.1747858194820994 0 0.26082609047061939 -0.17826782134071259 0 0.25822198686113851 -0.1734069945338598 0 0.26406130906314701 -0.17038826627577469 0 0.26082609047061939 -0.17826782134071259 0 0.25822198686113851 -0.1734069945338598 0 0.25262994893466689 -0.17791068797942161 0 0.25808188072313482 -0.1824945048360759 0 0.26082609047061939 -0.17826782134071259 0 0.25262994893466689 -0.17791068797942161 0 0.25262994893466689 -0.17791068797942161 0 0.25449806329141439 -0.1681487817390932 0 0.24506882269397101 -0.17532202276439099 0 0.25822198686113851 -0.1734069945338598 0 0.25262994893466689 -0.17791068797942161 0 0.25449806329141439 -0.1681487817390932 0 0.25449806329141439 -0.1681487817390932 0 0.25185696020268089 -0.1592535805797782 0 0.2444564780514048 -0.167140705308327 0 0.25449806329141439 -0.1681487817390932 0 0.25185696020268089 -0.1592535805797782 0 0.2614702897089588 -0.16060263255398119 0 0.25185696020268089 -0.1592535805797782 0 0.2614702897089588 -0.16060263255398119 0 0.26082237698736882 -0.150721273683947 0 0.25822198686113851 -0.1734069945338598 0 0.25449806329141439 -0.1681487817390932 0 0.26406130906314701 -0.17038826627577469 0 0.2614702897089588 -0.16060263255398119 0 0.26406130906314701 -0.17038826627577469 0 0.26976732331432768 -0.16347745048805831 0 0.25449806329141439 -0.1681487817390932 0 0.2614702897089588 -0.16060263255398119 0 0.26406130906314701 -0.17038826627577469 0 0.26406130906314701 -0.17038826627577469 0 0.27414696219302009 -0.16941853592734629 0 0.26956002999817108 -0.1747858194820994 0 0.26406130906314701 -0.17038826627577469 0 0.26976732331432768 -0.16347745048805831 0 0.27414696219302009 -0.16941853592734629 0 0.26976732331432768 -0.16347745048805831 0 0.27414696219302009 -0.16941853592734629 0 0.27565641393144391 -0.16504644016991521 0 0.2614702897089588 -0.16060263255398119 0 0.26976732331432768 -0.16347745048805831 0 0.27127545728058938 -0.15396110787429421 0 0.26976732331432768 -0.16347745048805831 0 0.27690664545715421 -0.15970524482509951 0 0.27127545728058938 -0.15396110787429421 0 0.26976732331432768 -0.16347745048805831 0 0.27690664545715421 -0.15970524482509951 0 0.27565641393144391 -0.16504644016991521 0 0.27690664545715421 -0.15970524482509951 0 0.27565641393144391 -0.16504644016991521 0 0.28180472476127372 -0.16758452943915661 0 0.27414696219302009 -0.16941853592734629 0 0.28601406493664638 -0.17231583424801261 0 0.28180472476127372 -0.16758452943915661 0 0.27414696219302009 -0.16941853592734629 0 0.27565641393144391 -0.16504644016991521 0 0.28180472476127372 -0.16758452943915661 0 0.27414696219302009 -0.16941853592734629 0 0.26956002999817108 -0.1747858194820994 0 0.28601406493664638 -0.17231583424801261 0 0.26428846876708367 -0.19263317335286001 0 0.29182072894187339 -0.18127944158449191 0 0.26956002999817108 -0.1747858194820994 0 0.26717344057860842 -0.17920306991830409 0 0.28601406493664638 -0.17231583424801261 0 0.26138513676447039 -0.18815136968462029 0 0.28601406493664638 -0.17231583424801261 0 0.26428846876708367 -0.19263317335286001 0 0.29182072894187339 -0.18127944158449191 0 0.28601406493664638 -0.17231583424801261 0 0.2864673315485971 -0.18857269096870971 0 0.26428846876708367 -0.19263317335286001 0 0.29182072894187339 -0.18127944158449191 0 0.26138513676447039 -0.18815136968462029 0 0.26717344057860842 -0.17920306991830409 0 0.28601406493664638 -0.17231583424801261 0 0.26428846876708367 -0.19263317335286001 0 0.26138513676447039 -0.18815136968462029 0 0.28601406493664638 -0.17231583424801261 0 0.26082609047061939 -0.17826782134071259 0 0.26956002999817108 -0.1747858194820994 0 0.26717344057860842 -0.17920306991830409 0 0.25731749019477168 -0.12594871318621209 0 0.25840274825081178 -0.13947585341175081 0 0.26811979715534262 -0.13065984817790871 0 0.25731749019477168 -0.12594871318621209 0 0.25840274825081178 -0.13947585341175081 0 0.24526979352709261 -0.13759286318909431 0 0.25840274825081178 -0.13947585341175081 0 0.26082237698736882 -0.150721273683947 0 0.2724122683822201 -0.1423401572430712 0 0.25840274825081178 -0.13947585341175081 0 0.26082237698736882 -0.150721273683947 0 0.2495687825012961 -0.14881593215434519 0 0.25840274825081178 -0.13947585341175081 0 0.24526979352709261 -0.13759286318909431 0 0.2495687825012961 -0.14881593215434519 0 0.25185696020268089 -0.1592535805797782 0 0.26082237698736882 -0.150721273683947 0 0.2495687825012961 -0.14881593215434519 0 0.2614702897089588 -0.16060263255398119 0 0.26082237698736882 -0.150721273683947 0 0.27127545728058938 -0.15396110787429421 0 0.26082237698736882 -0.150721273683947 0 0.27127545728058938 -0.15396110787429421 0 0.2724122683822201 -0.1423401572430712 0 0.27690664545715421 -0.15970524482509951 0 0.27127545728058938 -0.15396110787429421 0 0.28615363514430608 -0.14722788390830829 0 0.2724122683822201 -0.1423401572430712 0 0.27901656877643027 -0.134156233653104 0 0.28615363514430608 -0.14722788390830829 0 0.27127545728058938 -0.15396110787429421 0 0.2724122683822201 -0.1423401572430712 0 0.28615363514430608 -0.14722788390830829 0 0.25840274825081178 -0.13947585341175081 0 0.2724122683822201 -0.1423401572430712 0 0.26811979715534262 -0.13065984817790871 0 0.2724122683822201 -0.1423401572430712 0 0.27901656877643027 -0.134156233653104 0 0.26811979715534262 -0.13065984817790871 0 0.27789459767294372 -0.1236820405587717 0 0.27901656877643027 -0.134156233653104 0 0.26811979715534262 -0.13065984817790871 0 0.29050254552734162 -0.1268712383774607 0 0.28615363514430608 -0.14722788390830829 0 0.3014642783353978 -0.14322979489814 0 0.29050254552734162 -0.1268712383774607 0 0.28615363514430608 -0.14722788390830829 0 0.29050254552734162 -0.1268712383774607 0 0.3014642783353978 -0.14322979489814 0 0.27901656877643027 -0.134156233653104 0 0.29050254552734162 -0.1268712383774607 0 0.28615363514430608 -0.14722788390830829 0 0.27789459767294372 -0.1236820405587717 0 0.27901656877643027 -0.134156233653104 0 0.29050254552734162 -0.1268712383774607 0 0.28615363514430608 -0.14722788390830829 0 0.29974744506395989 -0.154341337973496 0 0.3014642783353978 -0.14322979489814 0 0.28615363514430608 -0.14722788390830829 0 0.29974744506395989 -0.154341337973496 0 0.29460164558867619 -0.16100540250895509 0 0.31188588133795148 -0.14717196384583939 0 0.3014642783353978 -0.14322979489814 0 0.31242601114345242 -0.15958835141882041 0 0.29974744506395989 -0.154341337973496 0 0.3014642783353978 -0.14322979489814 0 0.31242601114345242 -0.15958835141882041 0 0.3014642783353978 -0.14322979489814 0 0.31242601114345242 -0.15958835141882041 0 0.31188588133795148 -0.14717196384583939 0 0.3014642783353978 -0.14322979489814 0 0.31472903847502348 -0.13710353140942441 0 0.3014642783353978 -0.14322979489814 0 0.30427239881837681 -0.12542171103814109 0 0.31472903847502348 -0.13710353140942441 0 0.29050254552734162 -0.1268712383774607 0 0.3014642783353978 -0.14322979489814 0 0.30427239881837681 -0.12542171103814109 0 0.31465036980217281 -0.12434864011112851 0 0.30427239881837681 -0.12542171103814109 0 0.31472903847502348 -0.13710353140942441 0 0.29182072894187339 -0.18127944158449191 0 0.28601406493664638 -0.17231583424801261 0 0.29645020237942271 -0.1709592677514096 0 0.2864673315485971 -0.18857269096870971 0 0.30031141125922212 -0.19164010289894151 0 0.29182072894187339 -0.18127944158449191 0 0.28615363514430608 -0.14722788390830829 0 0.28180472476127372 -0.16758452943915661 0 0.27690664545715421 -0.15970524482509951 0 0.28615363514430608 -0.14722788390830829 0 0.28180472476127372 -0.16758452943915661 0 0.28601406493664638 -0.17231583424801261 0 0.28180472476127372 -0.16758452943915661 0 0.28900485456206498 -0.16381858357116841 0 0.28615363514430608 -0.14722788390830829 0 0.28180472476127372 -0.16758452943915661 0 0.28900485456206498 -0.16381858357116841 0 0.28615363514430608 -0.14722788390830829 0 0.28900485456206498 -0.16381858357116841 0 0.29460164558867619 -0.16100540250895509 0 0.28900485456206498 -0.16381858357116841 0 0.29460164558867619 -0.16100540250895509 0 0.29645020237942271 -0.1709592677514096 0 0.28601406493664638 -0.17231583424801261 0 0.28900485456206498 -0.16381858357116841 0 0.29645020237942271 -0.1709592677514096 0 0.29645020237942271 -0.1709592677514096 0 0.30336575277739569 -0.1649866071240757 0 0.31935298911666288 -0.16992570981612401 0 0.30336575277739569 -0.1649866071240757 0 0.31242601114345242 -0.15958835141882041 0 0.31935298911666288 -0.16992570981612401 0 0.29460164558867619 -0.16100540250895509 0 0.29645020237942271 -0.1709592677514096 0 0.30336575277739569 -0.1649866071240757 0 0.29974744506395989 -0.154341337973496 0 0.29460164558867619 -0.16100540250895509 0 0.30336575277739569 -0.1649866071240757 0 0.30336575277739569 -0.1649866071240757 0 0.31242601114345242 -0.15958835141882041 0 0.29974744506395989 -0.154341337973496 0 0.30336575277739569 -0.1649866071240757 0 0.31242601114345242 -0.15958835141882041 0 0.29182072894187339 -0.18127944158449191 0 0.31492602693197308 -0.18223776800018221 0 0.31935298911666288 -0.16992570981612401 0 0.29182072894187339 -0.18127944158449191 0 0.29645020237942271 -0.1709592677514096 0 0.31935298911666288 -0.16992570981612401 0 0.30031141125922212 -0.19164010289894151 0 0.29182072894187339 -0.18127944158449191 0 0.31492602693197308 -0.18223776800018221 0 0.29182072894187339 -0.18127944158449191 0 0.31935298911666288 -0.16992570981612401 0 0.31492602693197308 -0.18223776800018221 0 0.32543503730700107 -0.18049208738863859 0 0.31580565348166872 -0.19285440386061531 0 0.32543503730700107 -0.18049208738863859 0 0.31580565348166872 -0.19285440386061531 0 0.32543503730700107 -0.18049208738863859 0 0.32278117042989612 -0.17504169820570381 0 0.33506442113233381 -0.16812977091666209 0 0.31492602693197308 -0.18223776800018221 0 0.32543503730700107 -0.18049208738863859 0 0.32278117042989612 -0.17504169820570381 0 0.32278117042989612 -0.17504169820570381 0 0.31935298911666288 -0.16992570981612401 0 0.31492602693197308 -0.18223776800018221 0 0.32278117042989612 -0.17504169820570381 0 0.31935298911666288 -0.16992570981612401 0 0.31935298911666288 -0.16992570981612401 0 0.3254907552331423 -0.16047896798754049 0 0.33524768687153139 -0.16337106687354189 0 0.31935298911666288 -0.16992570981612401 0 0.33524768687153139 -0.16337106687354189 0 0.32278117042989612 -0.17504169820570381 0 0.31935298911666288 -0.16992570981612401 0 0.33506442113233381 -0.16812977091666209 0 0.31242601114345242 -0.15958835141882041 0 0.31935298911666288 -0.16992570981612401 0 0.31242601114345242 -0.15958835141882041 0 0.31935298911666288 -0.16992570981612401 0 0.3254907552331423 -0.16047896798754049 0 0.31242601114345242 -0.15958835141882041 0 0.3254907552331423 -0.16047896798754049 0 0.32655953527369658 -0.15116735786776639 0 0.31935298911666288 -0.16992570981612401 0 0.33506442113233381 -0.16812977091666209 0 0.33524768687153139 -0.16337106687354189 0 0.33506442113233381 -0.16812977091666209 0 0.33524768687153139 -0.16337106687354189 0 0.3254907552331423 -0.16047896798754049 0 0.33524768687153139 -0.16337106687354189 0 0.3356080830871897 -0.15401296788525901 0 0.33524768687153139 -0.16337106687354189 0 0.3356080830871897 -0.15401296788525901 0 0.34043847896555829 -0.16123049211771581 0 0.3356080830871897 -0.15401296788525901 0 0.34400381059896368 -0.15665327733645951 0 0.33524768687153139 -0.16337106687354189 0 0.34043847896555829 -0.16123049211771581 0 0.3356080830871897 -0.15401296788525901 0 0.33524768687153139 -0.16337106687354189 0 0.34043847896555829 -0.16123049211771581 0 0.34226577709029582 -0.16047695235609069 0 0.34043847896555829 -0.16123049211771581 0 0.34283934347723538 -0.16542603964217459 0 0.34226577709029582 -0.16047695235609069 0 0.34043847896555829 -0.16123049211771581 0 0.34226577709029582 -0.16047695235609069 0 0.34043847896555829 -0.16123049211771581 0 0.34400381059896368 -0.15665327733645951 0 0.34043847896555829 -0.16123049211771581 0 0.34400381059896368 -0.15665327733645951 0 0.33506442113233381 -0.16812977091666209 0 0.34283934347723538 -0.16542603964217459 0 0.34613879547604931 -0.17194612786331739 0 0.33506442113233381 -0.16812977091666209 0 0.34043847896555829 -0.16123049211771581 0 0.33506442113233381 -0.16812977091666209 0 0.34043847896555829 -0.16123049211771581 0 0.34283934347723538 -0.16542603964217459 0 0.33506442113233381 -0.16812977091666209 0 0.33524768687153139 -0.16337106687354189 0 0.34043847896555829 -0.16123049211771581 0 0.33506442113233381 -0.16812977091666209 0 0.33419658874730002 -0.19075849415101331 0 0.32543503730700107 -0.18049208738863859 0 0.33506442113233381 -0.16812977091666209 0 0.33419658874730002 -0.19075849415101331 0 0.33506442113233381 -0.16812977091666209 0 0.34643535054657948 -0.1837828614192841 0 0.33419658874730002 -0.19075849415101331 0 0.33506442113233381 -0.16812977091666209 0 0.34643535054657948 -0.1837828614192841 0 0.34613879547604931 -0.17194612786331739 0 0.32543503730700107 -0.18049208738863859 0 0.33506442113233381 -0.16812977091666209 0 0.32870692572008292 -0.1225199295892932 0 0.32235694425880768 -0.12752567326658451 0 0.32889988846692919 -0.1295198064734436 0 0.32235694425880768 -0.12752567326658451 0 0.32520913897846082 -0.13480063234501341 0 0.32889988846692919 -0.1295198064734436 0 0.31465036980217281 -0.12434864011112851 0 0.32235694425880768 -0.12752567326658451 0 0.31472903847502348 -0.13710353140942441 0 0.31472903847502348 -0.13710353140942441 0 0.32520913897846082 -0.13480063234501341 0 0.32503032543995281 -0.14268986351485391 0 0.32520913897846082 -0.13480063234501341 0 0.32503032543995281 -0.14268986351485391 0 0.33037096714053821 -0.1352209541192986 0 0.32235694425880768 -0.12752567326658451 0 0.31472903847502348 -0.13710353140942441 0 0.32520913897846082 -0.13480063234501341 0 0.32503032543995281 -0.14268986351485391 0 0.31892419739793221 -0.14876617765697281 0 0.32655953527369658 -0.15116735786776639 0 0.31472903847502348 -0.13710353140942441 0 0.32503032543995281 -0.14268986351485391 0 0.31892419739793221 -0.14876617765697281 0 0.31188588133795148 -0.14717196384583939 0 0.31472903847502348 -0.13710353140942441 0 0.31892419739793221 -0.14876617765697281 0 0.31188588133795148 -0.14717196384583939 0 0.31242601114345242 -0.15958835141882041 0 0.31892419739793221 -0.14876617765697281 0 0.31242601114345242 -0.15958835141882041 0 0.31892419739793221 -0.14876617765697281 0 0.32655953527369658 -0.15116735786776639 0 0.31242601114345242 -0.15958835141882041 0 0.32655953527369658 -0.15116735786776639 0 0.31892419739793221 -0.14876617765697281 0 0.32655953527369658 -0.15116735786776639 0 0.3356080830871897 -0.15401296788525901 0 0.33593274935218242 -0.1455826378375531 0 0.32655953527369658 -0.15116735786776639 0 0.3356080830871897 -0.15401296788525901 0 0.3254907552331423 -0.16047896798754049 0 0.32655953527369658 -0.15116735786776639 0 0.3356080830871897 -0.15401296788525901 0 0.32655953527369658 -0.15116735786776639 0 0.3356080830871897 -0.15401296788525901 0 0.33593274935218242 -0.1455826378375531 0 0.3356080830871897 -0.15401296788525901 0 0.34032497089855718 -0.15061240195343989 0 0.34400381059896368 -0.15665327733645951 0 0.3356080830871897 -0.15401296788525901 0 0.34400381059896368 -0.15665327733645951 0 0.3356080830871897 -0.15401296788525901 0 0.34032497089855718 -0.15061240195343989 0 0.33593274935218242 -0.1455826378375531 0 0.34032497089855718 -0.15061240195343989 0 0.34575524055589563 -0.14620072475448859 0 0.34400381059896368 -0.15665327733645951 0 0.33593274935218242 -0.1455826378375531 0 0.35150871195898548 -0.13630221496109449 0 0.34032497089855718 -0.15061240195343989 0 0.33593274935218242 -0.1455826378375531 0 0.34575524055589563 -0.14620072475448859 0 0.32503032543995281 -0.14268986351485391 0 0.32655953527369658 -0.15116735786776639 0 0.33593274935218242 -0.1455826378375531 0 0.32503032543995281 -0.14268986351485391 0 0.33593274935218242 -0.1455826378375531 0 0.33037096714053821 -0.1352209541192986 0 0.32655953527369658 -0.15116735786776639 0 0.33593274935218242 -0.1455826378375531 0 0.33678273346516358 -0.1235118304256253 0 0.33593274935218242 -0.1455826378375531 0 0.33678273346516358 -0.1235118304256253 0 0.33593274935218242 -0.1455826378375531 0 0.34625778742515201 -0.12820748806571561 0 0.33678273346516358 -0.1235118304256253 0 0.33593274935218242 -0.1455826378375531 0 0.33037096714053821 -0.1352209541192986 0 0.32520913897846082 -0.13480063234501341 0 0.33037096714053821 -0.1352209541192986 0 0.32889988846692919 -0.1295198064734436 0 0.32870692572008292 -0.1225199295892932 0 0.33678273346516358 -0.1235118304256253 0 0.32889988846692919 -0.1295198064734436 0 0.33678273346516358 -0.1235118304256253 0 0.33037096714053821 -0.1352209541192986 0 0.32889988846692919 -0.1295198064734436 0 0.33593274935218242 -0.1455826378375531 0 0.34625778742515201 -0.12820748806571561 0 0.35150871195898548 -0.13630221496109449 0 0.35539835740838338 -0.1253017398118545 0 0.35150871195898548 -0.13630221496109449 0 0.36708467456578647 -0.12702179208463271 0 0.35150871195898548 -0.13630221496109449 0 0.36708467456578647 -0.12702179208463271 0 0.35539835740838338 -0.1253017398118545 0 0.34625778742515201 -0.12820748806571561 0 0.35150871195898548 -0.13630221496109449 0 0.35150871195898548 -0.13630221496109449 0 0.35554424258237499 -0.141837534710546 0 0.36708467456578647 -0.12702179208463271 0 0.35554424258237499 -0.141837534710546 0 0.35993306101029388 -0.15176374222978839 0 0.34400381059896368 -0.15665327733645951 0 0.35554424258237499 -0.141837534710546 0 0.34575524055589563 -0.14620072475448859 0 0.34400381059896368 -0.15665327733645951 0 0.35150871195898548 -0.13630221496109449 0 0.35554424258237499 -0.141837534710546 0 0.34575524055589563 -0.14620072475448859 0 0.33593274935218242 -0.1455826378375531 0 0.35150871195898548 -0.13630221496109449 0 0.34575524055589563 -0.14620072475448859 0 0.35554424258237499 -0.141837534710546 0 0.34400381059896368 -0.15665327733645951 0 0.37107139429655589 -0.1440145426359126 0 0.369112796563281 -0.16454961423623601 0 0.35993306101029388 -0.15176374222978839 0 0.37107139429655589 -0.1440145426359126 0 0.369112796563281 -0.16454961423623601 0 0.37107139429655589 -0.1440145426359126 0 0.369112796563281 -0.16454961423623601 0 0.38449027771083388 -0.1513894572635473 0 0.35554424258237499 -0.141837534710546 0 0.35993306101029388 -0.15176374222978839 0 0.37107139429655589 -0.1440145426359126 0 0.35554424258237499 -0.141837534710546 0 0.37107139429655589 -0.1440145426359126 0 0.36708467456578647 -0.12702179208463271 0 0.37382079859698292 -0.12300829506131759 0 0.37107139429655589 -0.1440145426359126 0 0.36708467456578647 -0.12702179208463271 0 0.37382079859698292 -0.12300829506131759 0 0.37107139429655589 -0.1440145426359126 0 0.35554424258237499 -0.141837534710546 0 0.36708467456578647 -0.12702179208463271 0 0.37382079859698292 -0.12300829506131759 0 0.36708467456578647 -0.12702179208463271 0 0.35252840384419198 -0.17682087194012161 0 0.3643817257236725 -0.17964747199310571 0 0.35985819990234869 -0.1736343803544094 0 0.35252840384419198 -0.17682087194012161 0 0.35357262566992131 -0.1714593717658299 0 0.35985819990234869 -0.1736343803544094 0 0.35252840384419198 -0.17682087194012161 0 0.35738599051751219 -0.1844459726890082 0 0.3643817257236725 -0.17964747199310571 0 0.35252840384419198 -0.17682087194012161 0 0.35738599051751219 -0.1844459726890082 0 0.34643535054657948 -0.1837828614192841 0 0.35738599051751219 -0.1844459726890082 0 0.34643535054657948 -0.1837828614192841 0 0.35543422383456658 -0.19367586292689859 0 0.35252840384419198 -0.17682087194012161 0 0.34643535054657948 -0.1837828614192841 0 0.34613879547604931 -0.17194612786331739 0 0.35252840384419198 -0.17682087194012161 0 0.34613879547604931 -0.17194612786331739 0 0.35357262566992131 -0.1714593717658299 0 0.34283934347723538 -0.16542603964217459 0 0.34613879547604931 -0.17194612786331739 0 0.35124409037095128 -0.16565880333920399 0 0.35124409037095128 -0.16565880333920399 0 0.34400381059896368 -0.15665327733645951 0 0.369112796563281 -0.16454961423623601 0 0.34400381059896368 -0.15665327733645951 0 0.369112796563281 -0.16454961423623601 0 0.35993306101029388 -0.15176374222978839 0 0.34400381059896368 -0.15665327733645951 0 0.369112796563281 -0.16454961423623601 0 0.34613879547604931 -0.17194612786331739 0 0.35124409037095128 -0.16565880333920399 0 0.35357262566992131 -0.1714593717658299 0 0.34226577709029582 -0.16047695235609069 0 0.34283934347723538 -0.16542603964217459 0 0.35124409037095128 -0.16565880333920399 0 0.34226577709029582 -0.16047695235609069 0 0.35124409037095128 -0.16565880333920399 0 0.34400381059896368 -0.15665327733645951 0 0.35124409037095128 -0.16565880333920399 0 0.35357262566992131 -0.1714593717658299 0 0.36077548372091278 -0.16910024017432079 0 0.35357262566992131 -0.1714593717658299 0 0.36077548372091278 -0.16910024017432079 0 0.35985819990234869 -0.1736343803544094 0 0.35124409037095128 -0.16565880333920399 0 0.36077548372091278 -0.16910024017432079 0 0.369112796563281 -0.16454961423623601 0 0.36077548372091278 -0.16910024017432079 0 0.36880444767001841 -0.1677825223997961 0 0.369112796563281 -0.16454961423623601 0 0.36077548372091278 -0.16910024017432079 0 0.36880444767001841 -0.1677825223997961 0 0.36578026250481049 -0.173412012732475 0 0.36880444767001841 -0.1677825223997961 0 0.369112796563281 -0.16454961423623601 0 0.37783562985430869 -0.17813517192987749 0 0.36880444767001841 -0.1677825223997961 0 0.369112796563281 -0.16454961423623601 0 0.36578026250481049 -0.173412012732475 0 0.3643817257236725 -0.17964747199310571 0 0.37783562985430869 -0.17813517192987749 0 0.36880444767001841 -0.1677825223997961 0 0.36578026250481049 -0.173412012732475 0 0.37783562985430869 -0.17813517192987749 0 0.36578026250481049 -0.173412012732475 0 0.3643817257236725 -0.17964747199310571 0 0.35985819990234869 -0.1736343803544094 0 0.36077548372091278 -0.16910024017432079 0 0.36578026250481049 -0.173412012732475 0 0.35985819990234869 -0.1736343803544094 0 0.35738599051751219 -0.1844459726890082 0 0.3643817257236725 -0.17964747199310571 0 0.36893165078149193 -0.18989291967535391 0 0.3643817257236725 -0.17964747199310571 0 0.36893165078149193 -0.18989291967535391 0 0.37783562985430869 -0.17813517192987749 0 0.36893165078149193 -0.18989291967535391 0 0.37483845569549662 -0.20015268616075091 0 0.3657623024653317 -0.2040446567179072 0 0.36893165078149193 -0.18989291967535391 0 0.3657623024653317 -0.2040446567179072 0 0.35543422383456658 -0.19367586292689859 0 0.35738599051751219 -0.1844459726890082 0 0.36893165078149193 -0.18989291967535391 0 0.35543422383456658 -0.19367586292689859 0 0.3657623024653317 -0.2040446567179072 0 0.36280280065729381 -0.21967971020389321 0 0.37778245495640073 -0.21206951894293699 0 0.3657623024653317 -0.2040446567179072 0 0.35475939032894438 -0.20746729608702949 0 0.36280280065729381 -0.21967971020389321 0 0.37483845569549662 -0.20015268616075091 0 0.3657623024653317 -0.2040446567179072 0 0.37778245495640073 -0.21206951894293699 0 0.35475939032894438 -0.20746729608702949 0 0.34723868458834722 -0.21510816959655321 0 0.36280280065729381 -0.21967971020389321 0 0.35475939032894438 -0.20746729608702949 0 0.34723868458834722 -0.21510816959655321 0 0.34468973134557329 -0.20149799170282909 0 0.34643535054657948 -0.1837828614192841 0 0.35543422383456658 -0.19367586292689859 0 0.34468973134557329 -0.20149799170282909 0 0.35475939032894438 -0.20746729608702949 0 0.35543422383456658 -0.19367586292689859 0 0.34468973134557329 -0.20149799170282909 0 0.3657623024653317 -0.2040446567179072 0 0.35475939032894438 -0.20746729608702949 0 0.35543422383456658 -0.19367586292689859 0 0.33419658874730002 -0.19075849415101331 0 0.33324896659885062 -0.2152701194968035 0 0.34643535054657948 -0.1837828614192841 0 0.34468973134557329 -0.20149799170282909 0 0.33419658874730002 -0.19075849415101331 0 0.34468973134557329 -0.20149799170282909 0 0.33419658874730002 -0.19075849415101331 0 0.33324896659885062 -0.2152701194968035 0 0.34723868458834722 -0.21510816959655321 0 0.34468973134557329 -0.20149799170282909 0 0.33324896659885062 -0.2152701194968035 0 0.33419658874730002 -0.19075849415101331 0 0.33324896659885062 -0.2152701194968035 0 0.31873946476964099 -0.20927867747335119 0 0.33324896659885062 -0.2152701194968035 0 0.31873946476964099 -0.20927867747335119 0 0.31977706647397991 -0.2285397872168615 0 0.33419658874730002 -0.19075849415101331 0 0.31873946476964099 -0.20927867747335119 0 0.32354418607640267 -0.19334591571840459 0 0.33419658874730002 -0.19075849415101331 0 0.31873946476964099 -0.20927867747335119 0 0.31873946476964099 -0.20927867747335119 0 0.31580565348166872 -0.19285440386061531 0 0.32354418607640267 -0.19334591571840459 0 0.32543503730700107 -0.18049208738863859 0 0.31580565348166872 -0.19285440386061531 0 0.32354418607640267 -0.19334591571840459 0 0.32543503730700107 -0.18049208738863859 0 0.33419658874730002 -0.19075849415101331 0 0.32354418607640267 -0.19334591571840459 0 0.31977706647397991 -0.2285397872168615 0 0.3323049770723282 -0.23978188474100631 0 0.31130958313709772 -0.25056939357745778 0 0.30328234079198207 -0.2277988607956889 0 0.31873946476964099 -0.20927867747335119 0 0.31977706647397991 -0.2285397872168615 0 0.33324896659885062 -0.2152701194968035 0 0.3323049770723282 -0.23978188474100631 0 0.33324896659885062 -0.2152701194968035 0 0.3323049770723282 -0.23978188474100631 0 0.34877133345724137 -0.22904610794855679 0 0.33324896659885062 -0.2152701194968035 0 0.31977706647397991 -0.2285397872168615 0 0.3323049770723282 -0.23978188474100631 0 0.34723868458834722 -0.21510816959655321 0 0.33324896659885062 -0.2152701194968035 0 0.34877133345724137 -0.22904610794855679 0 0.34877133345724137 -0.22904610794855679 0 0.36383672416982049 -0.239543100794231 0 0.35119519218137091 -0.25472703687189518 0 0.3323049770723282 -0.23978188474100631 0 0.34877133345724137 -0.22904610794855679 0 0.35119519218137091 -0.25472703687189518 0 0.34877133345724137 -0.22904610794855679 0 0.36280280065729381 -0.21967971020389321 0 0.36383672416982049 -0.239543100794231 0 0.34723868458834722 -0.21510816959655321 0 0.34877133345724137 -0.22904610794855679 0 0.36280280065729381 -0.21967971020389321 0 0.36280280065729381 -0.21967971020389321 0 0.36383672416982049 -0.239543100794231 0 0.38552853978680329 -0.23411395840607141 0 0.36383672416982049 -0.239543100794231 0 0.38552853978680329 -0.23411395840607141 0 0.37160661397007527 -0.25728229464628938 0 0.38552853978680329 -0.23411395840607141 0 0.40831398977196481 -0.23193358687236509 0 0.40575943788666191 -0.2522363255071054 0 0.38552853978680329 -0.23411395840607141 0 0.38939612718232092 -0.26171010596770672 0 0.40575943788666191 -0.2522363255071054 0 0.38552853978680329 -0.23411395840607141 0 0.39610167325245299 -0.21698599754363429 0 0.40831398977196481 -0.23193358687236509 0 0.38552853978680329 -0.23411395840607141 0 0.37778245495640073 -0.21206951894293699 0 0.39610167325245299 -0.21698599754363429 0 0.36280280065729381 -0.21967971020389321 0 0.38552853978680329 -0.23411395840607141 0 0.37778245495640073 -0.21206951894293699 0 0.37778245495640073 -0.21206951894293699 0 0.3868774145787619 -0.19460364930680579 0 0.39610167325245299 -0.21698599754363429 0 0.36893165078149193 -0.18989291967535391 0 0.37483845569549662 -0.20015268616075091 0 0.3868774145787619 -0.19460364930680579 0 0.37483845569549662 -0.20015268616075091 0 0.37778245495640073 -0.21206951894293699 0 0.3868774145787619 -0.19460364930680579 0 0.36893165078149193 -0.18989291967535391 0 0.3868774145787619 -0.19460364930680579 0 0.37783562985430869 -0.17813517192987749 0 0.3868774145787619 -0.19460364930680579 0 0.40600796018096458 -0.20045726280631471 0 0.40407324328191702 -0.18363171021115809 0 0.3868774145787619 -0.19460364930680579 0 0.40600796018096458 -0.20045726280631471 0 0.39610167325245299 -0.21698599754363429 0 0.42298493465848103 -0.21508298250216121 0 0.42601326526888822 -0.18221255862061439 0 0.44923940859228201 -0.2017350409111954 0 0.40600796018096458 -0.20045726280631471 0 0.39610167325245299 -0.21698599754363429 0 0.42298493465848103 -0.21508298250216121 0 0.40600796018096458 -0.20045726280631471 0 0.42298493465848103 -0.21508298250216121 0 0.42601326526888822 -0.18221255862061439 0 0.40600796018096458 -0.20045726280631471 0 0.40407324328191702 -0.18363171021115809 0 0.42601326526888822 -0.18221255862061439 0 0.42298493465848103 -0.21508298250216121 0 0.42544900547299258 -0.24128181063483539 0 0.44482500421578192 -0.22859256339271339 0 0.42544900547299258 -0.24128181063483539 0 0.40831398977196481 -0.23193358687236509 0 0.40575943788666191 -0.2522363255071054 0 0.42298493465848103 -0.21508298250216121 0 0.42544900547299258 -0.24128181063483539 0 0.40831398977196481 -0.23193358687236509 0 0.39610167325245299 -0.21698599754363429 0 0.42298493465848103 -0.21508298250216121 0 0.40831398977196481 -0.23193358687236509 0 0.39396849925603022 -0.1193750252539349 0 0.40315717850713217 -0.1250207652859732 0 0.3930505202545807 -0.1368182022302081 0 0.39396849925603022 -0.1193750252539349 0 0.3930505202545807 -0.1368182022302081 0 0.38559191724468961 -0.12679046736267011 0 0.40315717850713217 -0.1250207652859732 0 0.3930505202545807 -0.1368182022302081 0 0.41128950049943908 -0.13812861153297529 0 0.3930505202545807 -0.1368182022302081 0 0.38559191724468961 -0.12679046736267011 0 0.38021733862191293 -0.13433058066903 0 0.37382079859698292 -0.12300829506131759 0 0.37107139429655589 -0.1440145426359126 0 0.38021733862191293 -0.13433058066903 0 0.37382079859698292 -0.12300829506131759 0 0.38559191724468961 -0.12679046736267011 0 0.38021733862191293 -0.13433058066903 0 0.3930505202545807 -0.1368182022302081 0 0.38021733862191293 -0.13433058066903 0 0.38449027771083388 -0.1513894572635473 0 0.37107139429655589 -0.1440145426359126 0 0.38021733862191293 -0.13433058066903 0 0.38449027771083388 -0.1513894572635473 0 0.3930505202545807 -0.1368182022302081 0 0.38449027771083388 -0.1513894572635473 0 0.400815937451587 -0.15404205637858909 0 0.3930505202545807 -0.1368182022302081 0 0.400815937451587 -0.15404205637858909 0 0.41128950049943908 -0.13812861153297529 0 0.400815937451587 -0.15404205637858909 0 0.39253671157357828 -0.17191602579486789 0 0.40893086480739183 -0.16896905452718761 0 0.38449027771083388 -0.1513894572635473 0 0.400815937451587 -0.15404205637858909 0 0.39253671157357828 -0.17191602579486789 0 0.369112796563281 -0.16454961423623601 0 0.37783562985430869 -0.17813517192987749 0 0.39253671157357828 -0.17191602579486789 0 0.369112796563281 -0.16454961423623601 0 0.38449027771083388 -0.1513894572635473 0 0.39253671157357828 -0.17191602579486789 0 0.369112796563281 -0.16454961423623601 0 0.39253671157357828 -0.17191602579486789 0 0.3868774145787619 -0.19460364930680579 0 0.37783562985430869 -0.17813517192987749 0 0.39253671157357828 -0.17191602579486789 0 0.3868774145787619 -0.19460364930680579 0 0.40407324328191702 -0.18363171021115809 0 0.39253671157357828 -0.17191602579486789 0 0.40407324328191702 -0.18363171021115809 0 0.39253671157357828 -0.17191602579486789 0 0.40893086480739183 -0.16896905452718761 0 0.40407324328191702 -0.18363171021115809 0 0.42601326526888822 -0.18221255862061439 0 0.40893086480739183 -0.16896905452718761 0 0.42601326526888822 -0.18221255862061439 0 0.42136080128485248 -0.15379787397217601 0 0.44098874779445463 -0.15900429485330969 0 0.42601326526888822 -0.18221255862061439 0 0.40893086480739183 -0.16896905452718761 0 0.42136080128485248 -0.15379787397217601 0 0.400815937451587 -0.15404205637858909 0 0.40893086480739183 -0.16896905452718761 0 0.42136080128485248 -0.15379787397217601 0 0.400815937451587 -0.15404205637858909 0 0.42136080128485248 -0.15379787397217601 0 0.41128950049943908 -0.13812861153297529 0 0.42136080128485248 -0.15379787397217601 0 0.43721580927791781 -0.1350344527553512 0 0.41128950049943908 -0.13812861153297529 0 0.42136080128485248 -0.15379787397217601 0 0.43721580927791781 -0.1350344527553512 0 0.44098874779445463 -0.15900429485330969 0 0.41763019435124998 -0.1206557512100787 0 0.43721580927791781 -0.1350344527553512 0 0.41128950049943908 -0.13812861153297529 0 0.41763019435124998 -0.1206557512100787 0 0.40315717850713217 -0.1250207652859732 0 0.41128950049943908 -0.13812861153297529 0 0.46204322165313078 -0.1308685292825949 0 0.45806821734528219 -0.14801999594815929 0 0.47895612789121228 -0.1410639181669428 0 0.450670867287502 -0.1182239354478858 0 0.43721580927791781 -0.1350344527553512 0 0.46204322165313078 -0.1308685292825949 0 0.43721580927791781 -0.1350344527553512 0 0.46204322165313078 -0.1308685292825949 0 0.45806821734528219 -0.14801999594815929 0 0.43721580927791781 -0.1350344527553512 0 0.45806821734528219 -0.14801999594815929 0 0.44098874779445463 -0.15900429485330969 0 0.45806821734528219 -0.14801999594815929 0 0.4536538129687821 -0.17487751842967739 0 0.45806821734528219 -0.14801999594815929 0 0.4536538129687821 -0.17487751842967739 0 0.47870626092543761 -0.16128887498354441 0 0.45806821734528219 -0.14801999594815929 0 0.44098874779445463 -0.15900429485330969 0 0.4536538129687821 -0.17487751842967739 0 0.42601326526888822 -0.18221255862061439 0 0.4536538129687821 -0.17487751842967739 0 0.44923940859228201 -0.2017350409111954 0 0.42601326526888822 -0.18221255862061439 0 0.44098874779445463 -0.15900429485330969 0 0.4536538129687821 -0.17487751842967739 0 0.4536538129687821 -0.17487751842967739 0 0.47870626092543761 -0.16128887498354441 0 0.47699309385324251 -0.18801848652910891 0 0.5 -0.17347774982483011 0 0.47870626092543761 -0.16128887498354441 0 0.47699309385324251 -0.18801848652910891 0 0.5 -0.17347774982483011 0 0.47870626092543761 -0.16128887498354441 0 0.5 -0.1451065684368924 0 0.45806821734528219 -0.14801999594815929 0 0.47870626092543761 -0.16128887498354441 0 0.47895612789121228 -0.1410639181669428 0 0.47870626092543761 -0.16128887498354441 0 0.47895612789121228 -0.1410639181669428 0 0.5 -0.1451065684368924 0 0.47895612789121228 -0.1410639181669428 0 0.5 -0.1451065684368924 0 0.49138528775611379 -0.13369042680796669 0 0.5 -0.11673538704895479 0 0.5 -0.1451065684368924 0 0.49138528775611379 -0.13369042680796669 0 0.4933708278968385 -0.12191348068646821 0 0.49138528775611379 -0.13369042680796669 0 0.479388625814124 -0.12616148355817011 0 0.46204322165313078 -0.1308685292825949 0 0.47895612789121228 -0.1410639181669428 0 0.479388625814124 -0.12616148355817011 0 0.47895612789121228 -0.1410639181669428 0 0.49138528775611379 -0.13369042680796669 0 0.479388625814124 -0.12616148355817011 0 0.44482500421578192 -0.22859256339271339 0 0.47381640413083609 -0.21589238913299241 0 0.47184091812371037 -0.24493920015146309 0 0.44482500421578192 -0.22859256339271339 0 0.47184091812371037 -0.24493920015146309 0 0.4432494936185542 -0.25200837490365152 0 0.42544900547299258 -0.24128181063483539 0 0.44482500421578192 -0.22859256339271339 0 0.4432494936185542 -0.25200837490365152 0 0.44482500421578192 -0.22859256339271339 0 0.44923940859228201 -0.2017350409111954 0 0.42298493465848103 -0.21508298250216121 0 0.44482500421578192 -0.22859256339271339 0 0.44923940859228201 -0.2017350409111954 0 0.4536538129687821 -0.17487751842967739 0 0.44923940859228201 -0.2017350409111954 0 0.4536538129687821 -0.17487751842967739 0 0.44923940859228201 -0.2017350409111954 0 0.47699309385324251 -0.18801848652910891 0 0.44923940859228201 -0.2017350409111954 0 0.47381640413083609 -0.21589238913299241 0 0.47699309385324251 -0.18801848652910891 0 0.44482500421578192 -0.22859256339271339 0 0.44923940859228201 -0.2017350409111954 0 0.47381640413083609 -0.21589238913299241 0 0.47381640413083609 -0.21589238913299241 0 0.47699309385324251 -0.18801848652910891 0 0.5 -0.20184893121276781 0 0.5 -0.17347774982483011 0 0.47699309385324251 -0.18801848652910891 0 0.5 -0.20184893121276781 0 0.47381640413083609 -0.21589238913299241 0 0.5 -0.20184893121276781 0 0.5 -0.2302201126007056 0 0.47381640413083609 -0.21589238913299241 0 0.5 -0.2302201126007056 0 0.47184091812371037 -0.24493920015146309 0 0.5 -0.2302201126007056 0 0.47184091812371037 -0.24493920015146309 0 0.5 -0.25859129398864328 0 0.5 -0.25859129398864328 0 0.48124087584846897 -0.27277688468261219 0 0.5 -0.28696247537658098 0 0.47184091812371037 -0.24493920015146309 0 0.48124087584846897 -0.27277688468261219 0 0.45784373156705321 -0.27038745760819233 0 0.47184091812371037 -0.24493920015146309 0 0.5 -0.25859129398864328 0 0.48124087584846897 -0.27277688468261219 0 0.47184091812371037 -0.24493920015146309 0 0.45784373156705321 -0.27038745760819233 0 0.4432494936185542 -0.25200837490365152 0 0.45784373156705321 -0.27038745760819233 0 0.44478325626944959 -0.29010264472121838 0 0.42756117268651228 -0.26783703063101633 0 0.45784373156705321 -0.27038745760819233 0 0.4432494936185542 -0.25200837490365152 0 0.42756117268651228 -0.26783703063101633 0 0.44478325626944959 -0.29010264472121838 0 0.47080718694568419 -0.30129102592255042 0 0.44358240297116769 -0.31269733527637361 0 0.45784373156705321 -0.27038745760819233 0 0.44478325626944959 -0.29010264472121838 0 0.47080718694568419 -0.30129102592255042 0 0.48124087584846897 -0.27277688468261219 0 0.47080718694568419 -0.30129102592255042 0 0.5 -0.28696247537658098 0 0.48124087584846897 -0.27277688468261219 0 0.45784373156705321 -0.27038745760819233 0 0.47080718694568419 -0.30129102592255042 0 0.47080718694568419 -0.30129102592255042 0 0.5 -0.28696247537658098 0 0.5 -0.31533365676451869 0 0.5 -0.31533365676451869 0 0.5 -0.34370483815245662 0 0.48156395904615329 -0.33103354588743328 0 0.5 -0.34370483815245662 0 0.48156395904615329 -0.33103354588743328 0 0.48460412026473709 -0.35539024613477821 0 0.47080718694568419 -0.30129102592255042 0 0.48156395904615329 -0.33103354588743328 0 0.45663554296253323 -0.33212953090935943 0 0.47080718694568419 -0.30129102592255042 0 0.5 -0.31533365676451869 0 0.48156395904615329 -0.33103354588743328 0 0.49999999999999928 -0.37207601954039432 0 0.47387654033766469 -0.37170898997170121 0 0.49999999999999839 -0.37534123931652119 0 0.49999999999999928 -0.37207601954039432 0 0.48460412026473709 -0.35539024613477821 0 0.47387654033766469 -0.37170898997170121 0 0.49999999999999928 -0.37207601954039432 0 0.47387654033766469 -0.37170898997170121 0 0.5 -0.34370483815245662 0 0.49999999999999928 -0.37207601954039432 0 0.48460412026473709 -0.35539024613477821 0 0.48156395904615329 -0.33103354588743328 0 0.48460412026473709 -0.35539024613477821 0 0.46194916477911341 -0.3541975962014251 0 0.48460412026473709 -0.35539024613477821 0 0.47387654033766469 -0.37170898997170121 0 0.46194916477911341 -0.3541975962014251 0 0.47387654033766469 -0.37170898997170121 0 0.46194916477911341 -0.3541975962014251 0 0.44775308067532987 -0.37134196040300821 0 0.47387654033766469 -0.37170898997170121 0 0.44775308067532987 -0.37134196040300821 0 0.46194916477911341 -0.3541975962014251 0 0.44230347745903392 -0.35290605625178922 0 0.45663554296253323 -0.33212953090935943 0 0.46194916477911341 -0.3541975962014251 0 0.44230347745903392 -0.35290605625178922 0 0.44775308067532987 -0.37134196040300821 0 0.47080718694568419 -0.30129102592255042 0 0.45663554296253323 -0.33212953090935943 0 0.44358240297116769 -0.31269733527637361 0 0.48156395904615329 -0.33103354588743328 0 0.46194916477911341 -0.3541975962014251 0 0.45663554296253323 -0.33212953090935943 0 0.44230347745903392 -0.35290605625178922 0 0.45663554296253323 -0.33212953090935943 0 0.42583899099025468 -0.33688290629391271 0 0.45663554296253323 -0.33212953090935943 0 0.44358240297116769 -0.31269733527637361 0 0.42583899099025468 -0.33688290629391271 0 0.44358240297116769 -0.31269733527637361 0 0.42482053068179543 -0.31525897966157568 0 0.42583899099025468 -0.33688290629391271 0 0.42583899099025468 -0.33688290629391271 0 0.4057389415889287 -0.31315530290805688 0 0.39397138921398178 -0.33422475336609092 0 0.42583899099025468 -0.33688290629391271 0 0.40160369177390981 -0.3558872700793117 0 0.39397138921398178 -0.33422475336609092 0 0.42482053068179543 -0.31525897966157568 0 0.42583899099025468 -0.33688290629391271 0 0.4057389415889287 -0.31315530290805688 0 0.44230347745903392 -0.35290605625178922 0 0.42583899099025468 -0.33688290629391271 0 0.42162962101299528 -0.37097493083431521 0 0.42583899099025468 -0.33688290629391271 0 0.42162962101299528 -0.37097493083431521 0 0.40160369177390981 -0.3558872700793117 0 0.44230347745903392 -0.35290605625178922 0 0.44775308067532987 -0.37134196040300821 0 0.42162962101299528 -0.37097493083431521 0 0.44775308067532987 -0.37134196040300821 0 0.42162962101299528 -0.37097493083431521 0 0.42162962101299528 -0.37097493083431521 0 0.40160369177390981 -0.3558872700793117 0 0.39527869923462461 -0.37813522940353689 0 0.40160369177390981 -0.3558872700793117 0 0.37974820972394602 -0.36480795982435338 0 0.39527869923462461 -0.37813522940353689 0 0.40160369177390981 -0.3558872700793117 0 0.38604308100317419 -0.34977330741507978 0 0.39397138921398178 -0.33422475336609092 0 0.38604308100317419 -0.34977330741507978 0 0.37974820972394602 -0.36480795982435338 0 0.36965450220587109 -0.34371382883804519 0 0.40160369177390981 -0.3558872700793117 0 0.38604308100317419 -0.34977330741507978 0 0.37974820972394602 -0.36480795982435338 0 0.37974820972394602 -0.36480795982435338 0 0.39527869923462461 -0.37813522940353689 0 0.37649507247036829 -0.38108531291235598 0 0.4057389415889287 -0.31315530290805688 0 0.39397138921398178 -0.33422475336609092 0 0.37364207147767992 -0.31566781997505239 0 0.39397138921398178 -0.33422475336609092 0 0.37364207147767992 -0.31566781997505239 0 0.36965450220587109 -0.34371382883804519 0 0.38604308100317419 -0.34977330741507978 0 0.39397138921398178 -0.33422475336609092 0 0.36965450220587109 -0.34371382883804519 0 0.4057389415889287 -0.31315530290805688 0 0.38729580112930939 -0.29837529987122458 0 0.40489034629622611 -0.28079358387866588 0 0.4057389415889287 -0.31315530290805688 0 0.38729580112930939 -0.29837529987122458 0 0.37364207147767992 -0.31566781997505239 0 0.38729580112930939 -0.29837529987122458 0 0.36952656589214089 -0.28851202286124072 0 0.37364207147767992 -0.31566781997505239 0 0.38729580112930939 -0.29837529987122458 0 0.38336824327608082 -0.27840136229180468 0 0.40489034629622611 -0.28079358387866588 0 0.38729580112930939 -0.29837529987122458 0 0.38336824327608082 -0.27840136229180468 0 0.36952656589214089 -0.28851202286124072 0 0.38336824327608082 -0.27840136229180468 0 0.38939612718232092 -0.26171010596770672 0 0.37160661397007527 -0.25728229464628938 0 0.38552853978680329 -0.23411395840607141 0 0.38939612718232092 -0.26171010596770672 0 0.37160661397007527 -0.25728229464628938 0 0.38939612718232092 -0.26171010596770672 0 0.40575943788666191 -0.2522363255071054 0 0.40489034629622611 -0.28079358387866588 0 0.38336824327608082 -0.27840136229180468 0 0.38939612718232092 -0.26171010596770672 0 0.40489034629622611 -0.28079358387866588 0 0.40575943788666191 -0.2522363255071054 0 0.40489034629622611 -0.28079358387866588 0 0.42756117268651228 -0.26783703063101633 0 0.42544900547299258 -0.24128181063483539 0 0.40575943788666191 -0.2522363255071054 0 0.42756117268651228 -0.26783703063101633 0 0.42544900547299258 -0.24128181063483539 0 0.4432494936185542 -0.25200837490365152 0 0.42756117268651228 -0.26783703063101633 0 0.4057389415889287 -0.31315530290805688 0 0.40489034629622611 -0.28079358387866588 0 0.4241217871768303 -0.29830037416795963 0 0.44478325626944959 -0.29010264472121838 0 0.42756117268651228 -0.26783703063101633 0 0.4241217871768303 -0.29830037416795963 0 0.44358240297116769 -0.31269733527637361 0 0.42482053068179543 -0.31525897966157568 0 0.4241217871768303 -0.29830037416795963 0 0.44478325626944959 -0.29010264472121838 0 0.44358240297116769 -0.31269733527637361 0 0.4241217871768303 -0.29830037416795963 0 0.42482053068179543 -0.31525897966157568 0 0.4057389415889287 -0.31315530290805688 0 0.4241217871768303 -0.29830037416795963 0 0.40489034629622611 -0.28079358387866588 0 0.42756117268651228 -0.26783703063101633 0 0.4241217871768303 -0.29830037416795963 0 0.5 -0.5 0 0.44575875053383718 -0.46638206661167131 0 0.41628329042538142 -0.47596144213788327 0 0.5 -0.5 0 0.47822136115828928 -0.463278994783203 0 0.5 -0.44579436492102492 0 0.5 -0.5 0 0.47822136115828928 -0.463278994783203 0 0.44575875053383718 -0.46638206661167131 0 0.47822136115828928 -0.463278994783203 0 0.5 -0.44579436492102492 0 0.46712669409932023 -0.44093954760011589 0 0.47822136115828928 -0.463278994783203 0 0.46712669409932023 -0.44093954760011589 0 0.44575875053383718 -0.46638206661167131 0 0.44575875053383718 -0.46638206661167131 0 0.44441494065186021 -0.43749549362448731 0 0.42805167532729432 -0.45237186683058078 0 0.46712669409932023 -0.44093954760011589 0 0.44575875053383718 -0.46638206661167131 0 0.44441494065186021 -0.43749549362448731 0 0.44441494065186021 -0.43749549362448731 0 0.45670116061281618 -0.42196374816417759 0 0.43663760722068279 -0.41374458825921923 0 0.45775840481378788 -0.40094347194498642 0 0.43663760722068279 -0.41374458825921923 0 0.45670116061281618 -0.42196374816417759 0 0.45775840481378788 -0.40094347194498642 0 0.43663760722068279 -0.41374458825921923 0 0.45670116061281618 -0.42196374816417759 0 0.47756815627842991 -0.41669563939207888 0 0.45775840481378788 -0.40094347194498642 0 0.46712669409932023 -0.44093954760011589 0 0.44441494065186021 -0.43749549362448731 0 0.45670116061281618 -0.42196374816417759 0 0.46712669409932023 -0.44093954760011589 0 0.45670116061281618 -0.42196374816417759 0 0.47756815627842991 -0.41669563939207888 0 0.5 -0.44579436492102492 0 0.47756815627842991 -0.41669563939207888 0 0.5 -0.40541727647389342 0 0.5 -0.44579436492102492 0 0.46712669409932023 -0.44093954760011589 0 0.47756815627842991 -0.41669563939207888 0 0.47756815627842991 -0.41669563939207888 0 0.47887920240689291 -0.3881423556307535 0 0.45775840481378788 -0.40094347194498642 0 0.47756815627842991 -0.41669563939207888 0 0.5 -0.40541727647389342 0 0.47887920240689291 -0.3881423556307535 0 0.5 -0.40541727647389342 0 0.49999999999999839 -0.37534123931652119 0 0.47887920240689291 -0.3881423556307535 0 0.49999999999999839 -0.37534123931652119 0 0.47887920240689291 -0.3881423556307535 0 0.47387654033766469 -0.37170898997170121 0 0.49999999999999839 -0.37534123931652119 0 0.47887920240689291 -0.3881423556307535 0 0.47387654033766469 -0.37170898997170121 0 0.47887920240689291 -0.3881423556307535 0 0.45775840481378788 -0.40094347194498642 0 0.47387654033766469 -0.37170898997170121 0 0.44775308067532987 -0.37134196040300821 0 0.45775840481378788 -0.40094347194498642 0 0.47887920240689291 -0.3881423556307535 0 0.45775840481378788 -0.40094347194498642 0 0.45775840481378788 -0.40094347194498642 0 0.43996410788147111 -0.39007502673814842 0 0.43663760722068279 -0.41374458825921923 0 0.44775308067532987 -0.37134196040300821 0 0.45775840481378788 -0.40094347194498642 0 0.43996410788147111 -0.39007502673814842 0 0.42162962101299528 -0.37097493083431521 0 0.43996410788147111 -0.39007502673814842 0 0.42381707364012022 -0.39562406875606049 0 0.44775308067532987 -0.37134196040300821 0 0.42162962101299528 -0.37097493083431521 0 0.43996410788147111 -0.39007502673814842 0 0.43996410788147111 -0.39007502673814842 0 0.42381707364012022 -0.39562406875606049 0 0.43663760722068279 -0.41374458825921923 0 0.42381707364012022 -0.39562406875606049 0 0.40498798878823422 -0.39485402957812932 0 0.40893843562311999 -0.4118578598300186 0 0.42162962101299528 -0.37097493083431521 0 0.39527869923462461 -0.37813522940353689 0 0.40498798878823422 -0.39485402957812932 0 0.42162962101299528 -0.37097493083431521 0 0.42381707364012022 -0.39562406875606049 0 0.40498798878823422 -0.39485402957812932 0 0.39527869923462461 -0.37813522940353689 0 0.37649507247036829 -0.38108531291235598 0 0.3837648904206149 -0.39889542418543372 0 0.3837648904206149 -0.39889542418543372 0 0.40498798878823422 -0.39485402957812932 0 0.39331613902703932 -0.41318209728623118 0 0.39527869923462461 -0.37813522940353689 0 0.3837648904206149 -0.39889542418543372 0 0.40498798878823422 -0.39485402957812932 0 0.39331613902703932 -0.41318209728623118 0 0.40841038719391798 -0.42822859633907118 0 0.40893843562311999 -0.4118578598300186 0 0.40498798878823422 -0.39485402957812932 0 0.39331613902703932 -0.41318209728623118 0 0.40893843562311999 -0.4118578598300186 0 0.39331613902703932 -0.41318209728623118 0 0.38628483671970792 -0.43085507814865548 0 0.36940814796198862 -0.41178140455183337 0 0.3837648904206149 -0.39889542418543372 0 0.39331613902703932 -0.41318209728623118 0 0.36940814796198862 -0.41178140455183337 0 0.38628483671970792 -0.43085507814865548 0 0.37810440642401261 -0.44758900381936612 0 0.36529456863535009 -0.43293336316655529 0 0.38628483671970792 -0.43085507814865548 0 0.40841038719391798 -0.42822859633907118 0 0.40714015925919678 -0.4489809763333642 0 0.39331613902703932 -0.41318209728623118 0 0.38628483671970792 -0.43085507814865548 0 0.40841038719391798 -0.42822859633907118 0 0.40841038719391798 -0.42822859633907118 0 0.42241560741208822 -0.41826865613686459 0 0.42787932499270009 -0.4321567898817758 0 0.40841038719391798 -0.42822859633907118 0 0.42787932499270009 -0.4321567898817758 0 0.40714015925919678 -0.4489809763333642 0 0.42381707364012022 -0.39562406875606049 0 0.40893843562311999 -0.4118578598300186 0 0.42241560741208822 -0.41826865613686459 0 0.40841038719391798 -0.42822859633907118 0 0.40893843562311999 -0.4118578598300186 0 0.42241560741208822 -0.41826865613686459 0 0.42381707364012022 -0.39562406875606049 0 0.43663760722068279 -0.41374458825921923 0 0.42241560741208822 -0.41826865613686459 0 0.43663760722068279 -0.41374458825921923 0 0.42241560741208822 -0.41826865613686459 0 0.42787932499270009 -0.4321567898817758 0 0.44441494065186021 -0.43749549362448731 0 0.43663760722068279 -0.41374458825921923 0 0.42787932499270009 -0.4321567898817758 0 0.5 -0.5 0 0.38914554380320532 -0.5 0 0.41628329042538142 -0.47596144213788327 0 0.44441494065186021 -0.43749549362448731 0 0.42787932499270009 -0.4321567898817758 0 0.42805167532729432 -0.45237186683058078 0 0.44575875053383718 -0.46638206661167131 0 0.42805167532729432 -0.45237186683058078 0 0.41628329042538142 -0.47596144213788327 0 0.42805167532729432 -0.45237186683058078 0 0.40714015925919678 -0.4489809763333642 0 0.41628329042538142 -0.47596144213788327 0 0.42787932499270009 -0.4321567898817758 0 0.40714015925919678 -0.4489809763333642 0 0.42787932499270009 -0.4321567898817758 0 0.42805167532729432 -0.45237186683058078 0 0.40714015925919678 -0.4489809763333642 0 0.38628483671970792 -0.43085507814865548 0 0.40714015925919678 -0.4489809763333642 0 0.37810440642401261 -0.44758900381936612 0 0.37810440642401261 -0.44758900381936612 0 0.38640099352569351 -0.46580516278495249 0 0.36129464038229842 -0.45370986062579782 0 0.40714015925919678 -0.4489809763333642 0 0.37810440642401261 -0.44758900381936612 0 0.38640099352569351 -0.46580516278495249 0 0.40714015925919678 -0.4489809763333642 0 0.38640099352569351 -0.46580516278495249 0 0.40714015925919678 -0.4489809763333642 0 0.38640099352569351 -0.46580516278495249 0 0.41628329042538142 -0.47596144213788327 0 0.38640099352569351 -0.46580516278495249 0 0.38914554380320532 -0.5 0 0.36566182779219031 -0.48262934923654088 0 0.38640099352569351 -0.46580516278495249 0 0.38914554380320532 -0.5 0 0.41628329042538142 -0.47596144213788327 0 0.38640099352569351 -0.46580516278495249 0 0.36566182779219031 -0.48262934923654088 0 0.38914554380320532 -0.5 0 0.36566182779219031 -0.48262934923654088 0 0.30507594768347568 -0.5 0 0.33077664121849198 -0.47561654896432709 0 0.36566182779219031 -0.48262934923654088 0 0.30507594768347568 -0.5 0 0.33077664121849198 -0.47561654896432709 0 0.30761894179121241 -0.46023071420404149 0 0.30507594768347568 -0.5 0 0.33077664121849198 -0.47561654896432709 0 0.36566182779219031 -0.48262934923654088 0 0.33951493243781422 -0.45786689998016028 0 0.36566182779219031 -0.48262934923654088 0 0.36129464038229842 -0.45370986062579782 0 0.33951493243781422 -0.45786689998016028 0 0.38640099352569351 -0.46580516278495249 0 0.36566182779219031 -0.48262934923654088 0 0.36129464038229842 -0.45370986062579782 0 0.37810440642401261 -0.44758900381936612 0 0.36129464038229842 -0.45370986062579782 0 0.36529456863535009 -0.43293336316655529 0 0.36129464038229842 -0.45370986062579782 0 0.34385630792370342 -0.43470694566239149 0 0.36529456863535009 -0.43293336316655529 0 0.36129464038229842 -0.45370986062579782 0 0.33951493243781422 -0.45786689998016028 0 0.34385630792370342 -0.43470694566239149 0 0.33951493243781422 -0.45786689998016028 0 0.32788123551898879 -0.44030798118786257 0 0.34385630792370342 -0.43470694566239149 0 0.33951493243781422 -0.45786689998016028 0 0.32788123551898879 -0.44030798118786257 0 0.30761894179121241 -0.46023071420404149 0 0.33077664121849198 -0.47561654896432709 0 0.33951493243781422 -0.45786689998016028 0 0.30761894179121241 -0.46023071420404149 0 0.32788123551898879 -0.44030798118786257 0 0.3039632731490764 -0.43538893488415631 0 0.30761894179121241 -0.46023071420404149 0 0.32788123551898879 -0.44030798118786257 0 0.3039632731490764 -0.43538893488415631 0 0.32594477692881652 -0.42531531535875539 0 0.31637230045690062 -0.41295597722573318 0 0.3039632731490764 -0.43538893488415631 0 0.32788123551898879 -0.44030798118786257 0 0.32594477692881652 -0.42531531535875539 0 0.3039632731490764 -0.43538893488415631 0 0.32594477692881652 -0.42531531535875539 0 0.31637230045690062 -0.41295597722573318 0 0.33711026011548439 -0.41250059801012401 0 0.32788123551898879 -0.44030798118786257 0 0.32594477692881652 -0.42531531535875539 0 0.34385630792370342 -0.43470694566239149 0 0.32594477692881652 -0.42531531535875539 0 0.33711026011548439 -0.41250059801012401 0 0.34385630792370342 -0.43470694566239149 0 0.33711026011548439 -0.41250059801012401 0 0.34385630792370342 -0.43470694566239149 0 0.35281907240039001 -0.41895788619128771 0 0.34385630792370342 -0.43470694566239149 0 0.36529456863535009 -0.43293336316655529 0 0.35281907240039001 -0.41895788619128771 0 0.38628483671970792 -0.43085507814865548 0 0.36529456863535009 -0.43293336316655529 0 0.36940814796198862 -0.41178140455183337 0 0.36529456863535009 -0.43293336316655529 0 0.36940814796198862 -0.41178140455183337 0 0.35281907240039001 -0.41895788619128771 0 0.36940814796198862 -0.41178140455183337 0 0.35281907240039001 -0.41895788619128771 0 0.35089905260795118 -0.40437503568066913 0 0.33711026011548439 -0.41250059801012401 0 0.35281907240039001 -0.41895788619128771 0 0.35089905260795118 -0.40437503568066913 0 0.35089905260795118 -0.40437503568066913 0 0.36008852501892702 -0.39073019297914302 0 0.33659014192445108 -0.3920480352445721 0 0.3837648904206149 -0.39889542418543372 0 0.36940814796198862 -0.41178140455183337 0 0.36008852501892702 -0.39073019297914302 0 0.36940814796198862 -0.41178140455183337 0 0.35089905260795118 -0.40437503568066913 0 0.36008852501892702 -0.39073019297914302 0 0.37649507247036829 -0.38108531291235598 0 0.36008852501892702 -0.39073019297914302 0 0.36256346586118882 -0.3678544655304779 0 0.37649507247036829 -0.38108531291235598 0 0.3837648904206149 -0.39889542418543372 0 0.36008852501892702 -0.39073019297914302 0 0.36008852501892702 -0.39073019297914302 0 0.34304584715478731 -0.3750295859395143 0 0.36256346586118882 -0.3678544655304779 0 0.36008852501892702 -0.39073019297914302 0 0.34304584715478731 -0.3750295859395143 0 0.33659014192445108 -0.3920480352445721 0 0.33659014192445108 -0.3920480352445721 0 0.32282708692952439 -0.37525917737126491 0 0.34304584715478731 -0.3750295859395143 0 0.33659014192445108 -0.3920480352445721 0 0.32282708692952439 -0.37525917737126491 0 0.31637230045690062 -0.41295597722573318 0 0.33711026011548439 -0.41250059801012401 0 0.33659014192445108 -0.3920480352445721 0 0.33711026011548439 -0.41250059801012401 0 0.35089905260795118 -0.40437503568066913 0 0.33659014192445108 -0.3920480352445721 0 0.31637230045690062 -0.41295597722573318 0 0.33659014192445108 -0.3920480352445721 0 0.3129882355377871 -0.39284136650537488 0 0.33659014192445108 -0.3920480352445721 0 0.3129882355377871 -0.39284136650537488 0 0.32282708692952439 -0.37525917737126491 0 0.3129882355377871 -0.39284136650537488 0 0.32282708692952439 -0.37525917737126491 0 0.30122169906422303 -0.3774748631057584 0 0.3129882355377871 -0.39284136650537488 0 0.30122169906422303 -0.3774748631057584 0 0.29337936619384758 -0.39647940671355919 0 0.30122169906422303 -0.3774748631057584 0 0.29337936619384758 -0.39647940671355919 0 0.31637230045690062 -0.41295597722573318 0 0.3129882355377871 -0.39284136650537488 0 0.30090311459430552 -0.40897273122417499 0 0.3129882355377871 -0.39284136650537488 0 0.29337936619384758 -0.39647940671355919 0 0.30090311459430552 -0.40897273122417499 0 0.29337936619384758 -0.39647940671355919 0 0.28553703332347219 -0.41548395032135998 0 0.29337936619384758 -0.39647940671355919 0 0.27972747780199558 -0.38192949984108698 0 0.27599721611410288 -0.39375606477620467 0 0.29337936619384758 -0.39647940671355919 0 0.27779310814470443 -0.40536371506706392 0 0.28553703332347219 -0.41548395032135998 0 0.29337936619384758 -0.39647940671355919 0 0.27599721611410288 -0.39375606477620467 0 0.27779310814470443 -0.40536371506706392 0 0.30122169906422303 -0.3774748631057584 0 0.27972747780199558 -0.38192949984108698 0 0.2839482385131743 -0.3656361676507342 0 0.30122169906422303 -0.3774748631057584 0 0.29337936619384758 -0.39647940671355919 0 0.27972747780199558 -0.38192949984108698 0 0.27972747780199558 -0.38192949984108698 0 0.26615109629193312 -0.38537188759376351 0 0.26356631056480728 -0.37044284660746002 0 0.27972747780199558 -0.38192949984108698 0 0.26615109629193312 -0.38537188759376351 0 0.27599721611410288 -0.39375606477620467 0 0.26615109629193312 -0.38537188759376351 0 0.25164130808136398 -0.37945175127548469 0 0.26293503213803399 -0.39963581466554959 0 0.25164130808136398 -0.37945175127548469 0 0.26293503213803399 -0.39963581466554959 0 0.26615109629193312 -0.38537188759376351 0 0.25164130808136398 -0.37945175127548469 0 0.26356631056480728 -0.37044284660746002 0 0.25164130808136398 -0.37945175127548469 0 0.25388432824530771 -0.40250129677611379 0 0.26293503213803399 -0.39963581466554959 0 0.25164130808136398 -0.37945175127548469 0 0.25388432824530771 -0.40250129677611379 0 0.25388432824530771 -0.40250129677611379 0 0.26293503213803399 -0.39963581466554959 0 0.26023076878896451 -0.40708408350330849 0 0.26293503213803399 -0.39963581466554959 0 0.27599721611410288 -0.39375606477620467 0 0.27779310814470443 -0.40536371506706392 0 0.26615109629193312 -0.38537188759376351 0 0.26293503213803399 -0.39963581466554959 0 0.27599721611410288 -0.39375606477620467 0 0.26293503213803399 -0.39963581466554959 0 0.27779310814470443 -0.40536371506706392 0 0.2742287561947036 -0.41981987805561483 0 0.26293503213803399 -0.39963581466554959 0 0.2742287561947036 -0.41981987805561483 0 0.26425833481995492 -0.41350404573655702 0 0.26293503213803399 -0.39963581466554959 0 0.2742287561947036 -0.41981987805561483 0 0.27779310814470443 -0.40536371506706392 0 0.2742287561947036 -0.41981987805561483 0 0.28553703332347219 -0.41548395032135998 0 0.2742287561947036 -0.41981987805561483 0 0.26760966607679942 -0.42138875433758233 0 0.26425833481995492 -0.41350404573655702 0 0.25406741122191862 -0.42512718886302492 0 0.24852243941664359 -0.40738679496750541 0 0.26023076878896451 -0.40708408350330849 0 0.26425833481995492 -0.41350404573655702 0 0.26041869413378738 -0.41551811216120221 0 0.25388432824530771 -0.40250129677611379 0 0.25612734840925172 -0.42555084227674289 0 0.25388432824530771 -0.40250129677611379 0 0.25612734840925172 -0.42555084227674289 0 0.24852243941664359 -0.40738679496750541 0 0.25388432824530771 -0.40250129677611379 0 0.26023076878896451 -0.40708408350330849 0 0.26041869413378738 -0.41551811216120221 0 0.26293503213803399 -0.39963581466554959 0 0.26023076878896451 -0.40708408350330849 0 0.26425833481995492 -0.41350404573655702 0 0.25406741122191862 -0.42512718886302492 0 0.25612734840925172 -0.42555084227674289 0 0.24852243941664359 -0.40738679496750541 0 0.25388432824530771 -0.40250129677611379 0 0.26041869413378738 -0.41551811216120221 0 0.25612734840925172 -0.42555084227674289 0 0.26760966607679942 -0.42138875433758233 0 0.26425833481995492 -0.41350404573655702 0 0.26041869413378738 -0.41551811216120221 0 0.26041869413378738 -0.41551811216120221 0 0.25612734840925172 -0.42555084227674289 0 0.26447904461567162 -0.42339843945493039 0 0.26760966607679942 -0.42138875433758233 0 0.26041869413378738 -0.41551811216120221 0 0.26447904461567162 -0.42339843945493039 0 0.25677306377738962 -0.4337835614766451 0 0.25406741122191862 -0.42512718886302492 0 0.24826280892824909 -0.43277588873161588 0 0.25677306377738962 -0.4337835614766451 0 0.25406741122191862 -0.42512718886302492 0 0.25612734840925172 -0.42555084227674289 0 0.25677306377738962 -0.4337835614766451 0 0.25612734840925172 -0.42555084227674289 0 0.25677306377738962 -0.4337835614766451 0 0.25406741122191862 -0.42512718886302492 0 0.25406741122191862 -0.42512718886302492 0 0.24632822158227871 -0.42353552183044979 0 0.25406741122191862 -0.42512718886302492 0 0.25612734840925172 -0.42555084227674289 0 0.25677306377738962 -0.4337835614766451 0 0.25612734840925172 -0.42555084227674289 0 0.26698713909508098 -0.4375268332509179 0 0.25612734840925172 -0.42555084227674289 0 0.28004531077916389 -0.43046988858044999 0 0.26698713909508098 -0.4375268332509179 0 0.25612734840925172 -0.42555084227674289 0 0.28004531077916389 -0.43046988858044999 0 0.25612734840925172 -0.42555084227674289 0 0.26447904461567162 -0.42339843945493039 0 0.28004531077916389 -0.43046988858044999 0 0.26760966607679942 -0.42138875433758233 0 0.26447904461567162 -0.42339843945493039 0 0.28004531077916389 -0.43046988858044999 0 0.2742287561947036 -0.41981987805561483 0 0.28004531077916389 -0.43046988858044999 0 0.28553703332347219 -0.41548395032135998 0 0.2742287561947036 -0.41981987805561483 0 0.26760966607679942 -0.42138875433758233 0 0.28004531077916389 -0.43046988858044999 0 0.28004531077916389 -0.43046988858044999 0 0.29713208385037437 -0.42154411502756478 0 0.3039632731490764 -0.43538893488415631 0 0.28004531077916389 -0.43046988858044999 0 0.3039632731490764 -0.43538893488415631 0 0.29044758899681949 -0.44049859500365662 0 0.28004531077916389 -0.43046988858044999 0 0.3039632731490764 -0.43538893488415631 0 0.28004531077916389 -0.43046988858044999 0 0.28553703332347219 -0.41548395032135998 0 0.29713208385037437 -0.42154411502756478 0 0.29337936619384758 -0.39647940671355919 0 0.28553703332347219 -0.41548395032135998 0 0.30090311459430552 -0.40897273122417499 0 0.28553703332347219 -0.41548395032135998 0 0.29713208385037437 -0.42154411502756478 0 0.30090311459430552 -0.40897273122417499 0 0.31637230045690062 -0.41295597722573318 0 0.29713208385037437 -0.42154411502756478 0 0.30090311459430552 -0.40897273122417499 0 0.31637230045690062 -0.41295597722573318 0 0.29713208385037437 -0.42154411502756478 0 0.3039632731490764 -0.43538893488415631 0 0.3039632731490764 -0.43538893488415631 0 0.30761894179121241 -0.46023071420404149 0 0.29044758899681949 -0.44049859500365662 0 0.30761894179121241 -0.46023071420404149 0 0.28114773692165129 -0.45155730632190649 0 0.28745911217466691 -0.47307204944506542 0 0.28004531077916389 -0.43046988858044999 0 0.29044758899681949 -0.44049859500365662 0 0.28114773692165129 -0.45155730632190649 0 0.30761894179121241 -0.46023071420404149 0 0.29044758899681949 -0.44049859500365662 0 0.28114773692165129 -0.45155730632190649 0 0.28004531077916389 -0.43046988858044999 0 0.28114773692165129 -0.45155730632190649 0 0.26698713909508098 -0.4375268332509179 0 0.28114773692165129 -0.45155730632190649 0 0.26698713909508098 -0.4375268332509179 0 0.26069138865547331 -0.44631971660762237 0 0.26069138865547331 -0.44631971660762237 0 0.24984189626145989 -0.46002901486873138 0 0.24698723727761279 -0.44164003299261589 0 0.25677306377738962 -0.4337835614766451 0 0.26698713909508098 -0.4375268332509179 0 0.26069138865547331 -0.44631971660762237 0 0.25677306377738962 -0.4337835614766451 0 0.26069138865547331 -0.44631971660762237 0 0.25677306377738962 -0.4337835614766451 0 0.26069138865547331 -0.44631971660762237 0 0.24826280892824909 -0.43277588873161588 0 0.26069138865547331 -0.44631971660762237 0 0.24698723727761279 -0.44164003299261589 0 0.24826280892824909 -0.43277588873161588 0 0.26069138865547331 -0.44631971660762237 0 0.26731536608902817 -0.46751224435221972 0 0.26069138865547331 -0.44631971660762237 0 0.26731536608902817 -0.46751224435221972 0 0.24984189626145989 -0.46002901486873138 0 0.28114773692165129 -0.45155730632190649 0 0.26069138865547331 -0.44631971660762237 0 0.26731536608902817 -0.46751224435221972 0 0.28114773692165129 -0.45155730632190649 0 0.26731536608902817 -0.46751224435221972 0 0.28745911217466691 -0.47307204944506542 0 0.26731536608902817 -0.46751224435221972 0 0.27393934352258309 -0.48870477209681712 0 0.27393934352258309 -0.48870477209681712 0 0.30507594768347568 -0.5 0 0.24377228260446079 -0.5 0 0.26731536608902817 -0.46751224435221972 0 0.27393934352258309 -0.48870477209681712 0 0.28745911217466691 -0.47307204944506542 0 0.26731536608902817 -0.46751224435221972 0 0.25395798473348558 -0.48062958627472502 0 0.24984189626145989 -0.46002901486873138 0 0.26731536608902817 -0.46751224435221972 0 0.25395798473348558 -0.48062958627472502 0 0.27393934352258309 -0.48870477209681712 0 0.25395798473348558 -0.48062958627472502 0 0.27393934352258309 -0.48870477209681712 0 0.24377228260446079 -0.5 0 0.27393934352258309 -0.48870477209681712 0 0.28745911217466691 -0.47307204944506542 0 0.30507594768347568 -0.5 0 0.30761894179121241 -0.46023071420404149 0 0.28745911217466691 -0.47307204944506542 0 0.30507594768347568 -0.5 0 0.33041699801928343 -0.28880541522941222 0 0.34746159688660372 -0.27971577863276792 0 0.3514068633313136 -0.29771562723108719 0 0.33041699801928343 -0.28880541522941222 0 0.33522638811174399 -0.3055620628804559 0 0.3207276906311437 -0.30081147976960992 0 0.33041699801928343 -0.28880541522941222 0 0.33522638811174399 -0.3055620628804559 0 0.3514068633313136 -0.29771562723108719 0 0.33522638811174399 -0.3055620628804559 0 0.3207276906311437 -0.30081147976960992 0 0.32329785406830119 -0.31851438762974038 0 0.3207276906311437 -0.30081147976960992 0 0.32329785406830119 -0.31851438762974038 0 0.30235393165510333 -0.30341418122739489 0 0.33041699801928343 -0.28880541522941222 0 0.31816216510812378 -0.27308823958575901 0 0.31234328130128658 -0.28776135188104579 0 0.33041699801928343 -0.28880541522941222 0 0.3207276906311437 -0.30081147976960992 0 0.31234328130128658 -0.28776135188104579 0 0.33041699801928343 -0.28880541522941222 0 0.31816216510812378 -0.27308823958575901 0 0.33136098754580579 -0.26429364998520932 0 0.3323049770723282 -0.23978188474100631 0 0.33136098754580579 -0.26429364998520932 0 0.31130958313709772 -0.25056939357745778 0 0.31816216510812378 -0.27308823958575901 0 0.33136098754580579 -0.26429364998520932 0 0.31130958313709772 -0.25056939357745778 0 0.3323049770723282 -0.23978188474100631 0 0.33136098754580579 -0.26429364998520932 0 0.3323049770723282 -0.23978188474100631 0 0.33136098754580579 -0.26429364998520932 0 0.35119519218137091 -0.25472703687189518 0 0.33136098754580579 -0.26429364998520932 0 0.34746159688660372 -0.27971577863276792 0 0.35119519218137091 -0.25472703687189518 0 0.33041699801928343 -0.28880541522941222 0 0.33136098754580579 -0.26429364998520932 0 0.33041699801928343 -0.28880541522941222 0 0.33136098754580579 -0.26429364998520932 0 0.34746159688660372 -0.27971577863276792 0 0.34746159688660372 -0.27971577863276792 0 0.35119519218137091 -0.25472703687189518 0 0.36430910137080852 -0.27228374500455521 0 0.35119519218137091 -0.25472703687189518 0 0.37160661397007527 -0.25728229464628938 0 0.36430910137080852 -0.27228374500455521 0 0.36383672416982049 -0.239543100794231 0 0.35119519218137091 -0.25472703687189518 0 0.37160661397007527 -0.25728229464628938 0 0.34746159688660372 -0.27971577863276792 0 0.36430910137080852 -0.27228374500455521 0 0.36952656589214089 -0.28851202286124072 0 0.38336824327608082 -0.27840136229180468 0 0.37160661397007527 -0.25728229464628938 0 0.36430910137080852 -0.27228374500455521 0 0.38336824327608082 -0.27840136229180468 0 0.36430910137080852 -0.27228374500455521 0 0.36952656589214089 -0.28851202286124072 0 0.34746159688660372 -0.27971577863276792 0 0.36952656589214089 -0.28851202286124072 0 0.3514068633313136 -0.29771562723108719 0 0.33522638811174399 -0.3055620628804559 0 0.3514068633313136 -0.29771562723108719 0 0.34861985793913819 -0.32348694680056278 0 0.3514068633313136 -0.29771562723108719 0 0.34861985793913819 -0.32348694680056278 0 0.3514068633313136 -0.29771562723108719 0 0.37364207147767992 -0.31566781997505239 0 0.34861985793913819 -0.32348694680056278 0 0.36952656589214089 -0.28851202286124072 0 0.3514068633313136 -0.29771562723108719 0 0.37364207147767992 -0.31566781997505239 0 0.37364207147767992 -0.31566781997505239 0 0.36965450220587109 -0.34371382883804519 0 0.34861985793913819 -0.32348694680056278 0 0.34861985793913819 -0.32348694680056278 0 0.34583285254696272 -0.34925826637003859 0 0.36965450220587109 -0.34371382883804519 0 0.34861985793913819 -0.32348694680056278 0 0.34583285254696272 -0.34925826637003859 0 0.37974820972394602 -0.36480795982435338 0 0.37649507247036829 -0.38108531291235598 0 0.36256346586118882 -0.3678544655304779 0 0.37974820972394602 -0.36480795982435338 0 0.36965450220587109 -0.34371382883804519 0 0.36256346586118882 -0.3678544655304779 0 0.36965450220587109 -0.34371382883804519 0 0.36256346586118882 -0.3678544655304779 0 0.34583285254696272 -0.34925826637003859 0 0.34304584715478731 -0.3750295859395143 0 0.34583285254696272 -0.34925826637003859 0 0.34304584715478731 -0.3750295859395143 0 0.36256346586118882 -0.3678544655304779 0 0.34583285254696272 -0.34925826637003859 0 0.34304584715478731 -0.3750295859395143 0 0.34583285254696272 -0.34925826637003859 0 0.32790975794667032 -0.35570558001734393 0 0.34304584715478731 -0.3750295859395143 0 0.32282708692952439 -0.37525917737126491 0 0.32790975794667032 -0.35570558001734393 0 0.34583285254696272 -0.34925826637003859 0 0.32790975794667032 -0.35570558001734393 0 0.33269317248742708 -0.33516069994114372 0 0.32790975794667032 -0.35570558001734393 0 0.33269317248742708 -0.33516069994114372 0 0.31649816212422371 -0.34045498481247172 0 0.32790975794667032 -0.35570558001734393 0 0.31649816212422371 -0.34045498481247172 0 0.30906403193459792 -0.35847031949795738 0 0.31649816212422371 -0.34045498481247172 0 0.30906403193459792 -0.35847031949795738 0 0.32282708692952439 -0.37525917737126491 0 0.30906403193459792 -0.35847031949795738 0 0.32282708692952439 -0.37525917737126491 0 0.32790975794667032 -0.35570558001734393 0 0.30906403193459792 -0.35847031949795738 0 0.33522638811174399 -0.3055620628804559 0 0.34861985793913819 -0.32348694680056278 0 0.32329785406830119 -0.31851438762974038 0 0.34861985793913819 -0.32348694680056278 0 0.33269317248742708 -0.33516069994114372 0 0.32329785406830119 -0.31851438762974038 0 0.34861985793913819 -0.32348694680056278 0 0.34583285254696272 -0.34925826637003859 0 0.33269317248742708 -0.33516069994114372 0 0.33269317248742708 -0.33516069994114372 0 0.31649816212422371 -0.34045498481247172 0 0.32329785406830119 -0.31851438762974038 0 0.31649816212422371 -0.34045498481247172 0 0.32329785406830119 -0.31851438762974038 0 0.30493984225419912 -0.32371215345573567 0 0.32329785406830119 -0.31851438762974038 0 0.30493984225419912 -0.32371215345573567 0 0.30235393165510333 -0.30341418122739489 0 0.31649816212422371 -0.34045498481247172 0 0.30493984225419912 -0.32371215345573567 0 0.29260830069814109 -0.33839680144313261 0 0.29260830069814109 -0.33839680144313261 0 0.27615256946168459 -0.31832328338830762 0 0.30493984225419912 -0.32371215345573567 0 0.27615256946168459 -0.31832328338830762 0 0.30235393165510333 -0.30341418122739489 0 0.30493984225419912 -0.32371215345573567 0 0.29260830069814109 -0.33839680144313261 0 0.27615256946168459 -0.31832328338830762 0 0.30122169906422303 -0.3774748631057584 0 0.30906403193459792 -0.35847031949795738 0 0.30122169906422303 -0.3774748631057584 0 0.30906403193459792 -0.35847031949795738 0 0.29351886917605979 -0.35487445890684671 0 0.32282708692952439 -0.37525917737126491 0 0.30122169906422303 -0.3774748631057584 0 0.30906403193459792 -0.35847031949795738 0 0.29260830069814109 -0.33839680144313261 0 0.30906403193459792 -0.35847031949795738 0 0.29351886917605979 -0.35487445890684671 0 0.31649816212422371 -0.34045498481247172 0 0.29260830069814109 -0.33839680144313261 0 0.30906403193459792 -0.35847031949795738 0 0.29260830069814109 -0.33839680144313261 0 0.30906403193459792 -0.35847031949795738 0 0.29260830069814109 -0.33839680144313261 0 0.29351886917605979 -0.35487445890684671 0 0.27139222728463452 -0.34835235459829628 0 0.29351886917605979 -0.35487445890684671 0 0.2839482385131743 -0.3656361676507342 0 0.27139222728463452 -0.34835235459829628 0 0.30122169906422303 -0.3774748631057584 0 0.29351886917605979 -0.35487445890684671 0 0.2839482385131743 -0.3656361676507342 0 0.2839482385131743 -0.3656361676507342 0 0.26678998884523442 -0.35726657439811788 0 0.26356631056480728 -0.37044284660746002 0 0.27972747780199558 -0.38192949984108698 0 0.2839482385131743 -0.3656361676507342 0 0.26356631056480728 -0.37044284660746002 0 0.2839482385131743 -0.3656361676507342 0 0.27139222728463452 -0.34835235459829628 0 0.26678998884523442 -0.35726657439811788 0 0.26356631056480728 -0.37044284660746002 0 0.24994724354984299 -0.36204334000573268 0 0.24825317901832189 -0.34463492873598067 0 0.26356631056480728 -0.37044284660746002 0 0.24825317901832189 -0.34463492873598067 0 0.27139222728463452 -0.34835235459829628 0 0.26678998884523442 -0.35726657439811788 0 0.24825317901832189 -0.34463492873598067 0 0.26678998884523442 -0.35726657439811788 0 0.26356631056480728 -0.37044284660746002 0 0.24825317901832189 -0.34463492873598067 0 0.25164130808136398 -0.37945175127548469 0 0.26356631056480728 -0.37044284660746002 0 0.24994724354984299 -0.36204334000573268 0 0.25164130808136398 -0.37945175127548469 0 0.24994724354984299 -0.36204334000573268 0 0.27615256946168459 -0.31832328338830762 0 0.26223021941922831 -0.33150810135384379 0 0.26081449790637012 -0.30341611196356177 0 0.29260830069814109 -0.33839680144313261 0 0.27615256946168459 -0.31832328338830762 0 0.26223021941922831 -0.33150810135384379 0 0.29260830069814109 -0.33839680144313261 0 0.27139222728463452 -0.34835235459829628 0 0.26223021941922831 -0.33150810135384379 0 0.26223021941922831 -0.33150810135384379 0 0.24539645135615551 -0.31527885102857489 0 0.24825317901832189 -0.34463492873598067 0 0.27139222728463452 -0.34835235459829628 0 0.26223021941922831 -0.33150810135384379 0 0.24825317901832189 -0.34463492873598067 0 0.26223021941922831 -0.33150810135384379 0 0.26081449790637012 -0.30341611196356177 0 0.24539645135615551 -0.31527885102857489 0 0.2551976753809066 -0.28541221886239898 0 0.26635916183417507 -0.29159588295253608 0 0.27373102336475369 -0.28129731474192909 0 0.26081449790637012 -0.30341611196356177 0 0.2551976753809066 -0.28541221886239898 0 0.2425397236939886 -0.28592277332116928 0 0.26081449790637012 -0.30341611196356177 0 0.2551976753809066 -0.28541221886239898 0 0.26635916183417507 -0.29159588295253608 0 0.26635916183417507 -0.29159588295253608 0 0.27857647064696728 -0.29573568220283741 0 0.27373102336475369 -0.28129731474192909 0 0.26081449790637012 -0.30341611196356177 0 0.26635916183417507 -0.29159588295253608 0 0.27857647064696728 -0.29573568220283741 0 0.27615256946168459 -0.31832328338830762 0 0.26081449790637012 -0.30341611196356177 0 0.27857647064696728 -0.29573568220283741 0 0.27615256946168459 -0.31832328338830762 0 0.27857647064696728 -0.29573568220283741 0 0.30235393165510333 -0.30341418122739489 0 0.27857647064696728 -0.29573568220283741 0 0.27373102336475369 -0.28129731474192909 0 0.29285152687820137 -0.28489493364506407 0 0.27857647064696728 -0.29573568220283741 0 0.29285152687820137 -0.28489493364506407 0 0.30235393165510333 -0.30341418122739489 0 0.29285152687820137 -0.28489493364506407 0 0.31234328130128658 -0.28776135188104579 0 0.30235393165510333 -0.30341418122739489 0 0.29285152687820137 -0.28489493364506407 0 0.31234328130128658 -0.28776135188104579 0 0.30261360525517711 -0.27249430539799768 0 0.3207276906311437 -0.30081147976960992 0 0.31234328130128658 -0.28776135188104579 0 0.30235393165510333 -0.30341418122739489 0 0.31816216510812378 -0.27308823958575901 0 0.31130958313709772 -0.25056939357745778 0 0.30261360525517711 -0.27249430539799768 0 0.31130958313709772 -0.25056939357745778 0 0.29821055381534523 -0.25810186372648058 0 0.30261360525517711 -0.27249430539799768 0 0.28782521681432333 -0.2463190441180266 0 0.31130958313709772 -0.25056939357745778 0 0.29821055381534523 -0.25810186372648058 0 0.31816216510812378 -0.27308823958575901 0 0.31234328130128658 -0.28776135188104579 0 0.30261360525517711 -0.27249430539799768 0 0.27373102336475369 -0.28129731474192909 0 0.29285152687820137 -0.28489493364506407 0 0.28749084904592059 -0.26866676641917958 0 0.29285152687820137 -0.28489493364506407 0 0.30261360525517711 -0.27249430539799768 0 0.28749084904592059 -0.26866676641917958 0 0.30261360525517711 -0.27249430539799768 0 0.28749084904592059 -0.26866676641917958 0 0.29821055381534523 -0.25810186372648058 0 0.30261360525517711 -0.27249430539799768 0 0.28749084904592059 -0.26866676641917958 0 0.28782521681432333 -0.2463190441180266 0 0.29821055381534523 -0.25810186372648058 0 0.28749084904592059 -0.26866676641917958 0 0.28782521681432333 -0.2463190441180266 0 0.28749084904592059 -0.26866676641917958 0 0.27236809283666358 -0.2648392274403637 0 0.28782521681432333 -0.2463190441180266 0 0.27236809283666358 -0.2648392274403637 0 0.28782521681432333 -0.2463190441180266 0 0.27236809283666358 -0.2648392274403637 0 0.2630291194435031 -0.25044460028586613 0 0.27373102336475369 -0.28129731474192909 0 0.28749084904592059 -0.26866676641917958 0 0.27236809283666358 -0.2648392274403637 0 0.2551976753809066 -0.28541221886239898 0 0.27373102336475369 -0.28129731474192909 0 0.27236809283666358 -0.2648392274403637 0 0.28749084904592059 -0.26866676641917958 0 0.27236809283666358 -0.2648392274403637 0 0.2551976753809066 -0.28541221886239898 0 0.25608154176962922 -0.2696225900972205 0 0.2486385272595322 -0.27669036990433621 0 0.2551976753809066 -0.28541221886239898 0 0.27236809283666358 -0.2648392274403637 0 0.2551976753809066 -0.28541221886239898 0 0.27236809283666358 -0.2648392274403637 0 0.25608154176962922 -0.2696225900972205 0 0.27236809283666358 -0.2648392274403637 0 0.24535488951562551 -0.25800224037111918 0 0.27236809283666358 -0.2648392274403637 0 0.2630291194435031 -0.25044460028586613 0 0.24535488951562551 -0.25800224037111918 0 0.27236809283666358 -0.2648392274403637 0 0.25608154176962922 -0.2696225900972205 0 0.24535488951562551 -0.25800224037111918 0 0.23968299603182361 -0.25656669561376361 0 0.2405833335860047 -0.26581867281603022 0 0.22778252798620349 -0.27224051126173687 0 0.24535488951562551 -0.25800224037111918 0 0.23968299603182361 -0.25656669561376361 0 0.23787219487653199 -0.23795868473077231 0 0.24535488951562551 -0.25800224037111918 0 0.23968299603182361 -0.25656669561376361 0 0.25608154176962922 -0.2696225900972205 0 0.24535488951562551 -0.25800224037111918 0 0.2405833335860047 -0.26581867281603022 0 0.24535488951562551 -0.25800224037111918 0 0.2405833335860047 -0.26581867281603022 0 0.23968299603182361 -0.25656669561376361 0 0.2405833335860047 -0.26581867281603022 0 0.24535488951562551 -0.25800224037111918 0 0.23968299603182361 -0.25656669561376361 0 0.2405833335860047 -0.26581867281603022 0 0.2405833335860047 -0.26581867281603022 0 0.2425397236939886 -0.28592277332116928 0 0.2405833335860047 -0.26581867281603022 0 0.22778252798620349 -0.27224051126173687 0 0.2425397236939886 -0.28592277332116928 0 0.2486385272595322 -0.27669036990433621 0 0.2405833335860047 -0.26581867281603022 0 0.2425397236939886 -0.28592277332116928 0 0.25608154176962922 -0.2696225900972205 0 0.2486385272595322 -0.27669036990433621 0 0.2405833335860047 -0.26581867281603022 0 0.22778252798620349 -0.27224051126173687 0 0.2130189153593777 -0.2852530198160681 0 0.2425397236939886 -0.28592277332116928 0 0.23968299603182361 -0.25656669561376361 0 0.22778252798620349 -0.27224051126173687 0 0.22477130385752811 -0.25279257651487019 0 0.22778252798620349 -0.27224051126173687 0 0.22477130385752811 -0.25279257651487019 0 0.21534130393854861 -0.26495272303694922 0 0.23968299603182361 -0.25656669561376361 0 0.22477130385752811 -0.25279257651487019 0 0.21534130393854861 -0.26495272303694922 0 0.2012741608063994 -0.2654590501760955 0 0.20985961168323311 -0.2490184574159747 0 0.22477130385752811 -0.25279257651487019 0 0.21534130393854861 -0.26495272303694922 0 0.20985961168323311 -0.2490184574159747 0 0.2012741608063994 -0.2654590501760955 0 0.20985961168323311 -0.2490184574159747 0 0.22477130385752811 -0.25279257651487019 0 0.20985961168323311 -0.2490184574159747 0 0.21534130393854861 -0.26495272303694922 0 0.2012741608063994 -0.2654590501760955 0 0.2130189153593777 -0.2852530198160681 0 0.22778252798620349 -0.27224051126173687 0 0.21534130393854861 -0.26495272303694922 0 0.2130189153593777 -0.2852530198160681 0 0.2012741608063994 -0.2654590501760955 0 0.2130189153593777 -0.2852530198160681 0 0.2012741608063994 -0.2654590501760955 0 0.1923160369848744 -0.28261328793918389 0 0.2130189153593777 -0.2852530198160681 0 0.2012741608063994 -0.2654590501760955 0 0.1923160369848744 -0.28261328793918389 0 0.176066551098497 -0.26803467943494241 0 0.2012741608063994 -0.2654590501760955 0 0.1923160369848744 -0.28261328793918389 0 0.19297233921846449 -0.25146761223444442 0 0.2012741608063994 -0.2654590501760955 0 0.176066551098497 -0.26803467943494241 0 0.19297233921846449 -0.25146761223444442 0 0.2012741608063994 -0.2654590501760955 0 0.20985961168323311 -0.2490184574159747 0 0.19297233921846449 -0.25146761223444442 0 0.2012741608063994 -0.2654590501760955 0 0.20348485684632889 -0.30459038569128888 0 0.19242895505377089 -0.32541398595593529 0 0.18070733905938921 -0.30484320664772802 0 0.1923160369848744 -0.28261328793918389 0 0.20348485684632889 -0.30459038569128888 0 0.18070733905938921 -0.30484320664772802 0 0.1923160369848744 -0.28261328793918389 0 0.2130189153593777 -0.2852530198160681 0 0.20348485684632889 -0.30459038569128888 0 0.2130189153593777 -0.2852530198160681 0 0.20348485684632889 -0.30459038569128888 0 0.22476366991235899 -0.30504698945603897 0 0.20348485684632889 -0.30459038569128888 0 0.22476366991235899 -0.30504698945603897 0 0.2140969368232721 -0.32155275760728619 0 0.2130189153593777 -0.2852530198160681 0 0.22476366991235899 -0.30504698945603897 0 0.2130189153593777 -0.2852530198160681 0 0.22476366991235899 -0.30504698945603897 0 0.2425397236939886 -0.28592277332116928 0 0.2551976753809066 -0.28541221886239898 0 0.2486385272595322 -0.27669036990433621 0 0.2425397236939886 -0.28592277332116928 0 0.26081449790637012 -0.30341611196356177 0 0.2425397236939886 -0.28592277332116928 0 0.24539645135615551 -0.31527885102857489 0 0.22476366991235899 -0.30504698945603897 0 0.2425397236939886 -0.28592277332116928 0 0.24539645135615551 -0.31527885102857489 0 0.2425397236939886 -0.28592277332116928 0 0.24539645135615551 -0.31527885102857489 0 0.22476366991235899 -0.30504698945603897 0 0.24539645135615551 -0.31527885102857489 0 0.23650842446534029 -0.32484095909601002 0 0.24539645135615551 -0.31527885102857489 0 0.23650842446534029 -0.32484095909601002 0 0.24825317901832189 -0.34463492873598067 0 0.23650842446534029 -0.32484095909601002 0 0.24825317901832189 -0.34463492873598067 0 0.24539645135615551 -0.31527885102857489 0 0.24825317901832189 -0.34463492873598067 0 0.23650842446534029 -0.32484095909601002 0 0.23613186833528821 -0.33989262776912088 0 0.24825317901832189 -0.34463492873598067 0 0.23650842446534029 -0.32484095909601002 0 0.23613186833528821 -0.33989262776912088 0 0.22296318207821039 -0.33960741211481438 0 0.23650842446534029 -0.32484095909601002 0 0.22296318207821039 -0.33960741211481438 0 0.2140969368232721 -0.32155275760728619 0 0.22476366991235899 -0.30504698945603897 0 0.23650842446534029 -0.32484095909601002 0 0.22476366991235899 -0.30504698945603897 0 0.23650842446534029 -0.32484095909601002 0 0.2140969368232721 -0.32155275760728619 0 0.25164130808136398 -0.37945175127548469 0 0.2442108522535982 -0.36617209341487461 0 0.24994724354984299 -0.36204334000573268 0 0.2362420984031546 -0.3701921637486687 0 0.2442108522535982 -0.36617209341487461 0 0.2419457141991587 -0.37725477192274681 0 0.2362420984031546 -0.3701921637486687 0 0.2419457141991587 -0.37725477192274681 0 0.23477755316317869 -0.37709210660031539 0 0.25164130808136398 -0.37945175127548469 0 0.2442108522535982 -0.36617209341487461 0 0.2419457141991587 -0.37725477192274681 0 0.25164130808136398 -0.37945175127548469 0 0.2442108522535982 -0.36617209341487461 0 0.2442108522535982 -0.36617209341487461 0 0.24994724354984299 -0.36204334000573268 0 0.23678039642583201 -0.35289243555426458 0 0.2442108522535982 -0.36617209341487461 0 0.23678039642583201 -0.35289243555426458 0 0.2368565761416031 -0.36339570153820711 0 0.23678039642583201 -0.35289243555426458 0 0.2301929574838277 -0.36432611343502053 0 0.2442108522535982 -0.36617209341487461 0 0.2368565761416031 -0.36339570153820711 0 0.23678039642583201 -0.35289243555426458 0 0.2362420984031546 -0.3701921637486687 0 0.2442108522535982 -0.36617209341487461 0 0.2368565761416031 -0.36339570153820711 0 0.2362420984031546 -0.3701921637486687 0 0.2368565761416031 -0.36339570153820711 0 0.2301929574838277 -0.36432611343502053 0 0.24994724354984299 -0.36204334000573268 0 0.24825317901832189 -0.34463492873598067 0 0.24994724354984299 -0.36204334000573268 0 0.23678039642583201 -0.35289243555426458 0 0.24825317901832189 -0.34463492873598067 0 0.23613186833528821 -0.33989262776912088 0 0.23678039642583201 -0.35289243555426458 0 0.24825317901832189 -0.34463492873598067 0 0.22296318207821039 -0.33960741211481438 0 0.23678039642583201 -0.35289243555426458 0 0.2211972320074711 -0.35689619455175042 0 0.23613186833528821 -0.33989262776912088 0 0.22296318207821039 -0.33960741211481438 0 0.23678039642583201 -0.35289243555426458 0 0.23678039642583201 -0.35289243555426458 0 0.2211972320074711 -0.35689619455175042 0 0.2301929574838277 -0.36432611343502053 0 0.2211972320074711 -0.35689619455175042 0 0.2301929574838277 -0.36432611343502053 0 0.2208918959026315 -0.36797316208537961 0 0.2208918959026315 -0.36797316208537961 0 0.22865732204298181 -0.37287718098154887 0 0.2214551049049491 -0.37704269854443001 0 0.2301929574838277 -0.36432611343502053 0 0.2208918959026315 -0.36797316208537961 0 0.22865732204298181 -0.37287718098154887 0 0.2362420984031546 -0.3701921637486687 0 0.2301929574838277 -0.36432611343502053 0 0.22865732204298181 -0.37287718098154887 0 0.2362420984031546 -0.3701921637486687 0 0.22865732204298181 -0.37287718098154887 0 0.23477755316317869 -0.37709210660031539 0 0.2083124884381696 -0.36597496774881072 0 0.21157236206234459 -0.37725563232011211 0 0.1968526323558738 -0.37791980076821169 0 0.2208918959026315 -0.36797316208537961 0 0.2214551049049491 -0.37704269854443001 0 0.21157236206234459 -0.37725563232011211 0 0.2208918959026315 -0.36797316208537961 0 0.2083124884381696 -0.36597496774881072 0 0.21157236206234459 -0.37725563232011211 0 0.2211972320074711 -0.35689619455175042 0 0.2208918959026315 -0.36797316208537961 0 0.2083124884381696 -0.36597496774881072 0 0.2083124884381696 -0.36597496774881072 0 0.20780997896113201 -0.35098630032288591 0 0.19486710870087839 -0.36196059992376861 0 0.22296318207821039 -0.33960741211481438 0 0.2211972320074711 -0.35689619455175042 0 0.20780997896113201 -0.35098630032288591 0 0.2211972320074711 -0.35689619455175042 0 0.2083124884381696 -0.36597496774881072 0 0.20780997896113201 -0.35098630032288591 0 0.1940763330415072 -0.34521193586297749 0 0.19486710870087839 -0.36196059992376861 0 0.18316060607636719 -0.3567885273751798 0 0.20780997896113201 -0.35098630032288591 0 0.1940763330415072 -0.34521193586297749 0 0.19486710870087839 -0.36196059992376861 0 0.20780997896113201 -0.35098630032288591 0 0.1940763330415072 -0.34521193586297749 0 0.20685294568399221 -0.33634060113340009 0 0.2083124884381696 -0.36597496774881072 0 0.19486710870087839 -0.36196059992376861 0 0.1968526323558738 -0.37791980076821169 0 0.19486710870087839 -0.36196059992376861 0 0.18048938837462211 -0.37327873181807469 0 0.1968526323558738 -0.37791980076821169 0 0.20348485684632889 -0.30459038569128888 0 0.2140969368232721 -0.32155275760728619 0 0.19242895505377089 -0.32541398595593529 0 0.2140969368232721 -0.32155275760728619 0 0.20685294568399221 -0.33634060113340009 0 0.19242895505377089 -0.32541398595593529 0 0.22296318207821039 -0.33960741211481438 0 0.20780997896113201 -0.35098630032288591 0 0.20685294568399221 -0.33634060113340009 0 0.22296318207821039 -0.33960741211481438 0 0.2140969368232721 -0.32155275760728619 0 0.20685294568399221 -0.33634060113340009 0 0.1940763330415072 -0.34521193586297749 0 0.19242895505377089 -0.32541398595593529 0 0.1778823185411145 -0.34443528425697473 0 0.1940763330415072 -0.34521193586297749 0 0.20685294568399221 -0.33634060113340009 0 0.19242895505377089 -0.32541398595593529 0 0.19242895505377089 -0.32541398595593529 0 0.16909864113390449 -0.32707312535627242 0 0.18070733905938921 -0.30484320664772802 0 0.16909864113390449 -0.32707312535627242 0 0.18070733905938921 -0.30484320664772802 0 0.19242895505377089 -0.32541398595593529 0 0.16909864113390449 -0.32707312535627242 0 0.1778823185411145 -0.34443528425697473 0 0.16909864113390449 -0.32707312535627242 0 0.1778823185411145 -0.34443528425697473 0 0.15748994320841991 -0.34930304406481683 0 0.16909864113390449 -0.32707312535627242 0 0.15748994320841991 -0.34930304406481683 0 0.14499818636076231 -0.33065394679766158 0 0.16909864113390449 -0.32707312535627242 0 0.15748994320841991 -0.34930304406481683 0 0.16909864113390449 -0.32707312535627242 0 0.14499818636076231 -0.33065394679766158 0 0.1567573049331282 -0.31012321739617749 0 0.16909864113390449 -0.32707312535627242 0 0.18070733905938921 -0.30484320664772802 0 0.1567573049331282 -0.31012321739617749 0 0.17192417855469991 -0.36038325592558101 0 0.18048938837462211 -0.37327873181807469 0 0.18316060607636719 -0.3567885273751798 0 0.19486710870087839 -0.36196059992376861 0 0.18048938837462211 -0.37327873181807469 0 0.18316060607636719 -0.3567885273751798 0 0.1940763330415072 -0.34521193586297749 0 0.1778823185411145 -0.34443528425697473 0 0.18316060607636719 -0.3567885273751798 0 0.17192417855469991 -0.36038325592558101 0 0.1778823185411145 -0.34443528425697473 0 0.18316060607636719 -0.3567885273751798 0 0.17192417855469991 -0.36038325592558101 0 0.1778823185411145 -0.34443528425697473 0 0.15748994320841991 -0.34930304406481683 0 0.17192417855469991 -0.36038325592558101 0 0.15748994320841991 -0.34930304406481683 0 0.1623681282169413 -0.37323503011068909 0 0.17192417855469991 -0.36038325592558101 0 0.18048938837462211 -0.37327873181807469 0 0.1623681282169413 -0.37323503011068909 0 0.15748994320841991 -0.34930304406481683 0 0.1623681282169413 -0.37323503011068909 0 0.1458812452829352 -0.37153296277336118 0 0.15748994320841991 -0.34930304406481683 0 0.1458812452829352 -0.37153296277336118 0 0.15748994320841991 -0.34930304406481683 0 0.1458812452829352 -0.37153296277336118 0 0.12914143619693519 -0.34880269456551172 0 0.1458812452829352 -0.37153296277336118 0 0.12914143619693519 -0.34880269456551172 0 0.1170572681968771 -0.36752770301305471 0 0.1458812452829352 -0.37153296277336118 0 0.12308532481231339 -0.38329660890999029 0 0.1170572681968771 -0.36752770301305471 0 0.14499818636076231 -0.33065394679766158 0 0.13285072161803119 -0.3126038655029908 0 0.1567573049331282 -0.31012321739617749 0 0.15748994320841991 -0.34930304406481683 0 0.12914143619693519 -0.34880269456551172 0 0.14499818636076231 -0.33065394679766158 0 0.12914143619693519 -0.34880269456551172 0 0.14499818636076231 -0.33065394679766158 0 0.1251920375030795 -0.32861408620246468 0 0.14499818636076231 -0.33065394679766158 0 0.1251920375030795 -0.32861408620246468 0 0.13285072161803119 -0.3126038655029908 0 0.13285072161803119 -0.3126038655029908 0 0.13600517251636909 -0.29116004475647778 0 0.1188410324676098 -0.29837103342623611 0 0.13285072161803119 -0.3126038655029908 0 0.13600517251636909 -0.29116004475647778 0 0.1567573049331282 -0.31012321739617749 0 0.13600517251636909 -0.29116004475647778 0 0.13898640559612321 -0.26684945314413078 0 0.1568323995259957 -0.28915652190360153 0 0.13600517251636909 -0.29116004475647778 0 0.1567573049331282 -0.31012321739617749 0 0.1568323995259957 -0.28915652190360153 0 0.13898640559612321 -0.26684945314413078 0 0.1181557459801281 -0.28024283535755828 0 0.13600517251636909 -0.29116004475647778 0 0.13898640559612321 -0.26684945314413078 0 0.1181557459801281 -0.28024283535755828 0 0.13898640559612321 -0.26684945314413078 0 0.11962490723542719 -0.25785197881650451 0 0.1181557459801281 -0.28024283535755828 0 0.13898640559612321 -0.26684945314413078 0 0.13731392064016351 -0.25181983948864062 0 0.11962490723542719 -0.25785197881650451 0 0.13731392064016351 -0.25181983948864062 0 0.11962490723542719 -0.25785197881650451 0 0.1240225730844019 -0.24156982424738241 0 0.13898640559612321 -0.26684945314413078 0 0.1584569147175906 -0.27131734726130741 0 0.159817065212118 -0.25345607093070283 0 0.13898640559612321 -0.26684945314413078 0 0.159817065212118 -0.25345607093070283 0 0.13898640559612321 -0.26684945314413078 0 0.13731392064016351 -0.25181983948864062 0 0.159817065212118 -0.25345607093070283 0 0.13898640559612321 -0.26684945314413078 0 0.1584569147175906 -0.27131734726130741 0 0.1568323995259957 -0.28915652190360153 0 0.1584569147175906 -0.27131734726130741 0 0.176066551098497 -0.26803467943494241 0 0.1745984448410618 -0.28601628450921168 0 0.159817065212118 -0.25345607093070283 0 0.176066551098497 -0.26803467943494241 0 0.1584569147175906 -0.27131734726130741 0 0.159817065212118 -0.25345607093070283 0 0.176066551098497 -0.26803467943494241 0 0.159817065212118 -0.25345607093070283 0 0.176066551098497 -0.26803467943494241 0 0.18467051763053249 -0.2374761742927915 0 0.19297233921846449 -0.25146761223444442 0 0.176066551098497 -0.26803467943494241 0 0.18467051763053249 -0.2374761742927915 0 0.1923160369848744 -0.28261328793918389 0 0.176066551098497 -0.26803467943494241 0 0.1745984448410618 -0.28601628450921168 0 0.1923160369848744 -0.28261328793918389 0 0.176066551098497 -0.26803467943494241 0 0.1923160369848744 -0.28261328793918389 0 0.18070733905938921 -0.30484320664772802 0 0.1923160369848744 -0.28261328793918389 0 0.1745984448410618 -0.28601628450921168 0 0.18070733905938921 -0.30484320664772802 0 0.18070733905938921 -0.30484320664772802 0 0.1567573049331282 -0.31012321739617749 0 0.1568323995259957 -0.28915652190360153 0 0.1584569147175906 -0.27131734726130741 0 0.1745984448410618 -0.28601628450921168 0 0.1568323995259957 -0.28915652190360153 0 0.1745984448410618 -0.28601628450921168 0 0.18070733905938921 -0.30484320664772802 0 0.1568323995259957 -0.28915652190360153 0 0.18845741924796211 -0.48361232452677771 0 0.24377228260446079 -0.5 0 0.16646091259651599 -0.50000000000000011 0 0.18845741924796211 -0.48361232452677771 0 0.21238249252208749 -0.47974540520833348 0 0.24377228260446079 -0.5 0 0.18845741924796211 -0.48361232452677771 0 0.21238249252208749 -0.47974540520833348 0 0.19431848823755901 -0.46228479101139258 0 0.21238249252208749 -0.47974540520833348 0 0.19431848823755901 -0.46228479101139258 0 0.21238249252208749 -0.47974540520833348 0 0.24377228260446079 -0.5 0 0.23629594397417689 -0.470656061751212 0 0.25395798473348558 -0.48062958627472502 0 0.23629594397417689 -0.470656061751212 0 0.24984189626145989 -0.46002901486873138 0 0.25395798473348558 -0.48062958627472502 0 0.24377228260446079 -0.5 0 0.23629594397417689 -0.470656061751212 0 0.21238249252208749 -0.47974540520833348 0 0.23629594397417689 -0.470656061751212 0 0.21683898253132969 -0.45694669425562218 0 0.23629594397417689 -0.470656061751212 0 0.23421801325604619 -0.45254531812032073 0 0.21683898253132969 -0.45694669425562218 0 0.23629594397417689 -0.470656061751212 0 0.24984189626145989 -0.46002901486873138 0 0.23421801325604619 -0.45254531812032073 0 0.24984189626145989 -0.46002901486873138 0 0.24698723727761279 -0.44164003299261589 0 0.23421801325604619 -0.45254531812032073 0 0.23421801325604619 -0.45254531812032073 0 0.21683898253132969 -0.45694669425562218 0 0.22112600623565151 -0.43345478673342208 0 0.24698723727761279 -0.44164003299261589 0 0.23421801325604619 -0.45254531812032073 0 0.22112600623565151 -0.43345478673342208 0 0.24698723727761279 -0.44164003299261589 0 0.22112600623565151 -0.43345478673342208 0 0.21683898253132969 -0.45694669425562218 0 0.2013860578369803 -0.44439306374039661 0 0.22112600623565151 -0.43345478673342208 0 0.21683898253132969 -0.45694669425562218 0 0.19431848823755901 -0.46228479101139258 0 0.2013860578369803 -0.44439306374039661 0 0.21238249252208749 -0.47974540520833348 0 0.21683898253132969 -0.45694669425562218 0 0.19431848823755901 -0.46228479101139258 0 0.2013860578369803 -0.44439306374039661 0 0.1952647751936902 -0.42526954047422821 0 0.17625448395303051 -0.44482417681445169 0 0.19431848823755901 -0.46228479101139258 0 0.2013860578369803 -0.44439306374039661 0 0.17625448395303051 -0.44482417681445169 0 0.1952647751936902 -0.42526954047422821 0 0.18848562692967219 -0.40920723833972661 0 0.2086984028517648 -0.41375268930587822 0 0.18848562692967219 -0.40920723833972661 0 0.2086984028517648 -0.41375268930587822 0 0.19856230734232311 -0.40068900374696848 0 0.2086984028517648 -0.41375268930587822 0 0.2240147067597088 -0.41872994116377649 0 0.22336366829847851 -0.4065062731477459 0 0.2086984028517648 -0.41375268930587822 0 0.22336366829847851 -0.4065062731477459 0 0.212815571935804 -0.39859556700538379 0 0.2013860578369803 -0.44439306374039661 0 0.1952647751936902 -0.42526954047422821 0 0.22112600623565151 -0.43345478673342208 0 0.2086984028517648 -0.41375268930587822 0 0.22112600623565151 -0.43345478673342208 0 0.2240147067597088 -0.41872994116377649 0 0.1952647751936902 -0.42526954047422821 0 0.22112600623565151 -0.43345478673342208 0 0.1952647751936902 -0.42526954047422821 0 0.2086984028517648 -0.41375268930587822 0 0.22112600623565151 -0.43345478673342208 0 0.24698723727761279 -0.44164003299261589 0 0.22112600623565151 -0.43345478673342208 0 0.23478345876431289 -0.42661878136970832 0 0.22112600623565151 -0.43345478673342208 0 0.23478345876431289 -0.42661878136970832 0 0.2240147067597088 -0.41872994116377649 0 0.23478345876431289 -0.42661878136970832 0 0.24632822158227871 -0.42353552183044979 0 0.24826280892824909 -0.43277588873161588 0 0.25406741122191862 -0.42512718886302492 0 0.24632822158227871 -0.42353552183044979 0 0.24826280892824909 -0.43277588873161588 0 0.24698723727761279 -0.44164003299261589 0 0.23478345876431289 -0.42661878136970832 0 0.24826280892824909 -0.43277588873161588 0 0.25406741122191862 -0.42512718886302492 0 0.24852243941664359 -0.40738679496750541 0 0.24354291200847769 -0.41493363248528259 0 0.24852243941664359 -0.40738679496750541 0 0.24354291200847769 -0.41493363248528259 0 0.2407123627805158 -0.40907983445175572 0 0.25406741122191862 -0.42512718886302492 0 0.24632822158227871 -0.42353552183044979 0 0.24354291200847769 -0.41493363248528259 0 0.23478345876431289 -0.42661878136970832 0 0.24632822158227871 -0.42353552183044979 0 0.24354291200847769 -0.41493363248528259 0 0.23478345876431289 -0.42661878136970832 0 0.24354291200847769 -0.41493363248528259 0 0.23349514182975309 -0.41283772718139372 0 0.2407123627805158 -0.40907983445175572 0 0.23349514182975309 -0.41283772718139372 0 0.23728895786718879 -0.401161183172841 0 0.24354291200847769 -0.41493363248528259 0 0.2407123627805158 -0.40907983445175572 0 0.23349514182975309 -0.41283772718139372 0 0.23349514182975309 -0.41283772718139372 0 0.22336366829847851 -0.4065062731477459 0 0.23728895786718879 -0.401161183172841 0 0.23349514182975309 -0.41283772718139372 0 0.2240147067597088 -0.41872994116377649 0 0.22336366829847851 -0.4065062731477459 0 0.23478345876431289 -0.42661878136970832 0 0.23349514182975309 -0.41283772718139372 0 0.2240147067597088 -0.41872994116377649 0 0.22336366829847851 -0.4065062731477459 0 0.22557030734323949 -0.39349850745998077 0 0.212815571935804 -0.39859556700538379 0 0.22557030734323949 -0.39349850745998077 0 0.23728895786718879 -0.401161183172841 0 0.23495914686390651 -0.38679540223307668 0 0.22336366829847851 -0.4065062731477459 0 0.22557030734323949 -0.39349850745998077 0 0.23728895786718879 -0.401161183172841 0 0.24852243941664359 -0.40738679496750541 0 0.23728895786718879 -0.401161183172841 0 0.2429774676113689 -0.38964640107198578 0 0.25388432824530771 -0.40250129677611379 0 0.24852243941664359 -0.40738679496750541 0 0.2429774676113689 -0.38964640107198578 0 0.24852243941664359 -0.40738679496750541 0 0.2429774676113689 -0.38964640107198578 0 0.24852243941664359 -0.40738679496750541 0 0.2407123627805158 -0.40907983445175572 0 0.23728895786718879 -0.401161183172841 0 0.23728895786718879 -0.401161183172841 0 0.2429774676113689 -0.38964640107198578 0 0.23495914686390651 -0.38679540223307668 0 0.25164130808136398 -0.37945175127548469 0 0.25388432824530771 -0.40250129677611379 0 0.2429774676113689 -0.38964640107198578 0 0.25164130808136398 -0.37945175127548469 0 0.2429774676113689 -0.38964640107198578 0 0.2419457141991587 -0.37725477192274681 0 0.2429774676113689 -0.38964640107198578 0 0.23495914686390651 -0.38679540223307668 0 0.2419457141991587 -0.37725477192274681 0 0.23495914686390651 -0.38679540223307668 0 0.2419457141991587 -0.37725477192274681 0 0.23477755316317869 -0.37709210660031539 0 0.22865732204298181 -0.37287718098154887 0 0.23477755316317869 -0.37709210660031539 0 0.2271948809993046 -0.38211944317059082 0 0.23495914686390651 -0.38679540223307668 0 0.23477755316317869 -0.37709210660031539 0 0.2271948809993046 -0.38211944317059082 0 0.22557030734323949 -0.39349850745998077 0 0.23495914686390651 -0.38679540223307668 0 0.2271948809993046 -0.38211944317059082 0 0.22557030734323949 -0.39349850745998077 0 0.2271948809993046 -0.38211944317059082 0 0.21758889306535131 -0.38610891881052922 0 0.2271948809993046 -0.38211944317059082 0 0.2214551049049491 -0.37704269854443001 0 0.21758889306535131 -0.38610891881052922 0 0.22865732204298181 -0.37287718098154887 0 0.2271948809993046 -0.38211944317059082 0 0.2214551049049491 -0.37704269854443001 0 0.2214551049049491 -0.37704269854443001 0 0.21157236206234459 -0.37725563232011211 0 0.21758889306535131 -0.38610891881052922 0 0.21157236206234459 -0.37725563232011211 0 0.20800984663420061 -0.38797177963991258 0 0.1968526323558738 -0.37791980076821169 0 0.21157236206234459 -0.37725563232011211 0 0.20800984663420061 -0.38797177963991258 0 0.21758889306535131 -0.38610891881052922 0 0.22557030734323949 -0.39349850745998077 0 0.21758889306535131 -0.38610891881052922 0 0.212815571935804 -0.39859556700538379 0 0.20800984663420061 -0.38797177963991258 0 0.21758889306535131 -0.38610891881052922 0 0.212815571935804 -0.39859556700538379 0 0.2086984028517648 -0.41375268930587822 0 0.212815571935804 -0.39859556700538379 0 0.19856230734232311 -0.40068900374696848 0 0.20800984663420061 -0.38797177963991258 0 0.212815571935804 -0.39859556700538379 0 0.19856230734232311 -0.40068900374696848 0 0.20800984663420061 -0.38797177963991258 0 0.19856230734232311 -0.40068900374696848 0 0.19722419678024791 -0.38913417201088391 0 0.18848562692967219 -0.40920723833972661 0 0.19856230734232311 -0.40068900374696848 0 0.18547200078859419 -0.38995610388844282 0 0.19856230734232311 -0.40068900374696848 0 0.19722419678024791 -0.38913417201088391 0 0.18547200078859419 -0.38995610388844282 0 0.1968526323558738 -0.37791980076821169 0 0.19722419678024791 -0.38913417201088391 0 0.18547200078859419 -0.38995610388844282 0 0.18048938837462211 -0.37327873181807469 0 0.1968526323558738 -0.37791980076821169 0 0.18547200078859419 -0.38995610388844282 0 0.20800984663420061 -0.38797177963991258 0 0.1968526323558738 -0.37791980076821169 0 0.19722419678024791 -0.38913417201088391 0 0.18048938837462211 -0.37327873181807469 0 0.18547200078859419 -0.38995610388844282 0 0.17001831144160781 -0.38897870426665981 0 0.18848562692967219 -0.40920723833972661 0 0.18547200078859419 -0.38995610388844282 0 0.17519795988853781 -0.40237848945734472 0 0.18547200078859419 -0.38995610388844282 0 0.17519795988853781 -0.40237848945734472 0 0.17001831144160781 -0.38897870426665981 0 0.17519795988853781 -0.40237848945734472 0 0.16197748161158121 -0.40002593217666932 0 0.17001831144160781 -0.38897870426665981 0 0.16197748161158121 -0.40002593217666932 0 0.15761662877972429 -0.38592686086430339 0 0.17001831144160781 -0.38897870426665981 0 0.18048938837462211 -0.37327873181807469 0 0.1623681282169413 -0.37323503011068909 0 0.17001831144160781 -0.38897870426665981 0 0.1623681282169413 -0.37323503011068909 0 0.15761662877972429 -0.38592686086430339 0 0.17001831144160781 -0.38897870426665981 0 0.1623681282169413 -0.37323503011068909 0 0.1458812452829352 -0.37153296277336118 0 0.15761662877972429 -0.38592686086430339 0 0.1458812452829352 -0.37153296277336118 0 0.13427254735745051 -0.39376288148190558 0 0.1478379773455559 -0.39586167499413738 0 0.1458812452829352 -0.37153296277336118 0 0.15761662877972429 -0.38592686086430339 0 0.1478379773455559 -0.39586167499413738 0 0.1458812452829352 -0.37153296277336118 0 0.13427254735745051 -0.39376288148190558 0 0.12308532481231339 -0.38329660890999029 0 0.1458812452829352 -0.37153296277336118 0 0.13427254735745051 -0.39376288148190558 0 0.1306910958102063 -0.40595109247113281 0 0.13427254735745051 -0.39376288148190558 0 0.1162993765944388 -0.39566554207991489 0 0.1306910958102063 -0.40595109247113281 0 0.13427254735745051 -0.39376288148190558 0 0.1435423131097672 -0.40889904795584042 0 0.13427254735745051 -0.39376288148190558 0 0.1478379773455559 -0.39586167499413738 0 0.1435423131097672 -0.40889904795584042 0 0.16197748161158121 -0.40002593217666932 0 0.15761662877972429 -0.38592686086430339 0 0.1478379773455559 -0.39586167499413738 0 0.1478379773455559 -0.39586167499413738 0 0.15569032905465821 -0.4054677373354203 0 0.1435423131097672 -0.40889904795584042 0 0.16197748161158121 -0.40002593217666932 0 0.1478379773455559 -0.39586167499413738 0 0.15569032905465821 -0.4054677373354203 0 0.15068655771164879 -0.41784881093995158 0 0.13992176493610819 -0.41892175753539479 0 0.1604240528189495 -0.42533728176818181 0 0.15569032905465821 -0.4054677373354203 0 0.1435423131097672 -0.40889904795584042 0 0.1694035441517287 -0.41708429421503429 0 0.15068655771164879 -0.41784881093995158 0 0.1435423131097672 -0.40889904795584042 0 0.15796582048471239 -0.41793090464954952 0 0.15068655771164879 -0.41784881093995158 0 0.1435423131097672 -0.40889904795584042 0 0.13992176493610819 -0.41892175753539479 0 0.1306910958102063 -0.40595109247113281 0 0.1435423131097672 -0.40889904795584042 0 0.13992176493610819 -0.41892175753539479 0 0.13992176493610819 -0.41892175753539479 0 0.1194194770532669 -0.41250623330260822 0 0.1306910958102063 -0.40595109247113281 0 0.13992176493610819 -0.41892175753539479 0 0.1194194770532669 -0.41250623330260822 0 0.13992176493610819 -0.41892175753539479 0 0.1201510209787737 -0.43065580698901412 0 0.1194194770532669 -0.41250623330260822 0 0.13992176493610819 -0.41892175753539479 0 0.13603063076821981 -0.44746681172832148 0 0.1201510209787737 -0.43065580698901412 0 0.15819047966850139 -0.42736356261751168 0 0.13603063076821981 -0.44746681172832148 0 0.13992176493610819 -0.41892175753539479 0 0.1604240528189495 -0.42533728176818181 0 0.13992176493610819 -0.41892175753539479 0 0.1604240528189495 -0.42533728176818181 0 0.15819047966850139 -0.42736356261751168 0 0.13992176493610819 -0.41892175753539479 0 0.15819047966850139 -0.42736356261751168 0 0.13603063076821981 -0.44746681172832148 0 0.16361042385895089 -0.42633435296036237 0 0.1757480834402636 -0.42749683284984957 0 0.17625448395303051 -0.44482417681445169 0 0.16361042385895089 -0.42633435296036237 0 0.15819047966850139 -0.42736356261751168 0 0.17625448395303051 -0.44482417681445169 0 0.15819047966850139 -0.42736356261751168 0 0.17625448395303051 -0.44482417681445169 0 0.16361042385895089 -0.42633435296036237 0 0.16577263463146799 -0.42048508836873921 0 0.1757480834402636 -0.42749683284984957 0 0.1604240528189495 -0.42533728176818181 0 0.16577263463146799 -0.42048508836873921 0 0.1604240528189495 -0.42533728176818181 0 0.16361042385895089 -0.42633435296036237 0 0.16577263463146799 -0.42048508836873921 0 0.1604240528189495 -0.42533728176818181 0 0.16361042385895089 -0.42633435296036237 0 0.15819047966850139 -0.42736356261751168 0 0.1604240528189495 -0.42533728176818181 0 0.16361042385895089 -0.42633435296036237 0 0.1604240528189495 -0.42533728176818181 0 0.15819047966850139 -0.42736356261751168 0 0.15068655771164879 -0.41784881093995158 0 0.1604240528189495 -0.42533728176818181 0 0.15796582048471239 -0.41793090464954952 0 0.16197748161158121 -0.40002593217666932 0 0.15569032905465821 -0.4054677373354203 0 0.1694035441517287 -0.41708429421503429 0 0.1435423131097672 -0.40889904795584042 0 0.15796582048471239 -0.41793090464954952 0 0.1694035441517287 -0.41708429421503429 0 0.1435423131097672 -0.40889904795584042 0 0.1694035441517287 -0.41708429421503429 0 0.17519795988853781 -0.40237848945734472 0 0.16197748161158121 -0.40002593217666932 0 0.1694035441517287 -0.41708429421503429 0 0.1604240528189495 -0.42533728176818181 0 0.15796582048471239 -0.41793090464954952 0 0.16577263463146799 -0.42048508836873921 0 0.15796582048471239 -0.41793090464954952 0 0.1694035441517287 -0.41708429421503429 0 0.16577263463146799 -0.42048508836873921 0 0.1694035441517287 -0.41708429421503429 0 0.16577263463146799 -0.42048508836873921 0 0.1757480834402636 -0.42749683284984957 0 0.1952647751936902 -0.42526954047422821 0 0.18848562692967219 -0.40920723833972661 0 0.1694035441517287 -0.41708429421503429 0 0.1952647751936902 -0.42526954047422821 0 0.1694035441517287 -0.41708429421503429 0 0.18848562692967219 -0.40920723833972661 0 0.17519795988853781 -0.40237848945734472 0 0.1694035441517287 -0.41708429421503429 0 0.1952647751936902 -0.42526954047422821 0 0.1757480834402636 -0.42749683284984957 0 0.17625448395303051 -0.44482417681445169 0 0.1952647751936902 -0.42526954047422821 0 0.1694035441517287 -0.41708429421503429 0 0.1757480834402636 -0.42749683284984957 0 0.19431848823755901 -0.46228479101139258 0 0.17625448395303051 -0.44482417681445169 0 0.19431848823755901 -0.46228479101139258 0 0.17625448395303051 -0.44482417681445169 0 0.1737664270626634 -0.4629534661375756 0 0.1737664270626634 -0.4629534661375756 0 0.1567299963319414 -0.46371413050258942 0 0.1635487863891717 -0.47803757394505197 0 0.1737664270626634 -0.4629534661375756 0 0.1567299963319414 -0.46371413050258942 0 0.15743578927372209 -0.44938292578045858 0 0.15819047966850139 -0.42736356261751168 0 0.17625448395303051 -0.44482417681445169 0 0.15743578927372209 -0.44938292578045858 0 0.17625448395303051 -0.44482417681445169 0 0.1737664270626634 -0.4629534661375756 0 0.15743578927372209 -0.44938292578045858 0 0.15743578927372209 -0.44938292578045858 0 0.13603063076821981 -0.44746681172832148 0 0.14061649142819471 -0.46136949884361828 0 0.15819047966850139 -0.42736356261751168 0 0.15743578927372209 -0.44938292578045858 0 0.13603063076821981 -0.44746681172832148 0 0.14061649142819471 -0.46136949884361828 0 0.13357969869631781 -0.47318682591853511 0 0.113870781867944 -0.46757006083913749 0 0.13603063076821981 -0.44746681172832148 0 0.14061649142819471 -0.46136949884361828 0 0.113870781867944 -0.46757006083913749 0 0.1567299963319414 -0.46371413050258942 0 0.15743578927372209 -0.44938292578045858 0 0.14061649142819471 -0.46136949884361828 0 0.1567299963319414 -0.46371413050258942 0 0.14061649142819471 -0.46136949884361828 0 0.14876612126197239 -0.47227074480738779 0 0.14876612126197239 -0.47227074480738779 0 0.13357969869631781 -0.47318682591853511 0 0.15002030564641691 -0.48659341295926761 0 0.13357969869631781 -0.47318682591853511 0 0.15002030564641691 -0.48659341295926761 0 0.14876612126197239 -0.47227074480738779 0 0.15002030564641691 -0.48659341295926761 0 0.1635487863891717 -0.47803757394505197 0 0.14061649142819471 -0.46136949884361828 0 0.14876612126197239 -0.47227074480738779 0 0.13357969869631781 -0.47318682591853511 0 0.13280305727602629 -0.48378503041957338 0 0.13357969869631781 -0.47318682591853511 0 0.113870781867944 -0.46757006083913749 0 0.13280305727602629 -0.48378503041957338 0 0.13357969869631781 -0.47318682591853511 0 0.15002030564641691 -0.48659341295926761 0 0.13280305727602629 -0.48378503041957338 0 0.1305203754946411 -0.5 0 0.1134738086081602 -0.48789703713673188 0 0.13280305727602629 -0.48378503041957338 0 0.1305203754946411 -0.5 0 0.1517353326841118 -0.50000000000000533 0 0.13280305727602629 -0.48378503041957338 0 0.1517353326841118 -0.50000000000000533 0 0.15002030564641691 -0.48659341295926761 0 0.1517353326841118 -0.50000000000000533 0 0.15002030564641691 -0.48659341295926761 0 0.16646091259651599 -0.50000000000000011 0 0.13280305727602629 -0.48378503041957338 0 0.1517353326841118 -0.50000000000000533 0 0.15002030564641691 -0.48659341295926761 0 0.16646091259651599 -0.50000000000000011 0 0.15002030564641691 -0.48659341295926761 0 0.16646091259651599 -0.50000000000000011 0 0.1635487863891717 -0.47803757394505197 0 0.1567299963319414 -0.46371413050258942 0 0.14876612126197239 -0.47227074480738779 0 0.1635487863891717 -0.47803757394505197 0 0.18845741924796211 -0.48361232452677771 0 0.1737664270626634 -0.4629534661375756 0 0.1635487863891717 -0.47803757394505197 0 0.18845741924796211 -0.48361232452677771 0 0.19431848823755901 -0.46228479101139258 0 0.1737664270626634 -0.4629534661375756 0 0.18845741924796211 -0.48361232452677771 0 0.16646091259651599 -0.50000000000000011 0 0.1635487863891717 -0.47803757394505197 0 0.078123199589619316 -0.50000000000000067 0 0.072239547924749792 -0.48404638969740021 0 0.056815297420688388 -0.49999999999999939 0 0.072239547924749792 -0.48404638969740021 0 0.066772452587478909 -0.46594868190325611 0 0.05810563866242989 -0.47815751042997678 0 0.072239547924749792 -0.48404638969740021 0 0.081570328181927304 -0.47339924935340738 0 0.066772452587478909 -0.46594868190325611 0 0.081570328181927304 -0.47339924935340738 0 0.090909517431635986 -0.48840034812761213 0 0.094982574878904491 -0.47164082183598233 0 0.090909517431635986 -0.48840034812761213 0 0.094982574878904491 -0.47164082183598233 0 0.072239547924749792 -0.48404638969740021 0 0.081570328181927304 -0.47339924935340738 0 0.090909517431635986 -0.48840034812761213 0 0.078123199589619316 -0.50000000000000067 0 0.072239547924749792 -0.48404638969740021 0 0.090909517431635986 -0.48840034812761213 0 0.078123199589619316 -0.50000000000000067 0 0.090909517431635986 -0.48840034812761213 0 0.088090461115699736 -0.49999999999999939 0 0.078123199589619316 -0.50000000000000067 0 0.090909517431635986 -0.48840034812761213 0 0.090909517431635986 -0.48840034812761213 0 0.088090461115699736 -0.49999999999999939 0 0.090909517431635986 -0.48840034812761213 0 0.088090461115699736 -0.49999999999999939 0 0.1022508249217343 -0.49080102171652551 0 0.088090461115699736 -0.49999999999999939 0 0.1022508249217343 -0.49080102171652551 0 0.1093054183051704 -0.5 0 0.1022508249217343 -0.49080102171652551 0 0.1093054183051704 -0.5 0 0.1134738086081602 -0.48789703713673188 0 0.1305203754946411 -0.5 0 0.1093054183051704 -0.5 0 0.1134738086081602 -0.48789703713673188 0 0.1134738086081602 -0.48789703713673188 0 0.1104147232935976 -0.4707053713177467 0 0.113870781867944 -0.46757006083913749 0 0.1134738086081602 -0.48789703713673188 0 0.1104147232935976 -0.4707053713177467 0 0.13280305727602629 -0.48378503041957338 0 0.1134738086081602 -0.48789703713673188 0 0.113870781867944 -0.46757006083913749 0 0.13280305727602629 -0.48378503041957338 0 0.113870781867944 -0.46757006083913749 0 0.1104147232935976 -0.4707053713177467 0 0.113870781867944 -0.46757006083913749 0 0.1022508249217343 -0.49080102171652551 0 0.1134738086081602 -0.48789703713673188 0 0.1104147232935976 -0.4707053713177467 0 0.090909517431635986 -0.48840034812761213 0 0.1104147232935976 -0.4707053713177467 0 0.090909517431635986 -0.48840034812761213 0 0.1104147232935976 -0.4707053713177467 0 0.094982574878904491 -0.47164082183598233 0 0.090909517431635986 -0.48840034812761213 0 0.1022508249217343 -0.49080102171652551 0 0.1104147232935976 -0.4707053713177467 0 0.094982574878904491 -0.47164082183598233 0 0.099055632326172122 -0.45488129554435253 0 0.10913510575140049 -0.46351408539417421 0 0.094982574878904491 -0.47164082183598233 0 0.099055632326172122 -0.45488129554435253 0 0.099055632326172122 -0.45488129554435253 0 0.10913510575140049 -0.46351408539417421 0 0.1104147232935976 -0.4707053713177467 0 0.094982574878904491 -0.47164082183598233 0 0.10913510575140049 -0.46351408539417421 0 0.1104147232935976 -0.4707053713177467 0 0.10913510575140049 -0.46351408539417421 0 0.113870781867944 -0.46757006083913749 0 0.13603063076821981 -0.44746681172832148 0 0.113870781867944 -0.46757006083913749 0 0.10913510575140049 -0.46351408539417421 0 0.113870781867944 -0.46757006083913749 0 0.11663506529130831 -0.44875871636711229 0 0.13603063076821981 -0.44746681172832148 0 0.113870781867944 -0.46757006083913749 0 0.11663506529130831 -0.44875871636711229 0 0.1104147232935976 -0.4707053713177467 0 0.10913510575140049 -0.46351408539417421 0 0.10913510575140049 -0.46351408539417421 0 0.113870781867944 -0.46757006083913749 0 0.11663506529130831 -0.44875871636711229 0 0.1039877870902068 -0.43458681688491269 0 0.1201510209787737 -0.43065580698901412 0 0.10913510575140049 -0.46351408539417421 0 0.11663506529130831 -0.44875871636711229 0 0.1039877870902068 -0.43458681688491269 0 0.13603063076821981 -0.44746681172832148 0 0.11663506529130831 -0.44875871636711229 0 0.1201510209787737 -0.43065580698901412 0 0.10913510575140049 -0.46351408539417421 0 0.1039877870902068 -0.43458681688491269 0 0.099055632326172122 -0.45488129554435253 0 0.10913510575140049 -0.46351408539417421 0 0.1039877870902068 -0.43458681688491269 0 0.099055632326172122 -0.45488129554435253 0 0.1039877870902068 -0.43458681688491269 0 0.099055632326172122 -0.45488129554435253 0 0.081678323454683691 -0.45852925851190512 0 0.078143632719493913 -0.43697074701389998 0 0.099055632326172122 -0.45488129554435253 0 0.078143632719493913 -0.43697074701389998 0 0.1039877870902068 -0.43458681688491269 0 0.099055632326172122 -0.45488129554435253 0 0.078143632719493913 -0.43697074701389998 0 0.094982574878904491 -0.47164082183598233 0 0.099055632326172122 -0.45488129554435253 0 0.081678323454683691 -0.45852925851190512 0 0.081570328181927304 -0.47339924935340738 0 0.094982574878904491 -0.47164082183598233 0 0.081678323454683691 -0.45852925851190512 0 0.081678323454683691 -0.45852925851190512 0 0.066772452587478909 -0.46594868190325611 0 0.067477823892306943 -0.45033203503517788 0 0.081570328181927304 -0.47339924935340738 0 0.081678323454683691 -0.45852925851190512 0 0.066772452587478909 -0.46594868190325611 0 0.081678323454683691 -0.45852925851190512 0 0.067477823892306943 -0.45033203503517788 0 0.078143632719493913 -0.43697074701389998 0 0.067477823892306943 -0.45033203503517788 0 0.078143632719493913 -0.43697074701389998 0 0.054837165972299942 -0.43915693777890402 0 0.078143632719493913 -0.43697074701389998 0 0.057231633112815511 -0.41906019848344772 0 0.054837165972299942 -0.43915693777890402 0 0.078143632719493913 -0.43697074701389998 0 0.057231633112815511 -0.41906019848344772 0 0.078004657439878292 -0.40956392731430308 0 0.068084707981811696 -0.39644268679285199 0 0.057231633112815511 -0.41906019848344772 0 0.078004657439878292 -0.40956392731430308 0 0.078143632719493913 -0.43697074701389998 0 0.057231633112815511 -0.41906019848344772 0 0.078004657439878292 -0.40956392731430308 0 0.087818034714298915 -0.41206547477089961 0 0.087244517495255247 -0.42322083577924169 0 0.078004657439878292 -0.40956392731430308 0 0.087818034714298915 -0.41206547477089961 0 0.09363456376859032 -0.40443768324793022 0 0.087818034714298915 -0.41206547477089961 0 0.094410380591618687 -0.4083703620916172 0 0.09363456376859032 -0.40443768324793022 0 0.087818034714298915 -0.41206547477089961 0 0.087244517495255247 -0.42322083577924169 0 0.094410380591618687 -0.4083703620916172 0 0.087244517495255247 -0.42322083577924169 0 0.078143632719493913 -0.43697074701389998 0 0.1039877870902068 -0.43458681688491269 0 0.078004657439878292 -0.40956392731430308 0 0.087244517495255247 -0.42322083577924169 0 0.078143632719493913 -0.43697074701389998 0 0.087244517495255247 -0.42322083577924169 0 0.1039877870902068 -0.43458681688491269 0 0.094410380591618687 -0.4083703620916172 0 0.1068396541220725 -0.42285215781870322 0 0.1039877870902068 -0.43458681688491269 0 0.1068396541220725 -0.42285215781870322 0 0.1039877870902068 -0.43458681688491269 0 0.1201510209787737 -0.43065580698901412 0 0.1068396541220725 -0.42285215781870322 0 0.1201510209787737 -0.43065580698901412 0 0.1194194770532669 -0.41250623330260822 0 0.1194194770532669 -0.41250623330260822 0 0.098917189170425662 -0.40609070906982131 0 0.1039877870902068 -0.43458681688491269 0 0.094410380591618687 -0.4083703620916172 0 0.098917189170425662 -0.40609070906982131 0 0.1039877870902068 -0.43458681688491269 0 0.098917189170425662 -0.40609070906982131 0 0.1068396541220725 -0.42285215781870322 0 0.1039877870902068 -0.43458681688491269 0 0.098917189170425662 -0.40609070906982131 0 0.1068396541220725 -0.42285215781870322 0 0.1194194770532669 -0.41250623330260822 0 0.098917189170425662 -0.40609070906982131 0 0.094410380591618687 -0.4083703620916172 0 0.09363456376859032 -0.40443768324793022 0 0.094410380591618687 -0.4083703620916172 0 0.098917189170425662 -0.40609070906982131 0 0.09363456376859032 -0.40443768324793022 0 0.1194194770532669 -0.41250623330260822 0 0.098917189170425662 -0.40609070906982131 0 0.10630532998160749 -0.39776232131065908 0 0.098917189170425662 -0.40609070906982131 0 0.096305115994319984 -0.39141119394659429 0 0.098917189170425662 -0.40609070906982131 0 0.09363456376859032 -0.40443768324793022 0 0.098917189170425662 -0.40609070906982131 0 0.096305115994319984 -0.39141119394659429 0 0.09363456376859032 -0.40443768324793022 0 0.098917189170425662 -0.40609070906982131 0 0.096305115994319984 -0.39141119394659429 0 0.10630532998160749 -0.39776232131065908 0 0.096305115994319984 -0.39141119394659429 0 0.10630532998160749 -0.39776232131065908 0 0.1056640788266128 -0.38335106792514012 0 0.13427254735745051 -0.39376288148190558 0 0.1162993765944388 -0.39566554207991489 0 0.12308532481231339 -0.38329660890999029 0 0.1306910958102063 -0.40595109247113281 0 0.1194194770532669 -0.41250623330260822 0 0.1162993765944388 -0.39566554207991489 0 0.1194194770532669 -0.41250623330260822 0 0.10630532998160749 -0.39776232131065908 0 0.1162993765944388 -0.39566554207991489 0 0.10630532998160749 -0.39776232131065908 0 0.1162993765944388 -0.39566554207991489 0 0.1056640788266128 -0.38335106792514012 0 0.1162993765944388 -0.39566554207991489 0 0.12308532481231339 -0.38329660890999029 0 0.1056640788266128 -0.38335106792514012 0 0.12308532481231339 -0.38329660890999029 0 0.1056640788266128 -0.38335106792514012 0 0.1170572681968771 -0.36752770301305471 0 0.1056640788266128 -0.38335106792514012 0 0.088888953394021322 -0.38038179664375732 0 0.099938557037337727 -0.36836638111956232 0 0.096305115994319984 -0.39141119394659429 0 0.1056640788266128 -0.38335106792514012 0 0.088888953394021322 -0.38038179664375732 0 0.088888953394021322 -0.38038179664375732 0 0.09363456376859032 -0.40443768324793022 0 0.068084707981811696 -0.39644268679285199 0 0.088888953394021322 -0.38038179664375732 0 0.09363456376859032 -0.40443768324793022 0 0.09363456376859032 -0.40443768324793022 0 0.068084707981811696 -0.39644268679285199 0 0.096305115994319984 -0.39141119394659429 0 0.088888953394021322 -0.38038179664375732 0 0.09363456376859032 -0.40443768324793022 0 0.078004657439878292 -0.40956392731430308 0 0.09363456376859032 -0.40443768324793022 0 0.068084707981811696 -0.39644268679285199 0 0.068084707981811696 -0.39644268679285199 0 0.072664872810032505 -0.37726933615625102 0 0.05826658944209321 -0.38025661808927508 0 0.088888953394021322 -0.38038179664375732 0 0.068084707981811696 -0.39644268679285199 0 0.072664872810032505 -0.37726933615625102 0 0.05826658944209321 -0.38025661808927508 0 0.042534852195032613 -0.38844769033777482 0 0.046062139043748652 -0.37394509555376221 0 0.068084707981811696 -0.39644268679285199 0 0.05826658944209321 -0.38025661808927508 0 0.042534852195032613 -0.38844769033777482 0 0.068084707981811696 -0.39644268679285199 0 0.052562187795706913 -0.40122575366427071 0 0.042534852195032613 -0.38844769033777482 0 0.068084707981811696 -0.39644268679285199 0 0.042534852195032613 -0.38844769033777482 0 0.068084707981811696 -0.39644268679285199 0 0.052562187795706913 -0.40122575366427071 0 0.057231633112815511 -0.41906019848344772 0 0.052562187795706913 -0.40122575366427071 0 0.036319633506137282 -0.40114964995299551 0 0.042534852195032613 -0.38844769033777482 0 0.036319633506137282 -0.40114964995299551 0 0.03146406524992746 -0.38804930709375518 0 0.042534852195032613 -0.38844769033777482 0 0.03146406524992746 -0.38804930709375518 0 0.042534852195032613 -0.38844769033777482 0 0.031594141399081253 -0.37936078666170697 0 0.042534852195032613 -0.38844769033777482 0 0.031594141399081253 -0.37936078666170697 0 0.046062139043748652 -0.37394509555376221 0 0.031594141399081253 -0.37936078666170697 0 0.015407633899458709 -0.38323910142254369 0 0.0217401304557302 -0.3714398288799583 0 0.03146406524992746 -0.38804930709375518 0 0.031594141399081253 -0.37936078666170697 0 0.015407633899458709 -0.38323910142254369 0 -0.0091041324141213614 -0.38303618426487851 0 0.01052129353145956 -0.39138744353964888 0 0.015407633899458709 -0.38323910142254369 0 0.0023036431624136882 -0.37201589625552062 0 -0.0091041324141213614 -0.38303618426487851 0 0.003469052552645202 -0.38272666565252927 0 0.01052129353145956 -0.39138744353964888 0 0.015407633899458709 -0.38323910142254369 0 0.003469052552645202 -0.38272666565252927 0 0.0049516242232669231 -0.37879227535988469 0 0.015407633899458709 -0.38323910142254369 0 0.003469052552645202 -0.38272666565252927 0 0.01052129353145956 -0.39138744353964888 0 0.015407633899458709 -0.38323910142254369 0 0.0054218755351465864 -0.37085003313816328 0 0.0023036431624136882 -0.37201589625552062 0 -0.0013738327214499069 -0.37718743810894501 0 0.003469052552645202 -0.38272666565252927 0 0.0049516242232669231 -0.37879227535988469 0 0.015407633899458709 -0.38323910142254369 0 0.0049516242232669231 -0.37879227535988469 0 0.0023036431624136882 -0.37201589625552062 0 -0.0013738327214499069 -0.37718743810894501 0 0.0049516242232669231 -0.37879227535988469 0 0.0023036431624136882 -0.37201589625552062 0 0.015407633899458709 -0.38323910142254369 0 0.01052129353145956 -0.39138744353964888 0 0.02084405547133247 -0.40404537757527031 0 0.01052129353145956 -0.39138744353964888 0 0.02084405547133247 -0.40404537757527031 0 0.0041565920089453659 -0.40677442097444511 0 -0.0052600663956949281 -0.39665458557681388 0 0.01052129353145956 -0.39138744353964888 0 0.0041565920089453659 -0.40677442097444511 0 0.036319633506137282 -0.40114964995299551 0 0.03146406524992746 -0.38804930709375518 0 0.015407633899458709 -0.38323910142254369 0 0.036319633506137282 -0.40114964995299551 0 0.015407633899458709 -0.38323910142254369 0 0.02084405547133247 -0.40404537757527031 0 0.015407633899458709 -0.38323910142254369 0 0.02084405547133247 -0.40404537757527031 0 0.036319633506137282 -0.40114964995299551 0 0.015407633899458709 -0.38323910142254369 0 0.036319633506137282 -0.40114964995299551 0 0.02084405547133247 -0.40404537757527031 0 0.030308354076944901 -0.41195673132065719 0 0.02084405547133247 -0.40404537757527031 0 0.01468486179448163 -0.41676807119196613 0 0.026280477043206709 -0.42485165372799671 0 0.02084405547133247 -0.40404537757527031 0 0.030308354076944901 -0.41195673132065719 0 0.026280477043206709 -0.42485165372799671 0 0.02084405547133247 -0.40404537757527031 0 0.026280477043206709 -0.42485165372799671 0 -0.0077384208787153784 -0.42454613935415131 0 0.01468486179448163 -0.41676807119196613 0 0.0041565920089453659 -0.40677442097444511 0 0.02084405547133247 -0.40404537757527031 0 0.01468486179448163 -0.41676807119196613 0 0.0041565920089453659 -0.40677442097444511 0 -0.0077384208787153784 -0.42454613935415131 0 0.01468486179448163 -0.41676807119196613 0 0.0061123916992451011 -0.43099409775433761 0 0.026280477043206709 -0.42485165372799671 0 0.031716898615080931 -0.44565792988072322 0 0.0061123916992451011 -0.43099409775433761 0 0.026280477043206709 -0.42485165372799671 0 0.01857422537298074 -0.44279539240896149 0 0.01468486179448163 -0.41676807119196613 0 0.0061123916992451011 -0.43099409775433761 0 0.026280477043206709 -0.42485165372799671 0 0.038922975506988172 -0.43263958266426611 0 0.037789250287103157 -0.41778024402636638 0 0.057231633112815511 -0.41906019848344772 0 0.026280477043206709 -0.42485165372799671 0 0.038922975506988172 -0.43263958266426611 0 0.031716898615080931 -0.44565792988072322 0 0.026280477043206709 -0.42485165372799671 0 0.038922975506988172 -0.43263958266426611 0 0.037789250287103157 -0.41778024402636638 0 0.036319633506137282 -0.40114964995299551 0 0.057231633112815511 -0.41906019848344772 0 0.036319633506137282 -0.40114964995299551 0 0.030308354076944901 -0.41195673132065719 0 0.037789250287103157 -0.41778024402636638 0 0.030308354076944901 -0.41195673132065719 0 0.026280477043206709 -0.42485165372799671 0 0.037789250287103157 -0.41778024402636638 0 0.036319633506137282 -0.40114964995299551 0 0.037789250287103157 -0.41778024402636638 0 0.057231633112815511 -0.41906019848344772 0 0.052562187795706913 -0.40122575366427071 0 0.036319633506137282 -0.40114964995299551 0 0.057231633112815511 -0.41906019848344772 0 0.038922975506988172 -0.43263958266426611 0 0.057231633112815511 -0.41906019848344772 0 0.054837165972299942 -0.43915693777890402 0 0.054837165972299942 -0.43915693777890402 0 0.053091777076123961 -0.45347985588809658 0 0.043424192081792011 -0.44513165453114423 0 0.067477823892306943 -0.45033203503517788 0 0.054837165972299942 -0.43915693777890402 0 0.053091777076123961 -0.45347985588809658 0 0.066772452587478909 -0.46594868190325611 0 0.047617807462244532 -0.46657270784288318 0 0.053091777076123961 -0.45347985588809658 0 0.066772452587478909 -0.46594868190325611 0 0.067477823892306943 -0.45033203503517788 0 0.053091777076123961 -0.45347985588809658 0 0.047617807462244532 -0.46657270784288318 0 0.053091777076123961 -0.45347985588809658 0 0.038552143238467042 -0.4547239664437307 0 0.047617807462244532 -0.46657270784288318 0 0.038552143238467042 -0.4547239664437307 0 0.028522029118836251 -0.46313841298176728 0 0.038552143238467042 -0.4547239664437307 0 0.031716898615080931 -0.44565792988072322 0 0.026485369490146491 -0.45001623054734119 0 0.038552143238467042 -0.4547239664437307 0 0.031716898615080931 -0.44565792988072322 0 0.043424192081792011 -0.44513165453114423 0 0.038922975506988172 -0.43263958266426611 0 0.054837165972299942 -0.43915693777890402 0 0.043424192081792011 -0.44513165453114423 0 0.053091777076123961 -0.45347985588809658 0 0.038552143238467042 -0.4547239664437307 0 0.043424192081792011 -0.44513165453114423 0 0.038922975506988172 -0.43263958266426611 0 0.031716898615080931 -0.44565792988072322 0 0.043424192081792011 -0.44513165453114423 0 0.026280477043206709 -0.42485165372799671 0 0.031716898615080931 -0.44565792988072322 0 0.01857422537298074 -0.44279539240896149 0 0.031716898615080931 -0.44565792988072322 0 0.026485369490146491 -0.45001623054734119 0 0.01857422537298074 -0.44279539240896149 0 0.026485369490146491 -0.45001623054734119 0 0.01857422537298074 -0.44279539240896149 0 0.017098210734057252 -0.4568876334559494 0 0.0061123916992451011 -0.43099409775433761 0 0.01857422537298074 -0.44279539240896149 0 0.0062368346562517631 -0.44763810525095771 0 -0.0060416623437871027 -0.44784308303042869 0 0.0061123916992451011 -0.43099409775433761 0 0.0062368346562517631 -0.44763810525095771 0 0.01857422537298074 -0.44279539240896149 0 0.0062368346562517631 -0.44763810525095771 0 0.017098210734057252 -0.4568876334559494 0 -0.0043557217703525178 -0.459051300468168 0 0.017098210734057252 -0.4568876334559494 0 -0.0043557217703525178 -0.459051300468168 0 0.0062368346562517631 -0.44763810525095771 0 0.017098210734057252 -0.4568876334559494 0 -0.0043557217703525178 -0.459051300468168 0 0.0068738434278103333 -0.46757890054221152 0 0.017098210734057252 -0.4568876334559494 0 0.0068738434278103333 -0.46757890054221152 0 0.018997287411073739 -0.46743266344419809 0 0.017098210734057252 -0.4568876334559494 0 0.038552143238467042 -0.4547239664437307 0 0.017098210734057252 -0.4568876334559494 0 0.028522029118836251 -0.46313841298176728 0 0.038552143238467042 -0.4547239664437307 0 0.017098210734057252 -0.4568876334559494 0 0.038552143238467042 -0.4547239664437307 0 0.026485369490146491 -0.45001623054734119 0 0.017098210734057252 -0.4568876334559494 0 0.018997287411073739 -0.46743266344419809 0 0.017098210734057252 -0.4568876334559494 0 0.028522029118836251 -0.46313841298176728 0 0.018997287411073739 -0.46743266344419809 0 0.028522029118836251 -0.46313841298176728 0 0.02852178327202641 -0.47778315312056208 0 0.02852178327202641 -0.47778315312056208 0 0.01478578510108931 -0.47669844308042741 0 0.0151243813884292 -0.48755220209633471 0 0.018997287411073739 -0.46743266344419809 0 0.02852178327202641 -0.47778315312056208 0 0.01478578510108931 -0.47669844308042741 0 0.0068738434278103333 -0.46757890054221152 0 0.01478578510108931 -0.47669844308042741 0 0.0028177711664636798 -0.48327941428068377 0 -0.0049689105650129184 -0.47133880685411028 0 0.0068738434278103333 -0.46757890054221152 0 0.0028177711664636798 -0.48327941428068377 0 0.0068738434278103333 -0.46757890054221152 0 0.018997287411073739 -0.46743266344419809 0 0.01478578510108931 -0.47669844308042741 0 0.01478578510108931 -0.47669844308042741 0 0.0028177711664636798 -0.48327941428068377 0 0.0151243813884292 -0.48755220209633471 0 0.00072594579481488619 -0.5 0 0.0151243813884292 -0.48755220209633471 0 0.028770621607751679 -0.5 0 0.0028177711664636798 -0.48327941428068377 0 0.00072594579481488619 -0.5 0 0.0151243813884292 -0.48755220209633471 0 0.02852178327202641 -0.47778315312056208 0 0.0151243813884292 -0.48755220209633471 0 0.028770621607751679 -0.5 0 0.02852178327202641 -0.47778315312056208 0 0.028770621607751679 -0.5 0 0.042668663269762472 -0.48156920649088331 0 0.028770621607751679 -0.5 0 0.042668663269762472 -0.48156920649088331 0 0.056815297420688388 -0.49999999999999939 0 0.028522029118836251 -0.46313841298176728 0 0.042668663269762472 -0.48156920649088331 0 0.047617807462244532 -0.46657270784288318 0 0.028522029118836251 -0.46313841298176728 0 0.042668663269762472 -0.48156920649088331 0 0.028522029118836251 -0.46313841298176728 0 0.02852178327202641 -0.47778315312056208 0 0.042668663269762472 -0.48156920649088331 0 0.066772452587478909 -0.46594868190325611 0 0.047617807462244532 -0.46657270784288318 0 0.05810563866242989 -0.47815751042997678 0 0.047617807462244532 -0.46657270784288318 0 0.042668663269762472 -0.48156920649088331 0 0.05810563866242989 -0.47815751042997678 0 0.072239547924749792 -0.48404638969740021 0 0.05810563866242989 -0.47815751042997678 0 0.056815297420688388 -0.49999999999999939 0 0.042668663269762472 -0.48156920649088331 0 0.05810563866242989 -0.47815751042997678 0 0.056815297420688388 -0.49999999999999939 0 0.042668663269762472 -0.48156920649088331 0 0.056815297420688388 -0.49999999999999939 0 0.083660611809292074 -0.30242199458585389 0 0.078022855521320239 -0.28545050175926628 0 0.089501883687327935 -0.27276720722881709 0 0.083660611809292074 -0.30242199458585389 0 0.089501883687327935 -0.27276720722881709 0 0.083660611809292074 -0.30242199458585389 0 0.074315101339398948 -0.29692093388620222 0 0.078022855521320239 -0.28545050175926628 0 0.083660611809292074 -0.30242199458585389 0 0.089501883687327935 -0.27276720722881709 0 0.097325086364133118 -0.29363621757098568 0 0.083660611809292074 -0.30242199458585389 0 0.097325086364133118 -0.29363621757098568 0 0.093317728551562715 -0.30861967769176107 0 0.083660611809292074 -0.30242199458585389 0 0.097325086364133118 -0.29363621757098568 0 0.074652122270321239 -0.30821413683123722 0 0.076494426748141803 -0.30702959978441902 0 0.092797917114210995 -0.32191365999370591 0 0.093317728551562715 -0.30861967769176107 0 0.083660611809292074 -0.30242199458585389 0 0.076494426748141803 -0.30702959978441902 0 0.083660611809292074 -0.30242199458585389 0 0.076494426748141803 -0.30702959978441902 0 0.083660611809292074 -0.30242199458585389 0 0.074315101339398948 -0.29692093388620222 0 0.076494426748141803 -0.30702959978441902 0 0.076494426748141803 -0.30702959978441902 0 0.064973865910205347 -0.2965120530931043 0 0.074652122270321239 -0.30821413683123722 0 0.076494426748141803 -0.30702959978441902 0 0.064973865910205347 -0.2965120530931043 0 0.074652122270321239 -0.30821413683123722 0 0.068224134059248445 -0.30557769840347948 0 0.058731155491080739 -0.30994190294027429 0 0.074315101339398948 -0.29692093388620222 0 0.076494426748141803 -0.30702959978441902 0 0.064973865910205347 -0.2965120530931043 0 0.074652122270321239 -0.30821413683123722 0 0.076494426748141803 -0.30702959978441902 0 0.074652122270321239 -0.30821413683123722 0 0.068224134059248445 -0.30557769840347948 0 0.064973865910205347 -0.2965120530931043 0 0.068224134059248445 -0.30557769840347948 0 0.064973865910205347 -0.2965120530931043 0 0.058731155491080739 -0.30994190294027429 0 0.074315101339398948 -0.29692093388620222 0 0.064973865910205347 -0.2965120530931043 0 0.065703148457610702 -0.28414483448354799 0 0.074315101339398948 -0.29692093388620222 0 0.078022855521320239 -0.28545050175926628 0 0.065703148457610702 -0.28414483448354799 0 0.078022855521320239 -0.28545050175926628 0 0.065703148457610702 -0.28414483448354799 0 0.065463220465099822 -0.25990592719758032 0 0.078022855521320239 -0.28545050175926628 0 0.065463220465099822 -0.25990592719758032 0 0.089501883687327935 -0.27276720722881709 0 0.089501883687327935 -0.27276720722881709 0 0.095777495595703685 -0.24378794672417869 0 0.065463220465099822 -0.25990592719758032 0 0.082920410740594266 -0.25617281580077073 0 0.089501883687327935 -0.27276720722881709 0 0.082920410740594266 -0.25617281580077073 0 0.089501883687327935 -0.27276720722881709 0 0.095777495595703685 -0.24378794672417869 0 0.089501883687327935 -0.27276720722881709 0 0.10275764700386079 -0.27752918889365591 0 0.1060478719838541 -0.26347049541726281 0 0.10275764700386079 -0.27752918889365591 0 0.1060478719838541 -0.26347049541726281 0 0.1181557459801281 -0.28024283535755828 0 0.1060478719838541 -0.26347049541726281 0 0.1124932849432754 -0.24497107402557769 0 0.095777495595703685 -0.24378794672417869 0 0.089501883687327935 -0.27276720722881709 0 0.1060478719838541 -0.26347049541726281 0 0.095777495595703685 -0.24378794672417869 0 0.1060478719838541 -0.26347049541726281 0 0.11962490723542719 -0.25785197881650451 0 0.1124932849432754 -0.24497107402557769 0 0.1060478719838541 -0.26347049541726281 0 0.11962490723542719 -0.25785197881650451 0 0.1181557459801281 -0.28024283535755828 0 0.13600517251636909 -0.29116004475647778 0 0.1181557459801281 -0.28024283535755828 0 0.1188410324676098 -0.29837103342623611 0 0.1181557459801281 -0.28024283535755828 0 0.097325086364133118 -0.29363621757098568 0 0.1188410324676098 -0.29837103342623611 0 0.089501883687327935 -0.27276720722881709 0 0.10275764700386079 -0.27752918889365591 0 0.097325086364133118 -0.29363621757098568 0 0.10275764700386079 -0.27752918889365591 0 0.1181557459801281 -0.28024283535755828 0 0.097325086364133118 -0.29363621757098568 0 0.1181557459801281 -0.28024283535755828 0 0.097325086364133118 -0.29363621757098568 0 0.093317728551562715 -0.30861967769176107 0 0.097325086364133118 -0.29363621757098568 0 0.1098684358593876 -0.31421220394316818 0 0.097325086364133118 -0.29363621757098568 0 0.1188410324676098 -0.29837103342623611 0 0.1098684358593876 -0.31421220394316818 0 0.13285072161803119 -0.3126038655029908 0 0.1188410324676098 -0.29837103342623611 0 0.1098684358593876 -0.31421220394316818 0 0.1251920375030795 -0.32861408620246468 0 0.1098684358593876 -0.31421220394316818 0 0.1091014074802814 -0.33679772020299142 0 0.1251920375030795 -0.32861408620246468 0 0.13285072161803119 -0.3126038655029908 0 0.1098684358593876 -0.31421220394316818 0 0.12914143619693519 -0.34880269456551172 0 0.1251920375030795 -0.32861408620246468 0 0.1091014074802814 -0.33679772020299142 0 0.093875908401711561 -0.34031054832959362 0 0.1091014074802814 -0.33679772020299142 0 0.092797917114210995 -0.32191365999370591 0 0.1091014074802814 -0.33679772020299142 0 0.092797917114210995 -0.32191365999370591 0 0.093317728551562715 -0.30861967769176107 0 0.1098684358593876 -0.31421220394316818 0 0.092797917114210995 -0.32191365999370591 0 0.1098684358593876 -0.31421220394316818 0 0.1091014074802814 -0.33679772020299142 0 0.092797917114210995 -0.32191365999370591 0 0.12914143619693519 -0.34880269456551172 0 0.1170572681968771 -0.36752770301305471 0 0.1039391417497226 -0.35424542797627562 0 0.12914143619693519 -0.34880269456551172 0 0.1091014074802814 -0.33679772020299142 0 0.1039391417497226 -0.35424542797627562 0 0.093875908401711561 -0.34031054832959362 0 0.1039391417497226 -0.35424542797627562 0 0.084143343019454725 -0.35632591003958403 0 0.093875908401711561 -0.34031054832959362 0 0.1091014074802814 -0.33679772020299142 0 0.1039391417497226 -0.35424542797627562 0 0.1170572681968771 -0.36752770301305471 0 0.1039391417497226 -0.35424542797627562 0 0.099938557037337727 -0.36836638111956232 0 0.1039391417497226 -0.35424542797627562 0 0.099938557037337727 -0.36836638111956232 0 0.084143343019454725 -0.35632591003958403 0 0.1056640788266128 -0.38335106792514012 0 0.1170572681968771 -0.36752770301305471 0 0.099938557037337727 -0.36836638111956232 0 0.088888953394021322 -0.38038179664375732 0 0.084143343019454725 -0.35632591003958403 0 0.088888953394021322 -0.38038179664375732 0 0.099938557037337727 -0.36836638111956232 0 0.084143343019454725 -0.35632591003958403 0 0.088888953394021322 -0.38038179664375732 0 0.072664872810032505 -0.37726933615625102 0 0.084143343019454725 -0.35632591003958403 0 0.084143343019454725 -0.35632591003958403 0 0.079397732644888114 -0.33227002343541062 0 0.084143343019454725 -0.35632591003958403 0 0.06430979787131455 -0.34572485239175982 0 0.079397732644888114 -0.33227002343541062 0 0.084143343019454725 -0.35632591003958403 0 0.06430979787131455 -0.34572485239175982 0 0.061986375179840611 -0.36517828160573568 0 0.072664872810032505 -0.37726933615625102 0 0.084143343019454725 -0.35632591003958403 0 0.061986375179840611 -0.36517828160573568 0 0.072664872810032505 -0.37726933615625102 0 0.05826658944209321 -0.38025661808927508 0 0.061986375179840611 -0.36517828160573568 0 0.093317728551562715 -0.30861967769176107 0 0.076494426748141803 -0.30702959978441902 0 0.092797917114210995 -0.32191365999370591 0 0.074652122270321239 -0.30821413683123722 0 0.092797917114210995 -0.32191365999370591 0 0.079397732644888114 -0.33227002343541062 0 0.076494426748141803 -0.30702959978441902 0 0.092797917114210995 -0.32191365999370591 0 0.093875908401711561 -0.34031054832959362 0 0.084143343019454725 -0.35632591003958403 0 0.079397732644888114 -0.33227002343541062 0 0.093875908401711561 -0.34031054832959362 0 0.092797917114210995 -0.32191365999370591 0 0.079397732644888114 -0.33227002343541062 0 0.06430979787131455 -0.34572485239175982 0 0.079397732644888114 -0.33227002343541062 0 0.051695990653927958 -0.32297412285894789 0 0.074652122270321239 -0.30821413683123722 0 0.079397732644888114 -0.33227002343541062 0 0.051695990653927958 -0.32297412285894789 0 0.074652122270321239 -0.30821413683123722 0 0.051695990653927958 -0.32297412285894789 0 0.074652122270321239 -0.30821413683123722 0 0.079397732644888114 -0.33227002343541062 0 0.074652122270321239 -0.30821413683123722 0 0.051695990653927958 -0.32297412285894789 0 0.058731155491080739 -0.30994190294027429 0 0.06430979787131455 -0.34572485239175982 0 0.051695990653927958 -0.32297412285894789 0 0.044325547858461323 -0.35187592401912049 0 0.051695990653927958 -0.32297412285894789 0 0.028739859037535009 -0.33773410888665922 0 0.051695990653927958 -0.32297412285894789 0 0.044325547858461323 -0.35187592401912049 0 0.028739859037535009 -0.33773410888665922 0 0.051695990653927958 -0.32297412285894789 0 0.02735893742788564 -0.31661993226134488 0 0.028739859037535009 -0.33773410888665922 0 0.051695990653927958 -0.32297412285894789 0 0.02735893742788564 -0.31661993226134488 0 0.045189465133006201 -0.30394566057187328 0 0.05826658944209321 -0.38025661808927508 0 0.061986375179840611 -0.36517828160573568 0 0.046062139043748652 -0.37394509555376221 0 0.061986375179840611 -0.36517828160573568 0 0.044325547858461323 -0.35187592401912049 0 0.046062139043748652 -0.37394509555376221 0 0.06430979787131455 -0.34572485239175982 0 0.061986375179840611 -0.36517828160573568 0 0.044325547858461323 -0.35187592401912049 0 0.044325547858461323 -0.35187592401912049 0 0.030914829698487641 -0.36576798409437222 0 0.022307374051206991 -0.3532691018702373 0 0.044325547858461323 -0.35187592401912049 0 0.022307374051206991 -0.3532691018702373 0 0.028739859037535009 -0.33773410888665922 0 0.044325547858461323 -0.35187592401912049 0 0.046062139043748652 -0.37394509555376221 0 0.030914829698487641 -0.36576798409437222 0 0.031594141399081253 -0.37936078666170697 0 0.046062139043748652 -0.37394509555376221 0 0.030914829698487641 -0.36576798409437222 0 0.015407633899458709 -0.38323910142254369 0 0.0217401304557302 -0.3714398288799583 0 0.01007673539171388 -0.36283668320904089 0 0.031594141399081253 -0.37936078666170697 0 0.0217401304557302 -0.3714398288799583 0 0.030914829698487641 -0.36576798409437222 0 0.0217401304557302 -0.3714398288799583 0 0.030914829698487641 -0.36576798409437222 0 0.0208567393590256 -0.36276227197293048 0 0.030914829698487641 -0.36576798409437222 0 0.0208567393590256 -0.36276227197293048 0 0.022307374051206991 -0.3532691018702373 0 0.0217401304557302 -0.3714398288799583 0 0.0208567393590256 -0.36276227197293048 0 0.01007673539171388 -0.36283668320904089 0 0.0208567393590256 -0.36276227197293048 0 0.022307374051206991 -0.3532691018702373 0 0.01007673539171388 -0.36283668320904089 0 0.005783727421145201 -0.35249409491437522 0 0.028739859037535009 -0.33773410888665922 0 0.022307374051206991 -0.3532691018702373 0 0.005783727421145201 -0.35249409491437522 0 0.028739859037535009 -0.33773410888665922 0 0.022307374051206991 -0.3532691018702373 0 0.005783727421145201 -0.35249409491437522 0 0.01007673539171388 -0.36283668320904089 0 0.005783727421145201 -0.35249409491437522 0 0.0061066593841971233 -0.33611247748115858 0 -0.0067310561763213013 -0.34456988467537958 0 0.005783727421145201 -0.35249409491437522 0 0.0061066593841971233 -0.33611247748115858 0 0.015407633899458709 -0.38323910142254369 0 0.01007673539171388 -0.36283668320904089 0 0.0054218755351465864 -0.37085003313816328 0 0.005783727421145201 -0.35249409491437522 0 0.0054218755351465864 -0.37085003313816328 0 0.0023036431624136882 -0.37201589625552062 0 -0.0064145476522704794 -0.37079448180321728 0 0.005783727421145201 -0.35249409491437522 0 0.0023036431624136882 -0.37201589625552062 0 0.005783727421145201 -0.35249409491437522 0 0.0054218755351465864 -0.37085003313816328 0 0.005783727421145201 -0.35249409491437522 0 0.01007673539171388 -0.36283668320904089 0 0.0054218755351465864 -0.37085003313816328 0 0.015407633899458709 -0.38323910142254369 0 0.01007673539171388 -0.36283668320904089 0 0.02735893742788564 -0.31661993226134488 0 0.018051567707066191 -0.32815395658241509 0 0.0064295913472382244 -0.31973086004794171 0 0.02735893742788564 -0.31661993226134488 0 0.028739859037535009 -0.33773410888665922 0 0.018051567707066191 -0.32815395658241509 0 0.028739859037535009 -0.33773410888665922 0 0.018051567707066191 -0.32815395658241509 0 0.0061066593841971233 -0.33611247748115858 0 0.005783727421145201 -0.35249409491437522 0 0.028739859037535009 -0.33773410888665922 0 0.0061066593841971233 -0.33611247748115858 0 -0.0032348283285651052 -0.33063069068097423 0 0.0061066593841971233 -0.33611247748115858 0 0.0046682575881438274 -0.32448871372640958 0 0.0061066593841971233 -0.33611247748115858 0 0.0064295913472382244 -0.31973086004794171 0 0.0061066593841971233 -0.33611247748115858 0 0.0046682575881438274 -0.32448871372640958 0 0.0064295913472382244 -0.31973086004794171 0 0.018051567707066191 -0.32815395658241509 0 0.0061066593841971233 -0.33611247748115858 0 0.0064295913472382244 -0.31973086004794171 0 -0.0010326814487084379 -0.3197639796436984 0 -0.0032348283285651052 -0.33063069068097423 0 0.0046682575881438274 -0.32448871372640958 0 -0.0010326814487084379 -0.3197639796436984 0 0.0046682575881438274 -0.32448871372640958 0 0.0064295913472382244 -0.31973086004794171 0 0.0046682575881438274 -0.32448871372640958 0 0.0064295913472382244 -0.31973086004794171 0 -0.0010326814487084379 -0.3197639796436984 0 0.0064295913472382244 -0.31973086004794171 0 0.00229542296049295 -0.31122964705265632 0 0.0064295913472382244 -0.31973086004794171 0 0.01350037750441265 -0.30063069475906018 0 0.0064295913472382244 -0.31973086004794171 0 0.00229542296049295 -0.31122964705265632 0 0.0067913771927171724 -0.3013782719128083 0 0.0064295913472382244 -0.31973086004794171 0 0.01350037750441265 -0.30063069475906018 0 0.0067913771927171724 -0.3013782719128083 0 0.0064295913472382244 -0.31973086004794171 0 0.0067913771927171724 -0.3013782719128083 0 0.00229542296049295 -0.31122964705265632 0 0.0010257972367942951 -0.30443570348051402 0 0.0067913771927171724 -0.3013782719128083 0 -0.0001018891203435732 -0.30094362704210798 0 0.0010257972367942951 -0.30443570348051402 0 0.0039235629823402007 -0.29959465834849702 0 -0.0021474977539600809 -0.29714664822596559 0 -0.0001018891203435732 -0.30094362704210798 0 0.0039235629823402007 -0.29959465834849702 0 0.0010257972367942951 -0.30443570348051402 0 0.0039235629823402007 -0.29959465834849702 0 0.0067913771927171724 -0.3013782719128083 0 -0.001934363279334723 -0.29061153365542308 0 0.0039235629823402007 -0.29959465834849702 0 0.0071531630381951464 -0.28302568377767501 0 0.0067913771927171724 -0.3013782719128083 0 0.0071531630381951464 -0.28302568377767501 0 0.01350037750441265 -0.30063069475906018 0 0.0067913771927171724 -0.3013782719128083 0 0.0071531630381951464 -0.28302568377767501 0 0.0039235629823402007 -0.29959465834849702 0 0.0067913771927171724 -0.3013782719128083 0 0.0071531630381951464 -0.28302568377767501 0 0.0039235629823402007 -0.29959465834849702 0 0.0071531630381951464 -0.28302568377767501 0 0.01350037750441265 -0.30063069475906018 0 0.0071531630381951464 -0.28302568377767501 0 0.020571163661587739 -0.28153052947017909 0 0.01350037750441265 -0.30063069475906018 0 0.020571163661587739 -0.28153052947017909 0 0.028661629949465531 -0.3007392474035171 0 0.01350037750441265 -0.30063069475906018 0 0.020571163661587739 -0.28153052947017909 0 0.020571163661587739 -0.28153052947017909 0 0.028661629949465531 -0.3007392474035171 0 0.03767080660006572 -0.28944667660689383 0 0.02735893742788564 -0.31661993226134488 0 0.01350037750441265 -0.30063069475906018 0 0.028661629949465531 -0.3007392474035171 0 0.02735893742788564 -0.31661993226134488 0 0.0064295913472382244 -0.31973086004794171 0 0.01350037750441265 -0.30063069475906018 0 0.028661629949465531 -0.3007392474035171 0 0.045189465133006201 -0.30394566057187328 0 0.03767080660006572 -0.28944667660689383 0 0.02735893742788564 -0.31661993226134488 0 0.028661629949465531 -0.3007392474035171 0 0.045189465133006201 -0.30394566057187328 0 0.045189465133006201 -0.30394566057187328 0 0.03767080660006572 -0.28944667660689383 0 0.053453305072269627 -0.28599450640178881 0 0.03767080660006572 -0.28944667660689383 0 0.053453305072269627 -0.28599450640178881 0 0.040547627445515828 -0.27421243529154299 0 0.020571163661587739 -0.28153052947017909 0 0.03767080660006572 -0.28944667660689383 0 0.040547627445515828 -0.27421243529154299 0 0.064973865910205347 -0.2965120530931043 0 0.045189465133006201 -0.30394566057187328 0 0.053453305072269627 -0.28599450640178881 0 0.045189465133006201 -0.30394566057187328 0 0.053453305072269627 -0.28599450640178881 0 0.064973865910205347 -0.2965120530931043 0 0.065703148457610702 -0.28414483448354799 0 0.053453305072269627 -0.28599450640178881 0 0.064973865910205347 -0.2965120530931043 0 0.053453305072269627 -0.28599450640178881 0 0.064973865910205347 -0.2965120530931043 0 0.045189465133006201 -0.30394566057187328 0 0.058731155491080739 -0.30994190294027429 0 0.051695990653927958 -0.32297412285894789 0 0.045189465133006201 -0.30394566057187328 0 0.058731155491080739 -0.30994190294027429 0 0.065463220465099822 -0.25990592719758032 0 0.044857189368968223 -0.25577862199652052 0 0.055784012513637522 -0.23938264054926239 0 0.065463220465099822 -0.25990592719758032 0 0.040547627445515828 -0.27421243529154299 0 0.044857189368968223 -0.25577862199652052 0 0.065463220465099822 -0.25990592719758032 0 0.053453305072269627 -0.28599450640178881 0 0.065703148457610702 -0.28414483448354799 0 0.065463220465099822 -0.25990592719758032 0 0.053453305072269627 -0.28599450640178881 0 0.065463220465099822 -0.25990592719758032 0 0.053453305072269627 -0.28599450640178881 0 0.040547627445515828 -0.27421243529154299 0 0.053453305072269627 -0.28599450640178881 0 0.040547627445515828 -0.27421243529154299 0 0.040547627445515828 -0.27421243529154299 0 0.027641949818761849 -0.2624303641812975 0 0.044857189368968223 -0.25577862199652052 0 0.027641949818761849 -0.2624303641812975 0 0.034849136601826383 -0.24296174276291929 0 0.040547627445515828 -0.27421243529154299 0 0.044857189368968223 -0.25577862199652052 0 0.027641949818761849 -0.2624303641812975 0 0.027641949818761849 -0.2624303641812975 0 0.013656296163676369 -0.24966234295427919 0 0.02292379620583633 -0.24087207586773859 0 0.027641949818761849 -0.2624303641812975 0 0.01040472960093463 -0.26634401336597691 0 0.013656296163676369 -0.24966234295427919 0 0.027641949818761849 -0.2624303641812975 0 0.034849136601826383 -0.24296174276291929 0 0.027641949818761849 -0.2624303641812975 0 0.013656296163676369 -0.24966234295427919 0 0.020571163661587739 -0.28153052947017909 0 0.027641949818761849 -0.2624303641812975 0 0.01040472960093463 -0.26634401336597691 0 0.020571163661587739 -0.28153052947017909 0 0.027641949818761849 -0.2624303641812975 0 0.020571163661587739 -0.28153052947017909 0 0.040547627445515828 -0.27421243529154299 0 0.027641949818761849 -0.2624303641812975 0 0.0071531630381951464 -0.28302568377767501 0 0.020571163661587739 -0.28153052947017909 0 0.01040472960093463 -0.26634401336597691 0 -0.0030813648392770988 -0.27223975344966711 0 0.0071531630381951464 -0.28302568377767501 0 0.0075336796531474334 -0.26372292552974141 0 0.0071531630381951464 -0.28302568377767501 0 0.01040472960093463 -0.26634401336597691 0 0.0075336796531474334 -0.26372292552974141 0 0.0071531630381951464 -0.28302568377767501 0 0.0075336796531474334 -0.26372292552974141 0 0.0071531630381951464 -0.28302568377767501 0 0.01040472960093463 -0.26634401336597691 0 0.0075336796531474334 -0.26372292552974141 0 0.0079141962681041587 -0.2444201672818079 0 -0.002950157048249026 -0.25282991239742242 0 0.0075336796531474334 -0.26372292552974141 0 0.0079141962681041587 -0.2444201672818079 0 0.01040472960093463 -0.26634401336597691 0 0.0075336796531474334 -0.26372292552974141 0 0.013656296163676369 -0.24966234295427919 0 0.01040472960093463 -0.26634401336597691 0 0.013656296163676369 -0.24966234295427919 0 0.0075336796531474334 -0.26372292552974141 0 0.0079141962681041587 -0.2444201672818079 0 0.013656296163676369 -0.24966234295427919 0 0.0079141962681041587 -0.2444201672818079 0 0.013656296163676369 -0.24966234295427919 0 0.017846516046671639 -0.22816505366557119 0 0.0079141962681041587 -0.2444201672818079 0 0.013656296163676369 -0.24966234295427919 0 0.0079141962681041587 -0.2444201672818079 0 0.008398731595078205 -0.21984077202877211 0 -0.01361953667112153 -0.22476122490802031 0 0.0079141962681041587 -0.2444201672818079 0 0.008398731595078205 -0.21984077202877211 0 0.0079141962681041587 -0.2444201672818079 0 0.008398731595078205 -0.21984077202877211 0 0.017846516046671639 -0.22816505366557119 0 0.017846516046671639 -0.22816505366557119 0 0.029228501795371571 -0.2307792357125317 0 0.02292379620583633 -0.24087207586773859 0 0.017846516046671639 -0.22816505366557119 0 0.028655747130830949 -0.2191149526461573 0 0.029228501795371571 -0.2307792357125317 0 0.013656296163676369 -0.24966234295427919 0 0.017846516046671639 -0.22816505366557119 0 0.013656296163676369 -0.24966234295427919 0 0.017846516046671639 -0.22816505366557119 0 0.02292379620583633 -0.24087207586773859 0 0.027641949818761849 -0.2624303641812975 0 0.02292379620583633 -0.24087207586773859 0 0.034849136601826383 -0.24296174276291929 0 0.029228501795371571 -0.2307792357125317 0 0.02292379620583633 -0.24087207586773859 0 0.034849136601826383 -0.24296174276291929 0 -0.0084393550421175672 -0.20623500431534419 0 0.008398731595078205 -0.21984077202877211 0 0.0088832669220569264 -0.19526137677573641 0 0.008398731595078205 -0.21984077202877211 0 0.0088832669220569264 -0.19526137677573641 0 0.008398731595078205 -0.21984077202877211 0 0.0088832669220569264 -0.19526137677573641 0 0.02203673592966893 -0.20666776437686349 0 0.017846516046671639 -0.22816505366557119 0 0.028655747130830949 -0.2191149526461573 0 0.02203673592966893 -0.20666776437686349 0 0.017846516046671639 -0.22816505366557119 0 0.02203673592966893 -0.20666776437686349 0 0.008398731595078205 -0.21984077202877211 0 0.017846516046671639 -0.22816505366557119 0 0.02203673592966893 -0.20666776437686349 0 0.028655747130830949 -0.2191149526461573 0 0.02203673592966893 -0.20666776437686349 0 0.036144406983969771 -0.20441905496486679 0 0.02203673592966893 -0.20666776437686349 0 0.036144406983969771 -0.20441905496486679 0 0.026891478923255479 -0.18588762566305539 0 0.0088832669220569264 -0.19526137677573641 0 0.02203673592966893 -0.20666776437686349 0 0.026891478923255479 -0.18588762566305539 0 0.036144406983969771 -0.20441905496486679 0 0.049263510167953488 -0.20402449992616209 0 0.047962646367219877 -0.18732636583242171 0 0.036144406983969771 -0.20441905496486679 0 0.047962646367219877 -0.18732636583242171 0 0.026891478923255479 -0.18588762566305539 0 0.036144406983969771 -0.20441905496486679 0 0.049263510167953488 -0.20402449992616209 0 0.042056323384889932 -0.22349312134454069 0 0.049263510167953488 -0.20402449992616209 0 0.042056323384889932 -0.22349312134454069 0 0.028655747130830949 -0.2191149526461573 0 0.036144406983969771 -0.20441905496486679 0 0.042056323384889932 -0.22349312134454069 0 0.049263510167953488 -0.20402449992616209 0 0.042056323384889932 -0.22349312134454069 0 0.066782780518705995 -0.21568791421344641 0 0.049263510167953488 -0.20402449992616209 0 0.062310454678753749 -0.19689069082332111 0 0.066782780518705995 -0.21568791421344641 0 0.049263510167953488 -0.20402449992616209 0 0.062310454678753749 -0.19689069082332111 0 0.047962646367219877 -0.18732636583242171 0 0.062310454678753749 -0.19689069082332111 0 0.064819247611320366 -0.18305360580882421 0 0.047962646367219877 -0.18732636583242171 0 0.044857189368968223 -0.25577862199652052 0 0.034849136601826383 -0.24296174276291929 0 0.055784012513637522 -0.23938264054926239 0 0.034849136601826383 -0.24296174276291929 0 0.042056323384889932 -0.22349312134454069 0 0.055784012513637522 -0.23938264054926239 0 0.029228501795371571 -0.2307792357125317 0 0.034849136601826383 -0.24296174276291929 0 0.042056323384889932 -0.22349312134454069 0 0.034849136601826383 -0.24296174276291929 0 0.042056323384889932 -0.22349312134454069 0 0.028655747130830949 -0.2191149526461573 0 0.029228501795371571 -0.2307792357125317 0 0.042056323384889932 -0.22349312134454069 0 0.042056323384889932 -0.22349312134454069 0 0.055784012513637522 -0.23938264054926239 0 0.066782780518705995 -0.21568791421344641 0 0.065463220465099822 -0.25990592719758032 0 0.055784012513637522 -0.23938264054926239 0 0.077473135857930198 -0.23381734799337189 0 0.065463220465099822 -0.25990592719758032 0 0.082920410740594266 -0.25617281580077073 0 0.077473135857930198 -0.23381734799337189 0 0.065463220465099822 -0.25990592719758032 0 0.077473135857930198 -0.23381734799337189 0 0.082920410740594266 -0.25617281580077073 0 0.077473135857930198 -0.23381734799337189 0 0.095777495595703685 -0.24378794672417869 0 0.077473135857930198 -0.23381734799337189 0 0.084395746174533576 -0.21435783156692939 0 0.095777495595703685 -0.24378794672417869 0 0.077473135857930198 -0.23381734799337189 0 0.066782780518705995 -0.21568791421344641 0 0.084395746174533576 -0.21435783156692939 0 0.055784012513637522 -0.23938264054926239 0 0.077473135857930198 -0.23381734799337189 0 0.066782780518705995 -0.21568791421344641 0 0.066782780518705995 -0.21568791421344641 0 0.07689061311860261 -0.197667209401758 0 0.084395746174533576 -0.21435783156692939 0 0.062310454678753749 -0.19689069082332111 0 0.066782780518705995 -0.21568791421344641 0 0.07689061311860261 -0.197667209401758 0 0.07689061311860261 -0.197667209401758 0 0.082847826651052753 -0.1836321500302722 0 0.064819247611320366 -0.18305360580882421 0 0.062310454678753749 -0.19689069082332111 0 0.07689061311860261 -0.197667209401758 0 0.064819247611320366 -0.18305360580882421 0 0.07689061311860261 -0.197667209401758 0 0.084395746174533576 -0.21435783156692939 0 0.09672263835785902 -0.19338201392691881 0 0.07689061311860261 -0.197667209401758 0 0.09672263835785902 -0.19338201392691881 0 0.082847826651052753 -0.1836321500302722 0 0.084395746174533576 -0.21435783156692939 0 0.10205310750407939 -0.21480868621954019 0 0.09672263835785902 -0.19338201392691881 0 0.10205310750407939 -0.21480868621954019 0 0.09672263835785902 -0.19338201392691881 0 0.1154810579546022 -0.20083619657384161 0 0.09672263835785902 -0.19338201392691881 0 0.1154810579546022 -0.20083619657384161 0 0.10751490216487471 -0.18085172415916881 0 0.1154810579546022 -0.20083619657384161 0 0.12333621654476271 -0.17570419481953409 0 0.128432065000397 -0.19005262783806029 0 0.1154810579546022 -0.20083619657384161 0 0.12333621654476271 -0.17570419481953409 0 0.10205310750407939 -0.21480868621954019 0 0.1153889853365523 -0.2141862736379406 0 0.11546648156162551 -0.2231316897043143 0 0.10205310750407939 -0.21480868621954019 0 0.1154810579546022 -0.20083619657384161 0 0.1153889853365523 -0.2141862736379406 0 0.1154810579546022 -0.20083619657384161 0 0.1153889853365523 -0.2141862736379406 0 0.12651812071581231 -0.2113111158799072 0 0.1153889853365523 -0.2141862736379406 0 0.1256140553719472 -0.22277003608547161 0 0.12651812071581231 -0.2113111158799072 0 0.1201575916464637 -0.23167459289555889 0 0.1240225730844019 -0.24156982424738241 0 0.1284202389333762 -0.22528766967826011 0 0.1153889853365523 -0.2141862736379406 0 0.11546648156162551 -0.2231316897043143 0 0.1256140553719472 -0.22277003608547161 0 0.11546648156162551 -0.2231316897043143 0 0.1201575916464637 -0.23167459289555889 0 0.1256140553719472 -0.22277003608547161 0 0.11546648156162551 -0.2231316897043143 0 0.1201575916464637 -0.23167459289555889 0 0.1093292701138019 -0.23147160605257919 0 0.1201575916464637 -0.23167459289555889 0 0.1256140553719472 -0.22277003608547161 0 0.1284202389333762 -0.22528766967826011 0 0.1201575916464637 -0.23167459289555889 0 0.1240225730844019 -0.24156982424738241 0 0.1124932849432754 -0.24497107402557769 0 0.11962490723542719 -0.25785197881650451 0 0.1240225730844019 -0.24156982424738241 0 0.1124932849432754 -0.24497107402557769 0 0.11962490723542719 -0.25785197881650451 0 0.1240225730844019 -0.24156982424738241 0 0.1201575916464637 -0.23167459289555889 0 0.1124932849432754 -0.24497107402557769 0 0.1093292701138019 -0.23147160605257919 0 0.1124932849432754 -0.24497107402557769 0 0.095777495595703685 -0.24378794672417869 0 0.1093292701138019 -0.23147160605257919 0 0.10205310750407939 -0.21480868621954019 0 0.11546648156162551 -0.2231316897043143 0 0.1093292701138019 -0.23147160605257919 0 0.10205310750407939 -0.21480868621954019 0 0.095777495595703685 -0.24378794672417869 0 0.1093292701138019 -0.23147160605257919 0 0.084395746174533576 -0.21435783156692939 0 0.10205310750407939 -0.21480868621954019 0 0.095777495595703685 -0.24378794672417869 0 0.10205310750407939 -0.21480868621954019 0 0.095777495595703685 -0.24378794672417869 0 0.098863237730602987 -0.1446743061909703 0 0.1121520981112708 -0.14402436599446891 0 0.1081879147734497 -0.1612174387438384 0 0.098863237730602987 -0.1446743061909703 0 0.1081879147734497 -0.1612174387438384 0 0.089638681678695167 -0.15756574765566181 0 0.098863237730602987 -0.1446743061909703 0 0.1013597258402647 -0.12789369715778459 0 0.088541584678916485 -0.1400083406532647 0 0.098863237730602987 -0.1446743061909703 0 0.1013597258402647 -0.12789369715778459 0 0.1121520981112708 -0.14402436599446891 0 0.1013597258402647 -0.12789369715778459 0 0.12065364634618821 -0.1315602422156881 0 0.1121520981112708 -0.14402436599446891 0 0.1013597258402647 -0.12789369715778459 0 0.12065364634618821 -0.1315602422156881 0 0.1146411448523986 -0.11949851538073041 0 0.1121520981112708 -0.14402436599446891 0 0.1081879147734497 -0.1612174387438384 0 0.1311913751349231 -0.15057219306522671 0 0.12065364634618821 -0.1315602422156881 0 0.1121520981112708 -0.14402436599446891 0 0.1311913751349231 -0.15057219306522671 0 0.12333621654476271 -0.17570419481953409 0 0.1081879147734497 -0.1612174387438384 0 0.1311913751349231 -0.15057219306522671 0 0.1154810579546022 -0.20083619657384161 0 0.12333621654476271 -0.17570419481953409 0 0.10751490216487471 -0.18085172415916881 0 0.12333621654476271 -0.17570419481953409 0 0.10751490216487471 -0.18085172415916881 0 0.1081879147734497 -0.1612174387438384 0 0.09672263835785902 -0.19338201392691881 0 0.09384668319369989 -0.1731187767317113 0 0.10751490216487471 -0.18085172415916881 0 0.09384668319369989 -0.1731187767317113 0 0.10751490216487471 -0.18085172415916881 0 0.1081879147734497 -0.1612174387438384 0 0.09384668319369989 -0.1731187767317113 0 0.1081879147734497 -0.1612174387438384 0 0.089638681678695167 -0.15756574765566181 0 0.09384668319369989 -0.1731187767317113 0 0.089638681678695167 -0.15756574765566181 0 0.076616816575486746 -0.16883598276197351 0 0.089638681678695167 -0.15756574765566181 0 0.078139262606951254 -0.1562876061372141 0 0.076616816575486746 -0.16883598276197351 0 0.09672263835785902 -0.19338201392691881 0 0.09384668319369989 -0.1731187767317113 0 0.082847826651052753 -0.1836321500302722 0 0.09384668319369989 -0.1731187767317113 0 0.082847826651052753 -0.1836321500302722 0 0.076616816575486746 -0.16883598276197351 0 0.064819247611320366 -0.18305360580882421 0 0.076616816575486746 -0.16883598276197351 0 0.056617043929410978 -0.1682717050907736 0 0.082847826651052753 -0.1836321500302722 0 0.064819247611320366 -0.18305360580882421 0 0.076616816575486746 -0.16883598276197351 0 0.076616816575486746 -0.16883598276197351 0 0.06781072117154166 -0.15903170302802769 0 0.056617043929410978 -0.1682717050907736 0 0.078139262606951254 -0.1562876061372141 0 0.076616816575486746 -0.16883598276197351 0 0.06781072117154166 -0.15903170302802769 0 0.06781072117154166 -0.15903170302802769 0 0.06991574128697664 -0.14594000155741821 0 0.056864175234279432 -0.14760186780425649 0 0.06991574128697664 -0.14594000155741821 0 0.064777109181208464 -0.13308665872878611 0 0.056864175234279432 -0.14760186780425649 0 0.06991574128697664 -0.14594000155741821 0 0.080089068370082298 -0.14669375351890779 0 0.077245963074394755 -0.1363123962872263 0 0.078139262606951254 -0.1562876061372141 0 0.06781072117154166 -0.15903170302802769 0 0.06991574128697664 -0.14594000155741821 0 0.078139262606951254 -0.1562876061372141 0 0.06991574128697664 -0.14594000155741821 0 0.080089068370082298 -0.14669375351890779 0 0.089638681678695167 -0.15756574765566181 0 0.078139262606951254 -0.1562876061372141 0 0.080089068370082298 -0.14669375351890779 0 0.098863237730602987 -0.1446743061909703 0 0.089638681678695167 -0.15756574765566181 0 0.088541584678916485 -0.1400083406532647 0 0.089638681678695167 -0.15756574765566181 0 0.080089068370082298 -0.14669375351890779 0 0.088541584678916485 -0.1400083406532647 0 0.080089068370082298 -0.14669375351890779 0 0.088541584678916485 -0.1400083406532647 0 0.077245963074394755 -0.1363123962872263 0 0.1013597258402647 -0.12789369715778459 0 0.088541584678916485 -0.1400083406532647 0 0.085188909666997381 -0.1285712659685313 0 0.1013597258402647 -0.12789369715778459 0 0.085188909666997381 -0.1285712659685313 0 0.087168253498346976 -0.11930395665730149 0 0.088541584678916485 -0.1400083406532647 0 0.085188909666997381 -0.1285712659685313 0 0.077245963074394755 -0.1363123962872263 0 0.085188909666997381 -0.1285712659685313 0 0.077245963074394755 -0.1363123962872263 0 0.07543673121532829 -0.12426649182123869 0 0.077245963074394755 -0.1363123962872263 0 0.064777109181208464 -0.13308665872878611 0 0.07543673121532829 -0.12426649182123869 0 0.06991574128697664 -0.14594000155741821 0 0.077245963074394755 -0.1363123962872263 0 0.064777109181208464 -0.13308665872878611 0 0.064777109181208464 -0.13308665872878611 0 0.07543673121532829 -0.12426649182123869 0 0.064486337582434647 -0.1205566771600914 0 0.064777109181208464 -0.13308665872878611 0 0.055208961320171258 -0.12603324645569641 0 0.064486337582434647 -0.1205566771600914 0 0.064777109181208464 -0.13308665872878611 0 0.055208961320171258 -0.12603324645569641 0 0.052320205063314168 -0.134882438102403 0 0.055208961320171258 -0.12603324645569641 0 0.052320205063314168 -0.134882438102403 0 0.042883632993233882 -0.12848722565939991 0 0.064777109181208464 -0.13308665872878611 0 0.052320205063314168 -0.134882438102403 0 0.056864175234279432 -0.14760186780425649 0 0.056864175234279432 -0.14760186780425649 0 0.042437107621251469 -0.14218886545286 0 0.04264824337664333 -0.1579361167601116 0 0.052320205063314168 -0.134882438102403 0 0.056864175234279432 -0.14760186780425649 0 0.042437107621251469 -0.14218886545286 0 0.042437107621251469 -0.14218886545286 0 0.04264824337664333 -0.1579361167601116 0 0.02909524137858328 -0.14885227569158721 0 0.042437107621251469 -0.14218886545286 0 0.03369858081853612 -0.1381145423739622 0 0.02909524137858328 -0.14885227569158721 0 0.032459073580023257 -0.12920812864379999 0 0.042883632993233882 -0.12848722565939991 0 0.034735594396696663 -0.1217255547580167 0 0.03369858081853612 -0.1381145423739622 0 0.032459073580023257 -0.12920812864379999 0 0.042883632993233882 -0.12848722565939991 0 0.042437107621251469 -0.14218886545286 0 0.03369858081853612 -0.1381145423739622 0 0.042883632993233882 -0.12848722565939991 0 0.052320205063314168 -0.134882438102403 0 0.042437107621251469 -0.14218886545286 0 0.042883632993233882 -0.12848722565939991 0 0.064819247611320366 -0.18305360580882421 0 0.047962646367219877 -0.18732636583242171 0 0.056617043929410978 -0.1682717050907736 0 0.047962646367219877 -0.18732636583242171 0 0.056617043929410978 -0.1682717050907736 0 0.040299839733950342 -0.1734378536900863 0 0.06781072117154166 -0.15903170302802769 0 0.056864175234279432 -0.14760186780425649 0 0.056617043929410978 -0.1682717050907736 0 0.056864175234279432 -0.14760186780425649 0 0.056617043929410978 -0.1682717050907736 0 0.04264824337664333 -0.1579361167601116 0 0.04264824337664333 -0.1579361167601116 0 0.026046846898800258 -0.164785525265294 0 0.02909524137858328 -0.14885227569158721 0 0.056617043929410978 -0.1682717050907736 0 0.04264824337664333 -0.1579361167601116 0 0.040299839733950342 -0.1734378536900863 0 0.04264824337664333 -0.1579361167601116 0 0.040299839733950342 -0.1734378536900863 0 0.026046846898800258 -0.164785525265294 0 0.047962646367219877 -0.18732636583242171 0 0.040299839733950342 -0.1734378536900863 0 0.026891478923255479 -0.18588762566305539 0 0.026891478923255479 -0.18588762566305539 0 0.026046846898800258 -0.164785525265294 0 0.009367802249035646 -0.1706819815227007 0 0.040299839733950342 -0.1734378536900863 0 0.026891478923255479 -0.18588762566305539 0 0.026046846898800258 -0.164785525265294 0 0.026046846898800258 -0.164785525265294 0 0.009367802249035646 -0.1706819815227007 0 0.0098523375760143639 -0.1461025862696651 0 -0.010182590445576289 -0.1584724389503685 0 0.009367802249035646 -0.1706819815227007 0 0.0098523375760143639 -0.1461025862696651 0 0.009367802249035646 -0.1706819815227007 0 0.0098523375760143639 -0.1461025862696651 0 -0.01297221461876409 -0.18517992099496211 0 0.0088832669220569264 -0.19526137677573641 0 0.009367802249035646 -0.1706819815227007 0 0.0088832669220569264 -0.19526137677573641 0 0.026891478923255479 -0.18588762566305539 0 0.009367802249035646 -0.1706819815227007 0 0.0088832669220569264 -0.19526137677573641 0 0.009367802249035646 -0.1706819815227007 0 0.017307116835141651 -0.12913854882852091 0 0.024203533343463271 -0.13624269285513679 0 0.0098523375760143639 -0.1461025862696651 0 0.017307116835141651 -0.12913854882852091 0 0.024203533343463271 -0.13624269285513679 0 0.025790351950985922 -0.1243526498520105 0 0.032459073580023257 -0.12920812864379999 0 0.025790351950985922 -0.1243526498520105 0 0.034735594396696663 -0.1217255547580167 0 0.032459073580023257 -0.12920812864379999 0 0.024203533343463271 -0.13624269285513679 0 0.025790351950985922 -0.1243526498520105 0 0.03369858081853612 -0.1381145423739622 0 0.032459073580023257 -0.12920812864379999 0 0.024203533343463271 -0.13624269285513679 0 0.03369858081853612 -0.1381145423739622 0 0.024203533343463271 -0.13624269285513679 0 0.02909524137858328 -0.14885227569158721 0 0.024203533343463271 -0.13624269285513679 0 0.02909524137858328 -0.14885227569158721 0 0.0098523375760143639 -0.1461025862696651 0 0.026046846898800258 -0.164785525265294 0 0.02909524137858328 -0.14885227569158721 0 0.0098523375760143639 -0.1461025862696651 0 0.017307116835141651 -0.12913854882852091 0 0.0098523375760143639 -0.1461025862696651 0 0.0070693487391517221 -0.1259227580274058 0 -0.00381057756564823 -0.13881115303130631 0 0.0098523375760143639 -0.1461025862696651 0 0.0070693487391517221 -0.1259227580274058 0 -0.0014550555111774201 -0.1139112530899648 0 0.0070693487391517221 -0.1259227580274058 0 0.01217686236301007 -0.113980352114349 0 0.0070693487391517221 -0.1259227580274058 0 0.01217686236301007 -0.113980352114349 0 0.02452503017698136 -0.11523276095141061 0 -0.0014550555111774201 -0.1139112530899648 0 0.01217686236301007 -0.113980352114349 0 0.01239313551715715 -0.1047298314053698 0 0.017307116835141651 -0.12913854882852091 0 0.0070693487391517221 -0.1259227580274058 0 0.02452503017698136 -0.11523276095141061 0 0.02718787609635177 -0.1152520817920389 0 0.02452503017698136 -0.11523276095141061 0 0.041980711614810887 -0.1045427638754151 0 0.017307116835141651 -0.12913854882852091 0 0.02452503017698136 -0.11523276095141061 0 0.025790351950985922 -0.1243526498520105 0 0.0070693487391517221 -0.1259227580274058 0 0.02452503017698136 -0.11523276095141061 0 0.022768934917989869 -0.10962142708663609 0 0.02452503017698136 -0.11523276095141061 0 0.041980711614810887 -0.1045427638754151 0 0.01217686236301007 -0.113980352114349 0 0.022768934917989869 -0.10962142708663609 0 0.01239313551715715 -0.1047298314053698 0 0.01217686236301007 -0.113980352114349 0 0.022768934917989869 -0.10962142708663609 0 0.02452503017698136 -0.11523276095141061 0 0.02718787609635177 -0.1152520817920389 0 0.02452503017698136 -0.11523276095141061 0 0.028445876139026958 -0.1201028550096149 0 0.02452503017698136 -0.11523276095141061 0 0.025790351950985922 -0.1243526498520105 0 0.028445876139026958 -0.1201028550096149 0 0.025790351950985922 -0.1243526498520105 0 0.028445876139026958 -0.1201028550096149 0 0.034735594396696663 -0.1217255547580167 0 0.02718787609635177 -0.1152520817920389 0 0.028445876139026958 -0.1201028550096149 0 0.034735594396696663 -0.1217255547580167 0 0.01239313551715715 -0.1047298314053698 0 0.01075992232450191 -0.087804584712857237 0 0.028729827809946769 -0.090346951513714024 0 0.01239313551715715 -0.1047298314053698 0 0.028729827809946769 -0.090346951513714024 0 0.041980711614810887 -0.1045427638754151 0 0.022768934917989869 -0.10962142708663609 0 0.01239313551715715 -0.1047298314053698 0 0.041980711614810887 -0.1045427638754151 0 0.01239313551715715 -0.1047298314053698 0 0.041980711614810887 -0.1045427638754151 0 -0.001063838671142459 -0.094957297204889449 0 0.01239313551715715 -0.1047298314053698 0 0.01075992232450191 -0.087804584712857237 0 -0.010213971945732019 -0.082377873766006179 0 0.01075992232450191 -0.087804584712857237 0 0.0080700504204770651 -0.071014827416368193 0 0.01075992232450191 -0.087804584712857237 0 0.0080700504204770651 -0.071014827416368193 0 0.02362426908826281 -0.07339669414353954 0 0.0080700504204770651 -0.071014827416368193 0 0.02362426908826281 -0.07339669414353954 0 0.01911986947673576 -0.053739045925905123 0 0.01075992232450191 -0.087804584712857237 0 0.02362426908826281 -0.07339669414353954 0 0.028729827809946769 -0.090346951513714024 0 0.02362426908826281 -0.07339669414353954 0 0.028729827809946769 -0.090346951513714024 0 0.038872845979995838 -0.077550008804654624 0 0.028729827809946769 -0.090346951513714024 0 0.045312406499026091 -0.089588030416863446 0 0.038872845979995838 -0.077550008804654624 0 0.045312406499026091 -0.089588030416863446 0 0.038872845979995838 -0.077550008804654624 0 0.053712759563257967 -0.079969297450031521 0 0.038872845979995838 -0.077550008804654624 0 0.051627607247174467 -0.067271951543365696 0 0.036193098517919513 -0.059924746487738108 0 0.02362426908826281 -0.07339669414353954 0 0.038872845979995838 -0.077550008804654624 0 0.036193098517919513 -0.059924746487738108 0 0.038872845979995838 -0.077550008804654624 0 0.051627607247174467 -0.067271951543365696 0 0.053712759563257967 -0.079969297450031521 0 0.051627607247174467 -0.067271951543365696 0 0.053712759563257967 -0.079969297450031521 0 0.062708280616264087 -0.072332284016741855 0 0.053712759563257967 -0.079969297450031521 0 0.06648705474655911 -0.080925641469345971 0 0.062708280616264087 -0.072332284016741855 0 0.051627607247174467 -0.067271951543365696 0 0.063684879442813314 -0.061647909170853582 0 0.062708280616264087 -0.072332284016741855 0 0.045312406499026091 -0.089588030416863446 0 0.053712759563257967 -0.079969297450031521 0 0.060878946730787697 -0.092969335542022274 0 0.053712759563257967 -0.079969297450031521 0 0.060878946730787697 -0.092969335542022274 0 0.06648705474655911 -0.080925641469345971 0 0.051577521780665152 -0.1131532326278015 0 0.041980711614810887 -0.1045427638754151 0 0.068749061142275386 -0.1043735209130801 0 0.045312406499026091 -0.089588030416863446 0 0.060878946730787697 -0.092969335542022274 0 0.041980711614810887 -0.1045427638754151 0 0.041980711614810887 -0.1045427638754151 0 0.068749061142275386 -0.1043735209130801 0 0.060878946730787697 -0.092969335542022274 0 0.041980711614810887 -0.1045427638754151 0 0.068749061142275386 -0.1043735209130801 0 0.060878946730787697 -0.092969335542022274 0 0.041980711614810887 -0.1045427638754151 0 0.055208961320171258 -0.12603324645569641 0 0.051577521780665152 -0.1131532326278015 0 0.064486337582434647 -0.1205566771600914 0 0.055208961320171258 -0.12603324645569641 0 0.042883632993233882 -0.12848722565939991 0 0.051577521780665152 -0.1131532326278015 0 0.042883632993233882 -0.12848722565939991 0 0.051577521780665152 -0.1131532326278015 0 0.034735594396696663 -0.1217255547580167 0 0.02718787609635177 -0.1152520817920389 0 0.051577521780665152 -0.1131532326278015 0 0.034735594396696663 -0.1217255547580167 0 0.02718787609635177 -0.1152520817920389 0 0.051577521780665152 -0.1131532326278015 0 0.041980711614810887 -0.1045427638754151 0 0.02452503017698136 -0.11523276095141061 0 0.041980711614810887 -0.1045427638754151 0 0.02718787609635177 -0.1152520817920389 0 0.051577521780665152 -0.1131532326278015 0 0.028729827809946769 -0.090346951513714024 0 0.045312406499026091 -0.089588030416863446 0 0.041980711614810887 -0.1045427638754151 0 0.027245216396481961 -0.0079549092662204637 0 0.022454487797408659 -0.01442247414419136 0 0.039881004700212483 -0.0081759591608999756 0 0.02856846585004898 0.0023008959674395871 0 0.023308490363071602 -0.0033786401451085081 0 0.033187153211320833 -0.004094398238834009 0 0.027245216396481961 -0.0079549092662204637 0 0.023308490363071602 -0.0033786401451085081 0 0.033187153211320833 -0.004094398238834009 0 0.027245216396481961 -0.0079549092662204637 0 0.022454487797408659 -0.01442247414419136 0 0.017111612329723119 -0.0080179477677116764 0 0.022454487797408659 -0.01442247414419136 0 0.017111612329723119 -0.0080179477677116764 0 0.01017072979538342 -0.016746828848781731 0 0.01521681077868578 0.0038680593231585629 0 0.017111612329723119 -0.0080179477677116764 0 0.023308490363071602 -0.0033786401451085081 0 0.027245216396481961 -0.0079549092662204637 0 0.017111612329723119 -0.0080179477677116764 0 0.023308490363071602 -0.0033786401451085081 0 -0.01210134886455932 0.0019878388550685811 0 0.01521681077868578 0.0038680593231585629 0 0.017111612329723119 -0.0080179477677116764 0 -0.01210134886455932 0.0019878388550685811 0 0.017111612329723119 -0.0080179477677116764 0 0.01017072979538342 -0.016746828848781731 0 0.017111612329723119 -0.0080179477677116764 0 0.01017072979538342 -0.016746828848781731 0 0.01017072979538342 -0.016746828848781731 0 0.01958920521724395 -0.024669394586792018 0 -0.0058690393437316642 -0.036918505388539302 0 0.01017072979538342 -0.016746828848781731 0 0.01017072979538342 -0.016746828848781731 0 0.01958920521724395 -0.024669394586792018 0 0.004820284750702987 -0.03667376296375658 0 -0.0058690393437316642 -0.036918505388539302 0 0.01017072979538342 -0.016746828848781731 0 0.004820284750702987 -0.03667376296375658 0 0.01958920521724395 -0.024669394586792018 0 0.004820284750702987 -0.03667376296375658 0 0.01958920521724395 -0.024669394586792018 0 0.03059825987435251 -0.01907510907739313 0 0.036452296840091103 -0.03885416929225078 0 0.022454487797408659 -0.01442247414419136 0 0.01958920521724395 -0.024669394586792018 0 0.039881004700212483 -0.0081759591608999756 0 0.01958920521724395 -0.024669394586792018 0 0.039881004700212483 -0.0081759591608999756 0 0.01958920521724395 -0.024669394586792018 0 0.03059825987435251 -0.01907510907739313 0 0.039881004700212483 -0.0081759591608999756 0 0.022454487797408659 -0.01442247414419136 0 0.01017072979538342 -0.016746828848781731 0 0.01958920521724395 -0.024669394586792018 0 0.01958920521724395 -0.024669394586792018 0 0.036452296840091103 -0.03885416929225078 0 0.01958920521724395 -0.024669394586792018 0 0.017920078917167171 -0.038773099167228188 0 0.036452296840091103 -0.03885416929225078 0 0.017920078917167171 -0.038773099167228188 0 0.01911986947673576 -0.053739045925905123 0 0.036452296840091103 -0.03885416929225078 0 0.01958920521724395 -0.024669394586792018 0 0.017920078917167171 -0.038773099167228188 0 0.004820284750702987 -0.03667376296375658 0 -0.0023445621031648492 -0.046493714565991447 0 0.004820284750702987 -0.03667376296375658 0 0.0091398752985678844 -0.046071877821293308 0 0.017920078917167171 -0.038773099167228188 0 0.0091398752985678844 -0.046071877821293308 0 0.01911986947673576 -0.053739045925905123 0 0.017920078917167171 -0.038773099167228188 0 0.004820284750702987 -0.03667376296375658 0 0.0091398752985678844 -0.046071877821293308 0 0.0091398752985678844 -0.046071877821293308 0 0.0010188698430845979 -0.055986475845041232 0 0.01911986947673576 -0.053739045925905123 0 0.0080700504204770651 -0.071014827416368193 0 0.0010188698430845979 -0.055986475845041232 0 0.01911986947673576 -0.053739045925905123 0 -0.0023445621031648492 -0.046493714565991447 0 0.0091398752985678844 -0.046071877821293308 0 0.0010188698430845979 -0.055986475845041232 0 0.02362426908826281 -0.07339669414353954 0 0.01911986947673576 -0.053739045925905123 0 0.036193098517919513 -0.059924746487738108 0 0.01911986947673576 -0.053739045925905123 0 0.036193098517919513 -0.059924746487738108 0 0.036452296840091103 -0.03885416929225078 0 0.036193098517919513 -0.059924746487738108 0 0.053315388462936417 -0.053038943997711793 0 0.036452296840091103 -0.03885416929225078 0 0.051627607247174467 -0.067271951543365696 0 0.036193098517919513 -0.059924746487738108 0 0.053315388462936417 -0.053038943997711793 0 0.051627607247174467 -0.067271951543365696 0 0.053315388462936417 -0.053038943997711793 0 0.063684879442813314 -0.061647909170853582 0 0.052179080093720853 -0.03566841272664744 0 0.058526685188744529 -0.025451900748473991 0 0.06851850105231122 -0.036631536356147763 0 0.053315388462936417 -0.053038943997711793 0 0.052179080093720853 -0.03566841272664744 0 0.06851850105231122 -0.036631536356147763 0 0.053315388462936417 -0.053038943997711793 0 0.052179080093720853 -0.03566841272664744 0 0.036452296840091103 -0.03885416929225078 0 0.052179080093720853 -0.03566841272664744 0 0.036452296840091103 -0.03885416929225078 0 0.044082528924520942 -0.02436551323865287 0 0.053315388462936417 -0.053038943997711793 0 0.036452296840091103 -0.03885416929225078 0 0.03059825987435251 -0.01907510907739313 0 0.036452296840091103 -0.03885416929225078 0 0.044082528924520942 -0.02436551323865287 0 0.03059825987435251 -0.01907510907739313 0 0.044082528924520942 -0.02436551323865287 0 0.045164119306279123 -0.0099209969693937056 0 0.052179080093720853 -0.03566841272664744 0 0.044082528924520942 -0.02436551323865287 0 0.058526685188744529 -0.025451900748473991 0 0.044082528924520942 -0.02436551323865287 0 0.051875828039438118 -0.015126323954479159 0 0.045164119306279123 -0.0099209969693937056 0 0.044082528924520942 -0.02436551323865287 0 0.058526685188744529 -0.025451900748473991 0 0.051875828039438118 -0.015126323954479159 0 0.058526685188744529 -0.025451900748473991 0 0.059729978738206742 -0.00076688486139602635 0 0.059729978738206742 -0.00076688486139602635 0 0.039881004700212483 -0.0081759591608999756 0 0.045164119306279123 -0.0099209969693937056 0 0.051875828039438118 -0.015126323954479159 0 0.059729978738206742 -0.00076688486139602635 0 0.045164119306279123 -0.0099209969693937056 0 0.06017280418318121 0.0083174762649921123 0 0.059729978738206742 -0.00076688486139602635 0 0.039881004700212483 -0.0081759591608999756 0 0.058526685188744529 -0.025451900748473991 0 0.051875828039438118 -0.015126323954479159 0 0.059729978738206742 -0.00076688486139602635 0 0.059729978738206742 -0.00076688486139602635 0 0.045164119306279123 -0.0099209969693937056 0 0.037800010054661062 0.0012988040134497959 0 0.047552578143709771 0.003114911076836369 0 0.039881004700212483 -0.0081759591608999756 0 0.03059825987435251 -0.01907510907739313 0 0.045164119306279123 -0.0099209969693937056 0 0.03059825987435251 -0.01907510907739313 0 0.039881004700212483 -0.0081759591608999756 0 0.045164119306279123 -0.0099209969693937056 0 0.037800010054661062 0.0012988040134497959 0 0.039881004700212483 -0.0081759591608999756 0 0.033187153211320833 -0.004094398238834009 0 0.02856846585004898 0.0023008959674395871 0 0.037800010054661062 0.0012988040134497959 0 0.033187153211320833 -0.004094398238834009 0 0.027245216396481961 -0.0079549092662204637 0 0.039881004700212483 -0.0081759591608999756 0 0.033187153211320833 -0.004094398238834009 0 0.093596902684648237 -0.00058102248458167312 0 0.073828516940257299 -0.001940676278266155 0 0.093596902684648237 -0.00058102248458167312 0 0.087575205206462212 -0.013825285023034119 0 0.073828516940257299 -0.001940676278266155 0 0.058526685188744529 -0.025451900748473991 0 0.059729978738206742 -0.00076688486139602635 0 0.071962410089428969 -0.016924357643432111 0 0.059729978738206742 -0.00076688486139602635 0 0.073828516940257299 -0.001940676278266155 0 0.071962410089428969 -0.016924357643432111 0 0.087575205206462212 -0.013825285023034119 0 0.073828516940257299 -0.001940676278266155 0 0.071962410089428969 -0.016924357643432111 0 0.071962410089428969 -0.016924357643432111 0 0.086845930485447198 -0.026594248473580381 0 0.06851850105231122 -0.036631536356147763 0 0.058526685188744529 -0.025451900748473991 0 0.071962410089428969 -0.016924357643432111 0 0.06851850105231122 -0.036631536356147763 0 0.087575205206462212 -0.013825285023034119 0 0.071962410089428969 -0.016924357643432111 0 0.086845930485447198 -0.026594248473580381 0 0.086845930485447198 -0.026594248473580381 0 0.086227645609569539 -0.045488132951585603 0 0.10049544106544719 -0.038583527814152647 0 0.086845930485447198 -0.026594248473580381 0 0.086227645609569539 -0.045488132951585603 0 0.06851850105231122 -0.036631536356147763 0 0.086227645609569539 -0.045488132951585603 0 0.06851850105231122 -0.036631536356147763 0 0.072983231905277723 -0.051851386564837412 0 0.053315388462936417 -0.053038943997711793 0 0.072983231905277723 -0.051851386564837412 0 0.063684879442813314 -0.061647909170853582 0 0.053315388462936417 -0.053038943997711793 0 0.06851850105231122 -0.036631536356147763 0 0.072983231905277723 -0.051851386564837412 0 0.072983231905277723 -0.051851386564837412 0 0.083481494104445303 -0.057661319770131253 0 0.075233107182694423 -0.065407941066685696 0 0.072983231905277723 -0.051851386564837412 0 0.063684879442813314 -0.061647909170853582 0 0.075233107182694423 -0.065407941066685696 0 0.086227645609569539 -0.045488132951585603 0 0.072983231905277723 -0.051851386564837412 0 0.083481494104445303 -0.057661319770131253 0 0.086227645609569539 -0.045488132951585603 0 0.083481494104445303 -0.057661319770131253 0 0.0975337625409156 -0.055604051668087497 0 0.083481494104445303 -0.057661319770131253 0 0.0975337625409156 -0.055604051668087497 0 0.090794283327140207 -0.066193550584137603 0 0.0975337625409156 -0.055604051668087497 0 0.1102157675176698 -0.052632625629201277 0 0.10049544106544719 -0.038583527814152647 0 0.0975337625409156 -0.055604051668087497 0 0.1102157675176698 -0.052632625629201277 0 0.10843426072964139 -0.076748954373903722 0 0.1102157675176698 -0.052632625629201277 0 0.10843426072964139 -0.076748954373903722 0 0.12686592154363949 -0.053396183868486248 0 0.1102157675176698 -0.052632625629201277 0 0.1183205926690539 -0.038039055067747199 0 0.12686592154363949 -0.053396183868486248 0 0.1183205926690539 -0.038039055067747199 0 0.10049544106544719 -0.038583527814152647 0 0.1116422658325294 -0.023086120235310269 0 0.1102157675176698 -0.052632625629201277 0 0.1183205926690539 -0.038039055067747199 0 0.10049544106544719 -0.038583527814152647 0 0.086227645609569539 -0.045488132951585603 0 0.0975337625409156 -0.055604051668087497 0 0.10049544106544719 -0.038583527814152647 0 0.086845930485447198 -0.026594248473580381 0 0.10049544106544719 -0.038583527814152647 0 0.1116422658325294 -0.023086120235310269 0 0.087575205206462212 -0.013825285023034119 0 0.086845930485447198 -0.026594248473580381 0 0.1116422658325294 -0.023086120235310269 0 0.1183205926690539 -0.038039055067747199 0 0.1116422658325294 -0.023086120235310269 0 0.12924586723977999 -0.024143277067086591 0 0.1116422658325294 -0.023086120235310269 0 0.1305210978098208 -0.011138433909733051 0 0.12924586723977999 -0.024143277067086591 0 0.1116936488630241 0.00066365727394526795 0 0.12979039504140011 0.0019083370324715679 0 0.1211120162326277 -0.0058453094924676794 0 0.1116936488630241 0.00066365727394526795 0 0.1116422658325294 -0.023086120235310269 0 0.1211120162326277 -0.0058453094924676794 0 0.1116422658325294 -0.023086120235310269 0 0.1211120162326277 -0.0058453094924676794 0 0.1305210978098208 -0.011138433909733051 0 0.1116936488630241 0.00066365727394526795 0 0.093596902684648237 -0.00058102248458167312 0 0.1116422658325294 -0.023086120235310269 0 0.093596902684648237 -0.00058102248458167312 0 0.1116422658325294 -0.023086120235310269 0 0.093596902684648237 -0.00058102248458167312 0 0.087575205206462212 -0.013825285023034119 0 0.1116422658325294 -0.023086120235310269 0 0.085187711869083332 -0.1013443502775911 0 0.075967167464978461 -0.111054383463564 0 0.1003568131492918 -0.1089555342993266 0 0.085187711869083332 -0.1013443502775911 0 0.09242853857041726 -0.092419840193893751 0 0.1003568131492918 -0.1089555342993266 0 0.085187711869083332 -0.1013443502775911 0 0.075967167464978461 -0.111054383463564 0 0.074564005855624949 -0.10027908747037299 0 0.085187711869083332 -0.1013443502775911 0 0.082622034305104133 -0.094012905960798018 0 0.074564005855624949 -0.10027908747037299 0 0.085187711869083332 -0.1013443502775911 0 0.082622034305104133 -0.094012905960798018 0 0.09242853857041726 -0.092419840193893751 0 0.087168253498346976 -0.11930395665730149 0 0.075967167464978461 -0.111054383463564 0 0.1003568131492918 -0.1089555342993266 0 0.075967167464978461 -0.111054383463564 0 0.1003568131492918 -0.1089555342993266 0 0.087168253498346976 -0.11930395665730149 0 0.075967167464978461 -0.111054383463564 0 0.07543673121532829 -0.12426649182123869 0 0.085188909666997381 -0.1285712659685313 0 0.087168253498346976 -0.11930395665730149 0 0.07543673121532829 -0.12426649182123869 0 0.051577521780665152 -0.1131532326278015 0 0.075967167464978461 -0.111054383463564 0 0.068749061142275386 -0.1043735209130801 0 0.051577521780665152 -0.1131532326278015 0 0.075967167464978461 -0.111054383463564 0 0.051577521780665152 -0.1131532326278015 0 0.075967167464978461 -0.111054383463564 0 0.064486337582434647 -0.1205566771600914 0 0.075967167464978461 -0.111054383463564 0 0.07543673121532829 -0.12426649182123869 0 0.064486337582434647 -0.1205566771600914 0 0.075967167464978461 -0.111054383463564 0 0.068749061142275386 -0.1043735209130801 0 0.074564005855624949 -0.10027908747037299 0 0.082622034305104133 -0.094012905960798018 0 0.074564005855624949 -0.10027908747037299 0 0.074051308695091966 -0.093721929851455624 0 0.060878946730787697 -0.092969335542022274 0 0.068749061142275386 -0.1043735209130801 0 0.074564005855624949 -0.10027908747037299 0 0.060878946730787697 -0.092969335542022274 0 0.074564005855624949 -0.10027908747037299 0 0.074051308695091966 -0.093721929851455624 0 0.060878946730787697 -0.092969335542022274 0 0.07778698858015802 -0.088047091972577776 0 0.074051308695091966 -0.093721929851455624 0 0.060878946730787697 -0.092969335542022274 0 0.079777181846764356 -0.081395907208629215 0 0.060878946730787697 -0.092969335542022274 0 0.07778698858015802 -0.088047091972577776 0 0.079777181846764356 -0.081395907208629215 0 0.060878946730787697 -0.092969335542022274 0 0.06648705474655911 -0.080925641469345971 0 0.079777181846764356 -0.081395907208629215 0 0.06648705474655911 -0.080925641469345971 0 0.072710170407157715 -0.074646286949823268 0 0.079777181846764356 -0.081395907208629215 0 0.063684879442813314 -0.061647909170853582 0 0.062708280616264087 -0.072332284016741855 0 0.075233107182694423 -0.065407941066685696 0 0.06648705474655911 -0.080925641469345971 0 0.062708280616264087 -0.072332284016741855 0 0.072710170407157715 -0.074646286949823268 0 0.062708280616264087 -0.072332284016741855 0 0.072710170407157715 -0.074646286949823268 0 0.075233107182694423 -0.065407941066685696 0 0.072710170407157715 -0.074646286949823268 0 0.079345227643506613 -0.073169660987713547 0 0.079777181846764356 -0.081395907208629215 0 0.072710170407157715 -0.074646286949823268 0 0.075233107182694423 -0.065407941066685696 0 0.079345227643506613 -0.073169660987713547 0 0.083481494104445303 -0.057661319770131253 0 0.075233107182694423 -0.065407941066685696 0 0.090794283327140207 -0.066193550584137603 0 0.075233107182694423 -0.065407941066685696 0 0.079345227643506613 -0.073169660987713547 0 0.090794283327140207 -0.066193550584137603 0 0.079345227643506613 -0.073169660987713547 0 0.079777181846764356 -0.081395907208629215 0 0.082363025405525411 -0.078173033709708559 0 0.079345227643506613 -0.073169660987713547 0 0.087524772668192641 -0.074943070884113616 0 0.082363025405525411 -0.078173033709708559 0 0.079345227643506613 -0.073169660987713547 0 0.087524772668192641 -0.074943070884113616 0 0.090794283327140207 -0.066193550584137603 0 0.087524772668192641 -0.074943070884113616 0 0.082804919463638049 -0.083183495758377884 0 0.10843426072964139 -0.076748954373903722 0 0.082622034305104133 -0.094012905960798018 0 0.07778698858015802 -0.088047091972577776 0 0.074051308695091966 -0.093721929851455624 0 0.082622034305104133 -0.094012905960798018 0 0.07778698858015802 -0.088047091972577776 0 0.083096980472203139 -0.08848133176136988 0 0.07778698858015802 -0.088047091972577776 0 0.083096980472203139 -0.08848133176136988 0 0.080866517590690884 -0.085276956675238685 0 0.07778698858015802 -0.088047091972577776 0 0.080866517590690884 -0.085276956675238685 0 0.079777181846764356 -0.081395907208629215 0 0.087524772668192641 -0.074943070884113616 0 0.082363025405525411 -0.078173033709708559 0 0.082804919463638049 -0.083183495758377884 0 0.080866517590690884 -0.085276956675238685 0 0.079777181846764356 -0.081395907208629215 0 0.082804919463638049 -0.083183495758377884 0 0.079777181846764356 -0.081395907208629215 0 0.082363025405525411 -0.078173033709708559 0 0.082804919463638049 -0.083183495758377884 0 0.083096980472203139 -0.08848133176136988 0 0.080866517590690884 -0.085276956675238685 0 0.082804919463638049 -0.083183495758377884 0 0.083096980472203139 -0.08848133176136988 0 0.082804919463638049 -0.083183495758377884 0 0.09242853857041726 -0.092419840193893751 0 0.082622034305104133 -0.094012905960798018 0 0.083096980472203139 -0.08848133176136988 0 0.09242853857041726 -0.092419840193893751 0 0.082804919463638049 -0.083183495758377884 0 0.10843426072964139 -0.076748954373903722 0 0.082804919463638049 -0.083183495758377884 0 0.09242853857041726 -0.092419840193893751 0 0.10843426072964139 -0.076748954373903722 0 0.09242853857041726 -0.092419840193893751 0 0.10843426072964139 -0.076748954373903722 0 0.1107012293778198 -0.094664054120096416 0 0.087524772668192641 -0.074943070884113616 0 0.090794283327140207 -0.066193550584137603 0 0.10843426072964139 -0.076748954373903722 0 0.0975337625409156 -0.055604051668087497 0 0.090794283327140207 -0.066193550584137603 0 0.10843426072964139 -0.076748954373903722 0 0.10843426072964139 -0.076748954373903722 0 0.13406360199564479 -0.070314412989429545 0 0.10843426072964139 -0.076748954373903722 0 0.13406360199564479 -0.070314412989429545 0 0.12686592154363949 -0.053396183868486248 0 0.10843426072964139 -0.076748954373903722 0 0.1107012293778198 -0.094664054120096416 0 0.12754007560614319 -0.088339256598268967 0 0.10843426072964139 -0.076748954373903722 0 0.12754007560614319 -0.088339256598268967 0 0.13406360199564479 -0.070314412989429545 0 0.1247464588336054 -0.1068566851350891 0 0.1003568131492918 -0.1089555342993266 0 0.1107012293778198 -0.094664054120096416 0 0.1247464588336054 -0.1068566851350891 0 0.1003568131492918 -0.1089555342993266 0 0.1107012293778198 -0.094664054120096416 0 0.1247464588336054 -0.1068566851350891 0 0.12754007560614319 -0.088339256598268967 0 0.09242853857041726 -0.092419840193893751 0 0.1107012293778198 -0.094664054120096416 0 0.1003568131492918 -0.1089555342993266 0 0.1013597258402647 -0.12789369715778459 0 0.1003568131492918 -0.1089555342993266 0 0.1146411448523986 -0.11949851538073041 0 0.1013597258402647 -0.12789369715778459 0 0.087168253498346976 -0.11930395665730149 0 0.1003568131492918 -0.1089555342993266 0 0.1247464588336054 -0.1068566851350891 0 0.1003568131492918 -0.1089555342993266 0 0.1146411448523986 -0.11949851538073041 0 0.1247464588336054 -0.1068566851350891 0 0.1146411448523986 -0.11949851538073041 0 0.12514826998312581 -0.1212353398206515 0 0.12065364634618821 -0.1315602422156881 0 0.1146411448523986 -0.11949851538073041 0 0.12514826998312581 -0.1212353398206515 0 0.1247464588336054 -0.1068566851350891 0 0.12514826998312581 -0.1212353398206515 0 0.13904653372508349 -0.1254401913109193 0 0.1247464588336054 -0.1068566851350891 0 0.14690169231524389 -0.1003081895566118 0 0.13904653372508349 -0.1254401913109193 0 0.14690169231524389 -0.1003081895566118 0 0.16097773107399729 -0.1169040034365532 0 0.13904653372508349 -0.1254401913109193 0 0.14690169231524389 -0.1003081895566118 0 0.13904653372508349 -0.1254401913109193 0 0.1247464588336054 -0.1068566851350891 0 0.14690169231524389 -0.1003081895566118 0 0.12754007560614319 -0.088339256598268967 0 0.14690169231524389 -0.1003081895566118 0 0.12754007560614319 -0.088339256598268967 0 0.1435549082717868 -0.083525325475855783 0 0.12754007560614319 -0.088339256598268967 0 0.13406360199564479 -0.070314412989429545 0 0.1435549082717868 -0.083525325475855783 0 0.13406360199564479 -0.070314412989429545 0 0.15969294326164821 -0.063879871604955368 0 0.14562813094379279 -0.056259170724650642 0 0.13406360199564479 -0.070314412989429545 0 0.1516541229055465 -0.074656251873742752 0 0.15969294326164821 -0.063879871604955368 0 0.13406360199564479 -0.070314412989429545 0 0.15969294326164821 -0.063879871604955368 0 0.13406360199564479 -0.070314412989429545 0 0.1516541229055465 -0.074656251873742752 0 0.1435549082717868 -0.083525325475855783 0 0.14690169231524389 -0.1003081895566118 0 0.1435549082717868 -0.083525325475855783 0 0.1576150485363558 -0.084008516361225805 0 0.1516541229055465 -0.074656251873742752 0 0.1435549082717868 -0.083525325475855783 0 0.1576150485363558 -0.084008516361225805 0 0.14690169231524389 -0.1003081895566118 0 0.1576150485363558 -0.084008516361225805 0 0.1703546195249602 -0.092427607132574946 0 0.1576150485363558 -0.084008516361225805 0 0.1668195717768611 -0.08167077806597528 0 0.1635345396109664 -0.072959682042918056 0 0.1668195717768611 -0.08167077806597528 0 0.1703546195249602 -0.092427607132574946 0 0.1757740794351621 -0.077287306727182328 0 0.1576150485363558 -0.084008516361225805 0 0.1668195717768611 -0.08167077806597528 0 0.1703546195249602 -0.092427607132574946 0 0.1757740794351621 -0.077287306727182328 0 0.16616632196324729 -0.056421451341316382 0 0.15969294326164821 -0.063879871604955368 0 0.1635345396109664 -0.072959682042918056 0 0.16616632196324729 -0.056421451341316382 0 0.1635345396109664 -0.072959682042918056 0 0.1757740794351621 -0.077287306727182328 0 0.16616632196324729 -0.056421451341316382 0 0.1516541229055465 -0.074656251873742752 0 0.1576150485363558 -0.084008516361225805 0 0.1635345396109664 -0.072959682042918056 0 0.1516541229055465 -0.074656251873742752 0 0.15969294326164821 -0.063879871604955368 0 0.1635345396109664 -0.072959682042918056 0 0.1668195717768611 -0.08167077806597528 0 0.1635345396109664 -0.072959682042918056 0 0.1757740794351621 -0.077287306727182328 0 0.17414399541562689 -0.069213867743302154 0 0.16616632196324729 -0.056421451341316382 0 0.17414399541562689 -0.069213867743302154 0 0.1757740794351621 -0.077287306727182328 0 0.16616632196324729 -0.056421451341316382 0 0.17414399541562689 -0.069213867743302154 0 0.18076975597408509 -0.06432808654244565 0 0.1750929811432631 -0.060344230275620359 0 0.17414399541562689 -0.069213867743302154 0 0.1827266766235979 -0.071390655266697856 0 0.18076975597408509 -0.06432808654244565 0 0.17414399541562689 -0.069213867743302154 0 0.1757740794351621 -0.077287306727182328 0 0.1827266766235979 -0.071390655266697856 0 0.1827266766235979 -0.071390655266697856 0 0.188959780628736 -0.082038376252564993 0 0.19064360961182719 -0.070083761979561315 0 0.1757740794351621 -0.077287306727182328 0 0.1827266766235979 -0.071390655266697856 0 0.188959780628736 -0.082038376252564993 0 0.1827266766235979 -0.071390655266697856 0 0.18076975597408509 -0.06432808654244565 0 0.18903632801269879 -0.062572401355274032 0 0.1827266766235979 -0.071390655266697856 0 0.18903632801269879 -0.062572401355274032 0 0.19064360961182719 -0.070083761979561315 0 0.1703546195249602 -0.092427607132574946 0 0.1757740794351621 -0.077287306727182328 0 0.18538183690707699 -0.098153162113048267 0 0.1757740794351621 -0.077287306727182328 0 0.18538183690707699 -0.098153162113048267 0 0.1757740794351621 -0.077287306727182328 0 0.18538183690707699 -0.098153162113048267 0 0.188959780628736 -0.082038376252564993 0 0.1703546195249602 -0.092427607132574946 0 0.18538183690707699 -0.098153162113048267 0 0.17816608051987051 -0.1128228862444153 0 0.17816608051987051 -0.1128228862444153 0 0.16097773107399729 -0.1169040034365532 0 0.17863980177531821 -0.13107823074583561 0 0.18538183690707699 -0.098153162113048267 0 0.17816608051987051 -0.1128228862444153 0 0.19498959437899191 -0.11901901749891421 0 0.17816608051987051 -0.1128228862444153 0 0.19498959437899191 -0.11901901749891421 0 0.17863980177531821 -0.13107823074583561 0 0.14690169231524389 -0.1003081895566118 0 0.1703546195249602 -0.092427607132574946 0 0.16097773107399729 -0.1169040034365532 0 0.1703546195249602 -0.092427607132574946 0 0.17816608051987051 -0.1128228862444153 0 0.16097773107399729 -0.1169040034365532 0 0.15092663000695719 0.003362070403861992 0 0.12979039504140011 0.0019083370324715679 0 0.14285165005785119 -0.0053648860101241664 0 0.15092663000695719 0.003362070403861992 0 0.1499332284813811 -0.0066305698636900893 0 0.15837002858371019 -0.0087475670828399792 0 0.1499332284813811 -0.0066305698636900893 0 0.15308251011453899 -0.012670766174966539 0 0.15837002858371019 -0.0087475670828399792 0 0.1499332284813811 -0.0066305698636900893 0 0.15308251011453899 -0.012670766174966539 0 0.146504194378902 -0.013719799894277801 0 0.1499332284813811 -0.0066305698636900893 0 0.146504194378902 -0.013719799894277801 0 0.14285165005785119 -0.0053648860101241664 0 0.146504194378902 -0.013719799894277801 0 0.14285165005785119 -0.0053648860101241664 0 0.1419157040153492 -0.017534925758791051 0 0.15092663000695719 0.003362070403861992 0 0.1499332284813811 -0.0066305698636900893 0 0.14285165005785119 -0.0053648860101241664 0 0.12979039504140011 0.0019083370324715679 0 0.1419157040153492 -0.017534925758791051 0 0.12979039504140011 0.0019083370324715679 0 0.1305210978098208 -0.011138433909733051 0 0.1419157040153492 -0.017534925758791051 0 0.12979039504140011 0.0019083370324715679 0 0.14285165005785119 -0.0053648860101241664 0 0.1419157040153492 -0.017534925758791051 0 0.12979039504140011 0.0019083370324715679 0 0.1211120162326277 -0.0058453094924676794 0 0.1305210978098208 -0.011138433909733051 0 0.1305210978098208 -0.011138433909733051 0 0.13457792200952329 -0.01881767869974009 0 0.1419157040153492 -0.017534925758791051 0 0.13457792200952329 -0.01881767869974009 0 0.13678640240865311 -0.024667600205000469 0 0.1419157040153492 -0.017534925758791051 0 0.13457792200952329 -0.01881767869974009 0 0.12924586723977999 -0.024143277067086591 0 0.13678640240865311 -0.024667600205000469 0 0.1305210978098208 -0.011138433909733051 0 0.13457792200952329 -0.01881767869974009 0 0.12924586723977999 -0.024143277067086591 0 0.12924586723977999 -0.024143277067086591 0 0.13678640240865311 -0.024667600205000469 0 0.1314582928152577 -0.036392595792246199 0 0.13678640240865311 -0.024667600205000469 0 0.14168064590528259 -0.03118396953824161 0 0.1419157040153492 -0.017534925758791051 0 0.13678640240865311 -0.024667600205000469 0 0.14168064590528259 -0.03118396953824161 0 0.1314582928152577 -0.036392595792246199 0 0.14168064590528259 -0.03118396953824161 0 0.1419157040153492 -0.017534925758791051 0 0.15404101298929829 -0.036978188550053651 0 0.1419157040153492 -0.017534925758791051 0 0.15404101298929829 -0.036978188550053651 0 0.1563352581710746 -0.035070625617797078 0 0.146504194378902 -0.013719799894277801 0 0.1419157040153492 -0.017534925758791051 0 0.1563352581710746 -0.035070625617797078 0 0.146504194378902 -0.013719799894277801 0 0.1563352581710746 -0.035070625617797078 0 0.15752258901416269 -0.02158512785905832 0 0.146504194378902 -0.013719799894277801 0 0.1563352581710746 -0.035070625617797078 0 0.1419157040153492 -0.017534925758791051 0 0.15404101298929829 -0.036978188550053651 0 0.15308251011453899 -0.012670766174966539 0 0.146504194378902 -0.013719799894277801 0 0.15752258901416269 -0.02158512785905832 0 0.15404101298929829 -0.036978188550053651 0 0.1490183110712596 -0.040464969190733183 0 0.14737716658812641 -0.037714494733850273 0 0.15108741618448709 -0.04392779783128313 0 0.14356764852312651 -0.043239395647745649 0 0.15248225101834961 -0.051321658875150097 0 0.15404101298929829 -0.036978188550053651 0 0.15108741618448709 -0.04392779783128313 0 0.1490183110712596 -0.040464969190733183 0 0.15108741618448709 -0.04392779783128313 0 0.1490183110712596 -0.040464969190733183 0 0.14356764852312651 -0.043239395647745649 0 0.1490183110712596 -0.040464969190733183 0 0.14356764852312651 -0.043239395647745649 0 0.14737716658812641 -0.037714494733850273 0 0.14168064590528259 -0.03118396953824161 0 0.14356764852312651 -0.043239395647745649 0 0.14737716658812641 -0.037714494733850273 0 0.14168064590528259 -0.03118396953824161 0 0.15404101298929829 -0.036978188550053651 0 0.14737716658812641 -0.037714494733850273 0 0.14168064590528259 -0.03118396953824161 0 0.14356764852312651 -0.043239395647745649 0 0.1314582928152577 -0.036392595792246199 0 0.1183205926690539 -0.038039055067747199 0 0.1314582928152577 -0.036392595792246199 0 0.12686592154363949 -0.053396183868486248 0 0.14356764852312651 -0.043239395647745649 0 0.1314582928152577 -0.036392595792246199 0 0.12686592154363949 -0.053396183868486248 0 0.1183205926690539 -0.038039055067747199 0 0.12924586723977999 -0.024143277067086591 0 0.1314582928152577 -0.036392595792246199 0 0.13406360199564479 -0.070314412989429545 0 0.12686592154363949 -0.053396183868486248 0 0.14562813094379279 -0.056259170724650642 0 0.14356764852312651 -0.043239395647745649 0 0.12686592154363949 -0.053396183868486248 0 0.14562813094379279 -0.056259170724650642 0 0.14356764852312651 -0.043239395647745649 0 0.14562813094379279 -0.056259170724650642 0 0.15248225101834961 -0.051321658875150097 0 0.14562813094379279 -0.056259170724650642 0 0.15248225101834961 -0.051321658875150097 0 0.15599241179675949 -0.056970538136518117 0 0.15969294326164821 -0.063879871604955368 0 0.14562813094379279 -0.056259170724650642 0 0.15599241179675949 -0.056970538136518117 0 0.15248225101834961 -0.051321658875150097 0 0.15599241179675949 -0.056970538136518117 0 0.16616632196324729 -0.056421451341316382 0 0.15969294326164821 -0.063879871604955368 0 0.15599241179675949 -0.056970538136518117 0 0.16616632196324729 -0.056421451341316382 0 0.15108741618448709 -0.04392779783128313 0 0.15248225101834961 -0.051321658875150097 0 0.16616632196324729 -0.056421451341316382 0 0.16616632196324729 -0.056421451341316382 0 0.1739667814748285 -0.052801979876461798 0 0.1685492088557429 -0.045878477531709351 0 0.16616632196324729 -0.056421451341316382 0 0.1685492088557429 -0.045878477531709351 0 0.16391501158023669 -0.041441106992994137 0 0.16616632196324729 -0.056421451341316382 0 0.1750929811432631 -0.060344230275620359 0 0.1739667814748285 -0.052801979876461798 0 0.17414399541562689 -0.069213867743302154 0 0.16616632196324729 -0.056421451341316382 0 0.1750929811432631 -0.060344230275620359 0 0.1750929811432631 -0.060344230275620359 0 0.18242845402720451 -0.058153987892537173 0 0.1739667814748285 -0.052801979876461798 0 0.18076975597408509 -0.06432808654244565 0 0.1750929811432631 -0.060344230275620359 0 0.18242845402720451 -0.058153987892537173 0 0.18076975597408509 -0.06432808654244565 0 0.18242845402720451 -0.058153987892537173 0 0.18903632801269879 -0.062572401355274032 0 0.18242845402720451 -0.058153987892537173 0 0.18852834358625639 -0.054435587336261297 0 0.18903632801269879 -0.062572401355274032 0 0.18244971813688141 -0.049841638575926057 0 0.19035426881593209 -0.046914643772645953 0 0.18852834358625639 -0.054435587336261297 0 0.18242845402720451 -0.058153987892537173 0 0.18244971813688141 -0.049841638575926057 0 0.18852834358625639 -0.054435587336261297 0 0.18244971813688141 -0.049841638575926057 0 0.1739667814748285 -0.052801979876461798 0 0.17538319479654241 -0.044872084671632402 0 0.1739667814748285 -0.052801979876461798 0 0.17538319479654241 -0.044872084671632402 0 0.1685492088557429 -0.045878477531709351 0 0.18242845402720451 -0.058153987892537173 0 0.18244971813688141 -0.049841638575926057 0 0.1739667814748285 -0.052801979876461798 0 0.17538319479654241 -0.044872084671632402 0 0.18320723238102191 -0.041891628271957117 0 0.17842048893522561 -0.03372255640990264 0 0.18244971813688141 -0.049841638575926057 0 0.17538319479654241 -0.044872084671632402 0 0.18320723238102191 -0.041891628271957117 0 0.18244971813688141 -0.049841638575926057 0 0.18320723238102191 -0.041891628271957117 0 0.19035426881593209 -0.046914643772645953 0 0.17842048893522561 -0.03372255640990264 0 0.1856124346976058 -0.02484326424449107 0 0.19036231850688759 -0.036292251294196318 0 0.18320723238102191 -0.041891628271957117 0 0.17842048893522561 -0.03372255640990264 0 0.19036231850688759 -0.036292251294196318 0 0.17538319479654241 -0.044872084671632402 0 0.17842048893522561 -0.03372255640990264 0 0.1668957075257507 -0.035288690385845881 0 0.15404101298929829 -0.036978188550053651 0 0.16616632196324729 -0.056421451341316382 0 0.16616632196324729 -0.056421451341316382 0 0.1563352581710746 -0.035070625617797078 0 0.15404101298929829 -0.036978188550053651 0 0.16616632196324729 -0.056421451341316382 0 0.1563352581710746 -0.035070625617797078 0 0.15404101298929829 -0.036978188550053651 0 0.15108741618448709 -0.04392779783128313 0 0.16616632196324729 -0.056421451341316382 0 0.16616632196324729 -0.056421451341316382 0 0.16391501158023669 -0.041441106992994137 0 0.1563352581710746 -0.035070625617797078 0 0.1668957075257507 -0.035288690385845881 0 0.16391501158023669 -0.041441106992994137 0 0.16222354553767579 -0.035138153356098961 0 0.17538319479654241 -0.044872084671632402 0 0.1668957075257507 -0.035288690385845881 0 0.1685492088557429 -0.045878477531709351 0 0.1668957075257507 -0.035288690385845881 0 0.1685492088557429 -0.045878477531709351 0 0.16391501158023669 -0.041441106992994137 0 0.1563352581710746 -0.035070625617797078 0 0.16222354553767579 -0.035138153356098961 0 0.16174820487364139 -0.02875219042775877 0 0.1668957075257507 -0.035288690385845881 0 0.16222354553767579 -0.035138153356098961 0 0.16174820487364139 -0.02875219042775877 0 0.16391501158023669 -0.041441106992994137 0 0.1563352581710746 -0.035070625617797078 0 0.16222354553767579 -0.035138153356098961 0 0.1668957075257507 -0.035288690385845881 0 0.16174820487364139 -0.02875219042775877 0 0.1694792862491328 -0.015236443305298169 0 0.17842048893522561 -0.03372255640990264 0 0.1668957075257507 -0.035288690385845881 0 0.1694792862491328 -0.015236443305298169 0 0.1668957075257507 -0.035288690385845881 0 0.1694792862491328 -0.015236443305298169 0 0.1563352581710746 -0.035070625617797078 0 0.16174820487364139 -0.02875219042775877 0 0.15752258901416269 -0.02158512785905832 0 0.16174820487364139 -0.02875219042775877 0 0.15752258901416269 -0.02158512785905832 0 0.1694792862491328 -0.015236443305298169 0 0.1856124346976058 -0.02484326424449107 0 0.18089076895374909 -0.0074794475965449508 0 0.19305716680983739 -0.015311751653695541 0 0.17842048893522561 -0.03372255640990264 0 0.1856124346976058 -0.02484326424449107 0 0.1694792862491328 -0.015236443305298169 0 0.1856124346976058 -0.02484326424449107 0 0.18089076895374909 -0.0074794475965449508 0 0.1694792862491328 -0.015236443305298169 0 0.17206286497251441 0.0048158037752495672 0 0.18089076895374909 -0.0074794475965449508 0 0.1694792862491328 -0.015236443305298169 0 0.1893930781060881 0.0033881031404621731 0 0.18037517114347609 0.0008153331900191184 0 0.18089076895374909 -0.0074794475965449508 0 0.17206286497251441 0.0048158037752495672 0 0.18037517114347609 0.0008153331900191184 0 0.18089076895374909 -0.0074794475965449508 0 0.17206286497251441 0.0048158037752495672 0 0.15092663000695719 0.003362070403861992 0 0.15837002858371019 -0.0087475670828399792 0 0.17206286497251441 0.0048158037752495672 0 0.1694792862491328 -0.015236443305298169 0 0.17206286497251441 0.0048158037752495672 0 0.1694792862491328 -0.015236443305298169 0 0.15837002858371019 -0.0087475670828399792 0 0.15308251011453899 -0.012670766174966539 0 0.15752258901416269 -0.02158512785905832 0 0.15837002858371019 -0.0087475670828399792 0 0.15752258901416269 -0.02158512785905832 0 0.1694792862491328 -0.015236443305298169 0 0.15837002858371019 -0.0087475670828399792 0 0.20923784945252041 0.0098223260899010824 0 0.20690236083747379 -0.011107369894935401 0 0.22643588993749281 -0.0029050851839538929 0 0.1893930781060881 0.0033881031404621731 0 0.18089076895374909 -0.0074794475965449508 0 0.19305716680983739 -0.015311751653695541 0 0.1893930781060881 0.0033881031404621731 0 0.20690236083747379 -0.011107369894935401 0 0.1893930781060881 0.0033881031404621731 0 0.20690236083747379 -0.011107369894935401 0 0.19305716680983739 -0.015311751653695541 0 0.20690236083747379 -0.011107369894935401 0 0.19305716680983739 -0.015311751653695541 0 0.20219882003045991 -0.027915469500810822 0 0.1856124346976058 -0.02484326424449107 0 0.20219882003045991 -0.027915469500810822 0 0.19036231850688759 -0.036292251294196318 0 0.1856124346976058 -0.02484326424449107 0 0.19305716680983739 -0.015311751653695541 0 0.20219882003045991 -0.027915469500810822 0 0.20690236083747379 -0.011107369894935401 0 0.22441164356885951 -0.025602842930333009 0 0.20690236083747379 -0.011107369894935401 0 0.20219882003045991 -0.027915469500810822 0 0.22441164356885951 -0.025602842930333009 0 0.20219882003045991 -0.027915469500810822 0 0.21396522115501909 -0.041817369785955419 0 0.22441164356885951 -0.025602842930333009 0 0.21396522115501909 -0.041817369785955419 0 0.1997257192745322 -0.042994965846646582 0 0.2056326971260039 -0.051056180566203868 0 0.20219882003045991 -0.027915469500810822 0 0.21396522115501909 -0.041817369785955419 0 0.1997257192745322 -0.042994965846646582 0 0.20219882003045991 -0.027915469500810822 0 0.19036231850688759 -0.036292251294196318 0 0.1997257192745322 -0.042994965846646582 0 0.19036231850688759 -0.036292251294196318 0 0.1997257192745322 -0.042994965846646582 0 0.19035426881593209 -0.046914643772645953 0 0.18320723238102191 -0.041891628271957117 0 0.19036231850688759 -0.036292251294196318 0 0.19035426881593209 -0.046914643772645953 0 0.1997257192745322 -0.042994965846646582 0 0.19035426881593209 -0.046914643772645953 0 0.1967128814595594 -0.054735425816801922 0 0.1997257192745322 -0.042994965846646582 0 0.1967128814595594 -0.054735425816801922 0 0.2056326971260039 -0.051056180566203868 0 0.19035426881593209 -0.046914643772645953 0 0.18852834358625639 -0.054435587336261297 0 0.1967128814595594 -0.054735425816801922 0 0.1967128814595594 -0.054735425816801922 0 0.18903632801269879 -0.062572401355274032 0 0.19778982503206821 -0.065132635017038851 0 0.18852834358625639 -0.054435587336261297 0 0.1967128814595594 -0.054735425816801922 0 0.18903632801269879 -0.062572401355274032 0 0.1967128814595594 -0.054735425816801922 0 0.2042690040174599 -0.058760565414879652 0 0.2056326971260039 -0.051056180566203868 0 0.1967128814595594 -0.054735425816801922 0 0.2042690040174599 -0.058760565414879652 0 0.19778982503206821 -0.065132635017038851 0 0.2042690040174599 -0.058760565414879652 0 0.2056326971260039 -0.051056180566203868 0 0.2141539232107241 -0.05567814667372268 0 0.2042690040174599 -0.058760565414879652 0 0.2141539232107241 -0.05567814667372268 0 0.20705569325894391 -0.067200439000630899 0 0.21396522115501909 -0.041817369785955419 0 0.2056326971260039 -0.051056180566203868 0 0.2141539232107241 -0.05567814667372268 0 0.21396522115501909 -0.041817369785955419 0 0.2141539232107241 -0.05567814667372268 0 0.22334324307800441 -0.050905759461247237 0 0.2141539232107241 -0.05567814667372268 0 0.20705569325894391 -0.067200439000630899 0 0.21952782625614631 -0.063559715761219882 0 0.22334324307800441 -0.050905759461247237 0 0.22907540406656199 -0.059900566787668363 0 0.21952782625614631 -0.063559715761219882 0 0.2141539232107241 -0.05567814667372268 0 0.22334324307800441 -0.050905759461247237 0 0.21952782625614631 -0.063559715761219882 0 0.22334324307800441 -0.050905759461247237 0 0.23238600464244771 -0.051293451019140068 0 0.2275460945939925 -0.041492589055611623 0 0.22334324307800441 -0.050905759461247237 0 0.23238600464244771 -0.051293451019140068 0 0.22907540406656199 -0.059900566787668363 0 0.23238600464244771 -0.051293451019140068 0 0.22907540406656199 -0.059900566787668363 0 0.23956790244474921 -0.064920518735926067 0 0.25011840933587692 -0.057229550981744648 0 0.24149469975731519 -0.04459460768411723 0 0.23956790244474921 -0.064920518735926067 0 0.24149469975731519 -0.04459460768411723 0 0.23956790244474921 -0.064920518735926067 0 0.25011840933587692 -0.057229550981744648 0 0.24192092630024439 -0.040098315965731553 0 0.24149469975731519 -0.04459460768411723 0 0.23238600464244771 -0.051293451019140068 0 0.24149469975731519 -0.04459460768411723 0 0.23956790244474921 -0.064920518735926067 0 0.25011840933587692 -0.057229550981744648 0 0.24149469975731519 -0.04459460768411723 0 0.23238600464244771 -0.051293451019140068 0 0.24192092630024439 -0.040098315965731553 0 0.24149469975731519 -0.04459460768411723 0 0.24192092630024439 -0.040098315965731553 0 0.24149469975731519 -0.04459460768411723 0 0.25375313424769591 -0.039650162925027828 0 0.25178175771781741 -0.028332578758821132 0 0.24192092630024439 -0.040098315965731553 0 0.24192092630024439 -0.040098315965731553 0 0.22441164356885951 -0.025602842930333009 0 0.21396522115501909 -0.041817369785955419 0 0.2275460945939925 -0.041492589055611623 0 0.22441164356885951 -0.025602842930333009 0 0.24192092630024439 -0.040098315965731553 0 0.2275460945939925 -0.041492589055611623 0 0.22441164356885951 -0.025602842930333009 0 0.23238600464244771 -0.051293451019140068 0 0.24192092630024439 -0.040098315965731553 0 0.2275460945939925 -0.041492589055611623 0 0.21396522115501909 -0.041817369785955419 0 0.22334324307800441 -0.050905759461247237 0 0.2275460945939925 -0.041492589055611623 0 0.25178175771781741 -0.028332578758821132 0 0.24192092630024439 -0.040098315965731553 0 0.24437885508449611 -0.014169464230963959 0 0.24192092630024439 -0.040098315965731553 0 0.22441164356885951 -0.025602842930333009 0 0.24437885508449611 -0.014169464230963959 0 0.24192092630024439 -0.040098315965731553 0 0.24437885508449611 -0.014169464230963959 0 0.24683678386874991 0.011759387503803471 0 0.24437885508449611 -0.014169464230963959 0 0.22643588993749281 -0.0029050851839538929 0 0.24683678386874991 0.011759387503803471 0 0.24437885508449611 -0.014169464230963959 0 0.20690236083747379 -0.011107369894935401 0 0.22441164356885951 -0.025602842930333009 0 0.22643588993749281 -0.0029050851839538929 0 0.22441164356885951 -0.025602842930333009 0 0.24437885508449611 -0.014169464230963959 0 0.22643588993749281 -0.0029050851839538929 0 0.2113217760841494 -0.093835340953229138 0 0.21626285921315569 -0.11470597678731891 0 0.20004835097258919 -0.104044804221088 0 0.21626285921315569 -0.11470597678731891 0 0.19498959437899191 -0.11901901749891421 0 0.20004835097258919 -0.104044804221088 0 0.21626285921315569 -0.11470597678731891 0 0.19498959437899191 -0.11901901749891421 0 0.21004340569002691 -0.13281922804294899 0 0.18538183690707699 -0.098153162113048267 0 0.19498959437899191 -0.11901901749891421 0 0.18538183690707699 -0.098153162113048267 0 0.19498959437899191 -0.11901901749891421 0 0.20004835097258919 -0.104044804221088 0 0.2113217760841494 -0.093835340953229138 0 0.20004835097258919 -0.104044804221088 0 0.1963628973803965 -0.092313690483160377 0 0.18538183690707699 -0.098153162113048267 0 0.20004835097258919 -0.104044804221088 0 0.1963628973803965 -0.092313690483160377 0 0.18538183690707699 -0.098153162113048267 0 0.188959780628736 -0.082038376252564993 0 0.1963628973803965 -0.092313690483160377 0 0.188959780628736 -0.082038376252564993 0 0.20203052140443381 -0.081350905222173628 0 0.1973038374762692 -0.073697445268425366 0 0.188959780628736 -0.082038376252564993 0 0.20203052140443381 -0.081350905222173628 0 0.1963628973803965 -0.092313690483160377 0 0.19064360961182719 -0.070083761979561315 0 0.1973038374762692 -0.073697445268425366 0 0.19778982503206821 -0.065132635017038851 0 0.18903632801269879 -0.062572401355274032 0 0.19064360961182719 -0.070083761979561315 0 0.19778982503206821 -0.065132635017038851 0 0.188959780628736 -0.082038376252564993 0 0.19064360961182719 -0.070083761979561315 0 0.1973038374762692 -0.073697445268425366 0 0.20203052140443381 -0.081350905222173628 0 0.1973038374762692 -0.073697445268425366 0 0.20705569325894391 -0.067200439000630899 0 0.1973038374762692 -0.073697445268425366 0 0.19778982503206821 -0.065132635017038851 0 0.20705569325894391 -0.067200439000630899 0 0.2042690040174599 -0.058760565414879652 0 0.19778982503206821 -0.065132635017038851 0 0.20705569325894391 -0.067200439000630899 0 0.20203052140443381 -0.081350905222173628 0 0.20705569325894391 -0.067200439000630899 0 0.21222271515887639 -0.077114589933653721 0 0.21222271515887639 -0.077114589933653721 0 0.21540652606523281 -0.07085039233430819 0 0.2228198695869649 -0.075526824641728246 0 0.20705569325894391 -0.067200439000630899 0 0.21222271515887639 -0.077114589933653721 0 0.21540652606523281 -0.07085039233430819 0 0.20705569325894391 -0.067200439000630899 0 0.21540652606523281 -0.07085039233430819 0 0.21952782625614631 -0.063559715761219882 0 0.2113217760841494 -0.093835340953229138 0 0.20203052140443381 -0.081350905222173628 0 0.21222271515887639 -0.077114589933653721 0 0.2113217760841494 -0.093835340953229138 0 0.21222271515887639 -0.077114589933653721 0 0.22400767215894621 -0.088020169472003862 0 0.2113217760841494 -0.093835340953229138 0 0.20203052140443381 -0.081350905222173628 0 0.1963628973803965 -0.092313690483160377 0 0.21222271515887639 -0.077114589933653721 0 0.22400767215894621 -0.088020169472003862 0 0.2228198695869649 -0.075526824641728246 0 0.22400767215894621 -0.088020169472003862 0 0.2228198695869649 -0.075526824641728246 0 0.23039508411571491 -0.077499157205791813 0 0.22400767215894621 -0.088020169472003862 0 0.23039508411571491 -0.077499157205791813 0 0.2372148785892563 -0.089742721506120754 0 0.22400767215894621 -0.088020169472003862 0 0.2372148785892563 -0.089742721506120754 0 0.23008751997619839 -0.1023432341620812 0 0.21952782625614631 -0.063559715761219882 0 0.2228198695869649 -0.075526824641728246 0 0.22836509779865771 -0.06928555167318011 0 0.21540652606523281 -0.07085039233430819 0 0.21952782625614631 -0.063559715761219882 0 0.2228198695869649 -0.075526824641728246 0 0.22907540406656199 -0.059900566787668363 0 0.21952782625614631 -0.063559715761219882 0 0.22836509779865771 -0.06928555167318011 0 0.2228198695869649 -0.075526824641728246 0 0.23039508411571491 -0.077499157205791813 0 0.22836509779865771 -0.06928555167318011 0 0.23039508411571491 -0.077499157205791813 0 0.22836509779865771 -0.06928555167318011 0 0.23956790244474921 -0.064920518735926067 0 0.22907540406656199 -0.059900566787668363 0 0.22836509779865771 -0.06928555167318011 0 0.23956790244474921 -0.064920518735926067 0 0.23039508411571491 -0.077499157205791813 0 0.23956790244474921 -0.064920518735926067 0 0.2372148785892563 -0.089742721506120754 0 0.23956790244474921 -0.064920518735926067 0 0.2372148785892563 -0.089742721506120754 0 0.23956790244474921 -0.064920518735926067 0 0.24865985591140999 -0.07605453343057085 0 0.2372148785892563 -0.089742721506120754 0 0.25097550182825579 -0.067858360500835699 0 0.25011840933587692 -0.057229550981744648 0 0.23956790244474921 -0.064920518735926067 0 0.25097550182825579 -0.067858360500835699 0 0.23956790244474921 -0.064920518735926067 0 0.24865985591140999 -0.07605453343057085 0 0.24865985591140999 -0.07605453343057085 0 0.24771348206734081 -0.093011461863686695 0 0.2372148785892563 -0.089742721506120754 0 0.24771348206734081 -0.093011461863686695 0 0.2374869532872117 -0.1147859246536112 0 0.24771348206734081 -0.093011461863686695 0 0.2372148785892563 -0.089742721506120754 0 0.23008751997619839 -0.1023432341620812 0 0.24771348206734081 -0.093011461863686695 0 0.23008751997619839 -0.1023432341620812 0 0.2374869532872117 -0.1147859246536112 0 0.25952857979713628 -0.1090390699561984 0 0.24771348206734081 -0.093011461863686695 0 0.2374869532872117 -0.1147859246536112 0 0.2113217760841494 -0.093835340953229138 0 0.22400767215894621 -0.088020169472003862 0 0.23008751997619839 -0.1023432341620812 0 0.2113217760841494 -0.093835340953229138 0 0.21626285921315569 -0.11470597678731891 0 0.23008751997619839 -0.1023432341620812 0 0.21626285921315569 -0.11470597678731891 0 0.23008751997619839 -0.1023432341620812 0 0.2374869532872117 -0.1147859246536112 0 0.21626285921315569 -0.11470597678731891 0 0.2374869532872117 -0.1147859246536112 0 0.22726042450708431 -0.13656038744353649 0 0.25952857979713628 -0.1090390699561984 0 0.2374869532872117 -0.1147859246536112 0 0.24339450215211089 -0.1227997286998682 0 0.2374869532872117 -0.1147859246536112 0 0.24339450215211089 -0.1227997286998682 0 0.22726042450708431 -0.13656038744353649 0 0.24339450215211089 -0.1227997286998682 0 0.22726042450708431 -0.13656038744353649 0 0.24339450215211089 -0.1227997286998682 0 0.24526979352709261 -0.13759286318909431 0 0.22726042450708431 -0.13656038744353649 0 0.25731749019477168 -0.12594871318621209 0 0.24339450215211089 -0.1227997286998682 0 0.24526979352709261 -0.13759286318909431 0 0.24526979352709261 -0.13759286318909431 0 0.2375528710967981 -0.1487287097685473 0 0.22726042450708431 -0.13656038744353649 0 0.2495687825012961 -0.14881593215434519 0 0.2375528710967981 -0.1487287097685473 0 0.2435079449430248 -0.15712331229295401 0 0.25185696020268089 -0.1592535805797782 0 0.2495687825012961 -0.14881593215434519 0 0.2435079449430248 -0.15712331229295401 0 0.24526979352709261 -0.13759286318909431 0 0.2495687825012961 -0.14881593215434519 0 0.2375528710967981 -0.1487287097685473 0 0.2375528710967981 -0.1487287097685473 0 0.2341568772652883 -0.1617992553673108 0 0.2435079449430248 -0.15712331229295401 0 0.2375528710967981 -0.1487287097685473 0 0.22812005701845581 -0.1539849682108887 0 0.22726042450708431 -0.13656038744353649 0 0.22812005701845581 -0.1539849682108887 0 0.22726042450708431 -0.13656038744353649 0 0.21676247772707119 -0.15891275709374661 0 0.22726042450708431 -0.13656038744353649 0 0.21449383558717741 -0.14744893510723039 0 0.21676247772707119 -0.15891275709374661 0 0.22726042450708431 -0.13656038744353649 0 0.21676247772707119 -0.15891275709374661 0 0.2375528710967981 -0.1487287097685473 0 0.22812005701845581 -0.1539849682108887 0 0.2341568772652883 -0.1617992553673108 0 0.22726042450708431 -0.13656038744353649 0 0.21449383558717741 -0.14744893510723039 0 0.2374869532872117 -0.1147859246536112 0 0.22726042450708431 -0.13656038744353649 0 0.22726042450708431 -0.13656038744353649 0 0.21004340569002691 -0.13281922804294899 0 0.21449383558717741 -0.14744893510723039 0 0.21626285921315569 -0.11470597678731891 0 0.22726042450708431 -0.13656038744353649 0 0.21004340569002691 -0.13281922804294899 0 0.21449383558717741 -0.14744893510723039 0 0.20826130614591251 -0.15463871482242861 0 0.21676247772707119 -0.15891275709374661 0 0.20826130614591251 -0.15463871482242861 0 0.2029741199355431 -0.14562512477739381 0 0.19892721325537549 -0.1564858925345444 0 0.21449383558717741 -0.14744893510723039 0 0.20826130614591251 -0.15463871482242861 0 0.2029741199355431 -0.14562512477739381 0 0.21004340569002691 -0.13281922804294899 0 0.21449383558717741 -0.14744893510723039 0 0.2029741199355431 -0.14562512477739381 0 0.2029741199355431 -0.14562512477739381 0 0.1898534820430145 -0.14735127780817389 0 0.19626547689175189 -0.13500670034903631 0 0.1898534820430145 -0.14735127780817389 0 0.1884664881431071 -0.16334013461446689 0 0.19892721325537549 -0.1564858925345444 0 0.2029741199355431 -0.14562512477739381 0 0.1898534820430145 -0.14735127780817389 0 0.19892721325537549 -0.1564858925345444 0 0.19498959437899191 -0.11901901749891421 0 0.21004340569002691 -0.13281922804294899 0 0.19626547689175189 -0.13500670034903631 0 0.19498959437899191 -0.11901901749891421 0 0.19626547689175189 -0.13500670034903631 0 0.17863980177531821 -0.13107823074583561 0 0.1898534820430145 -0.14735127780817389 0 0.19626547689175189 -0.13500670034903631 0 0.17863980177531821 -0.13107823074583561 0 0.21004340569002691 -0.13281922804294899 0 0.2029741199355431 -0.14562512477739381 0 0.19626547689175189 -0.13500670034903631 0 0.1884664881431071 -0.16334013461446689 0 0.2062645309470599 -0.18126512674395739 0 0.18528014439631041 -0.1774817553044829 0 0.2062645309470599 -0.18126512674395739 0 0.19576658416704859 -0.20361749639416821 0 0.18528014439631041 -0.1774817553044829 0 0.1884664881431071 -0.16334013461446689 0 0.19892721325537549 -0.1564858925345444 0 0.2062645309470599 -0.18126512674395739 0 0.21676247772707119 -0.15891275709374661 0 0.2062645309470599 -0.18126512674395739 0 0.21676247772707119 -0.15891275709374661 0 0.2062645309470599 -0.18126512674395739 0 0.22330767200134899 -0.173324260439566 0 0.20826130614591251 -0.15463871482242861 0 0.21676247772707119 -0.15891275709374661 0 0.2062645309470599 -0.18126512674395739 0 0.20826130614591251 -0.15463871482242861 0 0.19892721325537549 -0.1564858925345444 0 0.2062645309470599 -0.18126512674395739 0 0.22330767200134899 -0.173324260439566 0 0.2356959263911631 -0.18026218851282319 0 0.22715682575706439 -0.19094048359261781 0 0.2062645309470599 -0.18126512674395739 0 0.22330767200134899 -0.173324260439566 0 0.22715682575706439 -0.19094048359261781 0 0.22330767200134899 -0.173324260439566 0 0.23505129554576701 -0.17031839747907301 0 0.2356959263911631 -0.18026218851282319 0 0.2356959263911631 -0.18026218851282319 0 0.2369564364506849 -0.18892772003742031 0 0.22715682575706439 -0.19094048359261781 0 0.22812005701845581 -0.1539849682108887 0 0.21676247772707119 -0.15891275709374661 0 0.2274796759115863 -0.163667927718117 0 0.21676247772707119 -0.15891275709374661 0 0.22330767200134899 -0.173324260439566 0 0.2274796759115863 -0.163667927718117 0 0.22330767200134899 -0.173324260439566 0 0.2274796759115863 -0.163667927718117 0 0.23505129554576701 -0.17031839747907301 0 0.2341568772652883 -0.1617992553673108 0 0.2274796759115863 -0.163667927718117 0 0.23505129554576701 -0.17031839747907301 0 0.22812005701845581 -0.1539849682108887 0 0.2341568772652883 -0.1617992553673108 0 0.2274796759115863 -0.163667927718117 0 0.2341568772652883 -0.1617992553673108 0 0.2444564780514048 -0.167140705308327 0 0.2435079449430248 -0.15712331229295401 0 0.23505129554576701 -0.17031839747907301 0 0.2444564780514048 -0.167140705308327 0 0.24506882269397101 -0.17532202276439099 0 0.2341568772652883 -0.1617992553673108 0 0.23505129554576701 -0.17031839747907301 0 0.2444564780514048 -0.167140705308327 0 0.25449806329141439 -0.1681487817390932 0 0.2444564780514048 -0.167140705308327 0 0.24506882269397101 -0.17532202276439099 0 0.25185696020268089 -0.1592535805797782 0 0.2444564780514048 -0.167140705308327 0 0.2435079449430248 -0.15712331229295401 0 0.2356959263911631 -0.18026218851282319 0 0.2449674821271535 -0.18293464922919139 0 0.2369564364506849 -0.18892772003742031 0 0.23505129554576701 -0.17031839747907301 0 0.2356959263911631 -0.18026218851282319 0 0.24506882269397101 -0.17532202276439099 0 0.2356959263911631 -0.18026218851282319 0 0.24506882269397101 -0.17532202276439099 0 0.2449674821271535 -0.18293464922919139 0 0.25262994893466689 -0.17791068797942161 0 0.24506882269397101 -0.17532202276439099 0 0.2449674821271535 -0.18293464922919139 0 0.2449674821271535 -0.18293464922919139 0 0.24663725417394089 -0.1905812705241178 0 0.2369564364506849 -0.18892772003742031 0 0.25281650411849421 -0.1846040055569744 0 0.2449674821271535 -0.18293464922919139 0 0.24663725417394089 -0.1905812705241178 0 0.26138513676447039 -0.18815136968462029 0 0.23675620859229421 -0.20398690512122819 0 0.26138513676447039 -0.18815136968462029 0 0.24663725417394089 -0.1905812705241178 0 0.23675620859229421 -0.20398690512122819 0 0.24663725417394089 -0.1905812705241178 0 0.2369564364506849 -0.18892772003742031 0 0.23675620859229421 -0.20398690512122819 0 0.25377173369077372 -0.2124540150332884 0 0.24057393574502919 -0.2142277276238192 0 0.23675620859229421 -0.20398690512122819 0 0.25377173369077372 -0.2124540150332884 0 0.24057393574502919 -0.2142277276238192 0 0.246779265349475 -0.2239407451329273 0 0.24057393574502919 -0.2142277276238192 0 0.2295010773713608 -0.21140629898387139 0 0.2360613937212423 -0.21935067384778081 0 0.24057393574502919 -0.2142277276238192 0 0.23675620859229421 -0.20398690512122819 0 0.2295010773713608 -0.21140629898387139 0 0.23675620859229421 -0.20398690512122819 0 0.2295010773713608 -0.21140629898387139 0 0.2193943116050408 -0.21514999484508349 0 0.23675620859229421 -0.20398690512122819 0 0.22954406219513851 -0.20696104437269741 0 0.2193943116050408 -0.21514999484508349 0 0.23675620859229421 -0.20398690512122819 0 0.2193943116050408 -0.21514999484508349 0 0.23675620859229421 -0.20398690512122819 0 0.22954406219513851 -0.20696104437269741 0 0.22954406219513851 -0.20696104437269741 0 0.2193943116050408 -0.21514999484508349 0 0.21565687884961571 -0.20092621836872229 0 0.23675620859229421 -0.20398690512122819 0 0.22954406219513851 -0.20696104437269741 0 0.22715682575706439 -0.19094048359261781 0 0.22954406219513851 -0.20696104437269741 0 0.22715682575706439 -0.19094048359261781 0 0.21565687884961571 -0.20092621836872229 0 0.2369564364506849 -0.18892772003742031 0 0.23675620859229421 -0.20398690512122819 0 0.22715682575706439 -0.19094048359261781 0 0.25905903685994958 -0.2348590572369828 0 0.24535488951562551 -0.25800224037111918 0 0.23787219487653199 -0.23795868473077231 0 0.23968299603182361 -0.25656669561376361 0 0.23787219487653199 -0.23795868473077231 0 0.23787219487653199 -0.23795868473077231 0 0.2360613937212423 -0.21935067384778081 0 0.25905903685994958 -0.2348590572369828 0 0.23787219487653199 -0.23795868473077231 0 0.246779265349475 -0.2239407451329273 0 0.23787219487653199 -0.23795868473077231 0 0.246779265349475 -0.2239407451329273 0 0.2360613937212423 -0.21935067384778081 0 0.24057393574502919 -0.2142277276238192 0 0.246779265349475 -0.2239407451329273 0 0.2360613937212423 -0.21935067384778081 0 0.2295010773713608 -0.21140629898387139 0 0.21968034452729671 -0.23021237819992291 0 0.23787219487653199 -0.23795868473077231 0 0.2360613937212423 -0.21935067384778081 0 0.21968034452729671 -0.23021237819992291 0 0.2295010773713608 -0.21140629898387139 0 0.2193943116050408 -0.21514999484508349 0 0.21968034452729671 -0.23021237819992291 0 0.2295010773713608 -0.21140629898387139 0 0.2360613937212423 -0.21935067384778081 0 0.21968034452729671 -0.23021237819992291 0 0.22477130385752811 -0.25279257651487019 0 0.22597829866073599 -0.24065643984082979 0 0.20985961168323311 -0.2490184574159747 0 0.23968299603182361 -0.25656669561376361 0 0.22477130385752811 -0.25279257651487019 0 0.23787219487653199 -0.23795868473077231 0 0.23787219487653199 -0.23795868473077231 0 0.21968034452729671 -0.23021237819992291 0 0.22597829866073599 -0.24065643984082979 0 0.22477130385752811 -0.25279257651487019 0 0.23787219487653199 -0.23795868473077231 0 0.22597829866073599 -0.24065643984082979 0 0.21968034452729671 -0.23021237819992291 0 0.20985961168323311 -0.2490184574159747 0 0.21968034452729671 -0.23021237819992291 0 0.20985961168323311 -0.2490184574159747 0 0.2014118104030489 -0.2374437387456671 0 0.21968034452729671 -0.23021237819992291 0 0.22597829866073599 -0.24065643984082979 0 0.20985961168323311 -0.2490184574159747 0 0.2193943116050408 -0.21514999484508349 0 0.2020324146177874 -0.2263130845689387 0 0.21968034452729671 -0.23021237819992291 0 0.2020324146177874 -0.2263130845689387 0 0.2014118104030489 -0.2374437387456671 0 0.2193943116050408 -0.21514999484508349 0 0.21968034452729671 -0.23021237819992291 0 0.2020324146177874 -0.2263130845689387 0 0.2020324146177874 -0.2263130845689387 0 0.2014118104030489 -0.2374437387456671 0 0.18467051763053249 -0.2374761742927915 0 0.2020324146177874 -0.2263130845689387 0 0.18811592129770729 -0.21586215725644309 0 0.18621006613144411 -0.22581003085224871 0 0.2020324146177874 -0.2263130845689387 0 0.18467051763053249 -0.2374761742927915 0 0.18621006613144411 -0.22581003085224871 0 0.2020324146177874 -0.2263130845689387 0 0.18467051763053249 -0.2374761742927915 0 0.2014118104030489 -0.2374437387456671 0 0.19081616355639519 -0.24419859925070769 0 0.18467051763053249 -0.2374761742927915 0 0.20985961168323311 -0.2490184574159747 0 0.19081616355639519 -0.24419859925070769 0 0.20985961168323311 -0.2490184574159747 0 0.2014118104030489 -0.2374437387456671 0 0.19081616355639519 -0.24419859925070769 0 0.19297233921846449 -0.25146761223444442 0 0.20985961168323311 -0.2490184574159747 0 0.19081616355639519 -0.24419859925070769 0 0.19297233921846449 -0.25146761223444442 0 0.18467051763053249 -0.2374761742927915 0 0.19297233921846449 -0.25146761223444442 0 0.19081616355639519 -0.24419859925070769 0 0.18467051763053249 -0.2374761742927915 0 0.2062645309470599 -0.18126512674395739 0 0.21565687884961571 -0.20092621836872229 0 0.19576658416704859 -0.20361749639416821 0 0.2062645309470599 -0.18126512674395739 0 0.22715682575706439 -0.19094048359261781 0 0.21565687884961571 -0.20092621836872229 0 0.21565687884961571 -0.20092621836872229 0 0.2063490019897162 -0.2108785900622199 0 0.19576658416704859 -0.20361749639416821 0 0.2193943116050408 -0.21514999484508349 0 0.21565687884961571 -0.20092621836872229 0 0.2063490019897162 -0.2108785900622199 0 0.2193943116050408 -0.21514999484508349 0 0.2020324146177874 -0.2263130845689387 0 0.2063490019897162 -0.2108785900622199 0 0.2063490019897162 -0.2108785900622199 0 0.19576658416704859 -0.20361749639416821 0 0.18811592129770729 -0.21586215725644309 0 0.2020324146177874 -0.2263130845689387 0 0.2063490019897162 -0.2108785900622199 0 0.18811592129770729 -0.21586215725644309 0 0.2062645309470599 -0.18126512674395739 0 0.19576658416704859 -0.20361749639416821 0 0.19576658416704859 -0.20361749639416821 0 0.175148622520511 -0.19022767668913099 0 0.18528014439631041 -0.1774817553044829 0 0.19576658416704859 -0.20361749639416821 0 0.175148622520511 -0.19022767668913099 0 0.17853943252823429 -0.2065286040013978 0 0.175148622520511 -0.19022767668913099 0 0.17853943252823429 -0.2065286040013978 0 0.16406522818653169 -0.20471854366034981 0 0.19576658416704859 -0.20361749639416821 0 0.18811592129770729 -0.21586215725644309 0 0.17853943252823429 -0.2065286040013978 0 0.18811592129770729 -0.21586215725644309 0 0.17853943252823429 -0.2065286040013978 0 0.16960080646937309 -0.21821714600689679 0 0.16406522818653169 -0.20471854366034981 0 0.16960080646937309 -0.21821714600689679 0 0.15229928748587351 -0.2177902590330329 0 0.17853943252823429 -0.2065286040013978 0 0.16406522818653169 -0.20471854366034981 0 0.16960080646937309 -0.21821714600689679 0 0.16406522818653169 -0.20471854366034981 0 0.15799628471765989 -0.18822004437229181 0 0.14934663811489871 -0.20383607615857169 0 0.175148622520511 -0.19022767668913099 0 0.16406522818653169 -0.20471854366034981 0 0.15799628471765989 -0.18822004437229181 0 0.159817065212118 -0.25345607093070283 0 0.18467051763053249 -0.2374761742927915 0 0.17149047278568741 -0.23263463898222711 0 0.159817065212118 -0.25345607093070283 0 0.18467051763053249 -0.2374761742927915 0 0.18467051763053249 -0.2374761742927915 0 0.18100970695791729 -0.23130644337295461 0 0.18811592129770729 -0.21586215725644309 0 0.16960080646937309 -0.21821714600689679 0 0.1782949400100273 -0.2243200502477363 0 0.18100970695791729 -0.23130644337295461 0 0.1782949400100273 -0.2243200502477363 0 0.17149047278568741 -0.23263463898222711 0 0.18467051763053249 -0.2374761742927915 0 0.18100970695791729 -0.23130644337295461 0 0.17149047278568741 -0.23263463898222711 0 0.18467051763053249 -0.2374761742927915 0 0.18100970695791729 -0.23130644337295461 0 0.18621006613144411 -0.22581003085224871 0 0.18100970695791729 -0.23130644337295461 0 0.18621006613144411 -0.22581003085224871 0 0.1782949400100273 -0.2243200502477363 0 0.18811592129770729 -0.21586215725644309 0 0.18621006613144411 -0.22581003085224871 0 0.1782949400100273 -0.2243200502477363 0 0.16960080646937309 -0.21821714600689679 0 0.1782949400100273 -0.2243200502477363 0 0.17149047278568741 -0.23263463898222711 0 0.16960080646937309 -0.21821714600689679 0 0.1564481399907868 -0.23122626491191309 0 0.15229928748587351 -0.2177902590330329 0 0.16960080646937309 -0.21821714600689679 0 0.1564481399907868 -0.23122626491191309 0 0.17149047278568741 -0.23263463898222711 0 0.159817065212118 -0.25345607093070283 0 0.1564481399907868 -0.23122626491191309 0 0.17149047278568741 -0.23263463898222711 0 0.159817065212118 -0.25345607093070283 0 0.14411865207274691 -0.2393718703044817 0 0.13731392064016351 -0.25181983948864062 0 0.159817065212118 -0.25345607093070283 0 0.14411865207274691 -0.2393718703044817 0 0.159817065212118 -0.25345607093070283 0 0.1564481399907868 -0.23122626491191309 0 0.14411865207274691 -0.2393718703044817 0 0.1564481399907868 -0.23122626491191309 0 0.14411865207274691 -0.2393718703044817 0 0.14356767552719141 -0.22598087561339611 0 0.1564481399907868 -0.23122626491191309 0 0.14356767552719141 -0.22598087561339611 0 0.15229928748587351 -0.2177902590330329 0 0.14356767552719141 -0.22598087561339611 0 0.15229928748587351 -0.2177902590330329 0 0.14161551630797459 -0.2151761620724606 0 0.14411865207274691 -0.2393718703044817 0 0.1284202389333762 -0.22528766967826011 0 0.1240225730844019 -0.24156982424738241 0 0.1284202389333762 -0.22528766967826011 0 0.14411865207274691 -0.2393718703044817 0 0.14356767552719141 -0.22598087561339611 0 0.1284202389333762 -0.22528766967826011 0 0.14356767552719141 -0.22598087561339611 0 0.1284202389333762 -0.22528766967826011 0 0.14161551630797459 -0.2151761620724606 0 0.1256140553719472 -0.22277003608547161 0 0.1284202389333762 -0.22528766967826011 0 0.12651812071581231 -0.2113111158799072 0 0.1256140553719472 -0.22277003608547161 0 0.1284202389333762 -0.22528766967826011 0 0.1240225730844019 -0.24156982424738241 0 0.14411865207274691 -0.2393718703044817 0 0.1284202389333762 -0.22528766967826011 0 0.13731392064016351 -0.25181983948864062 0 0.1240225730844019 -0.24156982424738241 0 0.14411865207274691 -0.2393718703044817 0 0.14934663811489871 -0.20383607615857169 0 0.13444374147853319 -0.2029859298790419 0 0.14046724402368979 -0.18068419007982359 0 0.15799628471765989 -0.18822004437229181 0 0.14934663811489871 -0.20383607615857169 0 0.14046724402368979 -0.18068419007982359 0 0.16406522818653169 -0.20471854366034981 0 0.14934663811489871 -0.20383607615857169 0 0.15229928748587351 -0.2177902590330329 0 0.14934663811489871 -0.20383607615857169 0 0.15229928748587351 -0.2177902590330329 0 0.14161551630797459 -0.2151761620724606 0 0.14934663811489871 -0.20383607615857169 0 0.14161551630797459 -0.2151761620724606 0 0.13444374147853319 -0.2029859298790419 0 0.1284202389333762 -0.22528766967826011 0 0.14161551630797459 -0.2151761620724606 0 0.13444374147853319 -0.2029859298790419 0 0.1154810579546022 -0.20083619657384161 0 0.12651812071581231 -0.2113111158799072 0 0.13444374147853319 -0.2029859298790419 0 0.1284202389333762 -0.22528766967826011 0 0.12651812071581231 -0.2113111158799072 0 0.13444374147853319 -0.2029859298790419 0 0.1284202389333762 -0.22528766967826011 0 0.13444374147853319 -0.2029859298790419 0 0.13444374147853319 -0.2029859298790419 0 0.14046724402368979 -0.18068419007982359 0 0.128432065000397 -0.19005262783806029 0 0.13444374147853319 -0.2029859298790419 0 0.14046724402368979 -0.18068419007982359 0 0.1154810579546022 -0.20083619657384161 0 0.128432065000397 -0.19005262783806029 0 0.13444374147853319 -0.2029859298790419 0 0.12333621654476271 -0.17570419481953409 0 0.128432065000397 -0.19005262783806029 0 0.14046724402368979 -0.18068419007982359 0 0.12333621654476271 -0.17570419481953409 0 0.14046724402368979 -0.18068419007982359 0 0.1353713955680555 -0.16633575706129741 0 0.15799628471765989 -0.18822004437229181 0 0.14046724402368979 -0.18068419007982359 0 0.15498178854089281 -0.17305758192984569 0 0.14046724402368979 -0.18068419007982359 0 0.1464907465688465 -0.1583824502806053 0 0.14046724402368979 -0.18068419007982359 0 0.1464907465688465 -0.1583824502806053 0 0.1353713955680555 -0.16633575706129741 0 0.14046724402368979 -0.18068419007982359 0 0.15498178854089281 -0.17305758192984569 0 0.1464907465688465 -0.1583824502806053 0 0.12333621654476271 -0.17570419481953409 0 0.1311913751349231 -0.15057219306522671 0 0.1464907465688465 -0.1583824502806053 0 0.1353713955680555 -0.16633575706129741 0 0.1311913751349231 -0.15057219306522671 0 0.12333621654476271 -0.17570419481953409 0 0.1353713955680555 -0.16633575706129741 0 0.1311913751349231 -0.15057219306522671 0 0.12065364634618821 -0.1315602422156881 0 0.1311913751349231 -0.15057219306522671 0 0.13904653372508349 -0.1254401913109193 0 0.1311913751349231 -0.15057219306522671 0 0.13904653372508349 -0.1254401913109193 0 0.12065364634618821 -0.1315602422156881 0 0.12514826998312581 -0.1212353398206515 0 0.13904653372508349 -0.1254401913109193 0 0.1311913751349231 -0.15057219306522671 0 0.13904653372508349 -0.1254401913109193 0 0.15251424911400319 -0.1360807104813869 0 0.16097773107399729 -0.1169040034365532 0 0.13904653372508349 -0.1254401913109193 0 0.15251424911400319 -0.1360807104813869 0 0.1464907465688465 -0.1583824502806053 0 0.1311913751349231 -0.15057219306522671 0 0.15251424911400319 -0.1360807104813869 0 0.1464907465688465 -0.1583824502806053 0 0.15251424911400319 -0.1360807104813869 0 0.1464907465688465 -0.1583824502806053 0 0.15251424911400319 -0.1360807104813869 0 0.16071667477244761 -0.1505859707774341 0 0.16071667477244761 -0.1505859707774341 0 0.17348010395242161 -0.14584640039004601 0 0.16953418401167 -0.16258068962408459 0 0.15251424911400319 -0.1360807104813869 0 0.16071667477244761 -0.1505859707774341 0 0.17348010395242161 -0.14584640039004601 0 0.16097773107399729 -0.1169040034365532 0 0.15251424911400319 -0.1360807104813869 0 0.17863980177531821 -0.13107823074583561 0 0.15251424911400319 -0.1360807104813869 0 0.17863980177531821 -0.13107823074583561 0 0.17348010395242161 -0.14584640039004601 0 0.18093937420521239 -0.15487606567155851 0 0.17348010395242161 -0.14584640039004601 0 0.16953418401167 -0.16258068962408459 0 0.1898534820430145 -0.14735127780817389 0 0.17863980177531821 -0.13107823074583561 0 0.17348010395242161 -0.14584640039004601 0 0.1898534820430145 -0.14735127780817389 0 0.18093937420521239 -0.15487606567155851 0 0.17348010395242161 -0.14584640039004601 0 0.1898534820430145 -0.14735127780817389 0 0.1884664881431071 -0.16334013461446689 0 0.18093937420521239 -0.15487606567155851 0 0.1884664881431071 -0.16334013461446689 0 0.18093937420521239 -0.15487606567155851 0 0.16953418401167 -0.16258068962408459 0 0.1884664881431071 -0.16334013461446689 0 0.18528014439631041 -0.1774817553044829 0 0.16953418401167 -0.16258068962408459 0 0.18528014439631041 -0.1774817553044829 0 0.16751589045627319 -0.17817186013963429 0 0.16953418401167 -0.16258068962408459 0 0.175148622520511 -0.19022767668913099 0 0.18528014439631041 -0.1774817553044829 0 0.16751589045627319 -0.17817186013963429 0 0.175148622520511 -0.19022767668913099 0 0.15799628471765989 -0.18822004437229181 0 0.16751589045627319 -0.17817186013963429 0 0.15799628471765989 -0.18822004437229181 0 0.15498178854089281 -0.17305758192984569 0 0.16751589045627319 -0.17817186013963429 0 0.15498178854089281 -0.17305758192984569 0 0.1464907465688465 -0.1583824502806053 0 0.16953418401167 -0.16258068962408459 0 0.15498178854089281 -0.17305758192984569 0 0.16751589045627319 -0.17817186013963429 0 0.16953418401167 -0.16258068962408459 0 0.1464907465688465 -0.1583824502806053 0 0.16071667477244761 -0.1505859707774341 0 0.16953418401167 -0.16258068962408459 0 
</DataArray>
</Points>
<Cells>
<DataArray type="UInt32" Name="connectivity" format="ascii">
0 1 2 3 4 5 6 7 8 9 10 11 12 13 14 15 16 17 18 19 20 21 22 23 24 25 26 27 28 29 30 31 32 33 34 35 36 37 38 39 40 41 42 43 44 45 46 47 48 49 50 51 52 53 54 55 56 57 58 59 60 61 62 63 64 65 66 67 68 69 70 71 72 73 74 75 76 77 78 79 80 81 82 83 84 85 86 87 88 89 90 91 92 93 94 95 96 97 98 99 100 101 102 103 104 105 106 107 108 109 110 111 112 113 114 115 116 117 118 119 120 121 122 123 124 125 126 127 128 129 130 131 132 133 134 135 136 137 138 139 140 141 142 143 144 145 146 147 148 149 150 151 152 153 154 155 156 157 158 159 160 161 162 163 164 165 166 167 168 169 170 171 172 173 174 175 176 177 178 179 180 181 182 183 184 185 186 187 188 189 190 191 192 193 194 195 196 197 198 199 200 201 202 203 204 205 206 207 208 209 210 211 212 213 214 215 216 217 218 219 220 221 222 223 224 225 226 227 228 229 230 231 232 233 234 235 236 237 238 239 240 241 242 243 244 245 246 247 248 249 250 251 252 253 254 255 256 257 258 259 260 261 262 263 264 265 266 267 268 269 270 271 272 273 274 275 276 277 278 279 280 281 282 283 284 285 286 287 288 289 290 291 292 293 294 295 296 297 298 299 300 301 302 303 304 305 306 307 308 309 310 311 312 313 314 315 316 317 318 319 320 321 322 323 324 325 326 327 328 329 330 331 332 333 334 335 336 337 338 339 340 341 342 343 344 345 346 347 348 349 350 351 352 353 354 355 356 357 358 359 360 361 362 363 364 365 366 367 368 369 370 371 372 373 374 375 376 377 378 379 380 381 382 383 384 385 386 387 388 389 390 391 392 393 394 395 396 397 398 399 400 401 402 403 404 405 406 407 408 409 410 411 412 413 414 415 416 417 418 419 420 421 422 423 424 425 426 427 428 429 430 431 432 433 434 435 436 437 438 439 440 441 442 443 444 445 446 447 448 449 450 451 452 453 454 455 456 457 458 459 460 461 462 463 464 465 466 467 468 469 470 471 472 473 474 475 476 477 478 479 480 481 482 483 484 485 486 487 488 489 490 491 492 493 494 495 496 497 498 499 500 501 502 503 504 505 506 507 508 509 510 511 512 513 514 515 516 517 518 519 520 521 522 523 524 525 526 527 528 529 530 531 532 533 534 535 536 537 538 539 540 541 542 543 544 545 546 547 548 549 550 551 552 553 554 555 556 557 558 559 560 561 562 563 564 565 566 567 568 569 570 571 572 573 574 575 576 577 578 579 580 581 582 583 584 585 586 587 588 589 590 591 592 593 594 595 596 597 598 599 600 601 602 603 604 605 606 607 608 609 610 611 612 613 614 615 616 617 618 619 620 621 622 623 624 625 626 627 628 629 630 631 632 633 634 635 636 637 638 639 640 641 642 643 644 645 646 647 648 649 650 651 652 653 654 655 656 657 658 659 660 661 662 663 664 665 666 667 668 669 670 671 672 673 674 675 676 677 678 679 680 681 682 683 684 685 686 687 688 689 690 691 692 693 694 695 696 697 698 699 700 701 702 703 704 705 706 707 708 709 710 711 712 713 714 715 716 717 718 719 720 721 722 723 724 725 726 727 728 729 730 731 732 733 734 735 736 737 738 739 740 741 742 743 744 745 746 747 748 749 750 751 752 753 754 755 756 757 758 759 760 761 762 763 764 765 766 767 768 769 770 771 772 773 774 775 776 777 778 779 780 781 782 783 784 785 786 787 788 789 790 791 792 793 794 795 796 797 798 799 800 801 802 803 804 805 806 807 808 809 810 811 812 813 814 815 816 817 818 819 820 821 822 823 824 825 826 827 828 829 830 831 832 833 834 835 836 837 838 839 840 841 842 843 844 845 846 847 848 849 850 851 852 853 854 855 856 857 858 859 860 861 862 863 864 865 866 867 868 869 870 871 872 873 874 875 876 877 878 879 880 881 882 883 884 885 886 887 888 889 890 891 892 893 894 895 896 897 898 899 900 901 902 903 904 905 906 907 908 909 910 911 912 913 914 915 916 917 918 919 920 921 922 923 924 925 926 927 928 929 930 931 932 933 934 935 936 937 938 939 940 941 942 943 944 945 946 947 948 949 950 951 952 953 954 955 956 957 958 959 960 961 962 963 964 965 966 967 968 969 970 971 972 973 974 975 976 977 978 979 980 981 982 983 984 985 986 987 988 989 990 991 992 993 994 995 996 997 998 999 1000 1001 1002 1003 1004 1005 1006 1007 1008 1009 1010 1011 1012 1013 1014 1015 1016 1017 1018 1019 1020 1021 1022 1023 1024 1025 1026 1027 1028 1029 1030 1031 1032 1033 1034 1035 1036 1037 1038 1039 1040 1041 1042 1043 1044 1045 1046 1047 1048 1049 1050 1051 1052 1053 1054 1055 1056 1057 1058 1059 1060 1061 1062 1063 1064 1065 1066 1067 1068 1069 1070 1071 1072 1073 1074 1075 1076 1077 1078 1079 1080 1081 1082 1083 1084 1085 1086 1087 1088 1089 1090 1091 1092 1093 1094 1095 1096 1097 1098 1099 1100 1101 1102 1103 1104 1105 1106 1107 1108 1109 1110 1111 1112 1113 1114 1115 1116 1117 1118 1119 1120 1121 1122 1123 1124 1125 1126 1127 1128 1129 1130 1131 1132 1133 1134 1135 1136 1137 1138 1139 1140 1141 1142 1143 1144 1145 1146 1147 1148 1149 1150 1151 1152 1153 1154 1155 1156 1157 1158 1159 1160 1161 1162 1163 1164 1165 1166 1167 1168 1169 1170 1171 1172 1173 1174 1175 1176 1177 1178 1179 1180 1181 1182 1183 1184 1185 1186 1187 1188 1189 1190 1191 1192 1193 1194 1195 1196 1197 1198 1199 1200 1201 1202 1203 1204 1205 1206 1207 1208 1209 1210 1211 1212 1213 1214 1215 1216 1217 1218 1219 1220 1221 1222 1223 1224 1225 1226 1227 1228 1229 1230 1231 1232 1233 1234 1235 1236 1237 1238 1239 1240 1241 1242 1243 1244 1245 1246 1247 1248 1249 1250 1251 1252 1253 1254 1255 1256 1257 1258 1259 1260 1261 1262 1263 1264 1265 1266 1267 1268 1269 1270 1271 1272 1273 1274 1275 1276 1277 1278 1279 1280 1281 1282 1283 1284 1285 1286 1287 1288 1289 1290 1291 1292 1293 1294 1295 1296 1297 1298 1299 1300 1301 1302 1303 1304 1305 1306 1307 1308 1309 1310 1311 1312 1313 1314 1315 1316 1317 1318 1319 1320 1321 1322 1323 1324 1325 1326 1327 1328 1329 1330 1331 1332 1333 1334 1335 1336 1337 1338 1339 1340 1341 1342 1343 1344 1345 1346 1347 1348 1349 1350 1351 1352 1353 1354 1355 1356 1357 1358 1359 1360 1361 1362 1363 1364 1365 1366 1367 1368 1369 1370 1371 1372 1373 1374 1375 1376 1377 1378 1379 1380 1381 1382 1383 1384 1385 1386 1387 1388 1389 1390 1391 1392 1393 1394 1395 1396 1397 1398 1399 1400 1401 1402 1403 1404 1405 1406 1407 1408 1409 1410 1411 1412 1413 1414 1415 1416 1417 1418 1419 1420 1421 1422 1423 1424 1425 1426 1427 1428 1429 1430 1431 1432 1433 1434 1435 1436 1437 1438 1439 1440 1441 1442 1443 1444 1445 1446 1447 1448 1449 1450 1451 1452 1453 1454 1455 1456 1457 1458 1459 1460 1461 1462 1463 1464 1465 1466 1467 1468 1469 1470 1471 1472 1473 1474 1475 1476 1477 1478 1479 1480 1481 1482 1483 1484 1485 1486 1487 1488 1489 1490 1491 1492 1493 1494 1495 1496 1497 1498 1499 1500 1501 1502 1503 1504 1505 1506 1507 1508 1509 1510 1511 1512 1513 1514 1515 1516 1517 1518 1519 1520 1521 1522 1523 1524 1525 1526 1527 1528 1529 1530 1531 1532 1533 1534 1535 1536 1537 1538 1539 1540 1541 1542 1543 1544 1545 1546 1547 1548 1549 1550 1551 1552 1553 1554 1555 1556 1557 1558 1559 1560 1561 1562 1563 1564 1565 1566 1567 1568 1569 1570 1571 1572 1573 1574 1575 1576 1577 1578 1579 1580 1581 1582 1583 1584 1585 1586 1587 1588 1589 1590 1591 1592 1593 1594 1595 1596 1597 1598 1599 1600 1601 1602 1603 1604 1605 1606 1607 1608 1609 1610 1611 1612 1613 1614 1615 1616 1617 1618 1619 1620 1621 1622 1623 1624 1625 1626 1627 1628 1629 1630 1631 1632 1633 1634 1635 1636 1637 1638 1639 1640 1641 1642 1643 1644 1645 1646 1647 1648 1649 1650 1651 1652 1653 1654 1655 1656 1657 1658 1659 1660 1661 1662 1663 1664 1665 1666 1667 1668 1669 1670 1671 1672 1673 1674 1675 1676 1677 1678 1679 1680 1681 1682 1683 1684 1685 1686 1687 1688 1689 1690 1691 1692 1693 1694 1695 1696 1697 1698 1699 1700 1701 1702 1703 1704 1705 1706 1707 1708 1709 1710 1711 1712 1713 1714 1715 1716 1717 1718 1719 1720 1721 1722 1723 1724 1725 1726 1727 1728 1729 1730 1731 1732 1733 1734 1735 1736 1737 1738 1739 1740 1741 1742 1743 1744 1745 1746 1747 1748 1749 1750 1751 1752 1753 1754 1755 1756 1757 1758 1759 1760 1761 1762 1763 1764 1765 1766 1767 1768 1769 1770 1771 1772 1773 1774 1775 1776 1777 1778 1779 1780 1781 1782 1783 1784 1785 1786 1787 1788 1789 1790 1791 1792 1793 1794 1795 1796 1797 1798 1799 1800 1801 1802 1803 1804 1805 1806 1807 1808 1809 1810 1811 1812 1813 1814 1815 1816 1817 1818 1819 1820 1821 1822 1823 1824 1825 1826 1827 1828 1829 1830 1831 1832 1833 1834 1835 1836 1837 1838 1839 1840 1841 1842 1843 1844 1845 1846 1847 1848 1849 1850 1851 1852 1853 1854 1855 1856 1857 1858 1859 1860 1861 1862 1863 1864 1865 1866 1867 1868 1869 1870 1871 1872 1873 1874 1875 1876 1877 1878 1879 1880 1881 1882 1883 1884 1885 1886 1887 1888 1889 1890 1891 1892 1893 1894 1895 1896 1897 1898 1899 1900 1901 1902 1903 1904 1905 1906 1907 1908 1909 1910 1911 1912 1913 1914 1915 1916 1917 1918 1919 1920 1921 1922 1923 1924 1925 1926 1927 1928 1929 1930 1931 1932 1933 1934 1935 1936 1937 1938 1939 1940 1941 1942 1943 1944 1945 1946 1947 1948 1949 1950 1951 1952 1953 1954 1955 1956 1957 1958 1959 1960 1961 1962 1963 1964 1965 1966 1967 1968 1969 1970 1971 1972 1973 1974 1975 1976 1977 1978 1979 1980 1981 1982 1983 1984 1985 1986 1987 1988 1989 1990 1991 1992 1993 1994 1995 1996 1997 1998 1999 2000 2001 2002 2003 2004 2005 2006 2007 2008 2009 2010 2011 2012 2013 2014 2015 2016 2017 2018 2019 2020 2021 2022 2023 2024 2025 2026 2027 2028 2029 2030 2031 2032 2033 2034 2035 2036 2037 2038 2039 2040 2041 2042 2043 2044 2045 2046 2047 2048 2049 2050 2051 2052 2053 2054 2055 2056 2057 2058 2059 2060 2061 2062 2063 2064 2065 2066 2067 2068 2069 2070 2071 2072 2073 2074 2075 2076 2077 2078 2079 2080 2081 2082 2083 2084 2085 2086 2087 2088 2089 2090 2091 2092 2093 2094 2095 2096 2097 2098 2099 2100 2101 2102 2103 2104 2105 2106 2107 2108 2109 2110 2111 2112 2113 2114 2115 2116 2117 2118 2119 2120 2121 2122 2123 2124 2125 2126 2127 2128 2129 2130 2131 2132 2133 2134 2135 2136 2137 2138 2139 2140 2141 2142 2143 2144 2145 2146 2147 2148 2149 2150 2151 2152 2153 2154 2155 2156 2157 2158 2159 2160 2161 2162 2163 2164 2165 2166 2167 2168 2169 2170 2171 2172 2173 2174 2175 2176 2177 2178 2179 2180 2181 2182 2183 2184 2185 2186 2187 2188 2189 2190 2191 2192 2193 2194 2195 2196 2197 2198 2199 2200 2201 2202 2203 2204 2205 2206 2207 2208 2209 2210 2211 2212 2213 2214 2215 2216 2217 2218 2219 2220 2221 2222 2223 2224 2225 2226 2227 2228 2229 2230 2231 2232 2233 2234 2235 2236 2237 2238 2239 2240 2241 2242 2243 2244 2245 2246 2247 2248 2249 2250 2251 2252 2253 2254 2255 2256 2257 2258 2259 2260 2261 2262 2263 2264 2265 2266 2267 2268 2269 2270 2271 2272 2273 2274 2275 2276 2277 2278 2279 2280 2281 2282 2283 2284 2285 2286 2287 2288 2289 2290 2291 2292 2293 2294 2295 2296 2297 2298 2299 2300 2301 2302 2303 2304 2305 2306 2307 2308 2309 2310 2311 2312 2313 2314 2315 2316 2317 2318 2319 2320 2321 2322 2323 2324 2325 2326 2327 2328 2329 2330 2331 2332 2333 2334 2335 2336 2337 2338 2339 2340 2341 2342 2343 2344 2345 2346 2347 2348 2349 2350 2351 2352 2353 2354 2355 2356 2357 2358 2359 2360 2361 2362 2363 2364 2365 2366 2367 2368 2369 2370 2371 2372 2373 2374 2375 2376 2377 2378 2379 2380 2381 2382 2383 2384 2385 2386 2387 2388 2389 2390 2391 2392 2393 2394 2395 2396 2397 2398 2399 2400 2401 2402 2403 2404 2405 2406 2407 2408 2409 2410 2411 2412 2413 2414 2415 2416 2417 2418 2419 2420 2421 2422 2423 2424 2425 2426 2427 2428 2429 2430 2431 2432 2433 2434 2435 2436 2437 2438 2439 2440 2441 2442 2443 2444 2445 2446 2447 2448 2449 2450 2451 2452 2453 2454 2455 2456 2457 2458 2459 2460 2461 2462 2463 2464 2465 2466 2467 2468 2469 2470 2471 2472 2473 2474 2475 2476 2477 2478 2479 2480 2481 2482 2483 2484 2485 2486 2487 2488 2489 2490 2491 2492 2493 2494 2495 2496 2497 2498 2499 2500 2501 2502 2503 2504 2505 2506 2507 2508 2509 2510 2511 2512 2513 2514 2515 2516 2517 2518 2519 2520 2521 2522 2523 2524 2525 2526 2527 2528 2529 2530 2531 2532 2533 2534 2535 2536 2537 2538 2539 2540 2541 2542 2543 2544 2545 2546 2547 2548 2549 2550 2551 2552 2553 2554 2555 2556 2557 2558 2559 2560 2561 2562 2563 2564 2565 2566 2567 2568 2569 2570 2571 2572 2573 2574 2575 2576 2577 2578 2579 2580 2581 2582 2583 2584 2585 2586 2587 2588 2589 2590 2591 2592 2593 2594 2595 2596 2597 2598 2599 2600 2601 2602 2603 2604 2605 2606 2607 2608 2609 2610 2611 2612 2613 2614 2615 2616 2617 2618 2619 2620 2621 2622 2623 2624 2625 2626 2627 2628 2629 2630 2631 2632 2633 2634 2635 2636 2637 2638 2639 2640 2641 2642 2643 2644 2645 2646 2647 2648 2649 2650 2651 2652 2653 2654 2655 2656 2657 2658 2659 2660 2661 2662 2663 2664 2665 2666 2667 2668 2669 2670 2671 2672 2673 2674 2675 2676 2677 2678 2679 2680 2681 2682 2683 2684 2685 2686 2687 2688 2689 2690 2691 2692 2693 2694 2695 2696 2697 2698 2699 2700 2701 2702 2703 2704 2705 2706 2707 2708 2709 2710 2711 2712 2713 2714 2715 2716 2717 2718 2719 2720 2721 2722 2723 2724 2725 2726 2727 2728 2729 2730 2731 2732 2733 2734 2735 2736 2737 2738 2739 2740 2741 2742 2743 2744 2745 2746 2747 2748 2749 2750 2751 2752 2753 2754 2755 2756 2757 2758 2759 2760 2761 2762 2763 2764 2765 2766 2767 2768 2769 2770 2771 2772 2773 2774 2775 2776 2777 2778 2779 2780 2781 2782 2783 2784 2785 2786 2787 2788 2789 2790 2791 2792 2793 2794 2795 2796 2797 2798 2799 2800 2801 2802 2803 2804 2805 2806 2807 2808 2809 2810 2811 2812 2813 2814 2815 2816 2817 2818 2819 2820 2821 2822 2823 2824 2825 2826 2827 2828 2829 2830 2831 2832 2833 2834 2835 2836 2837 2838 2839 2840 2841 2842 2843 2844 2845 2846 2847 2848 2849 2850 2851 2852 2853 2854 2855 2856 2857 2858 2859 2860 2861 2862 2863 2864 2865 2866 2867 2868 2869 2870 2871 2872 2873 2874 2875 2876 2877 2878 2879 2880 2881 2882 2883 2884 2885 2886 2887 2888 2889 2890 2891 2892 2893 2894 2895 2896 2897 2898 2899 2900 2901 2902 2903 2904 2905 2906 2907 2908 2909 2910 2911 2912 2913 2914 2915 2916 2917 2918 2919 2920 2921 2922 2923 2924 2925 2926 2927 2928 2929 2930 2931 2932 2933 2934 2935 2936 2937 2938 2939 2940 2941 2942 2943 2944 2945 2946 2947 2948 2949 2950 2951 2952 2953 2954 2955 2956 2957 2958 2959 2960 2961 2962 2963 2964 2965 2966 2967 2968 2969 2970 2971 2972 2973 2974 2975 2976 2977 2978 2979 2980 2981 2982 2983 2984 2985 2986 2987 2988 2989 2990 2991 2992 2993 2994 2995 2996 2997 2998 2999 3000 3001 3002 3003 3004 3005 3006 3007 3008 3009 3010 3011 3012 3013 3014 3015 3016 3017 3018 3019 3020 3021 3022 3023 3024 3025 3026 3027 3028 3029 3030 3031 3032 3033 3034 3035 3036 3037 3038 3039 3040 3041 3042 3043 3044 3045 3046 3047 3048 3049 3050 3051 3052 3053 3054 3055 3056 3057 3058 3059 3060 3061 3062 3063 3064 3065 3066 3067 3068 3069 3070 3071 3072 3073 3074 3075 3076 3077 3078 3079 3080 3081 3082 3083 3084 3085 3086 3087 3088 3089 3090 3091 3092 3093 3094 3095 3096 3097 3098 3099 3100 3101 3102 3103 3104 3105 3106 3107 3108 3109 3110 3111 3112 3113 3114 3115 3116 3117 3118 3119 3120 3121 3122 3123 3124 3125 3126 3127 3128 3129 3130 3131 3132 3133 3134 3135 3136 3137 3138 3139 3140 3141 3142 3143 3144 3145 3146 3147 3148 3149 3150 3151 3152 3153 3154 3155 3156 3157 3158 3159 3160 3161 3162 3163 3164 3165 3166 3167 3168 3169 3170 3171 3172 3173 3174 3175 3176 3177 3178 3179 3180 3181 3182 3183 3184 3185 3186 3187 3188 3189 3190 3191 3192 3193 3194 3195 3196 3197 3198 3199 3200 3201 3202 3203 3204 3205 3206 3207 3208 3209 3210 3211 3212 3213 3214 3215 3216 3217 3218 3219 3220 3221 3222 3223 3224 3225 3226 3227 3228 3229 3230 3231 3232 3233 3234 3235 3236 3237 3238 3239 3240 3241 3242 3243 3244 3245 3246 3247 3248 3249 3250 3251 3252 3253 3254 3255 3256 3257 3258 3259 3260 3261 3262 3263 3264 3265 3266 3267 3268 3269 3270 3271 3272 3273 3274 3275 3276 3277 3278 3279 3280 3281 3282 3283 3284 3285 3286 3287 3288 3289 3290 3291 3292 3293 3294 3295 3296 3297 3298 3299 3300 3301 3302 3303 3304 3305 3306 3307 3308 3309 3310 3311 3312 3313 3314 3315 3316 3317 3318 3319 3320 3321 3322 3323 3324 3325 3326 3327 3328 3329 3330 3331 3332 3333 3334 3335 3336 3337 3338 3339 3340 3341 3342 3343 3344 3345 3346 3347 3348 3349 3350 3351 3352 3353 3354 3355 3356 3357 3358 3359 3360 3361 3362 3363 3364 3365 3366 3367 3368 3369 3370 3371 3372 3373 3374 3375 3376 3377 3378 3379 3380 3381 3382 3383 3384 3385 3386 3387 3388 3389 3390 3391 3392 3393 3394 3395 3396 3397 3398 3399 3400 3401 3402 3403 3404 3405 3406 3407 3408 3409 3410 3411 3412 3413 3414 3415 3416 3417 3418 3419 3420 3421 3422 3423 3424 3425 3426 3427 3428 3429 3430 3431 3432 3433 3434 3435 3436 3437 3438 3439 3440 3441 3442 3443 3444 3445 3446 3447 3448 3449 3450 3451 3452 3453 3454 3455 3456 3457 3458 3459 3460 3461 3462 3463 3464 3465 3466 3467 3468 3469 3470 3471 3472 3473 3474 3475 3476 3477 3478 3479 3480 3481 3482 3483 3484 3485 3486 3487 3488 3489 3490 3491 3492 3493 3494 3495 3496 3497 3498 3499 3500 3501 3502 3503 3504 3505 3506 3507 3508 3509 3510 3511 3512 3513 3514 3515 3516 3517 3518 3519 3520 3521 3522 3523 3524 3525 3526 3527 3528 3529 3530 3531 3532 3533 3534 3535 3536 3537 3538 3539 3540 3541 3542 3543 3544 3545 3546 3547 3548 3549 3550 3551 3552 3553 3554 3555 3556 3557 3558 3559 3560 3561 3562 3563 3564 3565 3566 3567 3568 3569 3570 3571 3572 3573 3574 3575 3576 3577 3578 3579 3580 3581 3582 3583 3584 3585 3586 3587 3588 3589 3590 3591 3592 3593 3594 3595 3596 3597 3598 3599 3600 3601 3602 3603 3604 3605 3606 3607 3608 3609 3610 3611 3612 3613 3614 3615 3616 3617 3618 3619 3620 3621 3622 3623 3624 3625 3626 3627 3628 3629 3630 3631 3632 3633 3634 3635 3636 3637 3638 3639 3640 3641 3642 3643 3644 3645 3646 3647 3648 3649 3650 3651 3652 3653 3654 3655 3656 3657 3658 3659 3660 3661 3662 3663 3664 3665 3666 3667 3668 3669 3670 3671 3672 3673 3674 3675 3676 3677 3678 3679 3680 3681 3682 3683 3684 3685 3686 3687 3688 3689 3690 3691 3692 3693 3694 3695 3696 3697 3698 3699 3700 3701 3702 3703 3704 3705 3706 3707 3708 3709 3710 3711 3712 3713 3714 3715 3716 3717 3718 3719 3720 3721 3722 3723 3724 3725 3726 3727 3728 3729 3730 3731 3732 3733 3734 3735 3736 3737 3738 3739 3740 3741 3742 3743 3744 3745 3746 3747 3748 3749 3750 3751 3752 3753 3754 3755 3756 3757 3758 3759 3760 3761 3762 3763 3764 3765 3766 3767 3768 3769 3770 3771 3772 3773 3774 3775 3776 3777 3778 3779 3780 3781 3782 3783 3784 3785 3786 3787 3788 3789 3790 3791 3792 3793 3794 3795 3796 3797 3798 3799 3800 3801 3802 3803 3804 3805 3806 3807 3808 3809 3810 3811 3812 3813 3814 3815 3816 3817 3818 3819 3820 3821 3822 3823 3824 3825 3826 3827 3828 3829 3830 3831 3832 3833 3834 3835 3836 3837 3838 3839 3840 3841 3842 3843 3844 3845 3846 3847 3848 3849 3850 3851 3852 3853 3854 3855 3856 3857 3858 3859 3860 3861 3862 3863 3864 3865 3866 3867 3868 3869 3870 3871 3872 3873 3874 3875 3876 3877 3878 3879 3880 3881 3882 3883 3884 3885 3886 3887 3888 3889 3890 3891 3892 3893 3894 3895 3896 3897 3898 3899 3900 3901 3902 3903 3904 3905 3906 3907 3908 3909 3910 3911 3912 3913 3914 3915 3916 3917 3918 3919 3920 3921 3922 3923 3924 3925 3926 3927 3928 3929 3930 3931 3932 3933 3934 3935 3936 3937 3938 3939 3940 3941 3942 3943 3944 3945 3946 3947 3948 3949 3950 3951 3952 3953 3954 3955 3956 3957 3958 3959 3960 3961 3962 3963 3964 3965 3966 3967 3968 3969 3970 3971 3972 3973 3974 3975 3976 3977 3978 3979 3980 3981 3982 3983 3984 3985 3986 3987 3988 3989 3990 3991 3992 3993 3994 3995 3996 3997 3998 3999 4000 4001 4002 4003 4004 4005 4006 4007 4008 4009 4010 4011 4012 4013 4014 4015 4016 4017 4018 4019 4020 4021 4022 4023 4024 4025 4026 4027 4028 4029 4030 4031 4032 4033 4034 4035 4036 4037 4038 4039 4040 4041 4042 4043 4044 4045 4046 4047 4048 4049 4050 4051 4052 4053 4054 4055 4056 4057 4058 4059 4060 4061 4062 4063 4064 4065 4066 4067 4068 4069 4070 4071 4072 4073 4074 4075 4076 4077 4078 4079 4080 4081 4082 4083 4084 4085 4086 4087 4088 4089 4090 4091 4092 4093 4094 4095 4096 4097 4098 4099 4100 4101 4102 4103 4104 4105 4106 4107 4108 4109 4110 4111 4112 4113 4114 4115 4116 4117 4118 4119 4120 4121 4122 4123 4124 4125 4126 4127 4128 4129 4130 4131 4132 4133 4134 4135 4136 4137 4138 4139 4140 4141 4142 4143 4144 4145 4146 4147 4148 4149 4150 4151 4152 4153 4154 4155 4156 4157 4158 4159 4160 4161 4162 4163 4164 4165 4166 4167 4168 4169 4170 4171 4172 4173 4174 4175 4176 4177 4178 4179 4180 4181 4182 4183 4184 4185 4186 4187 4188 4189 4190 4191 4192 4193 4194 4195 4196 4197 4198 4199 4200 4201 4202 4203 4204 4205 4206 4207 4208 4209 4210 4211 4212 4213 4214 4215 4216 4217 4218 4219 4220 4221 4222 4223 4224 4225 4226 4227 4228 4229 4230 4231 4232 4233 4234 4235 4236 4237 4238 4239 4240 4241 4242 4243 4244 4245 4246 4247 4248 4249 4250 4251 4252 4253 4254 4255 4256 4257 4258 4259 4260 4261 4262 4263 4264 4265 4266 4267 4268 4269 4270 4271 4272 4273 4274 4275 4276 4277 4278 4279 4280 4281 4282 4283 4284 4285 4286 4287 4288 4289 4290 4291 4292 4293 4294 4295 4296 4297 4298 4299 4300 4301 4302 4303 4304 4305 4306 4307 4308 4309 4310 4311 4312 4313 4314 4315 4316 4317 4318 4319 4320 4321 4322 4323 4324 4325 4326 4327 4328 4329 4330 4331 4332 4333 4334 4335 4336 4337 4338 4339 4340 4341 4342 4343 4344 4345 4346 4347 4348 4349 4350 4351 4352 4353 4354 4355 4356 4357 4358 4359 4360 4361 4362 4363 4364 4365 4366 4367 4368 4369 4370 4371 4372 4373 4374 4375 4376 4377 4378 4379 4380 4381 4382 4383 4384 4385 4386 4387 4388 4389 4390 4391 4392 4393 4394 4395 4396 4397 4398 4399 4400 4401 4402 4403 4404 4405 4406 4407 4408 4409 4410 4411 4412 4413 4414 4415 4416 4417 4418 4419 4420 4421 4422 4423 4424 4425 4426 4427 4428 4429 4430 4431 4432 4433 4434 4435 4436 4437 4438 4439 4440 4441 4442 4443 4444 4445 4446 4447 4448 4449 4450 4451 4452 4453 4454 4455 4456 4457 4458 4459 4460 4461 4462 4463 4464 4465 4466 4467 4468 4469 4470 4471 4472 4473 4474 4475 4476 4477 4478 4479 4480 4481 4482 4483 4484 4485 4486 4487 4488 4489 4490 4491 4492 4493 4494 4495 4496 4497 4498 4499 4500 4501 4502 4503 4504 4505 4506 4507 4508 4509 4510 4511 4512 4513 4514 4515 4516 4517 4518 4519 4520 4521 4522 4523 4524 4525 4526 4527 4528 4529 4530 4531 4532 4533 4534 4535 4536 4537 4538 4539 4540 4541 4542 4543 4544 4545 4546 4547 4548 4549 4550 4551 4552 4553 4554 4555 4556 4557 4558 4559 4560 4561 4562 4563 4564 4565 4566 4567 4568 4569 4570 4571 4572 4573 4574 4575 4576 4577 4578 4579 4580 4581 4582 4583 4584 4585 4586 4587 4588 4589 4590 4591 4592 4593 4594 4595 4596 4597 4598 4599 4600 4601 4602 4603 4604 4605 4606 4607 4608 4609 4610 4611 4612 4613 4614 4615 4616 4617 4618 4619 4620 4621 4622 4623 4624 4625 4626 4627 4628 4629 4630 4631 4632 4633 4634 4635 4636 4637 4638 4639 4640 4641 4642 4643 4644 4645 4646 4647 4648 4649 4650 4651 4652 4653 4654 4655 4656 4657 4658 4659 4660 4661 4662 4663 4664 4665 4666 4667 4668 4669 4670 4671 4672 4673 4674 4675 4676 4677 4678 4679 4680 4681 4682 4683 4684 4685 4686 4687 4688 4689 4690 4691 4692 4693 4694 4695 4696 4697 4698 4699 4700 4701 4702 4703 4704 4705 4706 4707 4708 4709 4710 4711 4712 4713 4714 4715 4716 4717 4718 4719 4720 4721 4722 4723 4724 4725 4726 4727 4728 4729 4730 4731 4732 4733 4734 4735 4736 4737 4738 4739 4740 4741 4742 4743 4744 4745 4746 4747 4748 4749 4750 4751 4752 4753 4754 4755 4756 4757 4758 4759 4760 4761 4762 4763 4764 4765 4766 4767 4768 4769 4770 4771 4772 4773 4774 4775 4776 4777 4778 4779 4780 4781 4782 4783 4784 4785 4786 4787 4788 4789 4790 4791 4792 4793 4794 4795 4796 4797 4798 4799 4800 4801 4802 4803 4804 4805 4806 4807 4808 4809 4810 4811 4812 4813 4814 4815 4816 4817 4818 4819 4820 4821 4822 4823 4824 4825 4826 4827 4828 4829 4830 4831 4832 4833 4834 4835 4836 4837 4838 4839 4840 4841 4842 4843 4844 4845 4846 4847 4848 4849 4850 4851 4852 4853 4854 4855 4856 4857 4858 4859 4860 4861 4862 4863 4864 4865 4866 4867 4868 4869 4870 4871 4872 4873 4874 4875 4876 4877 4878 4879 4880 4881 4882 4883 4884 4885 4886 4887 4888 4889 4890 4891 4892 4893 4894 4895 4896 4897 4898 4899 4900 4901 4902 4903 4904 4905 4906 4907 4908 4909 4910 4911 4912 4913 4914 4915 4916 4917 4918 4919 4920 4921 4922 4923 4924 4925 4926 4927 4928 4929 4930 4931 4932 4933 4934 4935 4936 4937 4938 4939 4940 4941 4942 4943 4944 4945 4946 4947 4948 4949 4950 4951 4952 4953 4954 4955 4956 4957 4958 4959 4960 4961 4962 4963 4964 4965 4966 4967 4968 4969 4970 4971 4972 4973 4974 4975 4976 4977 4978 4979 4980 4981 4982 4983 4984 4985 4986 4987 4988 4989 4990 4991 4992 4993 4994 4995 4996 4997 4998 4999 5000 5001 5002 5003 5004 5005 5006 5007 5008 5009 5010 5011 5012 5013 5014 5015 5016 5017 5018 5019 5020 5021 5022 5023 5024 5025 5026 5027 5028 5029 5030 5031 5032 5033 5034 5035 5036 5037 5038 5039 5040 5041 5042 5043 5044 5045 5046 5047 5048 5049 5050 5051 5052 5053 5054 5055 5056 5057 5058 5059 5060 5061 5062 5063 5064 5065 5066 5067 5068 5069 5070 5071 5072 5073 5074 5075 5076 5077 5078 5079 5080 5081 5082 5083 5084 5085 5086 5087 5088 5089 5090 5091 5092 5093 5094 5095 5096 5097 5098 5099 5100 5101 5102 5103 5104 5105 5106 5107 5108 5109 5110 5111 5112 5113 5114 5115 5116 5117 5118 5119 5120 5121 5122 5123 5124 5125 5126 5127 5128 5129 5130 5131 5132 5133 5134 5135 5136 5137 5138 5139 5140 5141 5142 5143 5144 5145 5146 5147 5148 5149 5150 5151 5152 5153 5154 5155 5156 5157 5158 5159 5160 5161 5162 5163 5164 5165 5166 5167 5168 5169 5170 5171 5172 5173 5174 5175 5176 5177 5178 5179 5180 5181 5182 5183 5184 5185 5186 5187 5188 5189 5190 5191 5192 5193 5194 5195 5196 5197 5198 5199 5200 5201 5202 5203 5204 5205 5206 5207 5208 5209 5210 5211 5212 5213 5214 5215 5216 5217 5218 5219 5220 5221 5222 5223 5224 5225 5226 5227 5228 5229 5230 5231 5232 5233 5234 5235 5236 5237 5238 5239 5240 5241 5242 5243 5244 5245 5246 5247 5248 5249 5250 5251 5252 5253 5254 5255 5256 5257 5258 5259 5260 5261 5262 5263 5264 5265 5266 5267 5268 5269 5270 5271 5272 5273 5274 5275 5276 5277 5278 5279 5280 5281 5282 5283 5284 5285 5286 5287 5288 5289 5290 5291 5292 5293 5294 5295 5296 5297 5298 5299 5300 5301 5302 5303 5304 5305 5306 5307 5308 5309 5310 5311 5312 5313 5314 5315 5316 5317 5318 5319 5320 5321 5322 5323 5324 5325 5326 5327 5328 5329 5330 5331 5332 5333 5334 5335 5336 5337 5338 5339 5340 5341 5342 5343 5344 5345 5346 5347 5348 5349 5350 5351 5352 5353 5354 5355 5356 5357 5358 5359 5360 5361 5362 5363 5364 5365 5366 5367 5368 5369 5370 5371 5372 5373 5374 5375 5376 5377 5378 5379 5380 5381 5382 5383 5384 5385 5386 5387 5388 5389 5390 5391 5392 5393 5394 5395 5396 5397 5398 5399 5400 5401 5402 5403 5404 5405 5406 5407 5408 5409 5410 5411 5412 5413 5414 5415 5416 5417 5418 5419 5420 5421 5422 5423 5424 5425 5426 5427 5428 5429 5430 5431 5432 5433 5434 5435 5436 5437 5438 5439 5440 5441 5442 5443 5444 5445 5446 5447 5448 5449 5450 5451 5452 5453 5454 5455 5456 5457 5458 5459 5460 5461 5462 5463 5464 5465 5466 5467 5468 5469 5470 5471 5472 5473 5474 5475 5476 5477 5478 5479 5480 5481 5482 5483 5484 5485 5486 5487 5488 5489 5490 5491 5492 5493 5494 5495 5496 5497 5498 5499 5500 5501 5502 5503 5504 5505 5506 5507 5508 5509 5510 5511 5512 5513 5514 5515 5516 5517 5518 5519 5520 5521 5522 5523 5524 5525 5526 5527 5528 5529 5530 5531 5532 5533 5534 5535 5536 5537 5538 5539 5540 5541 5542 5543 5544 5545 5546 5547 5548 5549 5550 5551 5552 5553 5554 5555 5556 5557 5558 5559 5560 5561 5562 5563 5564 5565 5566 5567 5568 5569 5570 5571 5572 5573 5574 5575 5576 5577 5578 5579 5580 5581 5582 5583 5584 5585 5586 5587 5588 5589 5590 5591 5592 5593 5594 5595 5596 5597 5598 5599 5600 5601 5602 5603 5604 5605 5606 5607 5608 5609 5610 5611 5612 5613 5614 5615 5616 5617 5618 5619 5620 5621 5622 5623 5624 5625 5626 5627 5628 5629 5630 5631 5632 5633 5634 5635 5636 5637 5638 5639 5640 5641 5642 5643 5644 5645 5646 5647 5648 5649 5650 5651 5652 5653 5654 5655 5656 5657 5658 5659 5660 5661 5662 5663 5664 5665 5666 5667 5668 5669 5670 5671 5672 5673 5674 5675 5676 5677 5678 5679 5680 5681 5682 5683 5684 5685 5686 5687 5688 5689 5690 5691 5692 5693 5694 5695 5696 5697 5698 5699 5700 5701 5702 5703 5704 5705 5706 5707 5708 5709 5710 5711 5712 5713 5714 5715 5716 5717 5718 5719 5720 5721 5722 5723 5724 5725 5726 5727 5728 5729 5730 5731 5732 5733 5734 5735 5736 5737 5738 5739 5740 5741 5742 5743 5744 5745 5746 5747 5748 5749 5750 5751 5752 5753 5754 5755 5756 5757 5758 5759 5760 5761 5762 5763 5764 5765 5766 5767 5768 5769 5770 5771 5772 5773 5774 5775 5776 5777 5778 5779 5780 5781 5782 5783 5784 5785 5786 5787 5788 5789 5790 5791 5792 5793 5794 5795 5796 5797 5798 5799 5800 5801 5802 5803 5804 5805 5806 5807 5808 5809 5810 5811 5812 5813 5814 5815 5816 5817 5818 5819 5820 5821 5822 5823 5824 5825 5826 5827 5828 5829 5830 5831 5832 5833 5834 5835 5836 5837 5838 5839 5840 5841 5842 5843 5844 5845 5846 5847 5848 5849 5850 5851 5852 5853 5854 5855 5856 5857 5858 5859 5860 5861 5862 5863 5864 5865 5866 5867 5868 5869 5870 5871 5872 5873 5874 5875 5876 5877 5878 5879 5880 5881 5882 5883 5884 5885 5886 5887 5888 5889 5890 5891 5892 5893 5894 5895 5896 5897 5898 5899 5900 5901 5902 5903 5904 5905 5906 5907 5908 5909 5910 5911 5912 5913 5914 5915 5916 5917 5918 5919 5920 5921 5922 5923 5924 5925 5926 5927 5928 5929 5930 5931 5932 5933 5934 5935 5936 5937 5938 5939 5940 5941 5942 5943 5944 5945 5946 5947 5948 5949 5950 5951 5952 5953 5954 5955 5956 5957 5958 5959 5960 5961 5962 5963 5964 5965 5966 5967 5968 5969 5970 5971 5972 5973 5974 5975 5976 5977 5978 5979 5980 5981 5982 5983 5984 5985 5986 5987 5988 5989 5990 5991 5992 5993 5994 5995 5996 5997 5998 5999 6000 6001 6002 6003 6004 6005 6006 6007 6008 6009 6010 6011 6012 6013 6014 6015 6016 6017 6018 6019 6020 6021 6022 6023 6024 6025 6026 6027 6028 6029 6030 6031 6032 6033 6034 6035 6036 6037 6038 6039 6040 6041 6042 6043 6044 6045 6046 6047 6048 6049 6050 6051 6052 6053 6054 6055 6056 6057 6058 6059 6060 6061 6062 6063 6064 6065 6066 6067 6068 6069 6070 6071 6072 6073 6074 6075 6076 6077 6078 6079 6080 6081 6082 6083 6084 6085 6086 6087 6088 6089 6090 6091 6092 6093 6094 6095 6096 6097 6098 6099 6100 6101 6102 6103 6104 6105 6106 6107 6108 6109 6110 6111 6112 6113 6114 6115 6116 6117 6118 6119 6120 6121 6122 6123 6124 6125 6126 6127 6128 6129 6130 6131 6132 6133 6134 6135 6136 6137 6138 6139 6140 6141 6142 6143 6144 6145 6146 6147 6148 6149 6150 6151 6152 6153 6154 6155 6156 6157 6158 6159 6160 6161 6162 6163 6164 6165 6166 6167 6168 6169 6170 6171 6172 6173 6174 6175 6176 6177 6178 6179 6180 6181 6182 6183 6184 6185 6186 6187 6188 6189 6190 6191 6192 6193 6194 6195 6196 6197 6198 6199 6200 6201 6202 6203 6204 6205 6206 6207 6208 6209 6210 6211 6212 6213 6214 6215 6216 6217 6218 6219 6220 6221 6222 6223 6224 6225 6226 6227 6228 6229 6230 6231 6232 6233 6234 6235 6236 6237 6238 6239 6240 6241 6242 6243 6244 6245 6246 6247 6248 6249 6250 6251 6252 6253 6254 6255 6256 6257 6258 6259 6260 6261 6262 6263 6264 6265 6266 6267 6268 6269 6270 6271 6272 6273 6274 6275 6276 6277 6278 6279 6280 6281 6282 6283 6284 6285 6286 6287 6288 6289 6290 6291 6292 6293 6294 6295 6296 6297 6298 6299 6300 6301 6302 6303 6304 6305 6306 6307 6308 6309 6310 6311 6312 6313 6314 6315 6316 6317 6318 6319 6320 6321 6322 6323 6324 6325 6326 6327 6328 6329 6330 6331 6332 6333 6334 6335 6336 6337 6338 6339 6340 6341 6342 6343 6344 6345 6346 6347 6348 6349 6350 6351 6352 6353 6354 6355 6356 6357 6358 6359 6360 6361 6362 6363 6364 6365 6366 6367 6368 6369 6370 6371 6372 6373 6374 6375 6376 6377 6378 6379 6380 6381 6382 6383 6384 6385 6386 6387 6388 6389 6390 6391 6392 6393 6394 6395 6396 6397 6398 6399 6400 6401 6402 6403 6404 6405 6406 6407 6408 6409 6410 6411 6412 6413 6414 6415 6416 6417 6418 6419 6420 6421 6422 6423 6424 6425 6426 6427 6428 6429 6430 6431 6432 6433 6434 6435 6436 6437 6438 6439 6440 6441 6442 6443 6444 6445 6446 6447 6448 6449 6450 6451 6452 6453 6454 6455 6456 6457 6458 6459 6460 6461 6462 6463 6464 6465 6466 6467 6468 6469 6470 6471 6472 6473 6474 6475 6476 6477 6478 6479 6480 6481 6482 6483 6484 6485 6486 6487 6488 6489 6490 6491 6492 6493 6494 6495 6496 6497 6498 6499 6500 6501 6502 6503 6504 6505 6506 6507 6508 6509 6510 6511 6512 6513 6514 6515 6516 6517 6518 6519 6520 6521 6522 6523 6524 6525 6526 6527 6528 6529 6530 6531 6532 6533 6534 6535 6536 6537 6538 6539 6540 6541 6542 6543 6544 6545 6546 6547 6548 6549 6550 6551 6552 6553 6554 6555 6556 6557 6558 6559 6560 6561 6562 6563 6564 6565 6566 6567 6568 6569 6570 6571 6572 6573 6574 6575 6576 6577 6578 6579 6580 6581 6582 6583 6584 6585 6586 6587 6588 6589 6590 6591 6592 6593 6594 6595 6596 6597 6598 6599 6600 6601 6602 6603 6604 6605 6606 6607 6608 6609 6610 6611 6612 6613 6614 6615 6616 6617 6618 6619 6620 6621 6622 6623 6624 6625 6626 6627 6628 6629 6630 6631 6632 6633 6634 6635 6636 6637 6638 6639 6640 6641 6642 6643 6644 6645 6646 6647 6648 6649 6650 6651 6652 6653 6654 6655 6656 6657 6658 6659 6660 6661 6662 6663 6664 6665 6666 6667 6668 6669 6670 6671 6672 6673 6674 6675 6676 6677 6678 6679 6680 6681 6682 6683 6684 6685 6686 6687 6688 6689 6690 6691 6692 6693 6694 6695 6696 6697 6698 6699 6700 6701 6702 6703 6704 6705 6706 6707 6708 6709 6710 6711 6712 6713 6714 6715 6716 6717 6718 6719 6720 6721 6722 6723 6724 6725 6726 6727 6728 6729 6730 6731 6732 6733 6734 6735 6736 6737 6738 6739 6740 6741 6742 6743 6744 6745 6746 6747 6748 6749 6750 6751 6752 6753 6754 6755 6756 6757 6758 6759 6760 6761 6762 6763 6764 6765 6766 6767 6768 6769 6770 6771 6772 6773 6774 6775 6776 6777 6778 6779 6780 6781 6782 6783 6784 6785 6786 6787 6788 6789 6790 6791 6792 6793 6794 6795 6796 6797 6798 6799 6800 6801 6802 6803 6804 6805 6806 6807 6808 6809 6810 6811 6812 6813 6814 6815 6816 6817 6818 6819 6820 6821 6822 6823 6824 6825 6826 6827 6828 6829 6830 6831 6832 6833 6834 6835 6836 6837 6838 6839 6840 6841 6842 6843 6844 6845 6846 6847 6848 6849 6850 6851 6852 6853 6854 6855 6856 6857 6858 6859 6860 6861 6862 6863 6864 6865 6866 6867 6868 6869 6870 6871 6872 6873 6874 6875 6876 6877 6878 6879 6880 6881 6882 6883 6884 6885 6886 6887 6888 6889 6890 6891 6892 6893 6894 6895 6896 6897 6898 6899 6900 6901 6902 6903 6904 6905 6906 6907 6908 6909 6910 6911 6912 6913 6914 6915 6916 6917 6918 6919 6920 6921 6922 6923 6924 6925 6926 6927 6928 6929 6930 6931 6932 6933 6934 6935 6936 6937 6938 6939 6940 6941 6942 6943 6944 6945 6946 6947 6948 6949 6950 6951 6952 6953 6954 6955 6956 6957 6958 6959 6960 6961 6962 6963 6964 6965 6966 6967 6968 6969 6970 6971 6972 6973 6974 6975 6976 6977 6978 6979 6980 6981 6982 6983 6984 6985 6986 6987 6988 6989 6990 6991 6992 6993 6994 6995 6996 6997 6998 6999 7000 7001 7002 7003 7004 7005 7006 7007 7008 7009 7010 7011 7012 7013 7014 7015 7016 7017 7018 7019 7020 7021 7022 7023 7024 7025 7026 7027 7028 7029 7030 7031 7032 7033 7034 7035 7036 7037 7038 7039 7040 7041 7042 7043 7044 7045 7046 7047 7048 7049 7050 7051 7052 7053 7054 7055 7056 7057 7058 7059 7060 7061 7062 7063 7064 7065 7066 7067 7068 7069 7070 7071 7072 7073 7074 7075 7076 7077 7078 7079 7080 7081 7082 7083 7084 7085 7086 7087 7088 7089 7090 7091 7092 7093 7094 7095 7096 7097 7098 7099 7100 7101 7102 7103 7104 7105 7106 7107 7108 7109 7110 7111 7112 7113 7114 7115 7116 7117 7118 7119 7120 7121 7122 7123 7124 7125 7126 7127 7128 7129 7130 7131 7132 7133 7134 7135 7136 7137 7138 7139 7140 7141 7142 7143 7144 7145 7146 7147 7148 7149 7150 7151 7152 7153 7154 7155 7156 7157 7158 7159 7160 7161 7162 7163 7164 7165 7166 7167 7168 7169 7170 7171 7172 7173 7174 7175 7176 7177 7178 7179 7180 7181 7182 7183 7184 7185 7186 7187 7188 7189 7190 7191 7192 7193 7194 7195 7196 7197 7198 7199 7200 7201 7202 7203 7204 7205 7206 7207 7208 7209 7210 7211 7212 7213 7214 7215 7216 7217 7218 7219 7220 7221 7222 7223 7224 7225 7226 7227 7228 7229 7230 7231 7232 7233 7234 7235 7236 7237 7238 7239 7240 7241 7242 7243 7244 7245 7246 7247 7248 7249 7250 7251 7252 7253 7254 7255 7256 7257 7258 7259 7260 7261 7262 7263 7264 7265 7266 7267 7268 7269 7270 7271 7272 7273 7274 7275 7276 7277 7278 7279 7280 7281 7282 7283 7284 7285 7286 7287 7288 7289 7290 7291 7292 7293 7294 7295 7296 7297 7298 7299 7300 7301 7302 7303 7304 7305 7306 7307 7308 7309 7310 7311 7312 7313 7314 7315 7316 7317 7318 7319 7320 7321 7322 7323 7324 7325 7326 7327 7328 7329 7330 7331 7332 7333 7334 7335 7336 7337 7338 7339 7340 7341 7342 7343 7344 7345 7346 7347 7348 7349 7350 7351 7352 7353 7354 7355 7356 7357 7358 7359 7360 7361 7362 7363 7364 7365 7366 7367 7368 7369 7370 7371 7372 7373 7374 7375 7376 7377 7378 7379 7380 7381 7382 7383 7384 7385 7386 7387 7388 7389 7390 7391 7392 7393 7394 7395 7396 7397 7398 7399 7400 7401 7402 7403 7404 7405 7406 7407 7408 7409 7410 7411 7412 7413 7414 7415 7416 7417 7418 7419 7420 7421 7422 7423 7424 7425 7426 7427 7428 7429 7430 7431 7432 7433 7434 7435 7436 7437 7438 7439 7440 7441 7442 7443 7444 7445 7446 7447 7448 7449 7450 7451 7452 7453 7454 7455 7456 7457 7458 7459 7460 7461 7462 7463 7464 7465 7466 7467 7468 7469 7470 7471 7472 7473 7474 7475 7476 7477 7478 7479 7480 7481 7482 7483 7484 7485 7486 7487 7488 7489 7490 7491 7492 7493 7494 7495 7496 7497 7498 7499 7500 7501 7502 7503 7504 7505 7506 7507 7508 7509 7510 7511 7512 7513 7514 7515 7516 7517 7518 7519 7520 7521 7522 7523 7524 7525 7526 7527 7528 7529 7530 7531 7532 7533 7534 7535 7536 7537 7538 7539 7540 7541 7542 7543 7544 7545 7546 7547 7548 7549 7550 7551 7552 7553 7554 7555 7556 7557 7558 7559 7560 7561 7562 7563 7564 7565 7566 7567 7568 7569 7570 7571 7572 7573 7574 7575 7576 7577 7578 7579 7580 7581 7582 7583 7584 7585 7586 7587 7588 7589 7590 7591 7592 7593 7594 7595 7596 7597 7598 7599 7600 7601 7602 7603 7604 7605 7606 7607 7608 7609 7610 7611 7612 7613 7614 7615 7616 7617 7618 7619 7620 7621 7622 7623 7624 7625 7626 7627 7628 7629 7630 7631 7632 7633 7634 7635 7636 7637 7638 7639 7640 7641 7642 7643 7644 7645 7646 7647 7648 7649 7650 7651 7652 7653 7654 7655 7656 7657 7658 7659 7660 7661 7662 7663 7664 7665 7666 7667 7668 7669 7670 7671 7672 7673 7674 7675 7676 7677 7678 7679 7680 7681 7682 7683 7684 7685 7686 7687 7688 7689 7690 7691 7692 7693 7694 7695 7696 7697 7698 7699 7700 7701 7702 7703 7704 7705 7706 7707 7708 7709 7710 7711 7712 7713 7714 7715 7716 7717 7718 7719 7720 7721 7722 7723 7724 7725 7726 7727 7728 7729 7730 7731 7732 7733 7734 7735 7736 7737 7738 7739 7740 7741 7742 7743 7744 7745 7746 7747 7748 7749 7750 7751 7752 7753 7754 7755 7756 7757 7758 7759 7760 7761 7762 7763 7764 7765 7766 7767 7768 7769 7770 7771 7772 7773 7774 7775 7776 7777 7778 7779 7780 7781 7782 7783 7784 7785 7786 7787 7788 7789 7790 7791 7792 7793 7794 7795 7796 7797 7798 7799 7800 7801 7802 7803 7804 7805 7806 7807 7808 7809 7810 7811 7812 7813 7814 7815 7816 7817 7818 7819 7820 7821 7822 7823 7824 7825 7826 7827 7828 7829 7830 7831 7832 7833 7834 7835 7836 7837 7838 7839 7840 7841 7842 7843 7844 7845 7846 7847 7848 7849 7850 7851 7852 7853 7854 7855 7856 7857 7858 7859 7860 7861 7862 7863 7864 7865 7866 7867 7868 7869 7870 7871 7872 7873 7874 7875 7876 7877 7878 7879 7880 7881 7882 7883 7884 7885 7886 7887 7888 7889 7890 7891 7892 7893 7894 7895 7896 7897 7898 7899 7900 7901 7902 7903 7904 7905 7906 7907 7908 7909 7910 7911 7912 7913 7914 7915 7916 7917 7918 7919 7920 7921 7922 7923 7924 7925 7926 7927 7928 7929 7930 7931 7932 7933 7934 7935 7936 7937 7938 7939 7940 7941 7942 7943 7944 7945 7946 7947 7948 7949 7950 7951 7952 7953 7954 7955 7956 7957 7958 7959 7960 7961 7962 7963 7964 7965 7966 7967 7968 7969 7970 7971 7972 7973 7974 7975 7976 7977 7978 7979 7980 7981 7982 7983 7984 7985 7986 7987 7988 7989 7990 7991 7992 7993 7994 7995 7996 7997 7998 7999 8000 8001 8002 8003 8004 8005 8006 8007 8008 8009 8010 8011 8012 8013 8014 8015 8016 8017 8018 8019 8020 8021 8022 8023 8024 8025 8026 8027 8028 8029 8030 8031 8032 8033 8034 8035 8036 8037 8038 8039 8040 8041 8042 8043 8044 8045 8046 8047 8048 8049 8050 8051 8052 8053 8054 8055 8056 8057 8058 8059 8060 8061 8062 8063 8064 8065 8066 8067 8068 8069 8070 8071 8072 8073 8074 8075 8076 8077 8078 8079 8080 8081 8082 8083 8084 8085 8086 8087 8088 8089 8090 8091 8092 8093 8094 8095 8096 8097 8098 8099 8100 8101 8102 8103 8104 8105 8106 8107 8108 8109 8110 8111 8112 8113 8114 8115 8116 8117 8118 8119 8120 8121 8122 8123 8124 8125 8126 8127 8128 8129 8130 8131 8132 8133 8134 8135 8136 8137 8138 8139 8140 8141 8142 8143 8144 8145 8146 8147 8148 8149 8150 8151 8152 8153 8154 8155 8156 8157 8158 8159 8160 8161 8162 8163 8164 8165 8166 8167 8168 8169 8170 8171 8172 8173 8174 8175 8176 8177 8178 8179 8180 8181 8182 8183 8184 8185 8186 8187 8188 8189 8190 8191 8192 8193 8194 8195 8196 8197 8198 8199 8200 8201 8202 8203 8204 8205 8206 8207 8208 8209 8210 8211 8212 8213 8214 8215 8216 8217 8218 8219 8220 8221 8222 8223 8224 8225 8226 8227 8228 8229 8230 8231 8232 8233 8234 8235 8236 8237 8238 8239 8240 8241 8242 8243 8244 8245 8246 8247 8248 8249 8250 8251 8252 8253 8254 8255 8256 8257 8258 8259 8260 8261 8262 8263 8264 8265 8266 8267 8268 8269 8270 8271 8272 8273 8274 8275 8276 8277 8278 8279 8280 8281 8282 8283 8284 8285 8286 8287 8288 8289 8290 8291 8292 8293 8294 8295 8296 8297 8298 8299 8300 8301 8302 8303 8304 8305 8306 8307 8308 8309 8310 8311 8312 8313 8314 8315 8316 8317 8318 8319 8320 8321 8322 8323 8324 8325 8326 8327 8328 8329 8330 8331 8332 8333 8334 8335 8336 8337 8338 8339 8340 8341 8342 8343 8344 8345 8346 8347 8348 8349 8350 8351 8352 8353 8354 8355 8356 8357 8358 8359 8360 8361 8362 8363 8364 8365 8366 8367 8368 8369 8370 8371 8372 8373 8374 8375 8376 8377 8378 8379 8380 8381 8382 8383 8384 8385 8386 8387 8388 8389 8390 8391 8392 8393 8394 8395 8396 8397 8398 8399 8400 8401 8402 8403 8404 8405 8406 8407 8408 8409 8410 8411 8412 8413 8414 8415 8416 8417 8418 8419 8420 8421 8422 8423 8424 8425 8426 8427 8428 8429 8430 8431 8432 8433 8434 8435 8436 8437 8438 8439 8440 8441 8442 8443 8444 8445 8446 8447 8448 8449 8450 8451 8452 8453 8454 8455 8456 8457 8458 8459 8460 8461 8462 8463 8464 8465 8466 8467 8468 8469 8470 8471 8472 8473 8474 8475 8476 8477 8478 8479 8480 8481 8482 8483 8484 8485 8486 8487 8488 8489 8490 8491 8492 8493 8494 8495 8496 8497 8498 8499 8500 8501 8502 8503 8504 8505 8506 8507 8508 8509 8510 8511 8512 8513 8514 8515 8516 8517 8518 8519 8520 8521 8522 8523 8524 8525 8526 8527 8528 8529 8530 8531 8532 8533 8534 8535 8536 8537 8538 8539 8540 8541 8542 8543 8544 8545 8546 8547 8548 8549 8550 8551 8552 8553 8554 8555 8556 8557 8558 8559 8560 8561 8562 8563 8564 8565 8566 8567 8568 8569 8570 8571 8572 8573 8574 8575 8576 8577 8578 8579 8580 8581 8582 8583 8584 8585 8586 8587 8588 8589 8590 8591 8592 8593 8594 8595 8596 8597 8598 8599 8600 8601 8602 8603 8604 8605 8606 8607 8608 8609 8610 8611 8612 8613 8614 8615 8616 8617 8618 8619 8620 8621 8622 8623 8624 8625 8626 8627 8628 8629 8630 8631 8632 8633 8634 8635 8636 8637 8638 8639 8640 8641 8642 8643 8644 8645 8646 8647 8648 8649 8650 8651 8652 8653 8654 8655 8656 8657 8658 8659 8660 8661 8662 8663 8664 8665 8666 8667 8668 8669 8670 8671 8672 8673 8674 8675 8676 8677 8678 8679 8680 8681 8682 8683 8684 8685 8686 8687 8688 8689 8690 8691 8692 8693 8694 8695 8696 8697 8698 8699 8700 8701 8702 8703 8704 8705 8706 8707 8708 8709 8710 8711 8712 8713 8714 8715 8716 8717 8718 8719 8720 8721 8722 8723 8724 8725 8726 8727 8728 8729 8730 8731 8732 8733 8734 8735 8736 8737 8738 8739 8740 8741 8742 8743 8744 8745 8746 8747 8748 8749 8750 8751 8752 8753 8754 8755 8756 8757 8758 8759 8760 8761 8762 8763 8764 8765 8766 8767 8768 8769 8770 8771 8772 8773 8774 8775 8776 8777 8778 8779 8780 8781 8782 8783 8784 8785 8786 8787 8788 8789 8790 8791 8792 8793 8794 8795 8796 8797 8798 8799 8800 8801 8802 8803 8804 8805 8806 8807 8808 8809 8810 8811 8812 8813 8814 8815 8816 8817 8818 8819 8820 8821 8822 8823 8824 8825 8826 8827 8828 8829 8830 8831 8832 8833 8834 8835 8836 8837 8838 8839 8840 8841 8842 8843 8844 8845 8846 8847 8848 8849 8850 8851 8852 8853 8854 8855 8856 8857 8858 8859 8860 8861 8862 8863 8864 8865 8866 8867 8868 8869 8870 8871 8872 8873 8874 8875 8876 8877 8878 8879 8880 8881 8882 8883 8884 8885 8886 8887 8888 8889 8890 8891 8892 8893 8894 8895 8896 8897 8898 8899 8900 8901 8902 8903 8904 8905 8906 8907 8908 8909 8910 8911 8912 8913 8914 8915 8916 8917 8918 8919 8920 8921 8922 8923 8924 8925 8926 8927 8928 8929 8930 8931 8932 8933 8934 8935 8936 8937 8938 8939 8940 8941 8942 8943 8944 8945 8946 8947 8948 8949 8950 8951 8952 8953 8954 8955 8956 8957 8958 8959 8960 8961 8962 8963 8964 8965 8966 8967 8968 8969 8970 8971 8972 8973 8974 8975 8976 8977 8978 8979 8980 8981 8982 8983 8984 8985 8986 8987 8988 8989 8990 8991 8992 8993 8994 8995 8996 8997 8998 8999 9000 9001 9002 9003 9004 9005 9006 9007 9008 9009 9010 9011 9012 9013 9014 9015 9016 9017 9018 9019 9020 9021 9022 9023 9024 9025 9026 9027 9028 9029 9030 9031 9032 9033 9034 9035 9036 9037 9038 9039 9040 9041 9042 9043 9044 9045 9046 9047 9048 9049 9050 9051 9052 9053 9054 9055 9056 9057 9058 9059 9060 9061 9062 9063 9064 9065 9066 9067 9068 9069 9070 9071 9072 9073 9074 9075 9076 9077 9078 9079 9080 9081 9082 9083 9084 9085 9086 9087 9088 9089 9090 9091 9092 9093 9094 9095 9096 9097 9098 9099 9100 9101 9102 9103 9104 9105 9106 9107 9108 9109 9110 9111 9112 9113 9114 9115 9116 9117 9118 9119 9120 9121 9122 9123 9124 9125 9126 9127 9128 9129 9130 9131 9132 9133 9134 9135 9136 9137 9138 9139 9140 9141 9142 9143 9144 9145 9146 9147 9148 9149 9150 9151 9152 9153 9154 9155 9156 9157 9158 9159 9160 9161 9162 9163 9164 9165 9166 9167 9168 9169 9170 9171 9172 9173 9174 9175 9176 9177 9178 9179 9180 9181 9182 9183 9184 9185 9186 9187 9188 9189 9190 9191 9192 9193 9194 9195 9196 9197 9198 9199 9200 9201 9202 9203 9204 9205 9206 9207 9208 9209 9210 9211 9212 9213 9214 9215 9216 9217 9218 9219 9220 9221 9222 9223 9224 9225 9226 9227 9228 9229 9230 9231 9232 9233 9234 9235 9236 9237 9238 9239 9240 9241 9242 9243 9244 9245 9246 9247 9248 9249 9250 9251 9252 9253 9254 9255 9256 9257 9258 9259 9260 9261 9262 9263 9264 9265 9266 9267 9268 9269 9270 9271 9272 9273 9274 9275 9276 9277 9278 9279 9280 9281 9282 9283 9284 9285 9286 9287 9288 9289 9290 9291 9292 9293 9294 9295 9296 9297 9298 9299 9300 9301 9302 9303 9304 9305 9306 9307 9308 9309 9310 9311 9312 9313 9314 9315 9316 9317 9318 9319 9320 9321 9322 9323 9324 9325 9326 9327 9328 9329 9330 9331 9332 9333 9334 9335 9336 9337 9338 9339 9340 9341 9342 9343 9344 9345 9346 9347 9348 9349 9350 9351 9352 9353 9354 9355 9356 9357 9358 9359 9360 9361 9362 9363 9364 9365 9366 9367 9368 9369 9370 9371 9372 9373 9374 9375 9376 9377 9378 9379 9380 9381 9382 9383 9384 9385 9386 9387 9388 9389 9390 9391 9392 9393 9394 9395 9396 9397 9398 9399 9400 9401 9402 9403 9404 9405 9406 9407 9408 9409 9410 9411 9412 9413 9414 9415 9416 9417 9418 9419 9420 9421 9422 9423 9424 9425 9426 9427 9428 9429 9430 9431 9432 9433 9434 9435 9436 9437 9438 9439 9440 9441 9442 9443 9444 9445 9446 9447 9448 9449 9450 9451 9452 9453 9454 9455 9456 9457 9458 9459 9460 9461 9462 9463 9464 9465 9466 9467 9468 9469 9470 9471 9472 9473 9474 9475 9476 9477 9478 9479 9480 9481 9482 9483 9484 9485 9486 9487 9488 9489 9490 9491 9492 9493 9494 9495 9496 9497 9498 9499 9500 9501 9502 9503 9504 9505 9506 9507 9508 9509 9510 9511 9512 9513 9514 9515 9516 9517 9518 9519 9520 9521 9522 9523 9524 9525 9526 9527 9528 9529 9530 9531 9532 9533 9534 9535 9536 9537 9538 9539 9540 9541 9542 9543 9544 9545 9546 9547 9548 9549 9550 9551 9552 9553 9554 9555 9556 9557 9558 9559 9560 9561 9562 9563 9564 9565 9566 9567 9568 9569 9570 9571 9572 9573 9574 9575 9576 9577 9578 9579 9580 9581 9582 9583 9584 9585 9586 9587 9588 9589 9590 9591 9592 9593 9594 9595 9596 9597 9598 9599 9600 9601 9602 9603 9604 9605 9606 9607 9608 9609 9610 9611 9612 9613 9614 9615 9616 9617 9618 9619 9620 9621 9622 9623 9624 9625 9626 9627 9628 9629 9630 9631 9632 9633 9634 9635 9636 9637 9638 9639 9640 9641 9642 9643 9644 9645 9646 9647 9648 9649 9650 9651 9652 9653 9654 9655 9656 9657 9658 9659 9660 9661 9662 9663 9664 9665 9666 9667 9668 9669 9670 9671 9672 9673 9674 9675 9676 9677 9678 9679 9680 9681 9682 9683 9684 9685 9686 9687 9688 9689 9690 9691 9692 9693 9694 9695 9696 9697 9698 9699 9700 9701 9702 9703 9704 9705 9706 9707 9708 9709 9710 9711 9712 9713 9714 9715 9716 9717 9718 9719 9720 9721 9722 9723 9724 9725 9726 9727 9728 9729 9730 9731 9732 9733 9734 9735 9736 9737 9738 9739 9740 9741 9742 9743 9744 9745 9746 9747 9748 9749 9750 9751 9752 9753 9754 9755 9756 9757 9758 9759 9760 9761 9762 9763 9764 9765 9766 9767 9768 9769 9770 9771 9772 9773 9774 9775 9776 9777 9778 9779 9780 9781 9782 9783 9784 9785 9786 9787 9788 9789 9790 9791 9792 9793 9794 9795 9796 9797 9798 9799 9800 9801 9802 9803 9804 9805 9806 9807 9808 9809 9810 9811 9812 9813 9814 9815 9816 9817 9818 9819 9820 9821 9822 9823 9824 9825 9826 9827 9828 9829 9830 9831 9832 9833 9834 9835 9836 9837 9838 9839 9840 9841 9842 9843 9844 9845 9846 9847 9848 9849 9850 9851 9852 9853 9854 9855 9856 9857 9858 9859 9860 9861 9862 9863 9864 9865 9866 9867 9868 9869 9870 9871 9872 9873 9874 9875 9876 9877 9878 9879 9880 9881 9882 9883 9884 9885 9886 9887 9888 9889 9890 9891 9892 9893 9894 9895 9896 9897 9898 9899 9900 9901 9902 9903 9904 9905 9906 9907 9908 9909 9910 9911 9912 9913 9914 9915 9916 9917 9918 9919 9920 9921 9922 9923 9924 9925 9926 9927 9928 9929 9930 9931 9932 9933 9934 9935 9936 9937 9938 9939 9940 9941 9942 9943 9944 9945 9946 9947 9948 9949 9950 9951 9952 9953 9954 9955 9956 9957 9958 9959 9960 9961 9962 9963 9964 9965 9966 9967 9968 9969 9970 9971 9972 9973 9974 9975 9976 9977 9978 9979 9980 9981 9982 9983 9984 9985 9986 9987 9988 9989 9990 9991 9992 9993 9994 9995 9996 9997 9998 9999 10000 10001 10002 10003 10004 10005 10006 10007 10008 10009 10010 10011 10012 10013 10014 10015 10016 10017 10018 10019 10020 10021 10022 10023 10024 10025 10026 10027 10028 10029 10030 10031 10032 10033 10034 10035 10036 10037 10038 10039 10040 10041 10042 10043 10044 10045 10046 10047 10048 10049 10050 10051 10052 10053 10054 10055 10056 10057 10058 10059 10060 10061 10062 10063 10064 10065 10066 10067 10068 10069 10070 10071 10072 10073 10074 10075 10076 10077 10078 10079 10080 10081 10082 10083 10084 10085 10086 10087 10088 10089 10090 10091 10092 10093 10094 10095 10096 10097 10098 10099 10100 10101 10102 10103 10104 10105 10106 10107 10108 10109 10110 10111 10112 10113 10114 10115 10116 10117 10118 10119 10120 10121 10122 10123 10124 10125 10126 10127 10128 10129 10130 10131 10132 10133 10134 10135 10136 10137 10138 10139 10140 10141 10142 10143 10144 10145 10146 10147 10148 10149 10150 10151 10152 10153 10154 10155 10156 10157 10158 10159 10160 10161 10162 10163 10164 10165 10166 10167 10168 10169 10170 10171 10172 10173 10174 10175 10176 10177 10178 10179 10180 10181 10182 10183 10184 10185 10186 10187 10188 10189 10190 10191 10192 10193 10194 10195 10196 10197 10198 10199 10200 10201 10202 10203 10204 10205 10206 10207 10208 10209 10210 10211 10212 10213 10214 10215 10216 10217 10218 10219 10220 10221 10222 10223 10224 10225 10226 10227 10228 10229 10230 10231 10232 10233 10234 10235 10236 10237 10238 10239 10240 10241 10242 10243 10244 10245 10246 10247 10248 10249 10250 10251 10252 10253 10254 10255 10256 10257 10258 10259 10260 10261 10262 10263 10264 10265 10266 10267 10268 10269 10270 10271 10272 10273 10274 10275 10276 10277 10278 10279 10280 10281 10282 10283 10284 10285 10286 10287 10288 10289 10290 10291 10292 10293 10294 10295 10296 10297 10298 10299 10300 10301 10302 10303 10304 10305 10306 10307 10308 10309 10310 10311 10312 10313 10314 10315 10316 10317 10318 10319 10320 10321 10322 10323 10324 10325 10326 10327 10328 10329 10330 10331 10332 10333 10334 10335 10336 10337 10338 10339 10340 10341 10342 10343 10344 10345 10346 10347 10348 10349 10350 10351 10352 10353 10354 10355 10356 10357 10358 10359 10360 10361 10362 10363 10364 10365 10366 10367 10368 10369 10370 10371 10372 10373 10374 10375 10376 10377 10378 10379 10380 10381 10382 10383 10384 10385 10386 10387 10388 10389 10390 10391 10392 10393 10394 10395 10396 10397 10398 10399 10400 10401 10402 10403 10404 10405 10406 10407 10408 10409 10410 10411 10412 10413 10414 10415 10416 10417 10418 10419 10420 10421 10422 10423 10424 10425 10426 10427 10428 10429 10430 10431 10432 10433 10434 10435 10436 10437 10438 10439 10440 10441 10442 10443 10444 10445 10446 10447 10448 10449 10450 10451 10452 10453 10454 10455 10456 10457 10458 10459 10460 10461 10462 10463 10464 10465 10466 10467 10468 10469 10470 10471 10472 10473 10474 10475 10476 10477 10478 10479 10480 10481 10482 10483 10484 10485 10486 10487 10488 10489 10490 10491 10492 10493 10494 10495 10496 10497 10498 10499 10500 10501 10502 10503 10504 10505 10506 10507 10508 10509 10510 10511 10512 10513 10514 10515 10516 10517 10518 10519 10520 10521 10522 10523 10524 10525 10526 10527 10528 10529 10530 10531 10532 10533 10534 10535 10536 10537 10538 10539 10540 10541 10542 10543 10544 10545 10546 10547 10548 10549 10550 10551 10552 10553 10554 10555 10556 10557 10558 10559 10560 10561 10562 10563 10564 10565 10566 10567 10568 10569 10570 10571 10572 10573 10574 10575 10576 10577 10578 10579 10580 10581 10582 10583 10584 10585 10586 10587 10588 10589 10590 10591 10592 10593 10594 10595 10596 10597 10598 10599 10600 10601 10602 10603 10604 10605 10606 10607 10608 10609 10610 10611 10612 10613 10614 10615 10616 10617 10618 10619 10620 10621 10622 10623 10624 10625 10626 10627 10628 10629 10630 10631 10632 10633 10634 10635 10636 10637 10638 10639 10640 10641 10642 10643 10644 10645 10646 10647 10648 10649 10650 10651 10652 10653 10654 10655 10656 10657 10658 10659 10660 10661 10662 10663 10664 10665 10666 10667 10668 10669 10670 10671 10672 10673 10674 10675 10676 10677 10678 10679 10680 10681 10682 10683 10684 10685 10686 10687 10688 10689 10690 10691 10692 10693 10694 10695 10696 10697 10698 10699 10700 10701 10702 10703 10704 10705 10706 10707 10708 10709 10710 10711 10712 10713 10714 10715 10716 10717 10718 10719 10720 10721 10722 10723 10724 10725 10726 10727 10728 10729 10730 10731 10732 10733 10734 10735 10736 10737 10738 10739 10740 10741 10742 10743 10744 10745 10746 10747 10748 10749 10750 10751 10752 10753 10754 10755 10756 10757 10758 10759 10760 10761 10762 10763 10764 10765 10766 10767 10768 10769 10770 10771 10772 10773 10774 10775 10776 10777 10778 10779 10780 10781 10782 10783 10784 10785 10786 10787 10788 10789 10790 10791 10792 10793 10794 10795 10796 10797 10798 10799 10800 10801 10802 10803 10804 10805 10806 10807 10808 10809 10810 10811 10812 10813 10814 10815 10816 10817 10818 10819 10820 10821 10822 10823 10824 10825 10826 10827 10828 10829 10830 10831 10832 10833 10834 10835 10836 10837 10838 10839 10840 10841 10842 10843 10844 10845 10846 10847 10848 10849 10850 10851 10852 10853 10854 10855 10856 10857 10858 10859 10860 10861 10862 10863 10864 10865 10866 10867 10868 10869 10870 10871 10872 10873 10874 10875 10876 10877 10878 10879 10880 10881 10882 10883 10884 10885 10886 10887 10888 10889 10890 10891 10892 10893 10894 10895 10896 10897 10898 10899 10900 10901 10902 10903 10904 10905 10906 10907 10908 10909 10910 10911 10912 10913 10914 10915 10916 10917 10918 10919 10920 10921 10922 10923 10924 10925 10926 10927 10928 10929 10930 10931 10932 10933 10934 10935 10936 10937 10938 10939 10940 10941 10942 10943 10944 10945 10946 10947 10948 10949 10950 10951 10952 10953 10954 10955 10956 10957 10958 10959 10960 10961 10962 10963 10964 10965 10966 10967 10968 10969 10970 10971 10972 10973 10974 10975 10976 10977 10978 10979 10980 10981 10982 10983 10984 10985 10986 10987 10988 10989 10990 10991 10992 10993 10994 10995 10996 10997 10998 10999 11000 11001 11002 11003 11004 11005 11006 11007 11008 11009 11010 11011 11012 11013 11014 11015 11016 11017 11018 11019 11020 11021 11022 11023 11024 11025 11026 11027 11028 11029 11030 11031 11032 11033 11034 11035 11036 11037 11038 11039 11040 11041 11042 11043 11044 11045 11046 11047 11048 11049 11050 11051 11052 11053 11054 11055 11056 11057 11058 11059 11060 11061 11062 11063 11064 11065 11066 11067 11068 11069 11070 11071 11072 11073 11074 11075 11076 11077 11078 11079 11080 11081 11082 11083 11084 11085 11086 11087 11088 11089 11090 11091 11092 11093 11094 11095 11096 11097 11098 11099 11100 11101 11102 11103 11104 11105 11106 11107 11108 11109 11110 11111 11112 11113 11114 11115 11116 11117 11118 11119 11120 11121 11122 11123 11124 11125 11126 11127 11128 11129 11130 11131 11132 11133 11134 11135 11136 11137 11138 11139 11140 11141 11142 11143 11144 11145 11146 11147 11148 11149 11150 11151 11152 11153 11154 11155 11156 11157 11158 11159 11160 11161 11162 11163 11164 11165 11166 11167 11168 11169 11170 11171 11172 11173 11174 11175 11176 11177 11178 11179 11180 11181 11182 11183 11184 11185 11186 11187 11188 11189 11190 11191 11192 11193 11194 11195 11196 11197 11198 11199 11200 11201 11202 11203 11204 11205 11206 11207 11208 11209 11210 11211 11212 11213 11214 11215 11216 11217 11218 11219 11220 11221 11222 11223 11224 11225 11226 11227 11228 11229 11230 11231 11232 11233 11234 11235 11236 11237 11238 11239 11240 11241 11242 11243 11244 11245 11246 11247 11248 11249 11250 11251 11252 11253 11254 11255 11256 11257 11258 11259 11260 11261 11262 11263 11264 11265 11266 11267 11268 11269 11270 11271 11272 11273 11274 11275 11276 11277 11278 11279 11280 11281 11282 11283 11284 11285 11286 11287 11288 11289 11290 11291 11292 11293 11294 11295 11296 11297 11298 11299 11300 11301 11302 11303 11304 11305 11306 11307 11308 11309 11310 11311 11312 11313 11314 11315 11316 11317 11318 11319 11320 11321 11322 11323 11324 11325 11326 11327 11328 11329 11330 11331 11332 11333 11334 11335 11336 11337 11338 11339 11340 11341 11342 11343 11344 11345 11346 11347 11348 11349 11350 11351 11352 11353 11354 11355 11356 11357 11358 11359 11360 11361 11362 11363 11364 11365 11366 11367 11368 11369 11370 11371 11372 11373 11374 11375 11376 11377 11378 11379 11380 11381 11382 11383 11384 11385 11386 11387 11388 11389 11390 11391 11392 11393 11394 11395 11396 11397 11398 11399 11400 11401 11402 11403 11404 11405 11406 11407 11408 11409 11410 11411 11412 11413 11414 11415 11416 11417 11418 11419 11420 11421 11422 11423 11424 11425 11426 11427 11428 11429 11430 11431 11432 11433 11434 11435 11436 11437 11438 11439 11440 11441 11442 11443 11444 11445 11446 11447 11448 11449 11450 11451 11452 11453 11454 11455 11456 11457 11458 11459 11460 11461 11462 11463 11464 11465 11466 11467 11468 11469 11470 11471 11472 11473 11474 11475 11476 11477 11478 11479 11480 11481 11482 11483 11484 11485 11486 11487 11488 11489 11490 11491 11492 11493 11494 11495 11496 11497 11498 11499 11500 11501 11502 11503 11504 11505 11506 11507 11508 11509 11510 11511 11512 11513 11514 11515 11516 11517 11518 11519 11520 11521 11522 11523 11524 11525 11526 11527 11528 11529 11530 11531 11532 11533 11534 11535 11536 11537 11538 11539 11540 11541 11542 11543 11544 11545 11546 11547 11548 11549 11550 11551 11552 11553 11554 11555 11556 11557 11558 11559 11560 11561 11562 11563 11564 11565 11566 11567 11568 11569 11570 11571 11572 11573 11574 11575 11576 11577 11578 11579 11580 11581 11582 11583 11584 11585 11586 11587 11588 11589 11590 11591 11592 11593 11594 11595 11596 11597 11598 11599 11600 11601 11602 11603 11604 11605 11606 11607 11608 11609 11610 11611 11612 11613 11614 11615 11616 11617 11618 11619 11620 11621 11622 11623 11624 11625 11626 11627 11628 11629 11630 11631 11632 11633 11634 11635 11636 11637 11638 11639 11640 11641 11642 11643 11644 11645 11646 11647 11648 11649 11650 11651 11652 11653 11654 11655 11656 11657 11658 11659 11660 11661 11662 11663 11664 11665 11666 11667 11668 11669 11670 11671 11672 11673 11674 11675 11676 11677 11678 11679 11680 11681 11682 11683 11684 11685 11686 11687 11688 11689 11690 11691 11692 11693 11694 11695 11696 11697 11698 11699 11700 11701 11702 11703 11704 11705 11706 11707 11708 11709 11710 11711 11712 11713 11714 11715 11716 11717 11718 11719 11720 11721 11722 11723 11724 11725 11726 11727 11728 11729 11730 11731 11732 11733 11734 11735 11736 11737 11738 11739 11740 11741 11742 11743 11744 11745 11746 11747 11748 11749 11750 11751 11752 11753 11754 11755 11756 11757 11758 11759 11760 11761 11762 11763 11764 11765 11766 11767 11768 11769 11770 11771 11772 11773 11774 11775 11776 11777 11778 11779 11780 11781 11782 11783 11784 11785 11786 11787 11788 11789 11790 11791 11792 11793 11794 11795 11796 11797 11798 11799 11800 11801 11802 11803 11804 11805 11806 11807 11808 11809 11810 11811 11812 11813 11814 11815 11816 11817 11818 11819 11820 11821 11822 11823 11824 11825 11826 11827 11828 11829 11830 11831 11832 11833 11834 11835 11836 11837 11838 11839 11840 11841 11842 11843 11844 11845 11846 11847 11848 11849 11850 11851 11852 11853 11854 11855 11856 11857 11858 11859 11860 11861 11862 11863 11864 11865 11866 11867 11868 11869 11870 11871 11872 11873 11874 11875 11876 11877 11878 11879 11880 11881 11882 11883 11884 11885 11886 11887 11888 11889 11890 11891 11892 11893 11894 11895 11896 11897 11898 11899 11900 11901 11902 11903 11904 11905 11906 11907 11908 11909 11910 11911 11912 11913 11914 11915 11916 11917 11918 11919 11920 11921 11922 11923 11924 11925 11926 11927 11928 11929 11930 11931 11932 11933 11934 11935 11936 11937 11938 11939 11940 11941 11942 11943 11944 11945 11946 11947 11948 11949 11950 11951 11952 11953 11954 11955 11956 11957 11958 11959 11960 11961 11962 11963 11964 11965 11966 11967 11968 11969 11970 11971 11972 11973 11974 11975 11976 11977 11978 11979 11980 11981 11982 11983 11984 11985 11986 11987 11988 11989 11990 11991 11992 11993 11994 11995 11996 11997 11998 11999 12000 12001 12002 12003 12004 12005 12006 12007 12008 12009 12010 12011 12012 12013 12014 12015 12016 12017 12018 12019 12020 12021 12022 12023 12024 12025 12026 12027 12028 12029 12030 12031 12032 12033 12034 12035 12036 12037 12038 12039 12040 12041 12042 12043 12044 12045 12046 12047 12048 12049 12050 12051 12052 12053 12054 12055 12056 12057 12058 12059 12060 12061 12062 12063 12064 12065 12066 12067 12068 12069 12070 12071 12072 12073 12074 12075 12076 12077 12078 12079 12080 12081 12082 12083 12084 12085 12086 12087 12088 12089 12090 12091 12092 12093 12094 12095 12096 12097 12098 12099 12100 12101 12102 12103 12104 12105 12106 12107 12108 12109 12110 12111 12112 12113 12114 12115 12116 12117 12118 12119 12120 12121 12122 12123 12124 12125 12126 12127 12128 12129 12130 12131 12132 12133 12134 12135 12136 12137 12138 12139 12140 12141 12142 12143 12144 12145 12146 12147 12148 12149 12150 12151 12152 12153 12154 12155 12156 12157 12158 12159 12160 12161 12162 12163 12164 12165 12166 12167 12168 12169 12170 12171 12172 12173 12174 12175 12176 12177 12178 12179 12180 12181 12182 12183 12184 12185 12186 12187 12188 12189 12190 12191 12192 12193 12194 12195 12196 12197 12198 12199 12200 12201 12202 12203 12204 12205 12206 12207 12208 12209 12210 12211 12212 12213 12214 12215 12216 12217 12218 12219 12220 12221 12222 12223 12224 12225 12226 12227 12228 12229 12230 12231 12232 12233 12234 12235 12236 12237 12238 12239 12240 12241 12242 12243 12244 12245 12246 12247 12248 12249 12250 12251 12252 12253 12254 12255 12256 12257 12258 12259 12260 12261 12262 12263 12264 12265 12266 12267 12268 12269 12270 12271 12272 12273 12274 12275 12276 12277 12278 12279 12280 12281 12282 12283 12284 12285 12286 12287 12288 12289 12290 12291 12292 12293 12294 12295 12296 12297 12298 12299 12300 12301 12302 12303 12304 12305 12306 12307 12308 12309 12310 12311 12312 12313 12314 12315 12316 12317 12318 12319 12320 12321 12322 12323 12324 12325 12326 12327 12328 12329 12330 12331 12332 12333 12334 12335 12336 12337 12338 12339 12340 12341 12342 12343 12344 12345 12346 12347 12348 12349 12350 12351 12352 12353 12354 12355 12356 12357 12358 12359 12360 12361 12362 12363 12364 12365 12366 12367 12368 12369 12370 12371 12372 12373 12374 12375 12376 12377 12378 12379 12380 12381 12382 12383 12384 12385 12386 12387 12388 12389 12390 12391 12392 12393 12394 12395 12396 12397 12398 12399 12400 12401 12402 12403 12404 12405 12406 12407 12408 12409 12410 12411 12412 12413 12414 12415 12416 12417 12418 12419 12420 12421 12422 12423 12424 12425 12426 12427 12428 12429 12430 12431 12432 12433 12434 12435 12436 12437 12438 12439 12440 12441 12442 12443 12444 12445 12446 12447 12448 12449 12450 12451 12452 12453 12454 12455 12456 12457 12458 12459 12460 12461 12462 12463 12464 12465 12466 12467 12468 12469 12470 12471 12472 12473 12474 12475 12476 12477 12478 12479 12480 12481 12482 12483 12484 12485 12486 12487 12488 12489 12490 12491 12492 12493 12494 12495 12496 12497 12498 12499 12500 12501 12502 12503 12504 12505 12506 12507 12508 12509 12510 12511 12512 12513 12514 12515 12516 12517 12518 12519 12520 12521 12522 12523 12524 12525 12526 12527 12528 12529 12530 12531 12532 12533 12534 12535 12536 12537 12538 12539 12540 12541 12542 12543 12544 12545 12546 12547 12548 12549 12550 12551 12552 12553 12554 12555 12556 12557 12558 12559 12560 12561 12562 12563 12564 12565 12566 12567 12568 12569 12570 12571 12572 12573 12574 12575 12576 12577 12578 12579 12580 12581 12582 12583 12584 12585 12586 12587 12588 12589 12590 12591 12592 12593 12594 12595 12596 12597 12598 12599 12600 12601 12602 12603 12604 12605 12606 12607 12608 12609 12610 12611 12612 12613 12614 12615 12616 12617 12618 12619 12620 12621 12622 12623 12624 12625 12626 12627 12628 12629 12630 12631 12632 12633 12634 12635 12636 12637 12638 12639 12640 12641 12642 12643 12644 12645 12646 12647 12648 12649 12650 12651 12652 12653 12654 12655 12656 12657 12658 12659 12660 12661 12662 12663 12664 12665 12666 12667 12668 12669 12670 12671 12672 12673 12674 12675 12676 12677 12678 12679 12680 12681 12682 12683 12684 12685 12686 12687 12688 12689 12690 12691 12692 12693 12694 12695 12696 12697 12698 12699 12700 12701 12702 12703 12704 12705 12706 12707 12708 12709 12710 12711 12712 12713 12714 12715 12716 12717 12718 12719 12720 12721 12722 12723 12724 12725 12726 12727 12728 12729 12730 12731 12732 12733 12734 12735 12736 12737 12738 12739 12740 12741 12742 12743 12744 12745 12746 12747 12748 12749 12750 12751 12752 12753 12754 12755 12756 12757 12758 12759 12760 12761 12762 12763 12764 12765 12766 12767 12768 12769 12770 12771 12772 12773 12774 12775 12776 12777 12778 12779 12780 12781 12782 12783 12784 12785 12786 12787 12788 12789 12790 12791 12792 12793 12794 12795 12796 12797 12798 12799 12800 12801 12802 12803 12804 12805 12806 12807 12808 12809 12810 12811 12812 12813 12814 12815 12816 12817 12818 12819 12820 12821 12822 12823 12824 12825 12826 12827 12828 12829 12830 12831 12832 12833 12834 12835 12836 12837 12838 12839 12840 12841 12842 12843 12844 12845 12846 12847 12848 12849 12850 12851 12852 12853 12854 12855 12856 12857 12858 12859 12860 12861 12862 12863 12864 12865 12866 12867 12868 12869 12870 12871 12872 12873 12874 12875 12876 12877 12878 12879 12880 12881 12882 12883 12884 12885 12886 12887 12888 12889 12890 12891 12892 12893 12894 12895 12896 12897 12898 12899 12900 12901 12902 12903 12904 12905 12906 12907 12908 12909 12910 12911 12912 12913 12914 12915 12916 12917 12918 12919 12920 12921 12922 12923 12924 12925 12926 12927 12928 12929 12930 12931 12932 12933 12934 12935 12936 12937 12938 12939 12940 12941 12942 12943 12944 12945 12946 12947 12948 12949 12950 12951 12952 12953 12954 12955 12956 12957 12958 12959 12960 12961 12962 12963 12964 12965 12966 12967 12968 12969 12970 12971 12972 12973 12974 12975 12976 12977 12978 12979 12980 12981 12982 12983 12984 12985 12986 12987 12988 12989 12990 12991 12992 12993 12994 12995 12996 12997 12998 12999 13000 13001 13002 13003 13004 13005 13006 13007 13008 13009 13010 13011 13012 13013 13014 13015 13016 13017 13018 13019 13020 13021 13022 13023 13024 13025 13026 13027 13028 13029 13030 13031 13032 13033 13034 13035 13036 13037 13038 13039 13040 13041 13042 13043 13044 13045 13046 13047 13048 13049 13050 13051 13052 13053 13054 13055 13056 13057 13058 13059 13060 13061 13062 13063 13064 13065 13066 13067 13068 13069 13070 13071 13072 13073 13074 13075 13076 13077 13078 13079 13080 13081 13082 13083 13084 13085 13086 13087 13088 13089 13090 13091 13092 13093 13094 13095 13096 13097 13098 13099 13100 13101 13102 13103 13104 13105 13106 13107 13108 13109 13110 13111 13112 13113 13114 13115 13116 13117 13118 13119 13120 13121 13122 13123 13124 13125 13126 13127 13128 13129 13130 13131 13132 13133 13134 13135 13136 13137 13138 13139 13140 13141 13142 13143 13144 13145 13146 13147 13148 13149 13150 13151 13152 13153 13154 13155 13156 13157 13158 13159 13160 13161 13162 13163 13164 13165 13166 13167 13168 13169 13170 13171 13172 13173 13174 13175 13176 13177 13178 13179 13180 13181 13182 13183 13184 13185 13186 13187 13188 13189 13190 13191 13192 13193 13194 13195 13196 13197 13198 13199 13200 13201 13202 13203 13204 13205 13206 13207 13208 13209 13210 13211 13212 13213 13214 13215 13216 13217 13218 13219 13220 13221 13222 13223 13224 13225 13226 13227 13228 13229 13230 13231 13232 13233 13234 13235 13236 13237 13238 13239 13240 13241 13242 13243 13244 13245 13246 13247 13248 13249 13250 13251 13252 13253 13254 13255 13256 13257 13258 13259 13260 13261 13262 13263 13264 13265 13266 13267 13268 13269 13270 13271 13272 13273 13274 13275 13276 13277 13278 13279 13280 13281 13282 13283 13284 13285 13286 13287 13288 13289 13290 13291 13292 13293 13294 13295 13296 13297 13298 13299 13300 13301 13302 13303 13304 13305 13306 13307 13308 13309 13310 13311 13312 13313 13314 13315 13316 13317 13318 13319 13320 13321 13322 13323 13324 13325 13326 13327 13328 13329 13330 13331 13332 13333 13334 13335 13336 13337 13338 13339 13340 13341 13342 13343 13344 13345 13346 13347 13348 13349 13350 13351 13352 13353 13354 13355 13356 13357 13358 13359 13360 13361 13362 13363 13364 13365 13366 13367 13368 13369 13370 13371 13372 13373 13374 13375 13376 13377 13378 13379 13380 13381 13382 13383 13384 13385 13386 13387 13388 13389 13390 13391 13392 13393 13394 13395 13396 13397 13398 13399 13400 13401 13402 13403 13404 13405 13406 13407 13408 13409 13410 13411 13412 13413 13414 13415 13416 13417 13418 13419 13420 13421 13422 13423 13424 13425 13426 13427 13428 13429 13430 13431 13432 13433 13434 13435 13436 13437 13438 13439 13440 13441 13442 13443 13444 13445 13446 13447 13448 13449 13450 13451 13452 13453 13454 13455 13456 13457 13458 13459 13460 13461 13462 13463 13464 13465 13466 13467 13468 13469 13470 13471 13472 13473 13474 13475 13476 13477 13478 13479 13480 13481 13482 13483 13484 13485 13486 13487 13488 13489 13490 13491 13492 13493 13494 13495 13496 13497 13498 13499 13500 13501 13502 13503 13504 13505 13506 13507 13508 13509 13510 13511 13512 13513 13514 13515 13516 13517 13518 13519 13520 13521 13522 13523 13524 13525 13526 13527 13528 13529 13530 13531 13532 13533 13534 13535 13536 13537 13538 13539 13540 13541 13542 13543 13544 13545 13546 13547 13548 13549 13550 13551 13552 13553 13554 13555 13556 13557 13558 13559 13560 13561 13562 13563 13564 13565 13566 13567 13568 13569 13570 13571 13572 13573 13574 13575 13576 13577 13578 13579 13580 13581 13582 13583 13584 13585 13586 13587 13588 13589 13590 13591 13592 13593 13594 13595 13596 13597 13598 13599 13600 13601 13602 13603 13604 13605 13606 13607 13608 13609 13610 13611 13612 13613 13614 13615 13616 13617 13618 13619 13620 13621 13622 13623 13624 13625 13626 13627 13628 13629 13630 13631 13632 13633 13634 13635 13636 13637 13638 13639 13640 13641 13642 13643 13644 13645 13646 13647 13648 13649 13650 13651 13652 13653 13654 13655 13656 13657 13658 13659 13660 13661 13662 13663 13664 13665 13666 13667 13668 13669 13670 13671 13672 13673 13674 13675 13676 13677 13678 13679 13680 13681 13682 13683 13684 13685 13686 13687 13688 13689 13690 13691 13692 13693 13694 13695 13696 13697 13698 13699 13700 13701 13702 13703 13704 13705 13706 13707 13708 13709 13710 13711 13712 13713 13714 13715 13716 13717 13718 13719 13720 13721 13722 13723 13724 13725 13726 13727 13728 13729 13730 13731 13732 13733 13734 13735 13736 13737 13738 13739 13740 13741 13742 13743 13744 13745 13746 13747 13748 13749 13750 13751 13752 13753 13754 13755 13756 13757 13758 13759 13760 13761 13762 13763 13764 13765 13766 13767 13768 13769 13770 13771 13772 13773 13774 13775 13776 13777 13778 13779 13780 13781 13782 13783 13784 13785 13786 13787 13788 13789 13790 13791 13792 13793 13794 13795 13796 13797 13798 13799 13800 13801 13802 13803 13804 13805 13806 13807 13808 13809 13810 13811 13812 13813 13814 13815 13816 13817 13818 13819 13820 13821 13822 13823 13824 13825 13826 13827 13828 13829 13830 13831 13832 13833 13834 13835 13836 13837 13838 13839 13840 13841 13842 13843 13844 13845 13846 13847 13848 13849 13850 13851 13852 13853 13854 13855 13856 13857 13858 13859 13860 13861 13862 13863 13864 13865 13866 13867 13868 13869 13870 13871 13872 13873 13874 13875 13876 13877 13878 13879 13880 13881 13882 13883 13884 13885 13886 13887 13888 13889 13890 13891 13892 13893 13894 13895 13896 13897 13898 13899 13900 13901 13902 13903 13904 13905 13906 13907 13908 13909 13910 13911 13912 13913 13914 13915 13916 13917 13918 13919 13920 13921 13922 13923 13924 13925 13926 13927 13928 13929 13930 13931 13932 13933 13934 13935 13936 13937 13938 13939 13940 13941 13942 13943 13944 13945 13946 13947 13948 13949 13950 13951 13952 13953 13954 13955 13956 13957 13958 13959 13960 13961 13962 13963 13964 13965 13966 13967 13968 13969 13970 13971 13972 13973 13974 13975 13976 13977 13978 13979 13980 13981 13982 13983 13984 13985 13986 13987 13988 13989 13990 13991 13992 13993 13994 13995 13996 13997 13998 13999 14000 14001 14002 14003 14004 14005 14006 14007 14008 14009 14010 14011 14012 14013 14014 14015 14016 14017 14018 14019 14020 14021 14022 14023 14024 14025 14026 14027 14028 14029 14030 14031 14032 14033 14034 14035 14036 14037 14038 14039 14040 14041 14042 14043 14044 14045 14046 14047 14048 14049 14050 14051 14052 14053 14054 14055 14056 14057 14058 14059 14060 14061 14062 14063 14064 14065 14066 14067 14068 14069 14070 14071 14072 14073 14074 14075 14076 14077 14078 14079 14080 14081 14082 14083 14084 14085 14086 14087 14088 14089 14090 14091 14092 14093 14094 14095 14096 14097 14098 14099 14100 14101 14102 14103 14104 14105 14106 14107 14108 14109 14110 14111 14112 14113 14114 14115 14116 14117 14118 14119 14120 14121 14122 14123 14124 14125 14126 14127 14128 14129 14130 14131 14132 14133 14134 14135 14136 14137 14138 14139 14140 14141 14142 14143 14144 14145 14146 14147 14148 14149 14150 14151 14152 14153 14154 14155 14156 14157 14158 14159 14160 14161 14162 14163 14164 14165 14166 14167 14168 14169 14170 14171 14172 14173 14174 14175 14176 14177 14178 14179 14180 14181 14182 14183 14184 14185 14186 14187 14188 14189 14190 14191 14192 14193 14194 14195 14196 14197 14198 14199 14200 14201 14202 14203 14204 14205 14206 14207 14208 14209 14210 14211 14212 14213 14214 14215 14216 14217 14218 14219 14220 14221 14222 14223 14224 14225 14226 14227 14228 14229 14230 14231 14232 14233 14234 14235 14236 14237 14238 14239 14240 14241 14242 14243 14244 14245 14246 14247 14248 14249 14250 14251 14252 14253 14254 14255 14256 14257 14258 14259 14260 14261 14262 14263 14264 14265 14266 14267 14268 14269 14270 14271 14272 14273 14274 14275 14276 14277 14278 14279 14280 14281 14282 14283 14284 14285 14286 14287 14288 14289 14290 14291 14292 14293 14294 14295 14296 14297 14298 14299 14300 14301 14302 14303 14304 14305 14306 14307 14308 14309 14310 14311 14312 14313 14314 14315 14316 14317 14318 14319 14320 14321 14322 14323 14324 14325 14326 14327 14328 14329 14330 14331 14332 14333 14334 14335 14336 14337 14338 14339 14340 14341 14342 14343 14344 14345 14346 14347 14348 14349 14350 14351 14352 14353 14354 14355 14356 14357 14358 14359 14360 14361 14362 14363 14364 14365 14366 14367 14368 14369 14370 14371 14372 14373 14374 14375 14376 14377 14378 14379 14380 14381 14382 14383 14384 14385 14386 14387 14388 14389 14390 14391 14392 14393 14394 14395 14396 14397 14398 14399 14400 14401 14402 14403 14404 14405 14406 14407 14408 14409 14410 14411 14412 14413 14414 14415 14416 14417 14418 14419 14420 14421 14422 14423 14424 14425 14426 14427 14428 14429 14430 14431 14432 14433 14434 14435 14436 14437 14438 14439 14440 14441 14442 14443 14444 14445 14446 14447 14448 14449 14450 14451 14452 14453 14454 14455 14456 14457 14458 14459 14460 14461 14462 14463 14464 14465 14466 14467 14468 14469 14470 14471 14472 14473 14474 14475 14476 14477 14478 14479 14480 14481 14482 14483 14484 14485 14486 14487 14488 14489 14490 14491 14492 14493 14494 14495 14496 14497 14498 14499 14500 14501 14502 14503 14504 14505 14506 14507 14508 14509 14510 14511 14512 14513 14514 14515 14516 14517 14518 14519 14520 14521 14522 14523 14524 14525 14526 14527 14528 14529 14530 14531 14532 14533 14534 14535 14536 14537 14538 14539 14540 14541 14542 14543 14544 14545 14546 14547 14548 14549 14550 14551 14552 14553 14554 14555 14556 14557 14558 14559 14560 14561 14562 14563 14564 14565 14566 14567 14568 14569 14570 14571 14572 14573 14574 14575 14576 14577 14578 14579 14580 14581 14582 14583 14584 14585 14586 14587 14588 14589 14590 14591 14592 14593 14594 14595 14596 14597 14598 14599 14600 14601 14602 14603 14604 14605 14606 14607 14608 14609 14610 14611 14612 14613 14614 14615 14616 14617 14618 14619 14620 14621 14622 14623 14624 14625 14626 14627 14628 14629 14630 14631 14632 14633 14634 14635 14636 14637 14638 14639 14640 14641 14642 14643 14644 14645 14646 14647 14648 14649 14650 14651 14652 14653 14654 14655 14656 14657 14658 14659 14660 14661 14662 14663 14664 14665 14666 14667 14668 14669 14670 14671 14672 14673 14674 14675 14676 14677 14678 14679 14680 14681 14682 14683 14684 14685 14686 14687 14688 14689 14690 14691 14692 14693 14694 14695 14696 14697 14698 14699 14700 14701 14702 14703 14704 14705 14706 14707 14708 14709 14710 14711 14712 14713 14714 14715 14716 14717 14718 14719 14720 14721 14722 14723 14724 14725 14726 14727 14728 14729 14730 14731 14732 14733 14734 14735 14736 14737 14738 14739 14740 14741 14742 14743 14744 14745 14746 14747 14748 14749 14750 14751 14752 14753 14754 14755 14756 14757 14758 14759 14760 14761 14762 14763 14764 14765 14766 14767 14768 14769 14770 14771 14772 14773 14774 14775 14776 14777 14778 14779 14780 14781 14782 14783 14784 14785 14786 14787 14788 14789 14790 14791 14792 14793 14794 14795 14796 14797 14798 14799 14800 14801 14802 14803 14804 14805 14806 14807 14808 14809 14810 14811 14812 14813 14814 14815 14816 14817 14818 14819 14820 14821 14822 14823 14824 14825 14826 14827 14828 14829 14830 14831 14832 14833 14834 14835 14836 14837 14838 14839 14840 14841 14842 14843 14844 14845 14846 14847 14848 14849 14850 14851 14852 14853 14854 14855 14856 14857 14858 14859 14860 14861 14862 14863 14864 14865 14866 14867 14868 14869 14870 14871 14872 14873 14874 14875 14876 14877 14878 14879 14880 14881 14882 14883 14884 14885 14886 14887 14888 14889 14890 14891 14892 14893 14894 14895 14896 14897 14898 14899 14900 14901 14902 14903 14904 14905 14906 14907 14908 14909 14910 14911 14912 14913 14914 14915 14916 14917 14918 14919 14920 14921 14922 14923 14924 14925 14926 14927 14928 14929 14930 14931 14932 14933 14934 14935 14936 14937 14938 14939 14940 14941 14942 14943 14944 14945 14946 14947 14948 14949 14950 14951 14952 14953 14954 14955 14956 14957 14958 14959 14960 14961 14962 14963 14964 14965 14966 14967 14968 14969 14970 14971 14972 14973 14974 14975 14976 14977 14978 14979 14980 14981 14982 14983 14984 14985 14986 14987 14988 14989 14990 14991 14992 14993 14994 14995 14996 14997 14998 14999 15000 15001 15002 15003 15004 15005 15006 15007 15008 15009 15010 15011 15012 15013 15014 15015 15016 15017 15018 15019 15020 15021 15022 15023 15024 15025 15026 15027 15028 15029 15030 15031 15032 15033 15034 15035 15036 15037 15038 15039 15040 15041 15042 15043 15044 15045 15046 15047 15048 15049 15050 15051 15052 15053 15054 15055 15056 15057 15058 15059 15060 15061 15062 15063 15064 15065 15066 15067 15068 15069 15070 15071 15072 15073 15074 15075 15076 15077 15078 15079 15080 15081 15082 15083 15084 15085 15086 15087 15088 15089 15090 15091 15092 15093 15094 15095 15096 15097 15098 15099 15100 15101 15102 15103 15104 15105 15106 15107 15108 15109 15110 15111 15112 15113 15114 15115 15116 15117 15118 15119 15120 15121 15122 15123 15124 15125 15126 15127 15128 15129 15130 15131 15132 15133 15134 15135 15136 15137 15138 15139 15140 15141 15142 15143 15144 15145 15146 15147 15148 15149 15150 15151 15152 15153 15154 15155 15156 15157 15158 15159 15160 15161 15162 15163 15164 15165 15166 15167 15168 15169 15170 15171 15172 15173 15174 15175 15176 15177 15178 15179 15180 15181 15182 15183 15184 15185 15186 15187 15188 15189 15190 15191 15192 15193 15194 15195 15196 15197 15198 15199 15200 15201 15202 15203 15204 15205 15206 15207 15208 15209 15210 15211 15212 15213 15214 15215 15216 15217 15218 15219 15220 15221 15222 15223 15224 15225 15226 15227 15228 15229 15230 15231 15232 15233 15234 15235 15236 15237 15238 15239 15240 15241 15242 15243 15244 15245 15246 15247 15248 15249 15250 15251 15252 15253 15254 15255 15256 15257 15258 15259 15260 15261 15262 15263 15264 15265 15266 15267 15268 15269 15270 15271 15272 15273 15274 15275 15276 15277 15278 15279 15280 15281 15282 15283 15284 15285 15286 15287 15288 15289 15290 15291 15292 15293 15294 15295 15296 15297 15298 15299 15300 15301 15302 15303 15304 15305 15306 15307 15308 15309 15310 15311 15312 15313 15314 15315 15316 15317 15318 15319 15320 15321 15322 15323 15324 15325 15326 15327 15328 15329 15330 15331 15332 15333 15334 15335 15336 15337 15338 15339 15340 15341 15342 15343 15344 15345 15346 15347 15348 15349 15350 15351 15352 15353 15354 15355 15356 15357 15358 15359 15360 15361 15362 15363 15364 15365 15366 15367 15368 15369 15370 15371 15372 15373 15374 15375 15376 15377 15378 15379 15380 15381 15382 15383 15384 15385 15386 15387 15388 15389 15390 15391 15392 15393 15394 15395 15396 15397 15398 15399 15400 15401 15402 15403 15404 15405 15406 15407 15408 15409 15410 15411 15412 15413 15414 15415 15416 15417 15418 15419 15420 15421 15422 15423 15424 15425 15426 15427 15428 15429 15430 15431 15432 15433 15434 15435 15436 15437 15438 15439 15440 15441 15442 15443 15444 15445 15446 15447 15448 15449 15450 15451 15452 15453 15454 15455 15456 15457 15458 15459 15460 15461 15462 15463 15464 15465 15466 15467 15468 15469 15470 15471 15472 15473 15474 15475 15476 15477 15478 15479 15480 15481 15482 15483 15484 15485 15486 15487 15488 15489 15490 15491 15492 15493 15494 15495 15496 15497 15498 15499 15500 15501 15502 15503 15504 15505 15506 15507 15508 15509 15510 15511 15512 15513 15514 15515 15516 15517 15518 15519 15520 15521 15522 15523 15524 15525 15526 15527 15528 15529 15530 15531 15532 15533 15534 15535 15536 15537 15538 15539 15540 15541 15542 15543 15544 15545 15546 15547 15548 15549 15550 15551 15552 15553 15554 15555 15556 15557 15558 15559 15560 15561 15562 15563 15564 15565 15566 15567 15568 15569 15570 15571 15572 15573 15574 15575 15576 15577 15578 15579 15580 15581 15582 15583 15584 15585 15586 15587 15588 15589 15590 15591 15592 15593 15594 15595 15596 15597 15598 15599 15600 15601 15602 15603 15604 15605 15606 15607 15608 15609 15610 15611 15612 15613 15614 15615 15616 15617 15618 15619 15620 15621 15622 15623 15624 15625 15626 15627 15628 15629 15630 15631 15632 15633 15634 15635 15636 15637 15638 15639 15640 15641 15642 15643 15644 15645 15646 15647 15648 15649 15650 15651 15652 15653 15654 15655 15656 15657 15658 15659 15660 15661 15662 15663 15664 15665 15666 15667 15668 15669 15670 15671 15672 15673 15674 15675 15676 15677 15678 15679 15680 15681 15682 15683 15684 15685 15686 15687 15688 15689 15690 15691 15692 15693 15694 15695 15696 15697 15698 15699 15700 15701 15702 15703 15704 15705 15706 15707 15708 15709 15710 15711 15712 15713 15714 15715 15716 15717 15718 15719 15720 15721 15722 15723 15724 15725 15726 15727 15728 15729 15730 15731 15732 15733 15734 15735 15736 15737 15738 15739 15740 15741 15742 15743 15744 15745 15746 15747 15748 15749 15750 15751 15752 15753 15754 15755 15756 15757 15758 15759 15760 15761 15762 15763 15764 15765 15766 15767 15768 15769 15770 15771 15772 15773 15774 15775 15776 15777 15778 15779 15780 15781 15782 15783 15784 15785 15786 15787 15788 15789 15790 15791 15792 15793 15794 15795 15796 15797 15798 15799 15800 15801 15802 15803 15804 15805 15806 15807 15808 15809 15810 15811 15812 15813 15814 15815 15816 15817 15818 15819 15820 15821 15822 15823 15824 15825 15826 15827 15828 15829 15830 15831 15832 15833 15834 15835 15836 15837 15838 15839 15840 15841 15842 15843 15844 15845 15846 15847 15848 15849 15850 15851 15852 15853 15854 15855 15856 15857 15858 15859 15860 15861 15862 15863 15864 15865 15866 15867 15868 15869 15870 15871 15872 15873 15874 15875 15876 15877 15878 15879 15880 15881 15882 15883 15884 15885 15886 15887 15888 15889 15890 15891 15892 15893 15894 15895 15896 15897 15898 15899 15900 15901 15902 15903 15904 15905 15906 15907 15908 15909 15910 15911 15912 15913 15914 15915 15916 15917 15918 15919 15920 15921 15922 15923 15924 15925 15926 15927 15928 15929 15930 15931 15932 15933 15934 15935 15936 15937 15938 15939 15940 15941 15942 15943 15944 15945 15946 15947 15948 15949 15950 15951 15952 15953 15954 15955 15956 15957 15958 15959 15960 15961 15962 15963 15964 15965 15966 15967 15968 15969 15970 15971 15972 15973 15974 15975 15976 15977 15978 15979 15980 15981 15982 15983 15984 15985 15986 15987 15988 15989 15990 15991 15992 15993 15994 15995 15996 15997 15998 15999 16000 16001 16002 16003 16004 16005 16006 16007 16008 16009 16010 16011 16012 16013 16014 16015 16016 16017 16018 16019 16020 16021 16022 16023 16024 16025 16026 16027 16028 16029 16030 16031 16032 16033 16034 16035 16036 16037 16038 16039 16040 16041 16042 16043 16044 16045 16046 16047 16048 16049 16050 16051 16052 16053 16054 16055 16056 16057 16058 16059 16060 16061 16062 16063 16064 16065 16066 16067 16068 16069 16070 16071 16072 16073 16074 16075 16076 16077 16078 16079 16080 16081 16082 16083 16084 16085 16086 16087 16088 16089 16090 16091 16092 16093 16094 16095 16096 16097 16098 16099 16100 16101 16102 16103 16104 16105 16106 16107 16108 16109 16110 16111 16112 16113 16114 16115 16116 16117 16118 16119 16120 16121 16122 16123 16124 16125 16126 16127 16128 16129 16130 16131 16132 16133 16134 16135 16136 16137 16138 16139 16140 16141 16142 16143 16144 16145 16146 16147 16148 16149 16150 16151 16152 16153 16154 16155 16156 16157 16158 16159 16160 16161 16162 16163 16164 16165 16166 16167 16168 16169 16170 16171 16172 16173 16174 16175 16176 16177 16178 16179 16180 16181 16182 16183 16184 16185 16186 16187 16188 16189 16190 16191 16192 16193 16194 16195 16196 16197 16198 16199 16200 16201 16202 16203 16204 16205 16206 16207 16208 16209 16210 16211 16212 16213 16214 16215 16216 16217 16218 16219 16220 16221 16222 16223 16224 16225 16226 16227 16228 16229 16230 16231 16232 16233 16234 16235 16236 16237 16238 16239 16240 16241 16242 16243 16244 16245 16246 16247 16248 16249 16250 16251 16252 16253 16254 16255 16256 16257 16258 16259 16260 16261 16262 16263 16264 16265 16266 16267 16268 16269 16270 16271 16272 16273 16274 16275 16276 16277 16278 16279 16280 16281 16282 16283 16284 16285 16286 16287 16288 16289 16290 16291 16292 16293 16294 16295 16296 16297 16298 16299 16300 16301 16302 16303 16304 16305 16306 16307 16308 16309 16310 16311 16312 16313 16314 16315 16316 16317 16318 16319 16320 16321 16322 16323 16324 16325 16326 16327 16328 16329 16330 16331 16332 16333 16334 16335 16336 16337 16338 16339 16340 16341 16342 16343 16344 16345 16346 16347 16348 16349 16350 16351 16352 16353 16354 16355 16356 16357 16358 16359 16360 16361 16362 16363 16364 16365 16366 16367 16368 16369 16370 16371 16372 16373 16374 16375 16376 16377 16378 16379 16380 16381 16382 16383 16384 16385 16386 16387 16388 16389 16390 16391 16392 16393 16394 16395 16396 16397 16398 16399 16400 16401 16402 16403 16404 16405 16406 16407 16408 16409 16410 16411 16412 16413 16414 16415 16416 16417 16418 16419 16420 16421 16422 16423 16424 16425 16426 16427 16428 16429 16430 16431 16432 16433 16434 16435 16436 16437 16438 16439 16440 16441 16442 16443 16444 16445 16446 16447 16448 16449 16450 16451 16452 16453 16454 16455 16456 16457 16458 16459 16460 16461 16462 16463 16464 16465 16466 16467 16468 16469 16470 16471 16472 16473 16474 16475 16476 16477 16478 16479 16480 16481 16482 16483 16484 16485 16486 16487 16488 16489 16490 16491 16492 16493 16494 16495 16496 16497 16498 16499 16500 16501 16502 16503 16504 16505 16506 16507 16508 16509 16510 16511 16512 16513 16514 16515 16516 16517 16518 16519 16520 16521 16522 16523 16524 16525 16526 16527 16528 16529 16530 16531 16532 16533 16534 16535 16536 16537 16538 16539 16540 16541 16542 16543 16544 16545 16546 16547 16548 16549 16550 16551 16552 16553 16554 16555 16556 16557 16558 16559 16560 16561 16562 16563 16564 16565 16566 16567 16568 16569 16570 16571 16572 16573 16574 16575 16576 16577 16578 16579 16580 16581 16582 16583 16584 16585 16586 16587 16588 16589 16590 16591 16592 16593 16594 16595 16596 16597 16598 16599 16600 16601 16602 16603 16604 16605 16606 16607 16608 16609 16610 16611 16612 16613 16614 16615 16616 16617 16618 16619 16620 16621 16622 16623 16624 16625 16626 16627 16628 16629 16630 16631 16632 16633 16634 16635 16636 16637 16638 16639 16640 16641 16642 16643 16644 16645 16646 16647 16648 16649 16650 16651 16652 16653 16654 16655 16656 16657 16658 16659 16660 16661 16662 16663 16664 16665 16666 16667 16668 16669 16670 16671 16672 16673 16674 16675 16676 16677 16678 16679 16680 16681 16682 16683 16684 16685 16686 16687 16688 16689 16690 16691 16692 16693 16694 16695 16696 16697 16698 16699 16700 16701 16702 16703 16704 16705 16706 16707 16708 16709 16710 16711 16712 16713 16714 16715 16716 16717 16718 16719 16720 16721 16722 16723 16724 16725 16726 16727 16728 16729 16730 16731 16732 16733 16734 16735 16736 16737 16738 16739 16740 16741 16742 16743 16744 16745 16746 16747 16748 16749 16750 16751 16752 16753 16754 16755 16756 16757 16758 16759 16760 16761 16762 16763 16764 16765 16766 16767 16768 16769 16770 16771 16772 16773 16774 16775 16776 16777 16778 16779 16780 16781 16782 16783 16784 16785 16786 16787 16788 16789 16790 16791 16792 16793 16794 16795 16796 16797 16798 16799 16800 16801 16802 16803 16804 16805 16806 16807 16808 16809 16810 16811 16812 16813 16814 16815 16816 16817 16818 16819 16820 16821 16822 16823 16824 16825 16826 16827 16828 16829 16830 16831 16832 16833 16834 16835 16836 16837 16838 16839 16840 16841 16842 16843 16844 16845 16846 16847 16848 16849 16850 16851 16852 16853 16854 16855 16856 16857 16858 16859 16860 16861 16862 16863 16864 16865 16866 16867 16868 16869 16870 16871 16872 16873 16874 16875 16876 16877 16878 16879 16880 16881 16882 16883 16884 16885 16886 16887 16888 16889 16890 16891 16892 16893 16894 16895 16896 16897 16898 16899 16900 16901 16902 16903 16904 16905 16906 16907 16908 16909 16910 16911 16912 16913 16914 16915 16916 16917 16918 16919 16920 16921 16922 16923 16924 16925 16926 16927 16928 16929 16930 16931 16932 16933 16934 16935 16936 16937 16938 16939 16940 16941 16942 16943 16944 16945 16946 16947 16948 16949 16950 16951 16952 16953 16954 16955 16956 16957 16958 16959 16960 16961 16962 16963 16964 16965 16966 16967 16968 16969 16970 16971 16972 16973 16974 16975 16976 16977 16978 16979 16980 16981 16982 16983 16984 16985 16986 16987 16988 16989 16990 16991 16992 16993 16994 16995 16996 16997 16998 16999 17000 17001 17002 17003 17004 17005 17006 17007 17008 17009 17010 17011 17012 17013 17014 17015 17016 17017 17018 17019 17020 17021 17022 17023 17024 17025 17026 17027 17028 17029 17030 17031 17032 17033 17034 17035 17036 17037 17038 17039 17040 17041 17042 17043 17044 17045 17046 17047 17048 17049 17050 17051 17052 17053 17054 17055 17056 17057 17058 17059 17060 17061 17062 17063 17064 17065 17066 17067 17068 17069 17070 17071 17072 17073 17074 17075 17076 17077 17078 17079 17080 17081 17082 17083 17084 17085 17086 17087 17088 17089 17090 17091 17092 17093 17094 17095 17096 17097 17098 17099 17100 17101 17102 17103 17104 17105 17106 17107 17108 17109 17110 17111 17112 17113 17114 17115 17116 17117 17118 17119 17120 17121 17122 17123 17124 17125 17126 17127 17128 17129 17130 17131 17132 17133 17134 17135 17136 17137 17138 17139 17140 17141 17142 17143 17144 17145 17146 17147 17148 17149 17150 17151 17152 17153 17154 17155 17156 17157 17158 17159 17160 17161 17162 17163 17164 17165 17166 17167 17168 17169 17170 17171 17172 17173 17174 17175 17176 17177 17178 17179 17180 17181 17182 17183 17184 17185 17186 17187 17188 17189 17190 17191 17192 17193 17194 17195 17196 17197 17198 17199 17200 17201 17202 17203 17204 17205 17206 17207 17208 17209 17210 17211 17212 17213 17214 17215 17216 17217 17218 17219 17220 17221 17222 17223 17224 17225 17226 17227 17228 17229 17230 17231 17232 17233 17234 17235 17236 17237 17238 17239 17240 17241 17242 17243 17244 17245 17246 17247 17248 17249 17250 17251 17252 17253 17254 17255 17256 17257 17258 17259 17260 17261 17262 17263 17264 17265 17266 17267 17268 17269 17270 17271 17272 17273 17274 17275 17276 17277 17278 17279 17280 17281 17282 17283 17284 17285 17286 17287 17288 17289 17290 17291 17292 17293 17294 17295 17296 17297 17298 17299 17300 17301 17302 17303 17304 17305 17306 17307 17308 17309 17310 17311 17312 17313 17314 17315 17316 17317 17318 17319 17320 17321 17322 17323 17324 17325 17326 17327 17328 17329 17330 17331 17332 17333 17334 17335 17336 17337 17338 17339 17340 17341 17342 17343 17344 17345 17346 17347 17348 17349 17350 17351 17352 17353 17354 17355 17356 17357 17358 17359 17360 17361 17362 17363 17364 17365 17366 17367 17368 17369 17370 17371 17372 17373 17374 17375 17376 17377 17378 17379 17380 17381 17382 17383 17384 17385 17386 17387 17388 17389 17390 17391 17392 17393 17394 17395 17396 17397 17398 17399 17400 17401 17402 17403 17404 17405 17406 17407 17408 17409 17410 17411 17412 17413 17414 17415 17416 17417 17418 17419 17420 17421 17422 17423 17424 17425 17426 17427 17428 17429 17430 17431 17432 17433 17434 17435 17436 17437 17438 17439 17440 17441 17442 17443 17444 17445 17446 17447 17448 17449 17450 17451 17452 17453 17454 17455 17456 17457 17458 17459 17460 17461 17462 17463 17464 17465 17466 17467 17468 17469 17470 17471 17472 17473 17474 17475 17476 17477 17478 17479 17480 17481 17482 17483 17484 17485 17486 17487 17488 17489 17490 17491 17492 17493 17494 17495 17496 17497 17498 17499 17500 17501 17502 17503 17504 17505 17506 17507 17508 17509 17510 17511 17512 17513 17514 17515 17516 17517 17518 17519 17520 17521 17522 17523 17524 17525 17526 17527 17528 17529 17530 17531 17532 17533 17534 17535 17536 17537 17538 17539 17540 17541 17542 17543 17544 17545 17546 17547 17548 17549 17550 17551 17552 17553 17554 17555 17556 17557 17558 17559 17560 17561 17562 17563 17564 17565 17566 17567 17568 17569 17570 17571 17572 17573 17574 17575 17576 17577 17578 17579 17580 17581 17582 17583 17584 17585 17586 17587 17588 17589 17590 17591 17592 17593 17594 17595 17596 17597 17598 17599 17600 17601 17602 17603 17604 17605 17606 17607 17608 17609 17610 17611 17612 17613 17614 17615 17616 17617 17618 17619 17620 17621 17622 17623 17624 17625 17626 17627 17628 17629 17630 17631 17632 17633 17634 17635 17636 17637 17638 17639 17640 17641 17642 17643 17644 17645 17646 17647 17648 17649 17650 17651 17652 17653 17654 17655 17656 17657 17658 17659 17660 17661 17662 17663 17664 17665 17666 17667 17668 17669 17670 17671 17672 17673 17674 17675 17676 17677 17678 17679 17680 17681 17682 17683 17684 17685 17686 17687 17688 17689 17690 17691 17692 17693 17694 17695 17696 17697 17698 17699 17700 17701 17702 17703 17704 17705 17706 17707 17708 17709 17710 17711 17712 17713 17714 17715 17716 17717 17718 17719 17720 17721 17722 17723 17724 17725 17726 17727 17728 17729 17730 17731 17732 17733 17734 17735 17736 17737 17738 17739 17740 17741 17742 17743 17744 17745 17746 17747 17748 17749 17750 17751 17752 17753 17754 17755 17756 17757 17758 17759 17760 17761 17762 17763 17764 17765 17766 17767 17768 17769 17770 17771 17772 17773 17774 17775 17776 17777 17778 17779 17780 17781 17782 17783 17784 17785 17786 17787 17788 17789 17790 17791 17792 17793 17794 17795 17796 17797 17798 17799 17800 17801 17802 17803 17804 17805 17806 17807 17808 17809 17810 17811 17812 17813 17814 17815 17816 17817 17818 17819 17820 17821 17822 17823 17824 17825 17826 17827 17828 17829 17830 17831 17832 17833 17834 17835 17836 17837 17838 17839 17840 17841 17842 17843 17844 17845 17846 17847 17848 17849 17850 17851 17852 17853 17854 17855 17856 17857 17858 17859 17860 17861 17862 17863 17864 17865 17866 17867 17868 17869 17870 17871 17872 17873 17874 17875 17876 17877 17878 17879 17880 17881 17882 17883 17884 17885 17886 17887 17888 17889 17890 17891 17892 17893 17894 17895 17896 17897 17898 17899 17900 17901 17902 17903 17904 17905 17906 17907 17908 17909 17910 17911 17912 17913 17914 17915 17916 17917 17918 17919 17920 17921 17922 17923 17924 17925 17926 17927 17928 17929 17930 17931 17932 17933 17934 17935 17936 17937 17938 17939 17940 17941 17942 17943 17944 17945 17946 17947 17948 17949 17950 17951 17952 17953 17954 17955 17956 17957 17958 17959 17960 17961 17962 17963 17964 17965 17966 17967 17968 17969 17970 17971 17972 17973 17974 17975 17976 17977 17978 17979 17980 17981 17982 17983 17984 17985 17986 17987 17988 17989 17990 17991 17992 17993 17994 17995 17996 17997 17998 17999 18000 18001 18002 18003 18004 18005 18006 18007 18008 18009 18010 18011 18012 18013 18014 18015 18016 18017 18018 18019 18020 18021 18022 18023 18024 18025 18026 18027 18028 18029 18030 18031 18032 18033 18034 18035 18036 18037 18038 18039 18040 18041 18042 18043 18044 18045 18046 18047 18048 18049 18050 18051 18052 18053 18054 18055 18056 18057 18058 18059 18060 18061 18062 18063 18064 18065 18066 18067 18068 18069 18070 18071 18072 18073 18074 18075 18076 18077 18078 18079 18080 18081 18082 18083 18084 18085 18086 18087 18088 18089 18090 18091 18092 18093 18094 18095 18096 18097 18098 18099 18100 18101 18102 18103 18104 18105 18106 18107 18108 18109 18110 18111 18112 18113 18114 18115 18116 18117 18118 18119 18120 18121 18122 18123 18124 18125 18126 18127 18128 18129 18130 18131 18132 18133 18134 18135 18136 18137 18138 18139 18140 18141 18142 18143 18144 18145 18146 18147 18148 18149 18150 18151 18152 18153 18154 18155 18156 18157 18158 18159 18160 18161 18162 18163 18164 18165 18166 18167 18168 18169 18170 18171 18172 18173 18174 18175 18176 18177 18178 18179 18180 18181 18182 18183 18184 18185 18186 18187 18188 18189 18190 18191 18192 18193 18194 18195 18196 18197 18198 18199 18200 18201 18202 18203 18204 18205 18206 18207 18208 18209 18210 18211 18212 18213 18214 18215 18216 18217 18218 18219 18220 18221 18222 18223 18224 18225 18226 18227 18228 18229 18230 18231 18232 18233 18234 18235 18236 18237 18238 18239 18240 18241 18242 18243 18244 18245 18246 18247 18248 18249 18250 18251 18252 18253 18254 18255 18256 18257 18258 18259 18260 18261 18262 18263 18264 18265 18266 18267 18268 18269 18270 18271 18272 18273 18274 18275 18276 18277 18278 18279 18280 18281 18282 18283 18284 18285 18286 18287 18288 18289 18290 18291 18292 18293 18294 18295 18296 18297 18298 18299 18300 18301 18302 18303 18304 18305 18306 18307 18308 18309 18310 18311 18312 18313 18314 18315 18316 18317 18318 18319 18320 18321 18322 18323 18324 18325 18326 18327 18328 18329 18330 18331 18332 18333 18334 18335 18336 18337 18338 18339 18340 18341 18342 18343 18344 18345 18346 18347 18348 18349 18350 18351 18352 18353 18354 18355 18356 18357 18358 18359 18360 18361 18362 18363 18364 18365 18366 18367 18368 18369 18370 18371 18372 18373 18374 18375 18376 18377 18378 18379 18380 18381 18382 18383 18384 18385 18386 18387 18388 18389 18390 18391 18392 18393 18394 18395 18396 18397 18398 18399 18400 18401 18402 18403 18404 18405 18406 18407 18408 18409 18410 18411 18412 18413 18414 18415 18416 18417 18418 18419 18420 18421 18422 18423 18424 18425 18426 18427 18428 18429 18430 18431 18432 18433 18434 18435 18436 18437 18438 18439 18440 18441 18442 18443 18444 18445 18446 18447 18448 18449 18450 18451 18452 18453 18454 18455 18456 18457 18458 18459 18460 18461 18462 18463 18464 18465 18466 18467 18468 18469 18470 18471 18472 18473 18474 18475 18476 18477 18478 18479 18480 18481 18482 18483 18484 18485 18486 18487 18488 18489 18490 18491 18492 18493 18494 18495 18496 18497 18498 18499 18500 18501 18502 18503 18504 18505 18506 18507 18508 18509 18510 18511 18512 18513 18514 18515 18516 18517 18518 18519 18520 18521 18522 18523 18524 18525 18526 18527 18528 18529 18530 18531 18532 18533 18534 18535 18536 18537 18538 18539 18540 18541 18542 18543 18544 18545 18546 18547 18548 18549 18550 18551 18552 18553 18554 18555 18556 18557 18558 18559 18560 18561 18562 18563 18564 18565 18566 18567 18568 18569 18570 18571 18572 18573 18574 18575 18576 18577 18578 18579 18580 18581 18582 18583 18584 18585 18586 18587 18588 18589 18590 18591 18592 18593 18594 18595 18596 18597 18598 18599 18600 18601 18602 18603 18604 18605 18606 18607 18608 18609 18610 18611 18612 18613 18614 18615 18616 18617 18618 18619 18620 18621 18622 18623 18624 18625 18626 18627 18628 18629 18630 18631 18632 18633 18634 18635 18636 18637 18638 18639 18640 18641 18642 18643 18644 18645 18646 18647 18648 18649 18650 18651 18652 18653 18654 18655 18656 18657 18658 18659 18660 18661 18662 18663 18664 18665 18666 18667 18668 18669 18670 18671 18672 18673 18674 18675 18676 18677 18678 18679 18680 18681 18682 18683 18684 18685 18686 18687 18688 18689 18690 18691 18692 18693 18694 18695 18696 18697 18698 18699 18700 18701 18702 18703 18704 18705 18706 18707 18708 18709 18710 18711 18712 18713 18714 18715 18716 18717 18718 18719 18720 18721 18722 18723 18724 18725 18726 18727 18728 18729 18730 18731 18732 18733 18734 18735 18736 18737 18738 18739 18740 18741 18742 18743 18744 18745 18746 18747 18748 18749 18750 18751 18752 18753 18754 18755 18756 18757 18758 18759 18760 18761 18762 18763 18764 18765 18766 18767 18768 18769 18770 18771 18772 18773 18774 18775 18776 18777 18778 18779 18780 18781 18782 18783 18784 18785 18786 18787 18788 18789 18790 18791 18792 18793 18794 18795 18796 18797 18798 18799 18800 18801 18802 18803 18804 18805 18806 18807 18808 18809 18810 18811 18812 18813 18814 18815 18816 18817 18818 18819 18820 18821 18822 18823 18824 18825 18826 18827 18828 18829 18830 18831 18832 18833 18834 18835 18836 18837 18838 18839 18840 18841 18842 18843 18844 18845 18846 18847 18848 18849 18850 18851 18852 18853 18854 18855 18856 18857 18858 18859 18860 18861 18862 18863 18864 18865 18866 18867 18868 18869 18870 18871 18872 18873 18874 18875 18876 18877 18878 18879 18880 18881 18882 18883 18884 18885 18886 18887 18888 18889 18890 18891 18892 18893 18894 18895 18896 18897 18898 18899 18900 18901 18902 18903 18904 18905 18906 18907 18908 18909 18910 18911 18912 18913 18914 18915 18916 18917 18918 18919 18920 18921 18922 18923 18924 18925 18926 18927 18928 18929 18930 18931 18932 18933 18934 18935 18936 18937 18938 18939 18940 18941 18942 18943 18944 18945 18946 18947 18948 18949 18950 18951 18952 18953 18954 18955 18956 18957 18958 18959 18960 18961 18962 18963 18964 18965 18966 18967 18968 18969 18970 18971 18972 18973 18974 18975 18976 18977 18978 18979 18980 18981 18982 18983 18984 18985 18986 18987 18988 18989 18990 18991 18992 18993 18994 18995 18996 18997 18998 18999 19000 19001 19002 19003 19004 19005 19006 19007 19008 19009 19010 19011 19012 19013 19014 19015 19016 19017 19018 19019 19020 19021 19022 19023 19024 19025 19026 19027 19028 19029 19030 19031 19032 19033 19034 19035 19036 19037 19038 19039 19040 19041 19042 19043 19044 19045 19046 19047 19048 19049 19050 19051 19052 19053 19054 19055 19056 19057 19058 19059 19060 19061 19062 19063 19064 19065 19066 19067 19068 19069 19070 19071 19072 19073 19074 19075 19076 19077 19078 19079 19080 19081 19082 19083 19084 19085 19086 19087 19088 19089 19090 19091 19092 19093 19094 19095 19096 19097 19098 19099 19100 19101 19102 19103 19104 19105 19106 19107 19108 19109 19110 19111 19112 19113 19114 19115 19116 19117 19118 19119 19120 19121 19122 19123 19124 19125 19126 19127 19128 19129 19130 19131 19132 19133 19134 19135 19136 19137 19138 19139 19140 19141 19142 19143 19144 19145 19146 19147 19148 19149 19150 19151 19152 19153 19154 19155 19156 19157 19158 19159 19160 19161 19162 19163 19164 19165 19166 19167 19168 19169 19170 19171 19172 19173 19174 19175 19176 19177 19178 19179 19180 19181 19182 19183 19184 19185 19186 19187 19188 19189 19190 19191 19192 19193 19194 19195 19196 19197 19198 19199 19200 19201 19202 19203 19204 19205 19206 19207 19208 19209 19210 19211 19212 19213 19214 19215 19216 19217 19218 19219 19220 19221 19222 19223 19224 19225 19226 19227 19228 19229 19230 19231 19232 19233 19234 19235 19236 19237 19238 19239 19240 19241 19242 19243 19244 19245 19246 19247 19248 19249 19250 19251 19252 19253 19254 19255 19256 19257 19258 19259 19260 19261 19262 19263 19264 19265 19266 19267 19268 19269 19270 19271 19272 19273 19274 19275 19276 19277 19278 19279 19280 19281 19282 19283 19284 19285 19286 19287 19288 19289 19290 19291 19292 19293 19294 19295 19296 19297 19298 19299 19300 19301 19302 19303 19304 19305 19306 19307 19308 19309 19310 19311 19312 19313 19314 19315 19316 19317 19318 19319 19320 19321 19322 19323 19324 19325 19326 19327 19328 19329 19330 19331 19332 19333 19334 19335 19336 19337 19338 19339 19340 19341 19342 19343 19344 19345 19346 19347 19348 19349 19350 19351 19352 19353 19354 19355 19356 19357 19358 19359 19360 19361 19362 19363 19364 19365 19366 19367 19368 19369 19370 19371 19372 19373 19374 19375 19376 19377 19378 19379 19380 19381 19382 19383 19384 19385 19386 19387 19388 19389 19390 19391 19392 19393 19394 19395 19396 19397 19398 19399 19400 19401 19402 19403 19404 19405 19406 19407 19408 19409 19410 19411 19412 19413 19414 19415 19416 19417 19418 19419 19420 19421 19422 19423 19424 19425 19426 19427 19428 19429 19430 19431 19432 19433 19434 19435 19436 19437 19438 19439 19440 19441 19442 19443 19444 19445 19446 19447 19448 19449 19450 19451 19452 19453 19454 19455 19456 19457 19458 19459 19460 19461 19462 19463 19464 19465 19466 19467 19468 19469 19470 19471 19472 19473 19474 19475 19476 19477 19478 19479 19480 19481 19482 19483 19484 19485 19486 19487 19488 19489 19490 19491 19492 19493 19494 19495 19496 19497 19498 19499 19500 19501 19502 19503 19504 19505 19506 19507 19508 19509 19510 19511 19512 19513 19514 19515 19516 19517 19518 19519 19520 19521 19522 19523 19524 19525 19526 19527 19528 19529 19530 19531 19532 19533 19534 19535 19536 19537 19538 19539 19540 19541 19542 19543 19544 19545 19546 19547 19548 19549 19550 19551 19552 19553 19554 19555 19556 19557 19558 19559 19560 19561 19562 19563 19564 19565 19566 19567 19568 19569 19570 19571 19572 19573 19574 19575 19576 19577 19578 19579 19580 19581 19582 19583 19584 19585 19586 19587 19588 19589 19590 19591 19592 19593 19594 19595 19596 19597 19598 19599 19600 19601 19602 19603 19604 19605 19606 19607 19608 19609 19610 19611 19612 19613 19614 19615 19616 19617 19618 19619 19620 19621 19622 19623 19624 19625 19626 19627 19628 19629 19630 19631 19632 19633 19634 19635 19636 19637 19638 19639 19640 19641 19642 19643 19644 19645 19646 19647 19648 19649 19650 19651 19652 19653 19654 19655 19656 19657 19658 19659 19660 19661 19662 19663 19664 19665 19666 19667 19668 19669 19670 19671 19672 19673 19674 19675 19676 19677 19678 19679 19680 19681 19682 19683 19684 19685 19686 19687 19688 19689 19690 19691 19692 19693 19694 19695 19696 19697 19698 19699 19700 19701 19702 19703 19704 19705 19706 19707 19708 19709 19710 19711 19712 19713 19714 19715 19716 19717 19718 19719 19720 19721 19722 19723 19724 19725 19726 19727 19728 19729 19730 19731 19732 19733 19734 19735 19736 19737 19738 19739 19740 19741 19742 19743 19744 19745 19746 19747 19748 19749 19750 19751 19752 19753 19754 19755 19756 19757 19758 19759 19760 19761 19762 19763 19764 19765 19766 19767 19768 19769 19770 19771 19772 19773 19774 19775 19776 19777 19778 19779 19780 19781 19782 19783 19784 19785 19786 19787 19788 19789 19790 19791 19792 19793 19794 19795 19796 19797 19798 19799 19800 19801 19802 19803 19804 19805 19806 19807 19808 19809 19810 19811 19812 19813 19814 19815 19816 19817 19818 19819 19820 19821 19822 19823 19824 19825 19826 19827 19828 19829 19830 19831 19832 19833 19834 19835 19836 19837 19838 19839 19840 19841 19842 19843 19844 19845 19846 19847 19848 19849 19850 19851 19852 19853 19854 19855 19856 19857 19858 19859 19860 19861 19862 19863 19864 19865 19866 19867 19868 19869 19870 19871 19872 19873 19874 19875 19876 19877 19878 19879 19880 19881 19882 19883 19884 19885 19886 19887 19888 19889 19890 19891 19892 19893 19894 19895 19896 19897 19898 19899 19900 19901 19902 19903 19904 19905 19906 19907 19908 19909 19910 19911 19912 19913 19914 19915 19916 19917 19918 19919 19920 19921 19922 19923 19924 19925 19926 19927 19928 19929 19930 19931 19932 19933 19934 19935 19936 19937 19938 19939 19940 19941 19942 19943 19944 19945 19946 19947 19948 19949 19950 19951 19952 19953 19954 19955 19956 19957 19958 19959 19960 19961 19962 19963 19964 19965 19966 19967 19968 19969 19970 19971 19972 19973 19974 19975 19976 19977 19978 19979 19980 19981 19982 19983 19984 19985 19986 19987 19988 19989 19990 19991 19992 19993 19994 19995 19996 19997 19998 19999 20000 20001 20002 20003 20004 20005 20006 20007 20008 20009 20010 20011 20012 20013 20014 20015 20016 20017 20018 20019 20020 20021 20022 20023 20024 20025 20026 20027 20028 20029 20030 20031 20032 20033 20034 20035 20036 20037 20038 20039 20040 20041 20042 20043 20044 20045 20046 20047 20048 20049 20050 20051 20052 20053 20054 20055 20056 20057 20058 20059 20060 20061 20062 20063 20064 20065 20066 20067 20068 20069 20070 20071 20072 20073 20074 20075 20076 20077 20078 20079 20080 20081 20082 20083 20084 20085 20086 20087 20088 20089 20090 20091 20092 20093 20094 20095 20096 20097 20098 20099 20100 20101 20102 20103 20104 20105 20106 20107 20108 20109 20110 20111 20112 20113 20114 20115 20116 20117 20118 20119 20120 20121 20122 20123 20124 20125 20126 20127 20128 20129 20130 20131 20132 20133 20134 20135 20136 20137 20138 20139 20140 20141 20142 20143 20144 20145 20146 20147 20148 20149 20150 20151 20152 20153 20154 20155 20156 20157 20158 20159 20160 20161 20162 20163 20164 20165 20166 20167 20168 20169 20170 20171 20172 20173 20174 20175 20176 20177 20178 20179 20180 20181 20182 20183 20184 20185 20186 20187 20188 20189 20190 20191 20192 20193 20194 20195 20196 20197 20198 20199 20200 20201 20202 20203 20204 20205 20206 20207 20208 20209 20210 20211 20212 20213 20214 20215 20216 20217 20218 20219 20220 20221 20222 20223 20224 20225 20226 20227 20228 20229 20230 20231 20232 20233 20234 20235 20236 20237 20238 20239 20240 20241 20242 20243 20244 20245 20246 20247 20248 20249 20250 20251 20252 20253 20254 20255 20256 20257 20258 20259 20260 20261 20262 20263 20264 20265 20266 20267 20268 20269 20270 20271 20272 20273 20274 20275 20276 20277 20278 20279 20280 20281 20282 20283 20284 20285 20286 20287 20288 20289 20290 20291 20292 20293 20294 20295 20296 20297 20298 20299 20300 20301 20302 20303 20304 20305 20306 20307 20308 20309 20310 20311 20312 20313 20314 20315 20316 20317 20318 20319 20320 20321 20322 20323 20324 20325 20326 20327 20328 20329 20330 20331 20332 20333 20334 20335 20336 20337 20338 20339 20340 20341 20342 20343 20344 20345 20346 20347 20348 20349 20350 20351 20352 20353 20354 20355 20356 20357 20358 20359 20360 20361 20362 20363 20364 20365 20366 20367 20368 20369 20370 20371 20372 20373 20374 20375 20376 20377 20378 20379 20380 20381 20382 20383 20384 20385 20386 20387 20388 20389 20390 20391 20392 20393 20394 20395 20396 20397 20398 20399 20400 20401 20402 20403 20404 20405 20406 20407 20408 20409 20410 20411 20412 20413 20414 20415 20416 20417 20418 20419 20420 20421 20422 20423 20424 20425 20426 20427 20428 20429 20430 20431 20432 20433 20434 20435 20436 20437 20438 20439 20440 20441 20442 20443 20444 20445 20446 20447 20448 20449 20450 20451 20452 20453 20454 20455 20456 20457 20458 20459 20460 20461 20462 20463 20464 20465 20466 20467 20468 20469 20470 20471 20472 20473 20474 20475 20476 20477 20478 20479 20480 20481 20482 20483 20484 20485 20486 20487 20488 20489 20490 20491 20492 20493 20494 20495 20496 20497 20498 20499 20500 20501 20502 20503 20504 20505 20506 20507 20508 20509 20510 20511 20512 20513 20514 20515 20516 20517 20518 20519 20520 20521 20522 20523 20524 20525 20526 20527 20528 20529 20530 20531 20532 20533 20534 20535 20536 20537 20538 20539 20540 20541 20542 20543 20544 20545 20546 20547 20548 20549 20550 20551 20552 20553 20554 20555 20556 20557 20558 20559 20560 20561 20562 20563 20564 20565 20566 20567 20568 20569 20570 20571 20572 20573 20574 20575 20576 20577 20578 20579 20580 20581 20582 20583 20584 20585 20586 20587 20588 20589 20590 20591 20592 20593 20594 20595 20596 20597 20598 20599 20600 20601 20602 20603 20604 20605 20606 20607 20608 20609 20610 20611 20612 20613 20614 20615 20616 20617 20618 20619 20620 20621 20622 20623 20624 20625 20626 20627 20628 20629 20630 20631 20632 20633 20634 20635 20636 20637 20638 20639 20640 20641 20642 20643 20644 20645 20646 20647 20648 20649 20650 20651 20652 20653 20654 20655 20656 20657 20658 20659 20660 20661 20662 20663 20664 20665 20666 20667 20668 20669 20670 20671 20672 20673 20674 20675 20676 20677 20678 20679 20680 20681 20682 20683 20684 20685 20686 20687 20688 20689 20690 20691 20692 20693 20694 20695 20696 20697 20698 20699 20700 20701 20702 20703 20704 20705 20706 20707 20708 20709 20710 20711 20712 20713 20714 20715 20716 20717 20718 20719 20720 20721 20722 20723 20724 20725 20726 20727 20728 20729 20730 20731 20732 20733 20734 20735 20736 20737 20738 20739 20740 20741 20742 20743 20744 20745 20746 20747 20748 20749 20750 20751 20752 20753 20754 20755 20756 20757 20758 20759 20760 20761 20762 20763 20764 20765 20766 20767 20768 20769 20770 20771 20772 20773 20774 20775 20776 20777 20778 20779 20780 20781 20782 20783 20784 20785 20786 20787 20788 20789 20790 20791 20792 20793 20794 20795 20796 20797 20798 20799 20800 20801 20802 20803 20804 20805 20806 20807 20808 20809 20810 20811 20812 20813 20814 20815 20816 20817 20818 20819 20820 20821 20822 20823 20824 20825 20826 20827 20828 20829 20830 20831 20832 20833 20834 20835 20836 20837 20838 20839 20840 20841 20842 20843 20844 20845 20846 20847 20848 20849 20850 20851 20852 20853 20854 20855 20856 20857 20858 20859 20860 20861 20862 20863 20864 20865 20866 20867 20868 20869 20870 20871 20872 20873 20874 20875 20876 20877 20878 20879 20880 20881 20882 20883 20884 20885 20886 20887 20888 20889 20890 20891 20892 20893 20894 20895 20896 20897 20898 20899 20900 20901 20902 20903 20904 20905 20906 20907 20908 20909 20910 20911 20912 20913 20914 20915 20916 20917 20918 20919 20920 20921 20922 20923 20924 20925 20926 20927 20928 20929 20930 20931 20932 20933 20934 20935 20936 20937 20938 20939 20940 20941 20942 20943 20944 20945 20946 20947 20948 20949 20950 20951 20952 20953 20954 20955 20956 20957 20958 20959 20960 20961 20962 20963 20964 20965 20966 20967 20968 20969 20970 20971 20972 20973 20974 20975 20976 20977 20978 20979 20980 20981 20982 20983 20984 20985 20986 20987 20988 20989 20990 20991 20992 20993 20994 20995 20996 20997 20998 20999 21000 21001 21002 21003 21004 21005 21006 21007 21008 21009 21010 21011 21012 21013 21014 21015 21016 21017 21018 21019 21020 21021 21022 21023 21024 21025 21026 21027 21028 21029 21030 21031 21032 21033 21034 21035 21036 21037 21038 21039 21040 21041 21042 21043 21044 21045 21046 21047 21048 21049 21050 21051 21052 21053 21054 21055 21056 21057 21058 21059 21060 21061 21062 21063 21064 21065 21066 21067 21068 21069 21070 21071 21072 21073 21074 21075 21076 21077 21078 21079 21080 21081 21082 21083 21084 21085 21086 21087 21088 21089 21090 21091 21092 21093 21094 21095 21096 21097 21098 21099 21100 21101 21102 21103 21104 21105 21106 21107 21108 21109 21110 21111 21112 21113 21114 21115 21116 21117 21118 21119 21120 21121 21122 21123 21124 21125 21126 21127 21128 21129 21130 21131 21132 21133 21134 21135 21136 21137 21138 21139 21140 21141 21142 21143 21144 21145 21146 21147 21148 21149 21150 21151 21152 21153 21154 21155 21156 21157 21158 21159 21160 21161 21162 21163 21164 21165 21166 21167 21168 21169 21170 21171 21172 21173 21174 21175 21176 21177 21178 21179 21180 21181 21182 21183 21184 21185 21186 21187 21188 21189 21190 21191 21192 21193 21194 21195 21196 21197 21198 21199 21200 21201 21202 21203 21204 21205 21206 21207 21208 21209 21210 21211 21212 21213 21214 21215 21216 21217 21218 21219 21220 21221 21222 21223 21224 21225 21226 21227 21228 21229 21230 21231 21232 21233 21234 21235 21236 21237 21238 21239 21240 21241 21242 21243 21244 21245 21246 21247 21248 21249 21250 21251 21252 21253 21254 21255 21256 21257 21258 21259 21260 21261 21262 21263 21264 21265 21266 21267 21268 21269 21270 21271 21272 21273 21274 21275 21276 21277 21278 21279 21280 21281 21282 21283 21284 21285 21286 21287 21288 21289 21290 21291 21292 21293 21294 21295 21296 21297 21298 21299 21300 21301 21302 21303 21304 21305 21306 21307 21308 21309 21310 21311 21312 21313 21314 21315 21316 21317 21318 21319 21320 21321 21322 21323 21324 21325 21326 21327 21328 21329 21330 21331 21332 21333 21334 21335 21336 21337 21338 21339 21340 21341 21342 21343 21344 21345 21346 21347 21348 21349 21350 21351 21352 21353 21354 21355 21356 21357 21358 21359 21360 21361 21362 21363 21364 21365 21366 21367 21368 21369 21370 21371 21372 21373 21374 21375 21376 21377 21378 21379 21380 21381 21382 21383 21384 21385 21386 21387 21388 21389 21390 21391 21392 21393 21394 21395 21396 21397 21398 21399 21400 21401 21402 21403 21404 21405 21406 21407 21408 21409 21410 21411 21412 21413 21414 21415 21416 21417 21418 21419 21420 21421 21422 21423 21424 21425 21426 21427 21428 21429 21430 21431 21432 21433 21434 21435 21436 21437 21438 21439 21440 21441 21442 21443 21444 21445 21446 21447 21448 21449 21450 21451 21452 21453 21454 21455 21456 21457 21458 21459 21460 21461 21462 21463 21464 21465 21466 21467 21468 21469 21470 21471 21472 21473 21474 21475 21476 21477 21478 21479 21480 21481 21482 21483 21484 21485 21486 21487 21488 21489 21490 21491 21492 21493 21494 21495 21496 21497 21498 21499 21500 21501 21502 21503 21504 21505 21506 21507 21508 21509 21510 21511 21512 21513 21514 21515 21516 21517 21518 21519 21520 21521 21522 21523 21524 21525 21526 21527 21528 21529 21530 21531 21532 21533 21534 21535 21536 21537 21538 21539 21540 21541 21542 21543 21544 21545 21546 21547 21548 21549 21550 21551 21552 21553 21554 21555 21556 21557 21558 21559 21560 21561 21562 21563 21564 21565 21566 21567 21568 21569 21570 21571 21572 21573 21574 21575 21576 21577 21578 21579 21580 21581 21582 21583 21584 21585 21586 21587 21588 21589 21590 21591 21592 21593 21594 21595 21596 21597 21598 21599 21600 21601 21602 21603 21604 21605 21606 21607 21608 21609 21610 21611 21612 21613 21614 21615 21616 21617 21618 21619 21620 21621 21622 21623 21624 21625 21626 21627 21628 21629 21630 21631 21632 21633 21634 21635 21636 21637 21638 21639 21640 21641 21642 21643 21644 21645 21646 21647 21648 21649 21650 21651 21652 21653 21654 21655 21656 21657 21658 21659 21660 21661 21662 21663 21664 21665 21666 21667 21668 21669 21670 21671 21672 21673 21674 21675 21676 21677 21678 21679 21680 21681 21682 21683 21684 21685 21686 21687 21688 21689 21690 21691 21692 21693 21694 21695 21696 21697 21698 21699 21700 21701 21702 21703 21704 21705 21706 21707 21708 21709 21710 21711 21712 21713 21714 21715 21716 21717 21718 21719 21720 21721 21722 21723 21724 21725 21726 21727 21728 21729 21730 21731 21732 21733 21734 21735 21736 21737 21738 21739 21740 21741 21742 21743 21744 21745 21746 21747 21748 21749 21750 21751 21752 21753 21754 21755 21756 21757 21758 21759 21760 21761 21762 21763 21764 21765 21766 21767 21768 21769 21770 21771 21772 21773 21774 21775 21776 21777 21778 21779 21780 21781 21782 21783 21784 21785 21786 21787 21788 21789 21790 21791 21792 21793 21794 21795 21796 21797 21798 21799 21800 21801 21802 21803 21804 21805 21806 21807 21808 21809 21810 21811 21812 21813 21814 21815 21816 21817 21818 21819 21820 21821 21822 21823 21824 21825 21826 21827 21828 21829 21830 21831 21832 21833 21834 21835 21836 21837 21838 21839 21840 21841 21842 21843 21844 21845 21846 21847 21848 21849 21850 21851 21852 21853 21854 21855 21856 21857 21858 21859 21860 21861 21862 21863 21864 21865 21866 21867 21868 21869 21870 21871 21872 21873 21874 21875 21876 21877 21878 21879 21880 21881 21882 21883 21884 21885 21886 21887 21888 21889 21890 21891 21892 21893 21894 21895 21896 21897 21898 21899 21900 21901 21902 21903 21904 21905 21906 21907 21908 21909 21910 21911 21912 21913 21914 21915 21916 21917 21918 21919 21920 21921 21922 21923 21924 21925 21926 21927 21928 21929 21930 21931 21932 21933 21934 21935 21936 21937 21938 21939 21940 21941 21942 21943 21944 21945 21946 21947 21948 21949 21950 21951 21952 21953 21954 21955 21956 21957 21958 21959 21960 21961 21962 21963 21964 21965 21966 21967 21968 21969 21970 21971 21972 21973 21974 21975 21976 21977 21978 21979 21980 21981 21982 21983 21984 21985 21986 21987 21988 21989 21990 21991 21992 21993 21994 21995 21996 21997 21998 21999 22000 22001 22002 22003 22004 22005 22006 22007 22008 22009 22010 22011 22012 22013 22014 22015 22016 22017 22018 22019 22020 22021 22022 22023 22024 22025 22026 22027 22028 22029 22030 22031 22032 22033 22034 22035 22036 22037 22038 22039 22040 22041 22042 22043 22044 22045 22046 22047 22048 22049 22050 22051 22052 22053 22054 22055 22056 22057 22058 22059 22060 22061 22062 22063 22064 22065 22066 22067 22068 22069 22070 22071 22072 22073 22074 22075 22076 22077 22078 22079 22080 22081 22082 22083 22084 22085 22086 22087 22088 22089 22090 22091 22092 22093 22094 22095 22096 22097 22098 22099 22100 22101 22102 22103 22104 22105 22106 22107 22108 22109 22110 22111 22112 22113 22114 22115 22116 22117 22118 22119 22120 22121 22122 22123 22124 22125 22126 22127 22128 22129 22130 22131 22132 22133 22134 22135 22136 22137 22138 22139 22140 22141 22142 22143 22144 22145 22146 22147 22148 22149 22150 22151 22152 22153 22154 22155 22156 22157 22158 22159 22160 22161 22162 22163 22164 22165 22166 22167 22168 22169 22170 22171 22172 22173 22174 22175 22176 22177 22178 22179 22180 22181 22182 22183 22184 22185 22186 22187 22188 22189 22190 22191 22192 22193 22194 22195 22196 22197 22198 22199 22200 22201 22202 22203 22204 22205 22206 22207 22208 22209 22210 22211 22212 22213 22214 22215 22216 22217 22218 22219 22220 22221 22222 22223 22224 22225 22226 22227 22228 22229 22230 22231 22232 22233 22234 22235 22236 22237 22238 22239 22240 22241 22242 22243 22244 22245 22246 22247 22248 22249 22250 22251 22252 22253 22254 22255 22256 22257 22258 22259 22260 22261 22262 22263 22264 22265 22266 22267 22268 22269 22270 22271 22272 22273 22274 22275 22276 22277 22278 22279 22280 22281 22282 22283 22284 22285 22286 22287 22288 22289 22290 22291 22292 22293 22294 22295 22296 22297 22298 22299 22300 22301 22302 22303 22304 22305 22306 22307 22308 22309 22310 22311 22312 22313 22314 22315 22316 22317 22318 22319 22320 22321 22322 22323 22324 22325 22326 22327 22328 22329 22330 22331 22332 22333 22334 22335 22336 22337 22338 22339 22340 22341 22342 22343 22344 22345 22346 22347 22348 22349 22350 22351 22352 22353 22354 22355 22356 22357 22358 22359 22360 22361 22362 22363 22364 22365 22366 22367 22368 22369 22370 22371 22372 22373 22374 22375 22376 22377 22378 22379 22380 22381 22382 22383 22384 22385 22386 22387 22388 22389 22390 22391 22392 22393 22394 22395 22396 22397 22398 22399 22400 22401 22402 22403 22404 22405 22406 22407 22408 22409 22410 22411 22412 22413 22414 22415 22416 22417 22418 22419 22420 22421 22422 22423 22424 22425 22426 22427 22428 22429 22430 22431 22432 22433 22434 22435 22436 22437 22438 22439 22440 22441 22442 22443 22444 22445 22446 22447 22448 22449 22450 22451 22452 22453 22454 22455 22456 22457 22458 22459 22460 22461 22462 22463 22464 22465 22466 22467 22468 22469 22470 22471 22472 22473 22474 22475 22476 22477 22478 22479 22480 22481 22482 22483 22484 22485 22486 22487 22488 22489 22490 22491 22492 22493 22494 22495 22496 22497 22498 22499 22500 22501 22502 22503 22504 22505 22506 22507 22508 22509 22510 22511 22512 22513 22514 22515 22516 22517 22518 22519 22520 22521 22522 22523 22524 22525 22526 22527 22528 22529 22530 22531 22532 22533 22534 22535 22536 22537 22538 22539 22540 22541 22542 22543 22544 22545 22546 22547 22548 22549 22550 22551 22552 22553 22554 22555 22556 22557 22558 22559 22560 22561 22562 22563 22564 22565 22566 22567 22568 22569 22570 22571 22572 22573 22574 22575 22576 22577 22578 22579 22580 22581 22582 22583 22584 22585 22586 22587 22588 22589 22590 22591 22592 22593 22594 22595 22596 22597 22598 22599 22600 22601 22602 22603 22604 22605 22606 22607 22608 22609 22610 22611 22612 22613 22614 22615 22616 22617 22618 22619 22620 22621 22622 22623 22624 22625 22626 22627 22628 22629 22630 22631 22632 22633 22634 22635 22636 22637 22638 22639 22640 22641 22642 22643 22644 22645 22646 22647 22648 22649 22650 22651 22652 22653 22654 22655 22656 22657 22658 22659 22660 22661 22662 22663 22664 22665 22666 22667 22668 22669 22670 22671 22672 22673 22674 22675 22676 22677 22678 22679 22680 22681 22682 22683 22684 22685 22686 22687 22688 22689 22690 22691 22692 22693 22694 22695 22696 22697 22698 22699 22700 22701 22702 22703 22704 22705 22706 22707 22708 22709 22710 22711 22712 22713 22714 22715 22716 22717 22718 22719 22720 22721 22722 22723 22724 22725 22726 22727 22728 22729 22730 22731 22732 22733 22734 22735 22736 22737 22738 22739 22740 22741 22742 22743 22744 22745 22746 22747 22748 22749 22750 22751 22752 22753 22754 22755 22756 22757 22758 22759 22760 22761 22762 22763 22764 22765 22766 22767 22768 22769 22770 22771 22772 22773 22774 22775 22776 22777 22778 22779 22780 22781 22782 22783 22784 22785 22786 22787 22788 22789 22790 22791 22792 22793 22794 22795 22796 22797 22798 22799 22800 22801 22802 22803 22804 22805 22806 22807 22808 22809 22810 22811 22812 22813 22814 22815 22816 22817 22818 22819 22820 22821 22822 22823 22824 22825 22826 22827 22828 22829 22830 22831 22832 22833 22834 22835 22836 22837 22838 22839 22840 22841 22842 22843 22844 22845 22846 22847 22848 22849 22850 22851 22852 22853 22854 22855 22856 22857 22858 22859 22860 22861 22862 22863 22864 22865 22866 22867 22868 22869 22870 22871 22872 22873 22874 22875 22876 22877 22878 22879 22880 22881 22882 22883 22884 22885 22886 22887 22888 22889 22890 22891 22892 22893 22894 22895 22896 22897 22898 22899 22900 22901 22902 22903 22904 22905 22906 22907 22908 22909 22910 22911 22912 22913 22914 22915 22916 22917 22918 22919 22920 22921 22922 22923 22924 22925 22926 22927 22928 22929 22930 22931 22932 22933 22934 22935 22936 22937 22938 22939 22940 22941 22942 22943 22944 22945 22946 22947 22948 22949 22950 22951 22952 22953 22954 22955 22956 22957 22958 22959 22960 22961 22962 22963 22964 22965 22966 22967 22968 22969 22970 22971 22972 22973 22974 22975 22976 22977 22978 22979 22980 22981 22982 22983 22984 22985 22986 22987 22988 22989 22990 22991 22992 22993 22994 22995 22996 22997 22998 22999 23000 23001 23002 23003 23004 23005 23006 23007 23008 23009 23010 23011 23012 23013 23014 23015 23016 23017 23018 23019 23020 23021 23022 23023 23024 23025 23026 23027 23028 23029 23030 23031 23032 23033 23034 23035 23036 23037 23038 23039 23040 23041 23042 23043 23044 23045 23046 23047 23048 23049 23050 23051 23052 23053 23054 23055 23056 23057 23058 23059 23060 23061 23062 23063 23064 23065 23066 23067 23068 23069 23070 23071 23072 23073 23074 23075 23076 23077 23078 23079 23080 23081 23082 23083 23084 23085 23086 23087 23088 23089 23090 23091 23092 23093 23094 23095 23096 23097 23098 23099 23100 23101 23102 23103 23104 23105 23106 23107 23108 23109 23110 23111 23112 23113 23114 23115 23116 23117 23118 23119 23120 23121 23122 23123 23124 23125 23126 23127 23128 23129 23130 23131 23132 23133 23134 23135 23136 23137 23138 23139 23140 23141 23142 23143 23144 23145 23146 23147 23148 23149 23150 23151 23152 23153 23154 23155 23156 23157 23158 23159 23160 23161 23162 23163 23164 23165 23166 23167 23168 23169 23170 23171 23172 23173 23174 23175 23176 23177 23178 23179 23180 23181 23182 23183 23184 23185 23186 23187 23188 23189 23190 23191 23192 23193 23194 23195 23196 23197 23198 23199 23200 23201 23202 23203 23204 23205 23206 23207 23208 23209 23210 23211 23212 23213 23214 23215 23216 23217 23218 23219 23220 23221 23222 23223 23224 23225 23226 23227 23228 23229 23230 23231 23232 23233 23234 23235 23236 23237 23238 23239 23240 23241 23242 23243 23244 23245 23246 23247 23248 23249 23250 23251 23252 23253 23254 23255 23256 23257 23258 23259 23260 23261 23262 23263 23264 23265 23266 23267 23268 23269 23270 23271 23272 23273 23274 23275 23276 23277 23278 23279 23280 23281 23282 23283 23284 23285 23286 23287 23288 23289 23290 23291 23292 23293 23294 23295 23296 23297 23298 23299 23300 23301 23302 23303 23304 23305 23306 23307 23308 23309 23310 23311 23312 23313 23314 23315 23316 23317 23318 23319 23320 23321 23322 23323 23324 23325 23326 23327 23328 23329 23330 23331 23332 23333 23334 23335 23336 23337 23338 23339 23340 23341 23342 23343 23344 23345 23346 23347 23348 23349 23350 23351 23352 23353 23354 23355 23356 23357 23358 23359 23360 23361 23362 23363 23364 23365 23366 23367 23368 23369 23370 23371 23372 23373 23374 23375 23376 23377 23378 23379 23380 23381 23382 23383 23384 23385 23386 23387 23388 23389 23390 23391 23392 23393 23394 23395 23396 23397 23398 23399 23400 23401 23402 23403 23404 23405 23406 23407 23408 23409 23410 23411 23412 23413 23414 23415 23416 23417 23418 23419 23420 23421 23422 23423 23424 23425 23426 23427 23428 23429 23430 23431 23432 23433 23434 23435 23436 23437 23438 23439 23440 23441 23442 23443 23444 23445 23446 23447 23448 23449 23450 23451 23452 23453 23454 23455 23456 23457 23458 23459 23460 23461 23462 23463 23464 23465 23466 23467 23468 23469 23470 23471 23472 23473 23474 23475 23476 23477 23478 23479 23480 23481 23482 23483 23484 23485 23486 23487 23488 23489 23490 23491 23492 23493 23494 23495 23496 23497 23498 23499 23500 23501 23502 23503 23504 23505 23506 23507 23508 23509 23510 23511 23512 23513 23514 23515 23516 23517 23518 23519 23520 23521 23522 23523 23524 23525 23526 23527 23528 23529 23530 23531 23532 23533 23534 23535 23536 23537 23538 23539 23540 23541 23542 23543 23544 23545 23546 23547 23548 23549 23550 23551 23552 23553 23554 23555 23556 23557 23558 23559 23560 23561 23562 23563 23564 23565 23566 23567 23568 23569 23570 23571 23572 23573 23574 23575 23576 23577 23578 23579 23580 23581 23582 23583 23584 23585 23586 23587 23588 23589 23590 23591 23592 23593 23594 23595 23596 23597 23598 23599 23600 23601 23602 23603 23604 23605 23606 23607 23608 23609 23610 23611 23612 23613 23614 23615 23616 23617 23618 23619 23620 23621 23622 23623 23624 23625 23626 23627 23628 23629 23630 23631 23632 23633 23634 23635 23636 23637 23638 23639 23640 23641 23642 23643 23644 23645 23646 23647 23648 23649 23650 23651 23652 23653 23654 23655 23656 23657 23658 23659 23660 23661 23662 23663 23664 23665 23666 23667 23668 23669 23670 23671 23672 23673 23674 23675 23676 23677 23678 23679 23680 23681 23682 23683 23684 23685 23686 23687 23688 23689 23690 23691 23692 23693 23694 23695 23696 23697 23698 23699 23700 23701 23702 23703 23704 23705 23706 23707 23708 23709 23710 23711 23712 23713 23714 23715 23716 23717 23718 23719 23720 23721 23722 23723 23724 23725 23726 23727 23728 23729 23730 23731 23732 23733 23734 23735 23736 23737 23738 23739 23740 23741 23742 23743 23744 23745 23746 23747 23748 23749 23750 23751 23752 23753 23754 23755 23756 23757 23758 23759 23760 23761 23762 23763 23764 23765 23766 23767 23768 23769 23770 23771 23772 23773 23774 23775 23776 23777 23778 23779 23780 23781 23782 23783 23784 23785 23786 23787 23788 23789 23790 23791 23792 23793 23794 23795 23796 23797 23798 23799 23800 23801 23802 23803 23804 23805 23806 23807 23808 23809 23810 23811 23812 23813 23814 23815 23816 23817 23818 23819 23820 23821 23822 23823 23824 23825 23826 23827 23828 23829 23830 23831 23832 23833 23834 23835 23836 23837 23838 23839 23840 23841 23842 23843 23844 23845 23846 23847 23848 23849 23850 23851 23852 23853 23854 23855 23856 23857 23858 23859 23860 23861 23862 23863 23864 23865 23866 23867 23868 23869 23870 23871 23872 23873 23874 23875 23876 23877 23878 23879 23880 23881 23882 23883 23884 23885 23886 23887 23888 23889 23890 23891 23892 23893 23894 23895 23896 23897 23898 23899 23900 23901 23902 23903 23904 23905 23906 23907 23908 23909 23910 23911 23912 23913 23914 23915 23916 23917 23918 23919 23920 23921 23922 23923 23924 23925 23926 23927 23928 23929 23930 23931 23932 23933 23934 23935 23936 23937 23938 23939 23940 23941 23942 23943 23944 23945 23946 23947 23948 23949 23950 23951 23952 23953 23954 23955 23956 23957 23958 23959 23960 23961 23962 23963 23964 23965 23966 23967 23968 23969 23970 23971 23972 23973 23974 23975 23976 23977 23978 23979 23980 23981 23982 23983 23984 23985 23986 23987 23988 23989 23990 23991 23992 23993 23994 23995 23996 23997 23998 23999 24000 24001 24002 24003 24004 24005 24006 24007 24008 24009 24010 24011 24012 24013 24014 24015 24016 24017 24018 24019 24020 24021 24022 24023 24024 24025 24026 24027 24028 24029 24030 24031 24032 24033 24034 24035 24036 24037 24038 24039 24040 24041 24042 24043 24044 24045 24046 24047 24048 24049 24050 24051 24052 24053 24054 24055 24056 24057 24058 24059 24060 24061 24062 24063 24064 24065 24066 24067 24068 24069 24070 24071 24072 24073 24074 24075 24076 24077 24078 24079 24080 24081 24082 24083 24084 24085 24086 24087 24088 24089 24090 24091 24092 24093 24094 24095 24096 24097 24098 24099 24100 24101 24102 24103 24104 24105 24106 24107 24108 24109 24110 24111 24112 24113 24114 24115 24116 24117 24118 24119 24120 24121 24122 24123 24124 24125 24126 24127 24128 24129 24130 24131 24132 24133 24134 24135 24136 24137 24138 24139 24140 24141 24142 24143 24144 24145 24146 24147 24148 24149 24150 24151 24152 24153 24154 24155 24156 24157 24158 24159 24160 24161 24162 24163 24164 24165 24166 24167 24168 24169 24170 24171 24172 24173 24174 24175 24176 24177 24178 24179 24180 24181 24182 24183 24184 24185 24186 24187 24188 24189 24190 24191 24192 24193 24194 24195 24196 24197 24198 24199 24200 24201 24202 24203 24204 24205 24206 24207 24208 24209 24210 24211 24212 24213 24214 24215 24216 24217 24218 24219 24220 24221 24222 24223 24224 24225 24226 24227 24228 24229 24230 24231 24232 24233 24234 24235 24236 24237 24238 24239 24240 24241 24242 24243 24244 24245 24246 24247 24248 24249 24250 24251 24252 24253 24254 24255 24256 24257 24258 24259 24260 24261 24262 24263 24264 24265 24266 24267 24268 24269 24270 24271 24272 24273 24274 24275 24276 24277 24278 24279 24280 24281 24282 24283 24284 24285 24286 24287 24288 24289 24290 24291 24292 24293 24294 24295 24296 24297 24298 24299 24300 24301 24302 24303 24304 24305 24306 24307 24308 24309 24310 24311 24312 24313 24314 24315 24316 24317 24318 24319 24320 24321 24322 24323 24324 24325 24326 24327 24328 24329 24330 24331 24332 24333 24334 24335 24336 24337 24338 24339 24340 24341 24342 24343 24344 24345 24346 24347 24348 24349 24350 24351 24352 24353 24354 24355 24356 24357 24358 24359 24360 24361 24362 24363 24364 24365 24366 24367 24368 24369 24370 24371 24372 24373 24374 24375 24376 24377 24378 24379 24380 24381 24382 24383 24384 24385 24386 24387 24388 24389 24390 24391 24392 24393 24394 24395 24396 24397 24398 24399 24400 24401 24402 24403 24404 24405 24406 24407 24408 24409 24410 24411 24412 24413 24414 24415 24416 24417 24418 24419 24420 24421 24422 24423 24424 24425 24426 24427 24428 24429 24430 24431 24432 24433 24434 24435 24436 24437 24438 24439 24440 24441 24442 24443 24444 24445 24446 24447 24448 24449 24450 24451 24452 24453 24454 24455 24456 24457 24458 24459 24460 24461 24462 24463 24464 24465 24466 24467 24468 24469 24470 24471 24472 24473 24474 24475 24476 24477 24478 24479 24480 24481 24482 24483 24484 24485 24486 24487 24488 24489 24490 24491 24492 24493 24494 24495 24496 24497 24498 24499 24500 24501 24502 24503 24504 24505 24506 24507 24508 24509 24510 24511 24512 24513 24514 24515 24516 24517 24518 24519 24520 24521 24522 24523 24524 24525 24526 24527 24528 24529 24530 24531 24532 24533 24534 24535 24536 24537 24538 24539 24540 24541 24542 24543 24544 24545 24546 24547 24548 24549 24550 24551 24552 24553 24554 24555 24556 24557 24558 24559 24560 24561 24562 24563 24564 24565 24566 24567 24568 24569 24570 24571 24572 24573 24574 24575 24576 24577 24578 24579 24580 24581 24582 24583 24584 24585 24586 24587 24588 24589 24590 24591 24592 24593 24594 24595 24596 24597 24598 24599 24600 24601 24602 24603 24604 24605 24606 24607 24608 24609 24610 24611 24612 24613 24614 24615 24616 24617 24618 24619 24620 24621 24622 24623 24624 24625 24626 24627 24628 24629 24630 24631 24632 24633 24634 24635 24636 24637 24638 24639 24640 24641 24642 24643 24644 24645 24646 24647 24648 24649 24650 24651 24652 24653 24654 24655 24656 24657 24658 24659 24660 24661 24662 24663 24664 24665 24666 24667 24668 24669 24670 24671 24672 24673 24674 24675 24676 24677 24678 24679 24680 24681 24682 24683 24684 24685 24686 24687 24688 24689 24690 24691 24692 24693 24694 24695 24696 24697 24698 24699 24700 24701 24702 24703 24704 24705 24706 24707 24708 24709 24710 24711 24712 24713 24714 24715 24716 24717 24718 24719 24720 24721 24722 24723 24724 24725 24726 24727 24728 24729 24730 24731 24732 24733 24734 24735 24736 24737 24738 24739 24740 24741 24742 24743 24744 24745 24746 24747 24748 24749 24750 24751 24752 24753 24754 24755 24756 24757 24758 24759 24760 24761 24762 24763 24764 24765 24766 24767 24768 24769 24770 24771 24772 24773 24774 24775 24776 24777 24778 24779 24780 24781 24782 24783 24784 24785 24786 24787 24788 24789 24790 24791 24792 24793 24794 24795 24796 24797 24798 24799 24800 24801 24802 24803 24804 24805 24806 24807 24808 24809 24810 24811 24812 24813 24814 24815 24816 24817 24818 24819 24820 24821 24822 24823 24824 24825 24826 24827 24828 24829 24830 24831 24832 24833 24834 24835 24836 24837 24838 24839 24840 24841 24842 24843 24844 24845 24846 24847 24848 24849 24850 24851 24852 24853 24854 24855 24856 24857 24858 24859 24860 24861 24862 24863 24864 24865 24866 24867 24868 24869 24870 24871 24872 24873 24874 24875 24876 24877 24878 24879 24880 24881 24882 24883 24884 24885 24886 24887 24888 24889 24890 24891 24892 24893 24894 24895 24896 24897 24898 24899 24900 24901 24902 24903 24904 24905 24906 24907 24908 24909 24910 24911 24912 24913 24914 24915 24916 24917 24918 24919 24920 24921 24922 24923 24924 24925 24926 24927 24928 24929 24930 24931 24932 24933 24934 24935 24936 24937 24938 24939 24940 24941 24942 24943 24944 24945 24946 24947 24948 24949 24950 24951 24952 24953 24954 24955 24956 24957 24958 24959 24960 24961 24962 24963 24964 24965 24966 24967 24968 24969 24970 24971 24972 24973 24974 24975 24976 24977 24978 24979 24980 24981 24982 24983 24984 24985 24986 24987 24988 24989 24990 24991 24992 24993 24994 24995 24996 24997 24998 24999 25000 25001 25002 25003 25004 25005 25006 25007 25008 25009 25010 25011 25012 25013 25014 25015 25016 25017 25018 25019 25020 25021 25022 25023 25024 25025 25026 25027 25028 25029 25030 25031 25032 25033 25034 25035 25036 25037 25038 25039 25040 25041 25042 25043 25044 25045 25046 25047 25048 25049 25050 25051 25052 25053 25054 25055 25056 25057 25058 25059 25060 25061 25062 25063 25064 25065 25066 25067 25068 25069 25070 25071 25072 25073 25074 25075 25076 25077 25078 25079 25080 25081 25082 25083 25084 25085 25086 25087 25088 25089 25090 25091 25092 25093 25094 25095 25096 25097 25098 25099 25100 25101 25102 25103 25104 25105 25106 25107 25108 25109 25110 25111 25112 25113 25114 25115 25116 25117 25118 25119 25120 25121 25122 25123 25124 25125 25126 25127 25128 25129 25130 25131 25132 25133 25134 25135 25136 25137 25138 25139 25140 25141 25142 25143 25144 25145 25146 25147 25148 25149 25150 25151 25152 25153 25154 25155 25156 25157 25158 25159 25160 25161 25162 25163 25164 25165 25166 25167 25168 25169 25170 25171 25172 25173 25174 25175 25176 25177 25178 25179 25180 25181 25182 25183 25184 25185 25186 25187 25188 25189 25190 25191 25192 25193 25194 25195 25196 25197 25198 25199 25200 25201 25202 25203 25204 25205 25206 25207 25208 25209 25210 25211 25212 25213 25214 25215 25216 25217 25218 25219 25220 25221 25222 25223 25224 25225 25226 25227 25228 25229 25230 25231 25232 25233 25234 25235 25236 25237 25238 25239 25240 25241 25242 25243 25244 25245 25246 25247 25248 25249 25250 25251 25252 25253 25254 25255 25256 25257 25258 25259 25260 25261 25262 25263 25264 25265 25266 25267 25268 25269 25270 25271 25272 25273 25274 25275 25276 25277 25278 25279 25280 25281 25282 25283 25284 25285 25286 25287 25288 25289 25290 25291 25292 25293 25294 25295 25296 25297 25298 25299 25300 25301 25302 25303 25304 25305 25306 25307 25308 25309 25310 25311 25312 25313 25314 25315 25316 25317 25318 25319 25320 25321 25322 25323 25324 25325 25326 25327 25328 25329 25330 25331 25332 25333 25334 25335 25336 25337 25338 25339 25340 25341 25342 25343 25344 25345 25346 25347 25348 25349 25350 25351 25352 25353 25354 25355 25356 25357 25358 25359 25360 25361 25362 25363 25364 25365 25366 25367 25368 25369 25370 25371 25372 25373 25374 25375 25376 25377 25378 25379 25380 25381 25382 25383 25384 25385 25386 25387 25388 25389 25390 25391 25392 25393 25394 25395 25396 25397 25398 25399 25400 25401 25402 25403 25404 25405 25406 25407 25408 25409 25410 25411 25412 25413 25414 25415 25416 25417 25418 25419 25420 25421 25422 25423 25424 25425 25426 25427 25428 25429 25430 25431 25432 25433 25434 25435 25436 25437 25438 25439 25440 25441 25442 25443 25444 25445 25446 25447 25448 25449 25450 25451 25452 25453 25454 25455 25456 25457 25458 25459 25460 25461 25462 25463 25464 25465 25466 25467 25468 25469 25470 25471 25472 25473 25474 25475 25476 25477 25478 25479 25480 25481 25482 25483 25484 25485 25486 25487 25488 25489 25490 25491 25492 25493 25494 25495 25496 25497 25498 25499 25500 25501 25502 25503 25504 25505 25506 25507 25508 25509 25510 25511 25512 25513 25514 25515 25516 25517 25518 25519 25520 25521 25522 25523 25524 25525 25526 25527 25528 25529 25530 25531 25532 25533 25534 25535 25536 25537 25538 25539 25540 25541 25542 25543 25544 25545 25546 25547 25548 25549 25550 25551 25552 25553 25554 25555 25556 25557 25558 25559 25560 25561 25562 25563 25564 25565 25566 25567 25568 25569 25570 25571 25572 25573 25574 25575 25576 25577 25578 25579 25580 25581 25582 25583 25584 25585 25586 25587 25588 25589 25590 25591 25592 25593 25594 25595 25596 25597 25598 25599 25600 25601 25602 25603 25604 25605 25606 25607 25608 25609 25610 25611 25612 25613 25614 25615 25616 25617 25618 25619 25620 25621 25622 25623 25624 25625 25626 25627 25628 25629 25630 25631 25632 25633 25634 25635 25636 25637 25638 25639 25640 25641 25642 25643 25644 25645 25646 25647 25648 25649 25650 25651 25652 25653 25654 25655 25656 25657 25658 25659 25660 25661 25662 25663 25664 25665 25666 25667 25668 25669 25670 25671 25672 25673 25674 25675 25676 25677 25678 25679 25680 25681 25682 25683 25684 25685 25686 25687 25688 25689 25690 25691 25692 25693 25694 25695 25696 25697 25698 25699 25700 25701 25702 25703 25704 25705 25706 25707 25708 25709 25710 25711 25712 25713 25714 25715 25716 25717 25718 25719 25720 25721 25722 25723 25724 25725 25726 25727 25728 25729 25730 25731 25732 25733 25734 25735 25736 25737 25738 25739 25740 25741 25742 25743 25744 25745 25746 25747 25748 25749 25750 25751 25752 25753 25754 25755 25756 25757 25758 25759 25760 25761 25762 25763 25764 25765 25766 25767 25768 25769 25770 25771 25772 25773 25774 25775 25776 25777 25778 25779 25780 25781 25782 25783 25784 25785 25786 25787 25788 25789 25790 25791 25792 25793 25794 25795 25796 25797 25798 25799 25800 25801 25802 25803 25804 25805 25806 25807 25808 25809 25810 25811 25812 25813 25814 25815 25816 25817 25818 25819 25820 25821 25822 25823 25824 25825 25826 25827 25828 25829 25830 25831 25832 25833 25834 25835 25836 25837 25838 25839 25840 25841 25842 25843 25844 25845 25846 25847 25848 25849 25850 25851 25852 25853 25854 25855 25856 25857 25858 25859 25860 25861 25862 25863 25864 25865 25866 25867 25868 25869 25870 25871 25872 25873 25874 25875 25876 25877 25878 25879 25880 25881 25882 25883 25884 25885 25886 25887 25888 25889 25890 25891 25892 25893 25894 25895 25896 25897 25898 25899 25900 25901 25902 25903 25904 25905 25906 25907 25908 25909 25910 25911 25912 25913 25914 25915 25916 25917 25918 25919 25920 25921 25922 25923 25924 25925 25926 25927 25928 25929 25930 25931 25932 25933 25934 25935 25936 25937 25938 25939 25940 25941 25942 25943 25944 25945 25946 25947 25948 25949 25950 25951 25952 25953 25954 25955 25956 25957 25958 25959 25960 25961 25962 25963 25964 25965 25966 25967 25968 25969 25970 25971 25972 25973 25974 25975 25976 25977 25978 25979 25980 25981 25982 25983 25984 25985 25986 25987 25988 25989 25990 25991 25992 25993 25994 25995 25996 25997 25998 25999 26000 26001 26002 26003 26004 26005 26006 26007 26008 26009 26010 26011 26012 26013 26014 26015 26016 26017 26018 26019 26020 26021 26022 26023 26024 26025 26026 26027 26028 26029 26030 26031 26032 26033 26034 26035 26036 26037 26038 26039 26040 26041 26042 26043 26044 26045 26046 26047 26048 26049 26050 26051 26052 26053 26054 26055 26056 26057 26058 26059 26060 26061 26062 26063 26064 26065 26066 26067 26068 26069 26070 26071 26072 26073 26074 26075 26076 26077 26078 26079 26080 26081 26082 26083 26084 26085 26086 26087 26088 26089 26090 26091 26092 26093 26094 26095 26096 26097 26098 26099 26100 26101 26102 26103 26104 26105 26106 26107 26108 26109 26110 26111 26112 26113 26114 26115 26116 26117 26118 26119 26120 26121 26122 26123 26124 26125 26126 26127 26128 26129 26130 26131 26132 26133 26134 26135 26136 26137 26138 26139 26140 26141 26142 26143 26144 26145 26146 26147 26148 26149 26150 26151 26152 26153 26154 26155 26156 26157 26158 26159 26160 26161 26162 26163 26164 26165 26166 26167 26168 26169 26170 26171 26172 26173 26174 26175 26176 26177 26178 26179 26180 26181 26182 26183 26184 26185 26186 26187 26188 26189 26190 26191 26192 26193 26194 26195 26196 26197 26198 26199 26200 26201 26202 26203 26204 26205 26206 26207 26208 26209 26210 26211 26212 26213 26214 26215 26216 26217 26218 26219 26220 26221 26222 26223 26224 26225 26226 26227 26228 26229 26230 26231 26232 26233 26234 26235 26236 26237 26238 26239 26240 26241 26242 26243 26244 26245 26246 26247 26248 26249 26250 26251 26252 26253 26254 26255 26256 26257 26258 26259 26260 26261 26262 26263 26264 26265 26266 26267 26268 26269 26270 26271 26272 26273 26274 26275 26276 26277 26278 26279 26280 26281 26282 26283 26284 26285 26286 26287 26288 26289 26290 26291 26292 26293 26294 26295 26296 26297 26298 26299 26300 26301 26302 26303 26304 26305 26306 26307 26308 26309 26310 26311 26312 26313 26314 26315 26316 26317 26318 26319 26320 26321 26322 26323 26324 26325 26326 26327 26328 26329 26330 26331 26332 26333 26334 26335 26336 26337 26338 26339 26340 26341 26342 26343 26344 26345 26346 26347 26348 26349 26350 26351 26352 26353 26354 26355 26356 26357 26358 26359 26360 26361 26362 26363 26364 26365 26366 26367 26368 26369 26370 26371 26372 26373 26374 26375 26376 26377 26378 26379 26380 26381 26382 26383 26384 26385 26386 26387 26388 26389 26390 26391 26392 26393 26394 26395 26396 26397 26398 26399 26400 26401 26402 26403 26404 26405 26406 26407 26408 26409 26410 26411 26412 26413 26414 26415 26416 26417 26418 26419 26420 26421 26422 26423 26424 26425 26426 26427 26428 26429 26430 26431 26432 26433 26434 26435 26436 26437 26438 26439 26440 26441 26442 26443 26444 26445 26446 26447 26448 26449 26450 26451 26452 26453 26454 26455 26456 26457 26458 26459 26460 26461 26462 26463 26464 26465 26466 26467 26468 26469 26470 26471 26472 26473 26474 26475 26476 26477 26478 26479 26480 26481 26482 26483 26484 26485 26486 26487 26488 26489 26490 26491 26492 26493 26494 26495 26496 26497 26498 26499 26500 26501 26502 26503 26504 26505 26506 26507 26508 26509 26510 26511 26512 26513 26514 26515 26516 26517 26518 26519 26520 26521 26522 26523 26524 26525 26526 26527 26528 26529 26530 26531 26532 26533 26534 26535 26536 26537 26538 26539 26540 26541 26542 26543 26544 26545 26546 26547 26548 26549 26550 26551 26552 26553 26554 26555 26556 26557 26558 26559 26560 26561 26562 26563 26564 26565 26566 26567 26568 26569 26570 26571 26572 26573 26574 26575 26576 26577 26578 26579 26580 26581 26582 26583 26584 26585 26586 26587 26588 26589 26590 26591 26592 26593 26594 26595 26596 26597 26598 26599 26600 26601 26602 26603 26604 26605 26606 26607 26608 26609 26610 26611 26612 26613 26614 26615 26616 26617 26618 26619 26620 26621 26622 26623 26624 26625 26626 26627 26628 26629 26630 26631 26632 26633 26634 26635 26636 26637 26638 26639 26640 26641 26642 26643 26644 26645 26646 26647 26648 26649 26650 26651 26652 26653 26654 26655 26656 26657 26658 26659 26660 26661 26662 26663 26664 26665 26666 26667 26668 26669 26670 26671 26672 26673 26674 26675 26676 26677 26678 26679 26680 26681 26682 26683 26684 26685 26686 26687 26688 26689 26690 26691 26692 26693 26694 26695 26696 26697 26698 26699 26700 26701 26702 26703 26704 26705 26706 26707 26708 26709 26710 26711 26712 26713 26714 26715 26716 26717 26718 26719 26720 26721 26722 26723 26724 26725 26726 26727 26728 26729 26730 26731 26732 26733 26734 26735 26736 26737 26738 26739 26740 26741 26742 26743 26744 26745 26746 26747 26748 26749 26750 26751 26752 26753 26754 26755 26756 26757 26758 26759 26760 26761 26762 26763 26764 26765 26766 26767 26768 26769 26770 26771 26772 26773 26774 26775 26776 26777 26778 26779 26780 26781 26782 26783 26784 26785 26786 26787 26788 26789 26790 26791 26792 26793 26794 26795 26796 26797 26798 26799 26800 26801 26802 26803 26804 26805 26806 26807 26808 26809 26810 26811 26812 26813 26814 26815 26816 26817 26818 26819 26820 26821 26822 26823 26824 26825 26826 26827 26828 26829 26830 26831 26832 26833 26834 26835 26836 26837 26838 26839 26840 26841 26842 26843 26844 26845 26846 26847 26848 26849 26850 26851 26852 26853 26854 26855 26856 26857 26858 26859 26860 26861 26862 26863 26864 26865 26866 26867 26868 26869 26870 26871 26872 26873 26874 26875 26876 26877 26878 26879 26880 26881 26882 26883 26884 26885 26886 26887 26888 26889 26890 26891 26892 26893 26894 26895 26896 26897 26898 26899 26900 26901 26902 26903 26904 26905 26906 26907 26908 26909 26910 26911 26912 26913 26914 26915 26916 26917 26918 26919 26920 26921 26922 26923 26924 26925 26926 26927 26928 26929 26930 26931 26932 26933 26934 26935 26936 26937 26938 26939 26940 26941 26942 26943 26944 26945 26946 26947 26948 26949 26950 26951 26952 26953 26954 26955 26956 26957 26958 26959 26960 26961 26962 26963 26964 26965 26966 26967 26968 26969 26970 26971 26972 26973 26974 26975 26976 26977 26978 26979 26980 26981 26982 26983 26984 26985 26986 26987 26988 26989 26990 26991 26992 26993 26994 26995 26996 26997 26998 26999 27000 27001 27002 27003 27004 27005 27006 27007 27008 27009 27010 27011 27012 27013 27014 27015 27016 27017 27018 27019 27020 27021 27022 27023 27024 27025 27026 27027 27028 27029 27030 27031 27032 27033 27034 27035 27036 27037 27038 27039 27040 27041 27042 27043 27044 27045 27046 27047 27048 27049 27050 27051 27052 27053 27054 27055 27056 27057 27058 27059 27060 27061 27062 27063 27064 27065 27066 27067 27068 27069 27070 27071 27072 27073 27074 27075 27076 27077 27078 27079 27080 27081 27082 27083 27084 27085 27086 27087 27088 27089 27090 27091 27092 27093 27094 27095 27096 27097 27098 27099 27100 27101 27102 27103 27104 27105 27106 27107 27108 27109 27110 27111 27112 27113 27114 27115 27116 27117 27118 27119 27120 27121 27122 27123 27124 27125 27126 27127 27128 27129 27130 27131 27132 27133 27134 27135 27136 27137 27138 27139 27140 27141 27142 27143 27144 27145 27146 27147 27148 27149 27150 27151 27152 27153 27154 27155 27156 27157 27158 27159 27160 27161 27162 27163 27164 27165 27166 27167 27168 27169 27170 27171 27172 27173 27174 27175 27176 27177 27178 27179 27180 27181 27182 27183 27184 27185 27186 27187 27188 27189 27190 27191 27192 27193 27194 27195 27196 27197 27198 27199 27200 27201 27202 27203 27204 27205 27206 27207 27208 27209 27210 27211 27212 27213 27214 27215 27216 27217 27218 27219 27220 27221 27222 27223 27224 27225 27226 27227 27228 27229 27230 27231 27232 27233 27234 27235 27236 27237 27238 27239 27240 27241 27242 27243 27244 27245 27246 27247 27248 27249 27250 27251 27252 27253 27254 27255 27256 27257 27258 27259 27260 27261 27262 27263 27264 27265 27266 27267 27268 27269 27270 27271 27272 27273 27274 27275 27276 27277 27278 27279 27280 27281 27282 27283 27284 27285 27286 27287 27288 27289 27290 27291 27292 27293 27294 27295 27296 27297 27298 27299 27300 27301 27302 27303 27304 27305 27306 27307 27308 27309 27310 27311 27312 27313 27314 27315 27316 27317 27318 27319 27320 27321 27322 27323 27324 27325 27326 27327 27328 27329 27330 27331 27332 27333 27334 27335 27336 27337 27338 27339 27340 27341 27342 27343 27344 27345 27346 27347 27348 27349 27350 27351 27352 27353 27354 27355 27356 27357 27358 27359 27360 27361 27362 27363 27364 27365 27366 27367 27368 27369 27370 27371 27372 27373 27374 27375 27376 27377 27378 27379 27380 27381 27382 27383 27384 27385 27386 27387 27388 27389 27390 27391 27392 27393 27394 27395 27396 27397 27398 27399 27400 27401 27402 27403 27404 27405 27406 27407 27408 27409 27410 27411 27412 27413 27414 27415 27416 27417 27418 27419 27420 27421 27422 27423 27424 27425 27426 27427 27428 27429 27430 27431 27432 27433 27434 27435 27436 27437 27438 27439 27440 27441 27442 27443 27444 27445 27446 27447 27448 27449 27450 27451 27452 27453 27454 27455 27456 27457 27458 27459 27460 27461 27462 27463 27464 27465 27466 27467 27468 27469 27470 27471 27472 27473 27474 27475 27476 27477 27478 27479 27480 27481 27482 27483 27484 27485 27486 27487 27488 27489 27490 27491 27492 27493 27494 27495 27496 27497 27498 27499 27500 27501 27502 27503 27504 27505 27506 27507 27508 27509 27510 27511 27512 27513 27514 27515 27516 27517 27518 27519 27520 27521 27522 27523 27524 27525 27526 27527 27528 27529 27530 27531 27532 27533 27534 27535 27536 27537 27538 27539 27540 27541 27542 27543 27544 27545 27546 27547 27548 27549 27550 27551 27552 27553 27554 27555 27556 27557 27558 27559 27560 27561 27562 27563 27564 27565 27566 27567 27568 27569 27570 27571 27572 27573 27574 27575 27576 27577 27578 27579 27580 27581 27582 27583 27584 27585 27586 27587 27588 27589 27590 27591 27592 27593 27594 27595 27596 27597 27598 27599 27600 27601 27602 27603 27604 27605 27606 27607 27608 27609 27610 27611 27612 27613 27614 27615 27616 27617 27618 27619 27620 27621 27622 27623 27624 27625 27626 27627 27628 27629 27630 27631 27632 27633 27634 27635 27636 27637 27638 27639 27640 27641 27642 27643 27644 27645 27646 27647 27648 27649 27650 27651 27652 27653 27654 27655 27656 27657 27658 27659 27660 27661 27662 27663 27664 27665 27666 27667 27668 27669 27670 27671 27672 27673 27674 27675 27676 27677 27678 27679 27680 27681 27682 27683 27684 27685 27686 27687 27688 27689 27690 27691 27692 27693 27694 27695 27696 27697 27698 27699 27700 27701 27702 27703 27704 27705 27706 27707 27708 27709 27710 27711 27712 27713 27714 27715 27716 27717 27718 27719 27720 27721 27722 27723 27724 27725 27726 27727 27728 27729 27730 27731 27732 27733 27734 27735 27736 27737 27738 27739 27740 27741 27742 27743 27744 27745 27746 27747 27748 27749 27750 27751 27752 27753 27754 27755 27756 27757 27758 27759 27760 27761 27762 27763 27764 27765 27766 27767 27768 27769 27770 27771 27772 27773 27774 27775 27776 27777 27778 27779 27780 27781 27782 27783 27784 27785 27786 27787 27788 27789 27790 27791 27792 27793 27794 27795 27796 27797 27798 27799 27800 27801 27802 27803 27804 27805 27806 27807 27808 27809 27810 27811 27812 27813 27814 27815 27816 27817 27818 27819 27820 27821 27822 27823 27824 27825 27826 27827 27828 27829 27830 27831 27832 27833 27834 27835 27836 27837 27838 27839 27840 27841 27842 27843 27844 27845 27846 27847 27848 27849 27850 27851 27852 27853 27854 27855 27856 27857 27858 27859 27860 27861 27862 27863 27864 27865 27866 27867 27868 27869 27870 27871 27872 27873 27874 27875 27876 27877 27878 27879 27880 27881 27882 27883 27884 27885 27886 27887 27888 27889 27890 27891 27892 27893 27894 27895 27896 27897 27898 27899 27900 27901 27902 27903 27904 27905 27906 27907 27908 27909 27910 27911 27912 27913 27914 27915 27916 27917 27918 27919 27920 27921 27922 27923 27924 27925 27926 27927 27928 27929 27930 27931 27932 27933 27934 27935 27936 27937 27938 27939 27940 27941 27942 27943 27944 27945 27946 27947 27948 27949 27950 27951 27952 27953 27954 27955 27956 27957 27958 27959 27960 27961 27962 27963 27964 27965 27966 27967 27968 27969 27970 27971 27972 27973 27974 27975 27976 27977 27978 27979 27980 27981 27982 27983 27984 27985 27986 27987 27988 27989 27990 27991 27992 27993 27994 27995 27996 27997 27998 27999 28000 28001 28002 28003 28004 28005 28006 28007 28008 28009 28010 28011 28012 28013 28014 28015 28016 28017 28018 28019 28020 28021 28022 28023 28024 28025 28026 28027 28028 28029 28030 28031 28032 28033 28034 28035 28036 28037 28038 28039 28040 28041 28042 28043 28044 28045 28046 28047 28048 28049 28050 28051 28052 28053 28054 28055 28056 28057 28058 28059 28060 28061 28062 28063 28064 28065 28066 28067 28068 28069 28070 28071 28072 28073 28074 28075 28076 28077 28078 28079 28080 28081 28082 28083 28084 28085 28086 28087 28088 28089 28090 28091 28092 28093 28094 28095 28096 28097 28098 28099 28100 28101 28102 28103 28104 28105 28106 28107 28108 28109 28110 28111 28112 28113 28114 28115 28116 28117 28118 28119 28120 28121 28122 28123 28124 28125 28126 28127 28128 28129 28130 28131 28132 28133 28134 28135 28136 28137 28138 28139 28140 28141 28142 28143 28144 28145 28146 28147 28148 28149 28150 28151 28152 28153 28154 28155 28156 28157 28158 28159 28160 28161 28162 28163 28164 28165 28166 28167 28168 28169 28170 28171 28172 28173 28174 28175 28176 28177 28178 28179 28180 28181 28182 28183 28184 28185 28186 28187 28188 28189 28190 28191 28192 28193 28194 28195 28196 28197 28198 28199 28200 28201 28202 28203 28204 28205 28206 28207 28208 28209 28210 28211 28212 28213 28214 28215 28216 28217 28218 28219 28220 28221 28222 28223 28224 28225 28226 28227 28228 28229 28230 28231 28232 28233 28234 28235 28236 28237 28238 28239 28240 28241 28242 28243 28244 28245 28246 28247 28248 28249 28250 28251 28252 28253 28254 28255 28256 28257 28258 28259 28260 28261 28262 28263 28264 28265 28266 28267 28268 28269 28270 28271 28272 28273 28274 28275 28276 28277 28278 28279 28280 28281 28282 28283 28284 28285 28286 28287 28288 28289 28290 28291 28292 28293 28294 28295 28296 28297 28298 28299 28300 28301 28302 28303 28304 28305 28306 28307 28308 28309 28310 28311 28312 28313 28314 28315 28316 28317 28318 28319 28320 28321 28322 28323 28324 28325 28326 28327 28328 28329 28330 28331 28332 28333 28334 28335 28336 28337 28338 28339 28340 28341 28342 28343 28344 28345 28346 28347 28348 28349 28350 28351 28352 28353 28354 28355 28356 28357 28358 28359 28360 28361 28362 28363 28364 28365 28366 28367 28368 28369 28370 28371 28372 28373 28374 28375 28376 28377 28378 28379 28380 28381 28382 28383 28384 28385 28386 28387 28388 28389 28390 28391 28392 28393 28394 28395 28396 28397 28398 28399 28400 28401 28402 28403 28404 28405 28406 28407 28408 28409 28410 28411 28412 28413 28414 28415 28416 28417 28418 28419 28420 28421 28422 28423 28424 28425 28426 28427 28428 28429 28430 28431 28432 28433 28434 28435 28436 28437 28438 28439 28440 28441 28442 28443 28444 28445 28446 28447 28448 28449 28450 28451 28452 28453 28454 28455 28456 28457 28458 28459 28460 28461 28462 28463 28464 28465 28466 28467 28468 28469 28470 28471 28472 28473 28474 28475 28476 28477 28478 28479 28480 28481 28482 28483 28484 28485 28486 28487 28488 28489 28490 28491 28492 28493 28494 28495 28496 28497 28498 28499 28500 28501 28502 28503 28504 28505 28506 28507 28508 28509 28510 28511 28512 28513 28514 28515 28516 28517 28518 28519 28520 28521 28522 28523 28524 28525 28526 28527 28528 28529 28530 28531 28532 28533 28534 28535 28536 28537 28538 28539 28540 28541 28542 28543 28544 28545 28546 28547 28548 28549 28550 28551 28552 28553 28554 28555 28556 28557 28558 28559 28560 28561 28562 28563 28564 28565 28566 28567 28568 28569 28570 28571 28572 28573 28574 28575 28576 28577 28578 28579 28580 28581 28582 28583 28584 28585 28586 28587 28588 28589 28590 28591 28592 28593 28594 28595 28596 28597 28598 28599 28600 28601 28602 28603 28604 28605 28606 28607 28608 28609 28610 28611 28612 28613 28614 28615 28616 28617 28618 28619 28620 28621 28622 28623 28624 28625 28626 28627 28628 28629 28630 28631 28632 28633 28634 28635 28636 28637 28638 28639 28640 28641 28642 28643 28644 28645 28646 28647 28648 28649 28650 28651 28652 28653 28654 28655 28656 28657 28658 28659 28660 28661 28662 28663 28664 28665 28666 28667 28668 28669 28670 28671 28672 28673 28674 28675 28676 28677 28678 28679 28680 28681 28682 28683 28684 28685 28686 28687 28688 28689 28690 28691 28692 28693 28694 28695 28696 28697 28698 28699 28700 28701 28702 28703 28704 28705 28706 28707 28708 28709 28710 28711 28712 28713 28714 28715 28716 28717 28718 28719 28720 28721 28722 28723 28724 28725 28726 28727 28728 28729 28730 28731 28732 28733 28734 28735 28736 28737 28738 28739 28740 28741 28742 28743 28744 28745 28746 28747 28748 28749 28750 28751 28752 28753 28754 28755 28756 28757 28758 28759 28760 28761 28762 28763 28764 28765 28766 28767 28768 28769 28770 28771 28772 28773 28774 28775 28776 28777 28778 28779 28780 28781 28782 28783 28784 28785 28786 28787 28788 28789 28790 28791 28792 28793 28794 28795 28796 28797 28798 28799 28800 28801 28802 28803 28804 28805 28806 28807 28808 28809 28810 28811 28812 28813 28814 28815 28816 28817 28818 28819 28820 28821 28822 28823 28824 28825 28826 28827 28828 28829 28830 28831 28832 28833 28834 28835 28836 28837 28838 28839 28840 28841 28842 28843 28844 28845 28846 28847 28848 28849 28850 28851 28852 28853 28854 28855 28856 28857 28858 28859 28860 28861 28862 28863 28864 28865 28866 28867 28868 28869 28870 28871 28872 28873 28874 28875 28876 28877 28878 28879 28880 28881 28882 28883 28884 28885 28886 28887 28888 28889 28890 28891 28892 28893 28894 28895 28896 28897 28898 28899 28900 28901 28902 28903 28904 28905 28906 28907 28908 28909 28910 28911 28912 28913 28914 28915 28916 28917 28918 28919 28920 28921 28922 28923 28924 28925 28926 28927 28928 28929 28930 28931 28932 28933 28934 28935 28936 28937 28938 28939 28940 28941 28942 28943 28944 28945 28946 28947 28948 28949 28950 28951 28952 28953 28954 28955 28956 28957 28958 28959 28960 28961 28962 28963 28964 28965 28966 28967 28968 28969 28970 28971 28972 28973 28974 28975 28976 28977 28978 28979 28980 28981 28982 28983 28984 28985 28986 28987 28988 28989 28990 28991 28992 28993 28994 28995 28996 28997 28998 28999 29000 29001 29002 29003 29004 29005 29006 29007 29008 29009 29010 29011 29012 29013 29014 29015 29016 29017 29018 29019 29020 29021 29022 29023 29024 29025 29026 29027 29028 29029 29030 29031 29032 29033 29034 29035 29036 29037 29038 29039 29040 29041 29042 29043 29044 29045 29046 29047 29048 29049 29050 29051 29052 29053 29054 29055 29056 29057 29058 29059 29060 29061 29062 29063 29064 29065 29066 29067 29068 29069 29070 29071 29072 29073 29074 29075 29076 29077 29078 29079 29080 29081 29082 29083 29084 29085 29086 29087 29088 29089 29090 29091 29092 29093 29094 29095 29096 29097 29098 29099 29100 29101 29102 29103 29104 29105 29106 29107 29108 29109 29110 29111 29112 29113 29114 29115 29116 29117 29118 29119 29120 29121 29122 29123 29124 29125 29126 29127 29128 29129 29130 29131 29132 29133 29134 29135 29136 29137 29138 29139 29140 29141 29142 29143 29144 29145 29146 29147 29148 29149 29150 29151 29152 29153 29154 29155 29156 29157 29158 29159 29160 29161 29162 29163 29164 29165 29166 29167 29168 29169 29170 29171 29172 29173 29174 29175 29176 29177 29178 29179 29180 29181 29182 29183 29184 29185 29186 29187 29188 29189 29190 29191 29192 29193 29194 29195 29196 29197 29198 29199 29200 29201 29202 29203 29204 29205 29206 29207 29208 29209 29210 29211 29212 29213 29214 29215 29216 29217 29218 29219 29220 29221 29222 29223 29224 29225 29226 29227 29228 29229 29230 29231 29232 29233 29234 29235 29236 29237 29238 29239 29240 29241 29242 29243 29244 29245 29246 29247 29248 29249 29250 29251 29252 29253 29254 29255 29256 29257 29258 29259 29260 29261 29262 29263 29264 29265 29266 29267 29268 29269 29270 29271 29272 29273 29274 29275 29276 29277 29278 29279 29280 29281 29282 29283 29284 29285 29286 29287 29288 29289 29290 29291 29292 29293 29294 29295 29296 29297 29298 29299 29300 29301 29302 29303 29304 29305 29306 29307 29308 29309 29310 29311 29312 29313 29314 29315 29316 29317 29318 29319 29320 29321 29322 29323 29324 29325 29326 29327 29328 29329 29330 29331 29332 29333 29334 29335 29336 29337 29338 29339 29340 29341 29342 29343 29344 29345 29346 29347 29348 29349 29350 29351 29352 29353 29354 29355 29356 29357 29358 29359 29360 29361 29362 29363 29364 29365 29366 29367 29368 29369 29370 29371 29372 29373 29374 29375 29376 29377 29378 29379 29380 29381 29382 29383 29384 29385 29386 29387 29388 29389 29390 29391 29392 29393 29394 29395 29396 29397 29398 29399 29400 29401 29402 29403 29404 29405 29406 29407 29408 29409 29410 29411 29412 29413 29414 29415 29416 29417 29418 29419 29420 29421 29422 29423 29424 29425 29426 29427 29428 29429 29430 29431 29432 29433 29434 29435 29436 29437 29438 29439 
</DataArray>
<DataArray type="UInt32" Name="offsets" format="ascii">
3 6 8 11 14 17 20 23 26 29 32 35 37 40 43 46 49 52 54 57 60 63 66 69 72 75 78 81 84 87 90 93 95 98 101 104 107 109 112 115 118 120 123 126 129 132 135 138 141 144 147 150 153 156 159 162 165 168 171 174 177 180 183 186 189 192 194 197 200 203 206 209 211 214 217 220 222 224 227 230 233 236 239 242 245 248 251 254 257 260 262 265 268 270 273 276 279 282 285 288 291 294 297 300 303 306 309 312 315 318 321 324 327 329 332 335 337 340 343 346 349 352 355 358 361 364 367 369 372 375 378 381 384 386 389 392 395 398 400 403 405 408 411 414 417 419 422 425 428 431 434 437 440 443 446 449 452 455 458 461 463 466 469 472 475 477 480 483 486 489 492 495 498 501 503 506 509 512 515 518 521 524 527 529 531 534 537 540 543 546 548 550 553 556 559 562 565 568 571 574 576 579 582 584 587 589 592 594 597 600 603 606 609 612 615 617 620 623 626 629 632 635 638 641 644 647 650 652 655 658 661 664 666 668 671 674 677 680 682 685 688 691 693 696 699 702 705 708 711 714 717 720 722 725 728 731 734 737 740 743 746 749 752 755 758 761 764 767 770 773 776 779 782 785 788 791 794 797 799 802 805 808 811 814 817 820 823 826 829 832 835 838 841 844 847 850 853 856 859 862 865 868 871 874 876 879 882 885 888 891 894 896 899 902 905 908 911 914 917 919 921 924 927 930 933 936 939 942 945 948 950 953 956 959 962 964 967 970 973 976 978 981 984 987 990 993 996 999 1002 1004 1007 1010 1013 1016 1018 1021 1024 1027 1030 1033 1036 1039 1042 1045 1048 1050 1053 1055 1058 1061 1064 1067 1070 1073 1076 1079 1082 1085 1087 1090 1092 1095 1098 1101 1104 1107 1110 1113 1116 1119 1122 1125 1127 1130 1133 1136 1139 1142 1145 1148 1151 1153 1156 1159 1162 1165 1167 1170 1173 1176 1179 1182 1185 1188 1191 1193 1196 1199 1202 1205 1208 1211 1214 1217 1220 1223 1226 1229 1232 1235 1238 1241 1244 1247 1250 1253 1256 1258 1261 1264 1267 1270 1273 1276 1279 1282 1285 1287 1290 1293 1296 1299 1302 1305 1308 1311 1314 1317 1320 1323 1326 1329 1332 1335 1338 1341 1344 1347 1350 1353 1356 1359 1362 1365 1368 1371 1374 1377 1380 1383 1385 1388 1391 1394 1397 1400 1403 1406 1409 1412 1415 1418 1421 1424 1427 1430 1432 1435 1437 1440 1443 1446 1449 1451 1454 1457 1460 1463 1466 1468 1471 1474 1477 1480 1483 1486 1489 1492 1495 1498 1501 1504 1506 1509 1512 1515 1518 1521 1524 1527 1530 1533 1536 1539 1542 1545 1548 1551 1554 1557 1560 1563 1566 1569 1572 1575 1578 1581 1584 1587 1590 1593 1596 1599 1602 1605 1608 1611 1614 1617 1620 1623 1626 1629 1631 1634 1637 1639 1642 1645 1648 1651 1654 1657 1659 1662 1665 1668 1671 1674 1677 1679 1682 1685 1688 1691 1694 1697 1700 1703 1706 1709 1711 1714 1717 1720 1723 1726 1729 1732 1735 1738 1741 1744 1747 1750 1752 1755 1758 1761 1764 1767 1769 1772 1775 1778 1781 1784 1787 1790 1793 1796 1798 1800 1803 1806 1809 1812 1815 1817 1820 1823 1826 1829 1832 1835 1838 1841 1844 1847 1850 1853 1856 1859 1862 1865 1868 1871 1874 1877 1880 1883 1886 1889 1892 1895 1898 1901 1904 1907 1910 1913 1916 1919 1922 1925 1928 1930 1933 1935 1938 1941 1944 1947 1950 1953 1956 1959 1962 1965 1968 1971 1974 1977 1980 1983 1986 1989 1992 1994 1997 2000 2002 2005 2008 2011 2014 2017 2020 2022 2025 2027 2030 2033 2036 2038 2041 2044 2046 2048 2051 2053 2056 2059 2062 2065 2068 2071 2073 2076 2079 2082 2085 2088 2090 2092 2094 2097 2100 2103 2106 2108 2111 2114 2117 2120 2123 2126 2128 2131 2134 2137 2140 2143 2146 2148 2151 2153 2155 2158 2161 2163 2166 2168 2171 2174 2177 2180 2183 2186 2189 2192 2195 2198 2201 2204 2207 2210 2213 2216 2219 2221 2224 2227 2230 2232 2235 2238 2241 2244 2247 2249 2252 2255 2258 2261 2264 2267 2269 2272 2275 2278 2280 2283 2286 2289 2292 2295 2298 2301 2304 2307 2310 2313 2316 2319 2322 2325 2328 2330 2333 2336 2338 2341 2344 2347 2350 2353 2356 2359 2362 2364 2367 2370 2373 2376 2379 2382 2385 2388 2391 2394 2397 2400 2403 2406 2409 2412 2415 2417 2420 2423 2426 2429 2432 2435 2437 2440 2443 2446 2448 2451 2453 2456 2458 2461 2463 2466 2469 2471 2474 2477 2480 2483 2486 2489 2492 2495 2498 2501 2504 2507 2509 2512 2515 2518 2521 2524 2527 2530 2533 2536 2539 2542 2545 2548 2551 2554 2557 2560 2563 2566 2569 2572 2575 2578 2581 2584 2587 2590 2593 2596 2599 2602 2605 2608 2610 2613 2616 2619 2622 2625 2627 2629 2632 2634 2637 2640 2643 2646 2649 2652 2655 2657 2660 2663 2666 2669 2672 2675 2678 2681 2684 2687 2690 2692 2695 2697 2700 2703 2705 2708 2711 2714 2716 2719 2722 2725 2727 2730 2733 2736 2738 2740 2743 2746 2749 2752 2755 2758 2761 2764 2767 2770 2773 2776 2779 2782 2785 2788 2791 2794 2797 2800 2803 2806 2809 2812 2815 2818 2821 2824 2827 2830 2833 2836 2839 2842 2845 2848 2851 2854 2857 2860 2863 2866 2869 2872 2875 2878 2881 2884 2887 2890 2893 2896 2899 2902 2905 2908 2911 2914 2917 2920 2923 2926 2929 2932 2935 2938 2941 2944 2947 2950 2953 2956 2959 2962 2965 2968 2971 2974 2977 2980 2983 2986 2989 2992 2995 2998 3001 3004 3007 3010 3013 3016 3019 3022 3025 3028 3031 3034 3037 3040 3043 3046 3049 3052 3055 3058 3061 3064 3067 3070 3073 3076 3079 3082 3085 3088 3091 3094 3097 3100 3103 3106 3109 3112 3115 3118 3121 3124 3127 3130 3133 3136 3139 3142 3145 3148 3151 3154 3157 3160 3163 3166 3169 3172 3175 3178 3181 3183 3185 3188 3191 3194 3197 3200 3203 3206 3209 3212 3215 3218 3221 3224 3227 3230 3233 3236 3239 3242 3245 3248 3251 3254 3257 3260 3263 3266 3269 3272 3275 3278 3281 3284 3287 3290 3293 3296 3299 3302 3305 3308 3311 3313 3316 3319 3321 3324 3327 3330 3333 3336 3339 3342 3345 3348 3351 3354 3356 3359 3362 3364 3367 3370 3372 3375 3378 3381 3384 3387 3390 3393 3396 3399 3402 3405 3408 3411 3414 3417 3419 3422 3425 3428 3431 3434 3436 3438 3441 3444 3447 3450 3453 3456 3459 3462 3465 3468 3471 3474 3477 3480 3483 3486 3489 3492 3495 3497 3500 3502 3505 3508 3510 3513 3515 3518 3521 3524 3526 3529 3532 3535 3538 3541 3544 3546 3549 3552 3555 3558 3560 3563 3566 3569 3572 3575 3578 3581 3584 3587 3590 3592 3595 3598 3601 3604 3607 3610 3613 3616 3619 3622 3625 3628 3631 3633 3636 3639 3642 3645 3647 3649 3652 3655 3658 3660 3663 3665 3668 3671 3673 3676 3679 3682 3685 3687 3689 3692 3695 3698 3701 3704 3706 3709 3712 3715 3718 3721 3724 3727 3730 3733 3736 3738 3741 3744 3747 3750 3753 3756 3759 3762 3765 3768 3771 3774 3777 3780 3783 3786 3788 3791 3793 3796 3798 3801 3804 3806 3808 3811 3814 3817 3820 3823 3826 3829 3831 3834 3836 3839 3842 3845 3848 3851 3854 3857 3860 3863 3866 3869 3872 3875 3878 3881 3884 3887 3890 3893 3896 3899 3902 3905 3908 3911 3914 3917 3920 3923 3926 3928 3931 3934 3937 3940 3943 3946 3949 3952 3955 3958 3961 3964 3967 3970 3972 3975 3978 3981 3984 3987 3990 3993 3996 3999 4002 4005 4007 4010 4013 4016 4019 4022 4025 4028 4031 4034 4037 4040 4043 4046 4049 4052 4054 4057 4060 4063 4066 4069 4072 4075 4078 4081 4083 4086 4088 4091 4094 4097 4100 4102 4105 4108 4110 4113 4116 4119 4122 4125 4128 4131 4133 4135 4138 4141 4144 4147 4150 4153 4156 4159 4161 4164 4167 4169 4172 4175 4178 4181 4184 4187 4190 4193 4196 4199 4201 4204 4207 4209 4212 4215 4217 4220 4223 4226 4228 4230 4233 4236 4239 4242 4245 4248 4251 4254 4257 4260 4263 4265 4268 4271 4274 4277 4280 4283 4286 4289 4292 4295 4298 4301 4304 4307 4310 4313 4316 4319 4322 4325 4328 4331 4334 4337 4340 4342 4345 4348 4351 4354 4357 4360 4363 4366 4368 4371 4374 4377 4380 4383 4385 4388 4391 4394 4397 4400 4403 4405 4408 4411 4414 4417 4420 4423 4426 4429 4432 4435 4438 4441 4444 4447 4450 4453 4456 4459 4462 4465 4468 4471 4474 4477 4480 4483 4485 4488 4491 4494 4497 4500 4502 4505 4508 4511 4514 4517 4520 4523 4526 4529 4532 4535 4538 4541 4544 4547 4550 4553 4556 4559 4562 4565 4568 4571 4574 4576 4579 4582 4584 4587 4590 4593 4595 4598 4600 4603 4606 4609 4611 4614 4616 4619 4622 4625 4628 4631 4633 4635 4638 4641 4644 4647 4650 4652 4654 4656 4659 4661 4664 4667 4670 4673 4676 4679 4682 4685 4688 4691 4694 4697 4700 4703 4706 4709 4712 4714 4717 4719 4722 4725 4728 4731 4733 4735 4737 4740 4743 4746 4749 4752 4755 4758 4761 4764 4767 4770 4773 4776 4779 4782 4785 4788 4791 4794 4796 4799 4802 4805 4808 4811 4813 4816 4819 4822 4825 4827 4830 4833 4836 4839 4842 4845 4848 4851 4854 4857 4860 4863 4866 4869 4872 4875 4878 4881 4884 4886 4889 4891 4894 4897 4900 4903 4906 4909 4912 4915 4917 4919 4922 4925 4928 4930 4933 4936 4939 4942 4945 4948 4951 4954 4957 4959 4962 4965 4968 4971 4974 4977 4980 4983 4986 4989 4992 4995 4998 5001 5004 5007 5010 5012 5015 5018 5021 5024 5027 5029 5032 5035 5037 5040 5043 5046 5049 5052 5055 5058 5061 5064 5067 5070 5073 5076 5079 5082 5084 5087 5090 5092 5095 5098 5101 5103 5106 5109 5112 5115 5117 5120 5123 5126 5129 5132 5135 5137 5140 5143 5145 5148 5151 5154 5157 5160 5163 5166 5169 5172 5175 5178 5181 5184 5187 5190 5193 5196 5199 5202 5205 5208 5211 5214 5217 5220 5223 5225 5228 5231 5233 5236 5239 5242 5245 5248 5251 5254 5257 5260 5263 5266 5269 5272 5275 5278 5281 5284 5287 5290 5293 5296 5299 5302 5305 5308 5311 5314 5317 5320 5322 5325 5328 5331 5334 5337 5340 5343 5345 5348 5351 5354 5357 5360 5363 5366 5368 5371 5374 5377 5380 5383 5386 5389 5392 5395 5398 5401 5404 5407 5410 5413 5416 5419 5422 5425 5428 5431 5434 5437 5440 5443 5446 5449 5452 5455 5458 5461 5464 5467 5469 5472 5475 5478 5481 5483 5486 5489 5491 5493 5496 5499 5502 5505 5508 5511 5513 5516 5519 5522 5525 5528 5531 5534 5537 5540 5543 5546 5549 5552 5555 5558 5561 5564 5567 5570 5573 5576 5579 5582 5585 5588 5590 5593 5596 5599 5602 5605 5608 5611 5614 5617 5620 5623 5626 5629 5632 5635 5638 5641 5644 5647 5650 5653 5656 5659 5662 5665 5668 5671 5674 5677 5680 5683 5686 5689 5692 5695 5698 5701 5704 5707 5710 5713 5716 5719 5722 5725 5728 5731 5734 5737 5740 5743 5746 5749 5752 5755 5758 5761 5764 5767 5770 5773 5776 5779 5782 5785 5788 5791 5794 5797 5800 5803 5806 5809 5812 5815 5818 5821 5824 5827 5830 5833 5836 5839 5842 5845 5848 5851 5854 5857 5860 5863 5866 5869 5872 5874 5877 5880 5883 5886 5889 5892 5895 5898 5901 5904 5907 5909 5912 5915 5917 5920 5923 5925 5928 5931 5934 5937 5940 5943 5946 5949 5952 5955 5957 5960 5963 5966 5969 5972 5974 5977 5980 5982 5985 5988 5991 5994 5997 6000 6002 6005 6008 6011 6014 6017 6020 6023 6025 6028 6031 6034 6037 6039 6041 6044 6047 6050 6052 6055 6058 6061 6064 6067 6070 6073 6075 6078 6080 6083 6085 6088 6090 6093 6095 6098 6101 6103 6106 6108 6111 6114 6117 6120 6123 6125 6128 6131 6134 6137 6140 6143 6146 6149 6152 6155 6158 6160 6163 6166 6169 6172 6175 6177 6180 6183 6186 6188 6191 6194 6197 6200 6203 6206 6208 6211 6214 6217 6220 6222 6225 6228 6230 6233 6236 6239 6242 6245 6248 6251 6254 6257 6260 6263 6266 6269 6272 6275 6278 6281 6284 6287 6290 6293 6296 6299 6302 6304 6307 6310 6313 6316 6319 6322 6325 6328 6330 6333 6336 6339 6342 6345 6348 6351 6354 6357 6360 6363 6366 6369 6372 6374 6377 6380 6383 6386 6389 6391 6394 6396 6399 6401 6404 6407 6410 6413 6416 6419 6422 6425 6428 6431 6434 6437 6440 6443 6446 6448 6451 6454 6457 6460 6463 6466 6469 6472 6475 6477 6480 6483 6485 6488 6491 6494 6497 6500 6503 6506 6509 6512 6515 6517 6520 6523 6525 6527 6530 6533 6536 6538 6541 6544 6547 6550 6553 6555 6558 6561 6564 6567 6570 6573 6576 6578 6581 6584 6586 6589 6592 6595 6598 6601 6604 6607 6610 6613 6616 6619 6622 6625 6628 6631 6634 6636 6639 6642 6645 6648 6651 6654 6657 6660 6663 6666 6668 6671 6674 6677 6680 6683 6686 6689 6692 6694 6697 6700 6703 6706 6709 6712 6715 6718 6721 6724 6727 6730 6733 6736 6739 6741 6744 6747 6750 6753 6756 6759 6762 6765 6767 6770 6772 6774 6777 6780 6783 6786 6789 6792 6795 6798 6801 6804 6807 6810 6813 6816 6819 6822 6825 6827 6830 6832 6835 6837 6840 6843 6846 6848 6850 6853 6856 6859 6862 6865 6868 6871 6874 6876 6879 6882 6885 6888 6891 6894 6896 6899 6902 6905 6908 6911 6914 6917 6920 6923 6926 6929 6932 6935 6938 6941 6944 6947 6950 6953 6956 6959 6962 6965 6968 6971 6973 6976 6979 6982 6985 6988 6990 6993 6996 6999 7002 7004 7007 7009 7012 7015 7017 7020 7022 7025 7028 7030 7033 7036 7038 7041 7044 7046 7049 7051 7054 7056 7059 7061 7064 7067 7070 7073 7076 7079 7082 7084 7087 7090 7093 7096 7099 7102 7105 7108 7111 7113 7116 7119 7122 7125 7128 7131 7134 7137 7140 7143 7146 7149 7152 7155 7158 7161 7164 7167 7169 7172 7175 7178 7181 7184 7186 7189 7192 7195 7198 7201 7204 7207 7210 7213 7215 7218 7221 7224 7227 7230 7233 7236 7238 7241 7244 7247 7250 7253 7256 7259 7262 7265 7268 7271 7274 7277 7280 7283 7286 7289 7292 7295 7297 7299 7302 7305 7308 7311 7314 7316 7319 7321 7324 7327 7329 7332 7335 7338 7341 7343 7346 7349 7352 7354 7357 7360 7363 7366 7368 7371 7374 7377 7380 7383 7385 7388 7391 7394 7396 7399 7401 7404 7406 7409 7412 7415 7417 7420 7423 7426 7429 7431 7434 7437 7439 7442 7445 7448 7450 7453 7456 7459 7462 7465 7468 7471 7474 7477 7480 7483 7486 7488 7491 7494 7497 7500 7503 7506 7509 7512 7515 7517 7520 7523 7526 7529 7532 7535 7538 7541 7544 7547 7550 7553 7556 7559 7562 7565 7568 7571 7574 7577 7580 7583 7586 7589 7592 7595 7598 7601 7604 7607 7610 7613 7616 7619 7622 7625 7628 7631 7634 7637 7640 7643 7646 7649 7652 7655 7658 7661 7663 7666 7669 7672 7675 7678 7681 7684 7687 7690 7693 7696 7699 7702 7705 7708 7711 7714 7717 7719 7722 7724 7727 7730 7733 7736 7739 7742 7745 7748 7751 7754 7757 7760 7763 7766 7769 7772 7775 7778 7781 7784 7787 7790 7793 7796 7799 7801 7804 7806 7809 7812 7815 7818 7820 7823 7825 7828 7830 7833 7836 7839 7842 7845 7847 7849 7852 7855 7857 7859 7862 7865 7868 7871 7874 7877 7880 7882 7885 7888 7891 7894 7897 7900 7903 7905 7908 7911 7914 7917 7920 7923 7925 7927 7930 7933 7936 7939 7941 7943 7946 7949 7952 7955 7958 7961 7964 7967 7970 7973 7976 7979 7982 7985 7988 7991 7994 7997 8000 8003 8006 8009 8012 8015 8018 8021 8024 8027 8029 8032 8035 8037 8040 8043 8046 8049 8052 8055 8058 8061 8064 8067 8070 8073 8076 8079 8082 8085 8088 8091 8093 8096 8098 8101 8104 8107 8110 8113 8116 8119 8122 8125 8128 8131 8134 8137 8140 8143 8145 8148 8151 8153 8156 8159 8162 8165 8168 8171 8174 8177 8180 8183 8186 8188 8191 8194 8197 8200 8203 8206 8209 8212 8214 8217 8220 8223 8226 8229 8232 8235 8238 8241 8244 8247 8250 8253 8256 8259 8262 8265 8268 8271 8274 8277 8280 8283 8285 8288 8291 8294 8297 8300 8303 8306 8309 8311 8314 8316 8319 8322 8324 8327 8329 8332 8334 8337 8339 8342 8345 8347 8350 8353 8356 8359 8362 8365 8368 8371 8374 8377 8379 8382 8385 8388 8391 8394 8397 8400 8403 8406 8409 8412 8415 8418 8421 8424 8427 8430 8433 8436 8438 8440 8443 8446 8448 8451 8454 8457 8460 8463 8466 8469 8472 8475 8478 8481 8484 8487 8490 8493 8496 8499 8502 8505 8508 8511 8514 8517 8520 8523 8526 8529 8532 8535 8538 8541 8544 8547 8550 8553 8556 8559 8562 8565 8568 8570 8573 8576 8579 8582 8585 8588 8591 8594 8596 8599 8602 8604 8607 8610 8613 8615 8618 8621 8624 8626 8629 8631 8634 8636 8638 8641 8644 8647 8650 8653 8655 8658 8661 8664 8667 8670 8673 8675 8678 8681 8684 8687 8690 8693 8696 8698 8700 8703 8706 8709 8712 8715 8718 8721 8724 8726 8729 8732 8735 8738 8740 8743 8746 8749 8752 8755 8758 8760 8763 8766 8769 8772 8775 8778 8781 8784 8786 8789 8792 8795 8797 8800 8803 8806 8809 8812 8815 8818 8821 8824 8826 8829 8832 8835 8838 8841 8844 8847 8849 8852 8855 8858 8861 8864 8867 8869 8872 8875 8878 8881 8884 8887 8890 8893 8896 8898 8901 8904 8907 8910 8912 8914 8917 8920 8923 8926 8929 8932 8935 8938 8941 8944 8947 8950 8953 8956 8959 8962 8965 8967 8970 8973 8976 8979 8982 8985 8988 8991 8994 8997 9000 9003 9006 9009 9012 9015 9018 9021 9024 9027 9030 9032 9035 9038 9041 9044 9046 9049 9052 9055 9057 9060 9063 9066 9069 9072 9075 9078 9081 9084 9087 9090 9093 9096 9099 9102 9105 9108 9110 9113 9116 9119 9122 9125 9127 9130 9132 9135 9138 9141 9144 9146 9149 9152 9155 9158 9161 9164 9167 9170 9173 9175 9178 9181 9184 9187 9190 9193 9196 9199 9202 9205 9208 9211 9214 9217 9220 9223 9226 9229 9232 9235 9238 9241 9244 9247 9250 9253 9256 9259 9262 9265 9268 9271 9274 9277 9280 9283 9286 9289 9292 9295 9298 9301 9304 9307 9310 9313 9316 9319 9322 9325 9328 9331 9334 9337 9340 9343 9346 9349 9352 9355 9358 9361 9363 9366 9369 9372 9375 9378 9380 9383 9385 9388 9391 9394 9397 9400 9403 9406 9409 9412 9415 9418 9421 9424 9427 9430 9433 9436 9439 9442 9445 9448 9451 9453 9456 9459 9462 9465 9468 9470 9473 9476 9479 9482 9485 9488 9491 9493 9496 9499 9502 9505 9508 9511 9513 9515 9518 9521 9524 9527 9530 9533 9536 9539 9542 9545 9548 9551 9554 9556 9559 9562 9565 9568 9571 9574 9577 9580 9583 9586 9589 9592 9594 9597 9600 9603 9606 9609 9611 9614 9617 9620 9623 9626 9629 9632 9635 9638 9641 9644 9647 9650 9653 9656 9659 9662 9665 9668 9670 9673 9676 9679 9682 9685 9688 9691 9694 9697 9700 9702 9705 9708 9711 9714 9717 9719 9722 9725 9728 9730 9733 9736 9739 9742 9745 9747 9750 9753 9756 9759 9762 9765 9768 9771 9774 9777 9780 9783 9785 9788 9791 9794 9797 9799 9802 9805 9808 9811 9813 9816 9819 9821 9824 9827 9829 9832 9835 9838 9841 9844 9846 9849 9852 9855 9857 9860 9863 9866 9868 9871 9874 9877 9880 9883 9886 9889 9892 9895 9898 9900 9903 9906 9909 9912 9915 9918 9921 9924 9926 9929 9932 9935 9938 9940 9943 9946 9948 9950 9953 9956 9959 9962 9965 9968 9971 9974 9976 9979 9982 9984 9987 9990 9992 9995 9998 10001 10003 10006 10009 10012 10015 10018 10021 10024 10027 10029 10032 10035 10038 10041 10044 10046 10049 10052 10054 10057 10060 10063 10066 10069 10071 10074 10077 10080 10082 10085 10088 10091 10094 10096 10099 10102 10105 10107 10110 10112 10115 10118 10121 10123 10126 10129 10132 10135 10138 10141 10144 10147 10150 10153 10156 10159 10162 10165 10168 10171 10174 10177 10180 10183 10186 10189 10192 10195 10198 10201 10204 10207 10210 10213 10216 10219 10222 10225 10228 10231 10234 10237 10240 10243 10246 10249 10252 10255 10257 10259 10261 10263 10266 10269 10272 10275 10278 10280 10283 10286 10289 10292 10295 10298 10301 10304 10307 10310 10312 10315 10318 10321 10323 10325 10328 10331 10333 10336 10339 10342 10345 10348 10351 10354 10357 10359 10362 10365 10367 10369 10372 10375 10377 10379 10382 10385 10388 10391 10394 10397 10400 10403 10406 10408 10411 10414 10417 10420 10423 10426 10428 10431 10434 10437 10440 10443 10446 10449 10452 10455 10458 10461 10464 10467 10470 10473 10476 10479 10482 10485 10488 10491 10494 10497 10500 10503 10505 10508 10511 10514 10517 10520 10522 10524 10527 10529 10532 10535 10538 10540 10543 10546 10549 10551 10554 10557 10560 10562 10565 10568 10571 10573 10576 10579 10582 10584 10587 10589 10592 10595 10598 10601 10604 10607 10610 10613 10616 10619 10622 10625 10628 10631 10634 10637 10639 10642 10645 10648 10651 10654 10657 10660 10663 10666 10669 10672 10674 10677 10680 10682 10684 10687 10690 10693 10696 10699 10702 10705 10708 10710 10713 10716 10719 10722 10725 10728 10731 10734 10736 10739 10741 10744 10747 10750 10753 10756 10759 10762 10765 10768 10771 10773 10776 10779 10782 10784 10787 10790 10793 10795 10798 10801 10804 10807 10810 10812 10815 10817 10820 10823 10826 10829 10832 10835 10838 10841 10844 10847 10850 10853 10856 10859 10862 10865 10868 10871 10874 10877 10880 10883 10885 10888 10891 10894 10897 10900 10903 10906 10909 10912 10915 10918 10921 10924 10927 10930 10933 10936 10938 10940 10943 10945 10948 10951 10954 10957 10960 10963 10966 10968 10971 10974 10977 10980 10982 10985 10988 10991 10994 10997 11000 11003 11006 11009 11012 11015 11018 11021 11024 11027 11030 11033 11036 11039 11041 11044 11047 11049 11052 11055 11058 11061 11064 11067 11070 11073 11075 11078 11081 11084 11086 11089 11092 11095 11098 11101 11104 11107 11110 11113 11116 11119 11122 11124 11127 11130 11133 11136 11139 11142 11145 11148 11151 11154 11157 11160 11163 11166 11169 11172 11175 11178 11181 11184 11187 11190 11193 11196 11199 11202 11205 11208 11211 11214 11217 11219 11222 11225 11228 11230 11233 11236 11239 11241 11244 11247 11250 11252 11255 11258 11260 11263 11266 11269 11272 11275 11278 11281 11284 11287 11290 11293 11296 11299 11302 11305 11308 11311 11314 11317 11319 11322 11325 11328 11330 11333 11336 11339 11342 11345 11348 11351 11354 11357 11360 11362 11365 11368 11370 11373 11376 11379 11382 11385 11387 11390 11392 11395 11398 11401 11403 11406 11409 11412 11415 11418 11421 11424 11427 11430 11433 11436 11439 11442 11445 11447 11449 11452 11455 11458 11461 11464 11467 11470 11473 11476 11479 11482 11485 11488 11491 11494 11497 11500 11503 11506 11509 11512 11514 11516 11519 11522 11525 11528 11531 11534 11537 11540 11543 11546 11549 11552 11554 11557 11560 11563 11566 11569 11572 11575 11578 11581 11584 11586 11589 11592 11594 11597 11600 11603 11606 11609 11612 11614 11617 11620 11622 11625 11628 11631 11634 11637 11639 11642 11645 11648 11651 11654 11657 11660 11663 11665 11668 11670 11673 11676 11679 11682 11684 11687 11690 11693 11696 11699 11702 11705 11708 11711 11714 11716 11719 11722 11725 11728 11731 11734 11737 11740 11743 11746 11749 11751 11754 11756 11759 11761 11764 11767 11770 11773 11776 11779 11781 11784 11787 11790 11793 11796 11799 11802 11805 11807 11809 11812 11815 11818 11821 11824 11827 11830 11833 11836 11838 11841 11844 11847 11850 11853 11855 11857 11859 11862 11865 11868 11871 11873 11876 11879 11882 11885 11887 11890 11893 11896 11899 11902 11905 11907 11910 11913 11916 11919 11922 11925 11927 11930 11933 11936 11939 11941 11944 11947 11949 11951 11954 11957 11960 11963 11966 11969 11972 11975 11978 11980 11983 11986 11988 11991 11994 11997 12000 12003 12006 12009 12012 12015 12018 12021 12024 12027 12030 12033 12036 12039 12042 12045 12048 12051 12054 12057 12060 12063 12066 12068 12071 12074 12077 12079 12082 12085 12088 12091 12094 12097 12099 12102 12105 12108 12111 12114 12117 12120 12123 12126 12129 12131 12134 12137 12139 12142 12145 12148 12151 12154 12157 12160 12163 12166 12169 12172 12175 12178 12181 12183 12186 12189 12192 12195 12198 12201 12204 12207 12210 12213 12216 12219 12222 12225 12228 12231 12234 12237 12240 12243 12246 12249 12252 12255 12258 12261 12264 12267 12270 12272 12275 12278 12281 12284 12287 12290 12293 12296 12299 12302 12305 12308 12311 12314 12317 12320 12323 12326 12329 12332 12335 12338 12341 12344 12347 12350 12353 12356 12359 12362 12365 12368 12371 12374 12377 12380 12383 12386 12389 12392 12395 12398 12401 12404 12407 12410 12413 12416 12419 12422 12425 12428 12431 12434 12437 12440 12443 12446 12449 12452 12455 12458 12461 12464 12467 12470 12473 12476 12479 12482 12485 12488 12491 12494 12497 12500 12503 12506 12509 12512 12515 12518 12521 12524 12527 12530 12533 12536 12539 12542 12545 12548 12550 12553 12556 12559 12562 12565 12567 12570 12573 12576 12579 12582 12585 12588 12591 12594 12597 12600 12602 12605 12608 12611 12614 12616 12619 12621 12623 12626 12628 12631 12634 12637 12640 12643 12646 12649 12652 12654 12657 12660 12663 12666 12669 12672 12675 12678 12681 12684 12687 12690 12693 12696 12699 12702 12705 12708 12711 12714 12717 12720 12723 12726 12729 12732 12735 12738 12741 12744 12747 12750 12753 12756 12759 12761 12763 12766 12769 12771 12774 12777 12779 12782 12785 12787 12790 12793 12796 12799 12801 12804 12806 12809 12812 12815 12817 12820 12822 12825 12827 12829 12831 12834 12837 12839 12841 12844 12847 12850 12853 12856 12859 12862 12864 12867 12870 12873 12876 12879 12882 12884 12887 12890 12892 12895 12897 12900 12903 12906 12909 12912 12914 12917 12920 12922 12925 12928 12931 12934 12937 12940 12943 12946 12949 12952 12955 12958 12961 12964 12967 12970 12973 12976 12979 12981 12984 12987 12989 12991 12994 12996 12999 13001 13004 13007 13010 13012 13014 13017 13020 13023 13026 13028 13031 13034 13037 13040 13043 13046 13049 13052 13055 13058 13061 13064 13067 13070 13073 13075 13078 13081 13084 13086 13089 13092 13095 13098 13100 13103 13106 13108 13111 13114 13117 13120 13123 13126 13129 13132 13135 13137 13140 13143 13146 13149 13152 13155 13158 13161 13164 13167 13170 13173 13176 13179 13182 13185 13188 13191 13194 13197 13200 13203 13206 13209 13211 13214 13217 13220 13223 13226 13229 13232 13235 13238 13241 13244 13247 13249 13252 13255 13258 13261 13263 13266 13269 13271 13274 13277 13280 13283 13286 13289 13291 13294 13297 13300 13303 13306 13309 13311 13313 13315 13318 13321 13324 13326 13329 13332 13335 13338 13341 13344 13347 13350 13353 13356 13359 13362 13365 13367 13370 13373 13376 13379 13382 13385 13388 13391 13393 13396 13399 13401 13404 13406 13409 13412 13415 13418 13421 13423 13425 13428 13431 13434 13437 13440 13443 13446 13449 13452 13454 13456 13459 13462 13465 13468 13471 13474 13477 13479 13482 13485 13488 13491 13494 13497 13500 13503 13506 13509 13512 13515 13518 13521 13524 13527 13530 13533 13536 13539 13542 13545 13548 13551 13553 13556 13559 13562 13565 13568 13571 13574 13577 13580 13583 13586 13589 13592 13595 13598 13601 13604 13607 13610 13613 13616 13619 13622 13625 13628 13631 13634 13637 13640 13643 13645 13648 13650 13653 13656 13659 13661 13664 13667 13670 13673 13675 13678 13681 13684 13686 13689 13692 13695 13698 13701 13704 13707 13709 13711 13714 13717 13719 13722 13725 13728 13731 13734 13737 13740 13743 13746 13749 13752 13755 13758 13761 13764 13766 13768 13771 13774 13777 13780 13783 13785 13788 13791 13794 13797 13800 13802 13805 13808 13811 13813 13816 13819 13822 13825 13828 13831 13834 13837 13840 13843 13846 13849 13852 13855 13858 13861 13864 13867 13870 13873 13876 13879 13882 13885 13887 13890 13893 13895 13898 13901 13903 13906 13909 13912 13915 13918 13921 13924 13927 13930 13933 13936 13939 13942 13945 13948 13951 13954 13957 13960 13963 13966 13969 13972 13975 13978 13980 13983 13986 13989 13991 13994 13997 14000 14003 14006 14009 14012 14015 14018 14021 14024 14027 14030 14033 14036 14039 14042 14045 14048 14051 14054 14057 14060 14063 14066 14069 14072 14075 14078 14081 14084 14087 14090 14093 14096 14099 14102 14105 14108 14111 14114 14117 14120 14123 14126 14129 14132 14135 14137 14140 14143 14146 14149 14152 14155 14158 14161 14164 14167 14170 14173 14175 14178 14181 14184 14187 14190 14193 14196 14199 14201 14204 14206 14209 14212 14215 14218 14221 14224 14227 14230 14233 14236 14239 14242 14245 14248 14251 14253 14256 14259 14262 14265 14268 14271 14274 14277 14279 14281 14284 14287 14289 14292 14295 14298 14301 14303 14306 14308 14311 14314 14317 14320 14323 14325 14327 14330 14333 14336 14339 14342 14345 14348 14351 14354 14357 14360 14363 14366 14369 14372 14375 14378 14381 14384 14387 14390 14393 14396 14399 14401 14404 14407 14410 14413 14415 14418 14420 14423 14426 14429 14432 14435 14438 14441 14444 14447 14450 14453 14456 14459 14462 14465 14468 14471 14474 14477 14480 14482 14485 14488 14490 14493 14496 14499 14502 14505 14508 14511 14514 14517 14520 14523 14526 14529 14532 14535 14538 14540 14543 14546 14549 14552 14555 14558 14560 14562 14565 14568 14571 14574 14577 14580 14583 14586 14589 14592 14595 14598 14601 14604 14607 14610 14613 14616 14619 14622 14625 14628 14631 14634 14637 14640 14642 14645 14648 14651 14654 14657 14660 14663 14666 14669 14672 14675 14678 14681 14684 14687 14690 14693 14696 14698 14701 14704 14707 14710 14713 14716 14719 14722 14724 14727 14729 14732 14735 14738 14741 14744 14747 14750 14753 14756 14759 14762 14764 14767 14770 14773 14776 14779 14782 14785 14788 14791 14794 14797 14800 14803 14806 14808 14811 14814 14817 14820 14822 14825 14828 14831 14834 14836 14839 14841 14843 14846 14849 14852 14855 14857 14860 14863 14866 14869 14872 14875 14878 14880 14883 14886 14888 14890 14893 14896 14899 14902 14905 14908 14911 14914 14916 14919 14922 14925 14928 14931 14934 14937 14940 14943 14946 14949 14952 14955 14958 14961 14964 14967 14970 14972 14975 14978 14981 14983 14986 14989 14992 14995 14997 15000 15003 15006 15009 15012 15015 15018 15021 15024 15027 15030 15033 15036 15039 15041 15044 15047 15050 15053 15056 15059 15062 15065 15068 15071 15074 15077 15079 15082 15085 15088 15091 15094 15096 15099 15102 15105 15108 15111 15114 15117 15119 15122 15125 15128 15131 15134 15137 15140 15142 15145 15148 15150 15153 15155 15158 15161 15164 15166 15169 15172 15175 15178 15181 15184 15187 15190 15193 15196 15199 15202 15205 15208 15210 15213 15216 15219 15222 15225 15228 15231 15234 15237 15240 15242 15245 15248 15251 15253 15256 15259 15261 15264 15267 15270 15272 15275 15277 15280 15283 15286 15289 15292 15295 15298 15300 15303 15306 15309 15312 15315 15318 15320 15323 15326 15329 15332 15335 15338 15341 15344 15347 15350 15353 15356 15358 15361 15364 15367 15370 15373 15376 15379 15382 15384 15387 15390 15393 15396 15399 15402 15405 15408 15411 15413 15416 15419 15422 15425 15428 15431 15434 15436 15439 15442 15445 15448 15451 15454 15457 15460 15463 15466 15469 15472 15475 15477 15480 15483 15486 15488 15491 15493 15495 15498 15501 15504 15507 15510 15513 15515 15518 15521 15524 15527 15530 15533 15536 15539 15542 15545 15548 15551 15554 15557 15560 15562 15565 15568 15571 15574 15577 15580 15582 15585 15588 15591 15594 15597 15600 15603 15606 15609 15612 15615 15618 15621 15624 15626 15629 15631 15634 15637 15640 15643 15645 15648 15651 15654 15657 15660 15663 15665 15668 15671 15674 15677 15680 15683 15685 15688 15691 15694 15697 15700 15703 15706 15709 15712 15715 15718 15721 15724 15727 15730 15733 15736 15739 15742 15745 15748 15751 15754 15757 15760 15763 15766 15769 15772 15775 15778 15781 15784 15787 15790 15793 15796 15799 15802 15805 15808 15811 15814 15817 15820 15823 15826 15829 15832 15834 15837 15840 15843 15846 15848 15851 15853 15856 15859 15862 15865 15868 15871 15874 15877 15880 15883 15886 15889 15892 15895 15898 15901 15904 15907 15910 15912 15915 15917 15920 15923 15926 15929 15931 15934 15936 15938 15941 15944 15947 15950 15952 15954 15956 15959 15962 15964 15966 15969 15972 15975 15978 15981 15984 15987 15990 15993 15996 15999 16002 16005 16008 16011 16014 16017 16019 16022 16025 16028 16031 16033 16036 16039 16042 16044 16047 16050 16053 16056 16059 16062 16065 16068 16070 16073 16076 16079 16082 16085 16088 16091 16094 16097 16100 16103 16106 16109 16111 16114 16116 16119 16122 16125 16128 16131 16134 16137 16140 16143 16146 16149 16151 16154 16157 16160 16163 16166 16169 16172 16175 16177 16180 16182 16184 16187 16189 16192 16195 16197 16200 16203 16206 16209 16212 16215 16218 16221 16224 16227 16230 16233 16236 16239 16242 16245 16248 16251 16254 16256 16259 16262 16264 16267 16270 16273 16276 16279 16282 16285 16287 16290 16293 16295 16298 16301 16304 16307 16310 16312 16315 16318 16320 16323 16326 16328 16330 16333 16336 16339 16342 16345 16348 16351 16353 16356 16359 16362 16365 16368 16370 16373 16375 16378 16381 16384 16387 16389 16392 16394 16397 16400 16403 16406 16409 16412 16415 16418 16421 16424 16427 16430 16433 16436 16439 16442 16445 16448 16450 16453 16456 16458 16461 16463 16466 16469 16472 16475 16478 16481 16484 16487 16490 16493 16496 16499 16502 16505 16508 16511 16514 16517 16520 16522 16525 16528 16531 16534 16537 16540 16543 16546 16549 16552 16555 16558 16561 16564 16567 16570 16573 16576 16579 16581 16584 16587 16590 16593 16595 16598 16601 16603 16606 16609 16612 16615 16618 16620 16623 16626 16629 16632 16635 16638 16641 16644 16647 16650 16653 16656 16658 16661 16664 16667 16670 16673 16676 16679 16681 16684 16687 16690 16693 16696 16699 16702 16705 16708 16711 16714 16716 16719 16722 16724 16727 16729 16732 16735 16738 16741 16743 16746 16749 16752 16755 16757 16760 16762 16765 16768 16771 16773 16776 16779 16782 16785 16787 16790 16793 16796 16799 16802 16805 16808 16811 16814 16817 16820 16823 16826 16829 16832 16834 16836 16839 16842 16845 16848 16850 16853 16855 16858 16861 16864 16867 16869 16872 16875 16878 16881 16884 16886 16889 16892 16894 16897 16900 16903 16905 16908 16911 16913 16916 16919 16921 16924 16927 16930 16933 16936 16939 16942 16945 16948 16951 16954 16957 16960 16963 16965 16968 16971 16974 16977 16979 16982 16985 16988 16991 16994 16996 16999 17002 17005 17008 17011 17014 17017 17020 17023 17026 17029 17032 17035 17038 17041 17044 17047 17050 17053 17056 17059 17062 17065 17068 17071 17074 17077 17080 17083 17086 17089 17092 17095 17097 17100 17103 17106 17109 17112 17115 17117 17120 17123 17126 17129 17132 17135 17137 17140 17143 17146 17148 17151 17154 17157 17160 17163 17165 17168 17171 17173 17176 17179 17182 17184 17187 17190 17193 17196 17199 17202 17205 17208 17211 17214 17217 17220 17223 17226 17229 17232 17235 17238 17241 17244 17247 17250 17253 17256 17259 17262 17265 17268 17271 17274 17277 17280 17283 17286 17289 17292 17295 17297 17300 17303 17306 17308 17311 17314 17317 17320 17323 17326 17329 17332 17335 17337 17340 17343 17345 17348 17351 17354 17357 17360 17363 17366 17369 17372 17375 17378 17380 17383 17386 17389 17391 17394 17397 17400 17403 17406 17409 17412 17415 17418 17420 17423 17426 17429 17432 17434 17437 17440 17443 17446 17449 17452 17455 17458 17461 17463 17466 17469 17472 17475 17477 17480 17483 17486 17489 17492 17495 17498 17501 17504 17507 17510 17513 17516 17519 17522 17525 17528 17530 17532 17535 17538 17541 17544 17546 17549 17552 17555 17558 17560 17563 17565 17568 17571 17574 17577 17580 17583 17586 17589 17592 17594 17597 17600 17602 17605 17608 17611 17614 17617 17620 17623 17626 17629 17632 17635 17637 17640 17643 17646 17649 17652 17655 17658 17661 17664 17667 17670 17673 17676 17679 17682 17684 17687 17690 17693 17696 17699 17702 17705 17708 17710 17713 17716 17719 17722 17725 17727 17730 17733 17736 17739 17742 17745 17747 17750 17753 17756 17759 17762 17765 17768 17771 17774 17777 17780 17783 17786 17789 17792 17795 17798 17801 17804 17807 17810 17813 17816 17819 17822 17825 17828 17831 17834 17837 17840 17843 17846 17849 17852 17855 17858 17861 17864 17867 17870 17873 17876 17879 17882 17885 17888 17891 17894 17897 17900 17903 17906 17909 17912 17915 17917 17920 17923 17926 17929 17932 17935 17938 17941 17944 17947 17950 17953 17956 17959 17962 17964 17967 17970 17973 17976 17979 17982 17985 17988 17991 17994 17997 17999 18002 18005 18007 18010 18013 18016 18019 18022 18025 18028 18031 18033 18036 18039 18042 18045 18048 18051 18054 18057 18059 18061 18064 18067 18070 18073 18076 18078 18081 18084 18087 18090 18093 18096 18099 18102 18105 18107 18110 18113 18116 18119 18122 18125 18128 18131 18134 18137 18140 18143 18146 18149 18152 18155 18158 18161 18164 18167 18170 18173 18176 18179 18182 18185 18188 18191 18194 18197 18200 18203 18205 18208 18211 18213 18216 18219 18222 18225 18228 18231 18234 18237 18240 18242 18245 18248 18251 18254 18257 18260 18263 18266 18269 18272 18275 18278 18281 18284 18287 18290 18293 18296 18299 18302 18305 18308 18311 18314 18317 18320 18323 18326 18329 18332 18335 18337 18340 18343 18346 18349 18352 18354 18357 18360 18363 18366 18369 18372 18374 18377 18380 18383 18386 18388 18390 18393 18396 18399 18402 18405 18407 18410 18413 18416 18419 18422 18425 18428 18431 18434 18437 18440 18443 18445 18448 18451 18454 18457 18460 18463 18466 18469 18472 18475 18478 18481 18484 18487 18490 18493 18496 18499 18502 18505 18508 18511 18514 18517 18520 18523 18526 18529 18532 18535 18538 18541 18544 18547 18550 18553 18556 18559 18562 18565 18568 18571 18574 18577 18580 18583 18586 18589 18591 18594 18597 18600 18603 18606 18609 18612 18615 18618 18621 18624 18627 18630 18633 18636 18639 18642 18645 18648 18651 18654 18657 18660 18663 18666 18668 18671 18674 18677 18680 18683 18686 18689 18692 18695 18698 18701 18704 18706 18709 18712 18715 18718 18721 18724 18727 18730 18733 18736 18739 18742 18745 18748 18751 18754 18757 18760 18763 18766 18768 18771 18774 18777 18780 18782 18785 18788 18791 18793 18795 18798 18801 18804 18807 18809 18812 18815 18818 18821 18824 18827 18830 18832 18835 18838 18841 18844 18847 18849 18852 18855 18858 18860 18863 18866 18869 18872 18874 18877 18880 18883 18886 18889 18892 18895 18898 18901 18904 18907 18910 18913 18915 18918 18921 18924 18927 18930 18932 18935 18937 18940 18943 18945 18948 18951 18954 18956 18958 18961 18964 18967 18970 18973 18976 18978 18980 18983 18985 18988 18991 18994 18997 19000 19003 19006 19009 19012 19015 19018 19021 19024 19027 19030 19033 19036 19039 19042 19045 19048 19051 19054 19057 19060 19063 19066 19069 19072 19074 19077 19080 19083 19086 19089 19092 19095 19098 19101 19104 19107 19110 19113 19116 19119 19122 19125 19128 19131 19134 19137 19140 19143 19146 19149 19152 19155 19158 19161 19164 19167 19170 19173 19175 19178 19181 19184 19187 19190 19193 19196 19198 19201 19204 19207 19210 19213 19216 19219 19222 19225 19228 19231 19234 19237 19239 19242 19245 19248 19251 19254 19257 19260 19263 19265 19268 19270 19273 19275 19278 19281 19284 19287 19290 19293 19296 19299 19302 19305 19308 19311 19313 19316 19319 19322 19325 19328 19331 19333 19336 19339 19342 19345 19348 19351 19354 19357 19360 19363 19366 19369 19372 19375 19378 19381 19384 19387 19390 19393 19396 19399 19402 19405 19408 19411 19414 19417 19420 19423 19426 19429 19432 19434 19437 19440 19443 19446 19449 19452 19455 19458 19461 19464 19466 19469 19472 19475 19478 19480 19483 19486 19489 19492 19495 19498 19501 19504 19507 19510 19513 19516 19519 19522 19525 19527 19530 19533 19536 19539 19542 19544 19547 19550 19553 19556 19558 19561 19564 19567 19569 19572 19575 19577 19580 19583 19585 19588 19591 19594 19597 19600 19602 19605 19608 19611 19614 19617 19619 19622 19625 19627 19630 19633 19636 19639 19641 19644 19647 19650 19652 19655 19658 19661 19664 19667 19670 19673 19676 19679 19682 19685 19688 19691 19694 19697 19700 19703 19706 19709 19712 19715 19718 19721 19724 19727 19729 19732 19735 19738 19741 19744 19746 19749 19751 19754 19757 19760 19763 19765 19768 19770 19773 19776 19778 19781 19784 19787 19790 19793 19796 19799 19801 19804 19807 19810 19813 19816 19819 19822 19825 19828 19831 19834 19837 19840 19843 19846 19849 19852 19855 19858 19860 19862 19865 19868 19871 19874 19877 19880 19883 19886 19888 19891 19893 19896 19899 19902 19905 19908 19910 19913 19916 19919 19922 19925 19928 19931 19934 19937 19940 19943 19946 19949 19952 19955 19958 19961 19964 19967 19970 19973 19976 19979 19982 19985 19988 19991 19994 19996 19999 20002 20004 20007 20010 20013 20015 20018 20021 20023 20026 20028 20030 20033 20036 20039 20042 20045 20048 20051 20054 20056 20059 20061 20064 20066 20069 20072 20075 20078 20081 20084 20087 20090 20093 20096 20099 20101 20104 20107 20110 20113 20116 20119 20121 20124 20127 20130 20133 20136 20138 20140 20143 20146 20149 20152 20155 20157 20160 20163 20166 20168 20171 20173 20176 20178 20181 20184 20187 20190 20192 20195 20198 20200 20203 20206 20208 20211 20213 20216 20219 20222 20225 20228 20231 20234 20237 20240 20243 20246 20249 20252 20254 20257 20260 20263 20266 20268 20271 20274 20277 20280 20283 20286 20289 20292 20295 20298 20301 20303 20306 20309 20311 20314 20317 20320 20322 20325 20327 20329 20332 20335 20338 20341 20344 20347 20350 20352 20355 20358 20361 20364 20367 20370 20373 20376 20379 20382 20384 20387 20390 20392 20395 20398 20401 20404 20407 20410 20413 20416 20419 20422 20425 20428 20431 20433 20436 20438 20441 20444 20447 20450 20453 20456 20459 20462 20465 20468 20471 20474 20476 20479 20482 20485 20488 20491 20494 20497 20500 20503 20506 20509 20511 20514 20517 20520 20522 20525 20528 20531 20534 20537 20540 20543 20546 20549 20552 20554 20557 20559 20562 20565 20567 20570 20573 20576 20578 20581 20584 20586 20589 20592 20595 20597 20600 20603 20605 20608 20611 20614 20617 20619 20621 20624 20627 20630 20632 20635 20638 20641 20643 20646 20649 20652 20655 20658 20661 20664 20667 20670 20672 20675 20678 20681 20684 20687 20690 20693 20696 20699 20702 20704 20706 20709 20712 20715 20718 20721 20724 20727 20729 20731 20734 20737 20740 20742 20745 20747 20750 20753 20756 20759 20762 20765 20768 20771 20774 20777 20780 20783 20786 20789 20792 20795 20798 20801 20804 20807 20810 20813 20816 20819 20822 20825 20828 20831 20834 20837 20840 20843 20846 20849 20852 20855 20858 20860 20863 20866 20869 20872 20875 20878 20881 20883 20886 20888 20891 20894 20896 20899 20902 20904 20906 20909 20912 20915 20917 20920 20922 20925 20928 20931 20933 20935 20938 20940 20942 20945 20947 20950 20953 20955 20957 20960 20962 20965 20968 20971 20974 20977 20980 20983 20986 20989 20992 20995 20998 21001 21004 21007 21010 21012 21015 21018 21021 21024 21026 21028 21030 21033 21036 21039 21041 21043 21046 21049 21052 21055 21058 21061 21063 21066 21068 21070 21073 21076 21079 21081 21084 21087 21090 21092 21095 21098 21101 21104 21106 21109 21111 21114 21117 21119 21122 21125 21128 21131 21134 21137 21140 21143 21146 21149 21152 21155 21158 21161 21164 21167 21170 21173 21176 21179 21182 21185 21188 21191 21194 21197 21200 21203 21206 21209 21212 21215 21218 21221 21224 21227 21229 21232 21235 21238 21241 21244 21247 21250 21253 21256 21259 21262 21265 21268 21271 21274 21277 21280 21283 21286 21289 21292 21295 21298 21301 21304 21307 21310 21313 21316 21319 21322 21325 21328 21331 21334 21337 21340 21343 21346 21349 21352 21355 21358 21361 21364 21367 21370 21373 21376 21379 21382 21385 21388 21391 21394 21397 21400 21403 21406 21409 21412 21415 21418 21420 21423 21426 21429 21431 21433 21436 21439 21442 21445 21448 21451 21454 21457 21460 21463 21466 21469 21472 21475 21478 21480 21483 21486 21489 21491 21494 21496 21498 21501 21504 21507 21510 21513 21516 21519 21522 21525 21528 21530 21533 21536 21538 21540 21543 21545 21548 21550 21553 21556 21559 21562 21565 21568 21571 21574 21577 21580 21583 21586 21589 21592 21595 21598 21601 21603 21605 21607 21610 21613 21616 21619 21622 21624 21627 21630 21633 21636 21639 21642 21645 21648 21651 21654 21657 21660 21663 21666 21669 21672 21675 21678 21681 21684 21687 21690 21693 21696 21699 21702 21705 21708 21711 21713 21716 21719 21722 21725 21728 21731 21733 21736 21739 21742 21745 21748 21751 21754 21757 21760 21762 21764 21767 21770 21773 21776 21779 21782 21785 21787 21789 21792 21795 21798 21800 21803 21806 21809 21812 21814 21817 21819 21821 21823 21826 21829 21832 21835 21837 21840 21843 21846 21849 21851 21854 21857 21860 21863 21865 21868 21871 21874 21877 21880 21882 21884 21887 21890 21893 21896 21899 21902 21904 21907 21910 21912 21915 21918 21921 21924 21927 21929 21932 21935 21938 21941 21944 21947 21950 21952 21955 21958 21961 21964 21967 21970 21973 21975 21978 21981 21984 21987 21990 21993 21996 21999 22002 22005 22008 22011 22014 22017 22020 22023 22026 22029 22032 22035 22038 22041 22044 22047 22050 22053 22055 22058 22061 22064 22067 22070 22073 22076 22079 22082 22085 22088 22091 22094 22097 22100 22103 22106 22108 22111 22114 22116 22119 22121 22124 22127 22129 22132 22135 22138 22141 22143 22145 22148 22151 22154 22157 22160 22163 22166 22169 22172 22175 22177 22180 22183 22186 22189 22192 22195 22198 22201 22204 22207 22210 22213 22216 22219 22222 22225 22228 22231 22234 22237 22240 22243 22246 22249 22252 22255 22258 22261 22264 22267 22270 22273 22276 22279 22282 22285 22288 22291 22294 22297 22300 22303 22306 22309 22312 22315 22318 22320 22323 22326 22329 22332 22335 22338 22341 22344 22347 22349 22352 22355 22358 22360 22362 22364 22367 22370 22373 22376 22378 22381 22384 22386 22388 22391 22394 22396 22398 22401 22404 22407 22410 22413 22416 22419 22422 22425 22428 22431 22434 22436 22439 22442 22445 22448 22450 22453 22456 22459 22462 22465 22468 22471 22474 22477 22480 22482 22485 22488 22491 22494 22497 22500 22503 22506 22509 22512 22515 22518 22521 22524 22527 22529 22532 22534 22536 22539 22542 22545 22547 22550 22553 22556 22559 22562 22565 22568 22571 22574 22577 22580 22583 22586 22589 22592 22595 22598 22601 22604 22607 22610 22613 22616 22619 22622 22625 22628 22631 22634 22637 22640 22643 22646 22648 22651 22654 22657 22660 22663 22666 22669 22672 22675 22678 22680 22683 22686 22689 22692 22695 22697 22700 22703 22706 22709 22712 22715 22718 22721 22724 22727 22729 22732 22735 22738 22740 22743 22746 22749 22752 22755 22758 22761 22764 22767 22770 22773 22776 22779 22782 22785 22788 22791 22794 22797 22800 22803 22806 22809 22812 22814 22817 22819 22822 22825 22828 22831 22834 22837 22839 22842 22845 22848 22851 22854 22857 22860 22862 22865 22868 22871 22874 22877 22879 22882 22885 22888 22891 22894 22896 22899 22901 22904 22907 22910 22913 22916 22919 22921 22924 22927 22930 22933 22936 22938 22941 22944 22947 22950 22953 22956 22959 22962 22965 22968 22971 22974 22977 22980 22983 22986 22988 22991 22994 22997 23000 23003 23006 23009 23011 23014 23016 23018 23020 23023 23025 23028 23031 23034 23037 23040 23043 23046 23049 23052 23055 23057 23060 23063 23066 23069 23072 23075 23078 23081 23084 23087 23090 23093 23096 23098 23101 23104 23107 23110 23113 23115 23118 23121 23124 23127 23130 23132 23135 23138 23141 23144 23147 23149 23152 23155 23157 23160 23162 23164 23167 23170 23172 23175 23178 23181 23183 23185 23188 23191 23193 23196 23199 23202 23205 23207 23210 23213 23216 23219 23222 23224 23227 23230 23233 23236 23239 23242 23245 23248 23250 23252 23255 23258 23261 23263 23266 23269 23271 23274 23277 23279 23282 23285 23288 23291 23293 23296 23299 23302 23304 23307 23309 23312 23315 23317 23319 23322 23324 23326 23329 23332 23335 23338 23340 23342 23344 23347 23350 23353 23356 23359 23362 23365 23368 23371 23374 23377 23380 23382 23385 23388 23391 23394 23397 23400 23403 23406 23408 23410 23412 23415 23418 23421 23423 23425 23427 23430 23433 23436 23439 23442 23445 23448 23451 23454 23457 23460 23463 23466 23468 23471 23474 23477 23479 23482 23485 23488 23490 23493 23496 23499 23502 23504 23507 23510 23513 23515 23518 23521 23524 23526 23529 23532 23535 23538 23541 23544 23547 23550 23553 23556 23559 23562 23565 23568 23571 23574 23577 23580 23583 23586 23589 23592 23595 23598 23601 23604 23607 23610 23612 23615 23617 23620 23623 23626 23629 23632 23635 23638 23641 23644 23647 23650 23653 23656 23659 23662 23665 23668 23671 23674 23677 23679 23681 23684 23687 23690 23693 23696 23699 23701 23704 23707 23710 23713 23716 23719 23721 23724 23727 23730 23733 23736 23739 23742 23745 23748 23751 23753 23756 23759 23762 23765 23767 23770 23772 23775 23778 23780 23783 23786 23788 23791 23793 23796 23799 23802 23804 23807 23809 23812 23815 23817 23820 23822 23825 23827 23830 23832 23835 23838 23840 23843 23846 23849 23851 23854 23857 23860 23863 23866 23869 23872 23875 23878 23881 23884 23886 23888 23890 23892 23895 23898 23901 23903 23906 23909 23911 23914 23917 23920 23922 23924 23927 23930 23933 23936 23939 23942 23945 23947 23950 23953 23956 23959 23962 23965 23967 23969 23972 23975 23978 23981 23984 23986 23988 23990 23993 23996 23999 24002 24005 24008 24011 24014 24017 24019 24022 24025 24028 24031 24034 24037 24040 24043 24046 24049 24051 24054 24057 24060 24063 24066 24069 24072 24075 24078 24081 24084 24087 24090 24093 24096 24099 24102 24104 24107 24110 24113 24116 24119 24122 24124 24127 24130 24133 24136 24139 24141 24144 24147 24150 24153 24156 24159 24162 24165 24168 24171 24174 24177 24180 24183 24186 24189 24192 24195 24198 24201 24204 24207 24210 24213 24216 24219 24222 24225 24228 24231 24234 24237 24240 24243 24246 24249 24252 24255 24258 24261 24264 24267 24269 24272 24275 24278 24281 24284 24287 24290 24293 24296 24299 24302 24305 24308 24311 24314 24317 24319 24322 24325 24328 24331 24334 24337 24340 24343 24346 24349 24352 24355 24358 24361 24364 24367 24370 24372 24375 24377 24380 24383 24386 24389 24392 24395 24398 24401 24404 24407 24410 24413 24416 24419 24422 24425 24428 24431 24434 24437 24440 24443 24446 24449 24452 24454 24457 24460 24463 24466 24468 24471 24474 24477 24480 24483 24486 24489 24492 24495 24498 24501 24504 24507 24509 24512 24515 24518 24521 24524 24527 24530 24533 24536 24539 24542 24545 24548 24551 24554 24557 24560 24563 24566 24569 24572 24575 24578 24581 24584 24587 24590 24593 24596 24599 24602 24605 24608 24611 24614 24616 24619 24622 24625 24628 24631 24634 24637 24640 24643 24645 24648 24651 24654 24656 24659 24662 24665 24668 24671 24674 24677 24680 24683 24686 24689 24692 24695 24698 24701 24704 24707 24710 24713 24716 24719 24722 24725 24728 24731 24734 24737 24740 24743 24745 24748 24751 24754 24757 24759 24762 24765 24768 24770 24773 24776 24779 24782 24785 24788 24791 24794 24797 24800 24803 24806 24809 24811 24814 24817 24820 24823 24826 24829 24832 24835 24838 24841 24844 24847 24850 24853 24856 24859 24862 24865 24867 24870 24873 24876 24879 24882 24885 24888 24890 24893 24896 24898 24901 24904 24907 24910 24913 24916 24919 24922 24924 24927 24930 24932 24935 24938 24941 24944 24947 24949 24952 24955 24957 24960 24962 24965 24968 24971 24974 24977 24980 24983 24986 24989 24992 24994 24996 24998 25000 25003 25006 25008 25011 25014 25017 25020 25023 25026 25028 25031 25034 25037 25040 25043 25046 25049 25052 25055 25058 25061 25064 25067 25069 25072 25075 25077 25080 25083 25086 25088 25091 25094 25097 25100 25103 25106 25109 25112 25115 25118 25121 25124 25127 25130 25133 25136 25139 25141 25144 25147 25149 25152 25155 25158 25161 25164 25167 25170 25173 25176 25178 25181 25184 25187 25189 25192 25195 25198 25201 25203 25206 25209 25212 25215 25218 25221 25223 25225 25228 25231 25234 25237 25240 25243 25246 25249 25251 25254 25257 25259 25262 25265 25268 25271 25273 25276 25279 25282 25285 25288 25291 25294 25296 25299 25302 25305 25307 25310 25313 25316 25319 25322 25325 25328 25331 25334 25337 25340 25343 25346 25349 25352 25355 25358 25361 25364 25367 25370 25373 25376 25379 25381 25384 25387 25390 25392 25395 25398 25401 25403 25406 25408 25411 25413 25416 25419 25422 25425 25427 25430 25432 25434 25437 25439 25442 25445 25448 25451 25454 25457 25459 25462 25465 25467 25469 25472 25475 25477 25480 25483 25485 25488 25491 25493 25496 25499 25502 25505 25508 25510 25513 25516 25519 25522 25524 25527 25530 25532 25534 25537 25540 25543 25545 25548 25551 25554 25557 25560 25562 25565 25567 25570 25573 25576 25579 25581 25584 25587 25590 25593 25596 25599 25602 25605 25608 25611 25614 25617 25620 25623 25626 25629 25632 25635 25638 25641 25644 25647 25650 25653 25656 25659 25662 25665 25668 25670 25673 25676 25679 25681 25684 25687 25690 25693 25696 25699 25702 25705 25708 25711 25713 25716 25719 25722 25725 25728 25731 25734 25737 25740 25743 25746 25748 25751 25754 25757 25760 25763 25765 25768 25771 25774 25776 25779 25782 25785 25788 25790 25792 25795 25798 25801 25804 25807 25810 25813 25815 25818 25821 25824 25827 25830 25833 25836 25839 25842 25844 25847 25850 25853 25856 25859 25862 25865 25868 25871 25874 25877 25879 25882 25885 25888 25891 25894 25897 25900 25903 25906 25909 25912 25915 25918 25921 25924 25927 25930 25933 25936 25939 25942 25944 25947 25950 25953 25956 25959 25962 25965 25968 25971 25974 25977 25980 25983 25986 25989 25992 25995 25998 26001 26004 26007 26010 26013 26016 26019 26022 26025 26028 26031 26034 26037 26040 26043 26046 26049 26052 26054 26057 26060 26063 26066 26069 26072 26075 26078 26081 26084 26087 26089 26092 26095 26098 26100 26102 26105 26108 26111 26114 26116 26119 26121 26124 26127 26129 26131 26134 26137 26140 26142 26145 26148 26151 26154 26157 26159 26162 26165 26168 26170 26173 26176 26179 26182 26185 26188 26191 26194 26197 26200 26203 26206 26208 26211 26214 26217 26220 26223 26226 26229 26232 26234 26236 26239 26242 26245 26248 26251 26254 26257 26260 26263 26265 26268 26271 26274 26276 26278 26281 26284 26287 26290 26293 26295 26298 26300 26302 26305 26307 26310 26313 26316 26318 26320 26323 26326 26328 26331 26334 26336 26338 26341 26344 26347 26349 26352 26354 26357 26360 26362 26365 26368 26371 26374 26377 26380 26383 26385 26388 26391 26394 26397 26400 26403 26406 26409 26412 26414 26417 26420 26422 26425 26427 26430 26433 26435 26438 26441 26443 26445 26448 26451 26454 26457 26460 26463 26466 26469 26472 26475 26478 26481 26483 26485 26488 26491 26494 26497 26500 26503 26506 26508 26511 26514 26517 26520 26523 26526 26529 26531 26533 26536 26539 26542 26545 26548 26551 26554 26557 26560 26563 26566 26569 26571 26573 26576 26579 26582 26584 26587 26590 26593 26595 26598 26601 26604 26607 26610 26612 26615 26618 26621 26624 26627 26630 26633 26636 26639 26642 26645 26648 26651 26654 26657 26660 26663 26666 26669 26672 26675 26678 26680 26683 26686 26689 26692 26694 26697 26700 26703 26706 26709 26712 26715 26718 26721 26724 26727 26730 26733 26736 26738 26741 26744 26747 26750 26753 26756 26758 26761 26763 26766 26769 26771 26774 26777 26780 26782 26785 26787 26790 26793 26796 26798 26801 26804 26807 26810 26813 26816 26818 26821 26824 26827 26830 26833 26836 26839 26842 26845 26848 26851 26854 26856 26859 26862 26865 26868 26871 26874 26877 26879 26882 26885 26888 26891 26894 26897 26900 26903 26906 26908 26911 26914 26916 26919 26922 26925 26928 26931 26934 26936 26939 26942 26945 26948 26950 26952 26955 26958 26960 26963 26966 26969 26972 26975 26978 26981 26984 26987 26990 26993 26996 26999 27002 27005 27008 27010 27013 27016 27018 27021 27024 27027 27030 27032 27035 27037 27040 27043 27046 27049 27052 27054 27057 27060 27063 27066 27068 27071 27073 27076 27079 27081 27084 27087 27090 27093 27096 27098 27101 27104 27106 27109 27112 27114 27117 27120 27123 27126 27129 27132 27135 27138 27141 27143 27146 27148 27151 27154 27157 27160 27162 27165 27168 27170 27172 27175 27178 27181 27184 27186 27188 27191 27193 27196 27199 27202 27205 27207 27209 27211 27214 27217 27219 27222 27225 27227 27229 27232 27235 27238 27241 27243 27246 27249 27252 27255 27257 27260 27263 27265 27268 27271 27274 27277 27280 27283 27286 27288 27291 27294 27297 27300 27303 27306 27309 27312 27314 27317 27320 27323 27326 27328 27331 27334 27337 27340 27343 27346 27349 27352 27355 27358 27361 27364 27367 27370 27372 27375 27378 27381 27384 27387 27390 27393 27396 27399 27402 27405 27407 27410 27413 27416 27419 27422 27424 27427 27430 27433 27436 27439 27442 27445 27448 27451 27454 27457 27460 27463 27466 27469 27472 27475 27478 27481 27484 27487 27490 27493 27496 27499 27502 27505 27508 27511 27514 27517 27520 27523 27526 27529 27532 27535 27538 27541 27544 27547 27550 27553 27556 27559 27562 27565 27568 27571 27574 27577 27580 27583 27586 27589 27592 27595 27598 27601 27604 27607 27610 27612 27615 27618 27620 27623 27626 27629 27632 27635 27638 27641 27644 27647 27650 27653 27656 27659 27662 27665 27668 27670 27673 27676 27679 27682 27685 27688 27691 27694 27697 27700 27702 27705 27708 27711 27714 27717 27720 27723 27726 27729 27732 27735 27738 27741 27744 27747 27750 27753 27756 27758 27761 27763 27766 27769 27772 27775 27778 27780 27782 27785 27788 27791 27794 27797 27800 27803 27806 27809 27812 27814 27816 27818 27821 27824 27826 27829 27832 27834 27837 27840 27842 27845 27848 27851 27854 27857 27860 27863 27866 27869 27872 27875 27878 27881 27884 27887 27890 27893 27896 27898 27901 27904 27907 27910 27913 27915 27918 27921 27924 27927 27929 27932 27934 27937 27940 27943 27946 27948 27951 27954 27957 27960 27963 27966 27969 27972 27975 27978 27981 27984 27987 27990 27993 27996 27999 28002 28005 28008 28011 28014 28017 28020 28023 28026 28029 28032 28035 28038 28041 28044 28046 28049 28052 28055 28058 28061 28064 28067 28069 28072 28075 28078 28080 28083 28086 28089 28092 28095 28098 28101 28103 28106 28109 28112 28115 28118 28121 28124 28127 28130 28133 28136 28139 28142 28145 28148 28151 28154 28157 28160 28163 28166 28169 28172 28175 28177 28180 28183 28186 28189 28191 28194 28197 28200 28202 28205 28208 28211 28214 28217 28220 28223 28226 28229 28232 28235 28237 28240 28243 28246 28249 28252 28254 28257 28260 28263 28266 28269 28272 28275 28277 28280 28283 28286 28289 28292 28294 28297 28300 28303 28306 28309 28312 28315 28318 28321 28323 28326 28329 28332 28335 28338 28341 28344 28347 28350 28353 28356 28359 28362 28365 28367 28370 28373 28376 28379 28382 28385 28388 28391 28394 28397 28400 28403 28406 28409 28411 28413 28416 28419 28422 28425 28428 28431 28434 28437 28440 28443 28446 28449 28452 28455 28458 28461 28464 28467 28470 28473 28476 28479 28482 28485 28488 28491 28494 28497 28500 28503 28506 28509 28512 28515 28518 28521 28524 28527 28530 28532 28534 28537 28540 28543 28546 28549 28552 28555 28558 28561 28564 28567 28569 28572 28575 28578 28581 28584 28587 28590 28593 28596 28598 28601 28604 28607 28610 28613 28615 28618 28621 28624 28627 28629 28632 28635 28638 28641 28644 28647 28650 28653 28656 28659 28662 28665 28668 28671 28674 28677 28680 28683 28686 28689 28692 28695 28698 28701 28704 28706 28709 28712 28714 28717 28719 28722 28724 28727 28730 28733 28736 28739 28742 28744 28747 28749 28752 28755 28758 28761 28764 28766 28769 28772 28775 28778 28781 28784 28787 28790 28793 28796 28799 28802 28805 28808 28811 28814 28817 28820 28823 28826 28829 28832 28835 28838 28841 28844 28847 28850 28853 28856 28858 28861 28864 28867 28870 28872 28875 28878 28881 28884 28887 28890 28893 28896 28899 28901 28904 28907 28910 28913 28916 28919 28922 28925 28928 28931 28933 28936 28938 28940 28943 28946 28949 28952 28955 28958 28961 28964 28967 28970 28973 28976 28979 28982 28985 28988 28990 28993 28996 28999 29002 29005 29008 29011 29014 29017 29020 29023 29026 29029 29032 29035 29038 29041 29044 29047 29050 29053 29056 29059 29061 29064 29067 29070 29073 29076 29079 29082 29085 29087 29089 29092 29095 29098 29101 29104 29106 29108 29111 29114 29117 29119 29122 29125 29128 29131 29134 29137 29140 29142 29145 29148 29150 29153 29156 29159 29162 29165 29167 29170 29172 29175 29178 29180 29183 29186 29189 29192 29195 29198 29201 29204 29206 29209 29212 29215 29218 29221 29224 29227 29230 29233 29236 29238 29240 29243 29246 29249 29252 29255 29258 29261 29264 29267 29270 29272 29275 29278 29281 29284 29287 29289 29291 29294 29297 29300 29302 29305 29308 29311 29314 29317 29320 29323 29326 29329 29332 29334 29336 29339 29342 29345 29348 29351 29353 29356 29359 29361 29364 29367 29370 29372 29375 29378 29381 29384 29386 29389 29392 29395 29398 29401 29404 29407 29410 29413 29416 29419 29422 29425 29428 29431 29434 29437 29440 
</DataArray>
<DataArray type="UInt32" Name="types" format="ascii">
5 5 3 5 5 5 5 5 5 5 5 5 3 5 5 5 5 5 3 5 5 5 5 5 5 5 5 5 5 5 5 5 3 5 5 5 5 3 5 5 5 3 5 5 5 5 5 5 5 5 5 5 5 5 5 5 5 5 5 5 5 5 5 5 5 5 3 5 5 5 5 5 3 5 5 5 3 3 5 5 5 5 5 5 5 5 5 5 5 5 3 5 5 3 5 5 5 5 5 5 5 5 5 5 5 5 5 5 5 5 5 5 5 3 5 5 3 5 5 5 5 5 5 5 5 5 5 3 5 5 5 5 5 3 5 5 5 5 3 5 3 5 5 5 5 3 5 5 5 5 5 5 5 5 5 5 5 5 5 5 3 5 5 5 5 3 5 5 5 5 5 5 5 5 3 5 5 5 5 5 5 5 5 3 3 5 5 5 5 5 3 3 5 5 5 5 5 5 5 5 3 5 5 3 5 3 5 3 5 5 5 5 5 5 5 3 5 5 5 5 5 5 5 5 5 5 5 3 5 5 5 5 3 3 5 5 5 5 3 5 5 5 3 5 5 5 5 5 5 5 5 5 3 5 5 5 5 5 5 5 5 5 5 5 5 5 5 5 5 5 5 5 5 5 5 5 5 5 3 5 5 5 5 5 5 5 5 5 5 5 5 5 5 5 5 5 5 5 5 5 5 5 5 5 3 5 5 5 5 5 5 3 5 5 5 5 5 5 5 3 3 5 5 5 5 5 5 5 5 5 3 5 5 5 5 3 5 5 5 5 3 5 5 5 5 5 5 5 5 3 5 5 5 5 3 5 5 5 5 5 5 5 5 5 5 3 5 3 5 5 5 5 5 5 5 5 5 5 3 5 3 5 5 5 5 5 5 5 5 5 5 5 3 5 5 5 5 5 5 5 5 3 5 5 5 5 3 5 5 5 5 5 5 5 5 3 5 5 5 5 5 5 5 5 5 5 5 5 5 5 5 5 5 5 5 5 5 3 5 5 5 5 5 5 5 5 5 3 5 5 5 5 5 5 5 5 5 5 5 5 5 5 5 5 5 5 5 5 5 5 5 5 5 5 5 5 5 5 5 5 3 5 5 5 5 5 5 5 5 5 5 5 5 5 5 5 3 5 3 5 5 5 5 3 5 5 5 5 5 3 5 5 5 5 5 5 5 5 5 5 5 5 3 5 5 5 5 5 5 5 5 5 5 5 5 5 5 5 5 5 5 5 5 5 5 5 5 5 5 5 5 5 5 5 5 5 5 5 5 5 5 5 5 5 3 5 5 3 5 5 5 5 5 5 3 5 5 5 5 5 5 3 5 5 5 5 5 5 5 5 5 5 3 5 5 5 5 5 5 5 5 5 5 5 5 5 3 5 5 5 5 5 3 5 5 5 5 5 5 5 5 5 3 3 5 5 5 5 5 3 5 5 5 5 5 5 5 5 5 5 5 5 5 5 5 5 5 5 5 5 5 5 5 5 5 5 5 5 5 5 5 5 5 5 5 5 5 3 5 3 5 5 5 5 5 5 5 5 5 5 5 5 5 5 5 5 5 5 5 3 5 5 3 5 5 5 5 5 5 3 5 3 5 5 5 3 5 5 3 3 5 3 5 5 5 5 5 5 3 5 5 5 5 5 3 3 3 5 5 5 5 3 5 5 5 5 5 5 3 5 5 5 5 5 5 3 5 3 3 5 5 3 5 3 5 5 5 5 5 5 5 5 5 5 5 5 5 5 5 5 5 3 5 5 5 3 5 5 5 5 5 3 5 5 5 5 5 5 3 5 5 5 3 5 5 5 5 5 5 5 5 5 5 5 5 5 5 5 5 3 5 5 3 5 5 5 5 5 5 5 5 3 5 5 5 5 5 5 5 5 5 5 5 5 5 5 5 5 5 3 5 5 5 5 5 5 3 5 5 5 3 5 3 5 3 5 3 5 5 3 5 5 5 5 5 5 5 5 5 5 5 5 3 5 5 5 5 5 5 5 5 5 5 5 5 5 5 5 5 5 5 5 5 5 5 5 5 5 5 5 5 5 5 5 5 5 3 5 5 5 5 5 3 3 5 3 5 5 5 5 5 5 5 3 5 5 5 5 5 5 5 5 5 5 5 3 5 3 5 5 3 5 5 5 3 5 5 5 3 5 5 5 3 3 5 5 5 5 5 5 5 5 5 5 5 5 5 5 5 5 5 5 5 5 5 5 5 5 5 5 5 5 5 5 5 5 5 5 5 5 5 5 5 5 5 5 5 5 5 5 5 5 5 5 5 5 5 5 5 5 5 5 5 5 5 5 5 5 5 5 5 5 5 5 5 5 5 5 5 5 5 5 5 5 5 5 5 5 5 5 5 5 5 5 5 5 5 5 5 5 5 5 5 5 5 5 5 5 5 5 5 5 5 5 5 5 5 5 5 5 5 5 5 5 5 5 5 5 5 5 5 5 5 5 5 5 5 5 5 5 5 5 5 5 5 5 5 5 5 5 5 3 3 5 5 5 5 5 5 5 5 5 5 5 5 5 5 5 5 5 5 5 5 5 5 5 5 5 5 5 5 5 5 5 5 5 5 5 5 5 5 5 5 5 5 3 5 5 3 5 5 5 5 5 5 5 5 5 5 5 3 5 5 3 5 5 3 5 5 5 5 5 5 5 5 5 5 5 5 5 5 5 3 5 5 5 5 5 3 3 5 5 5 5 5 5 5 5 5 5 5 5 5 5 5 5 5 5 5 3 5 3 5 5 3 5 3 5 5 5 3 5 5 5 5 5 5 3 5 5 5 5 3 5 5 5 5 5 5 5 5 5 5 3 5 5 5 5 5 5 5 5 5 5 5 5 5 3 5 5 5 5 3 3 5 5 5 3 5 3 5 5 3 5 5 5 5 3 3 5 5 5 5 5 3 5 5 5 5 5 5 5 5 5 5 3 5 5 5 5 5 5 5 5 5 5 5 5 5 5 5 5 3 5 3 5 3 5 5 3 3 5 5 5 5 5 5 5 3 5 3 5 5 5 5 5 5 5 5 5 5 5 5 5 5 5 5 5 5 5 5 5 5 5 5 5 5 5 5 5 5 3 5 5 5 5 5 5 5 5 5 5 5 5 5 5 3 5 5 5 5 5 5 5 5 5 5 5 3 5 5 5 5 5 5 5 5 5 5 5 5 5 5 5 3 5 5 5 5 5 5 5 5 5 3 5 3 5 5 5 5 3 5 5 3 5 5 5 5 5 5 5 3 3 5 5 5 5 5 5 5 5 3 5 5 3 5 5 5 5 5 5 5 5 5 5 3 5 5 3 5 5 3 5 5 5 3 3 5 5 5 5 5 5 5 5 5 5 5 3 5 5 5 5 5 5 5 5 5 5 5 5 5 5 5 5 5 5 5 5 5 5 5 5 5 3 5 5 5 5 5 5 5 5 3 5 5 5 5 5 3 5 5 5 5 5 5 3 5 5 5 5 5 5 5 5 5 5 5 5 5 5 5 5 5 5 5 5 5 5 5 5 5 5 3 5 5 5 5 5 3 5 5 5 5 5 5 5 5 5 5 5 5 5 5 5 5 5 5 5 5 5 5 5 5 3 5 5 3 5 5 5 3 5 3 5 5 5 3 5 3 5 5 5 5 5 3 3 5 5 5 5 5 3 3 3 5 3 5 5 5 5 5 5 5 5 5 5 5 5 5 5 5 5 5 3 5 3 5 5 5 5 3 3 3 5 5 5 5 5 5 5 5 5 5 5 5 5 5 5 5 5 5 5 3 5 5 5 5 5 3 5 5 5 5 3 5 5 5 5 5 5 5 5 5 5 5 5 5 5 5 5 5 5 5 3 5 3 5 5 5 5 5 5 5 5 3 3 5 5 5 3 5 5 5 5 5 5 5 5 5 3 5 5 5 5 5 5 5 5 5 5 5 5 5 5 5 5 5 3 5 5 5 5 5 3 5 5 3 5 5 5 5 5 5 5 5 5 5 5 5 5 5 5 3 5 5 3 5 5 5 3 5 5 5 5 3 5 5 5 5 5 5 3 5 5 3 5 5 5 5 5 5 5 5 5 5 5 5 5 5 5 5 5 5 5 5 5 5 5 5 5 5 3 5 5 3 5 5 5 5 5 5 5 5 5 5 5 5 5 5 5 5 5 5 5 5 5 5 5 5 5 5 5 5 5 3 5 5 5 5 5 5 5 3 5 5 5 5 5 5 5 3 5 5 5 5 5 5 5 5 5 5 5 5 5 5 5 5 5 5 5 5 5 5 5 5 5 5 5 5 5 5 5 5 5 3 5 5 5 5 3 5 5 3 3 5 5 5 5 5 5 3 5 5 5 5 5 5 5 5 5 5 5 5 5 5 5 5 5 5 5 5 5 5 5 5 5 3 5 5 5 5 5 5 5 5 5 5 5 5 5 5 5 5 5 5 5 5 5 5 5 5 5 5 5 5 5 5 5 5 5 5 5 5 5 5 5 5 5 5 5 5 5 5 5 5 5 5 5 5 5 5 5 5 5 5 5 5 5 5 5 5 5 5 5 5 5 5 5 5 5 5 5 5 5 5 5 5 5 5 5 5 5 5 5 5 5 5 5 5 5 5 3 5 5 5 5 5 5 5 5 5 5 5 3 5 5 3 5 5 3 5 5 5 5 5 5 5 5 5 5 3 5 5 5 5 5 3 5 5 3 5 5 5 5 5 5 3 5 5 5 5 5 5 5 3 5 5 5 5 3 3 5 5 5 3 5 5 5 5 5 5 5 3 5 3 5 3 5 3 5 3 5 5 3 5 3 5 5 5 5 5 3 5 5 5 5 5 5 5 5 5 5 5 3 5 5 5 5 5 3 5 5 5 3 5 5 5 5 5 5 3 5 5 5 5 3 5 5 3 5 5 5 5 5 5 5 5 5 5 5 5 5 5 5 5 5 5 5 5 5 5 5 5 3 5 5 5 5 5 5 5 5 3 5 5 5 5 5 5 5 5 5 5 5 5 5 5 3 5 5 5 5 5 3 5 3 5 3 5 5 5 5 5 5 5 5 5 5 5 5 5 5 5 3 5 5 5 5 5 5 5 5 5 3 5 5 3 5 5 5 5 5 5 5 5 5 5 3 5 5 3 3 5 5 5 3 5 5 5 5 5 3 5 5 5 5 5 5 5 3 5 5 3 5 5 5 5 5 5 5 5 5 5 5 5 5 5 5 5 3 5 5 5 5 5 5 5 5 5 5 3 5 5 5 5 5 5 5 5 3 5 5 5 5 5 5 5 5 5 5 5 5 5 5 5 3 5 5 5 5 5 5 5 5 3 5 3 3 5 5 5 5 5 5 5 5 5 5 5 5 5 5 5 5 5 3 5 3 5 3 5 5 5 3 3 5 5 5 5 5 5 5 5 3 5 5 5 5 5 5 3 5 5 5 5 5 5 5 5 5 5 5 5 5 5 5 5 5 5 5 5 5 5 5 5 5 3 5 5 5 5 5 3 5 5 5 5 3 5 3 5 5 3 5 3 5 5 3 5 5 3 5 5 3 5 3 5 3 5 3 5 5 5 5 5 5 5 3 5 5 5 5 5 5 5 5 5 3 5 5 5 5 5 5 5 5 5 5 5 5 5 5 5 5 5 5 3 5 5 5 5 5 3 5 5 5 5 5 5 5 5 5 3 5 5 5 5 5 5 5 3 5 5 5 5 5 5 5 5 5 5 5 5 5 5 5 5 5 5 5 3 3 5 5 5 5 5 3 5 3 5 5 3 5 5 5 5 3 5 5 5 3 5 5 5 5 3 5 5 5 5 5 3 5 5 5 3 5 3 5 3 5 5 5 3 5 5 5 5 3 5 5 3 5 5 5 3 5 5 5 5 5 5 5 5 5 5 5 5 3 5 5 5 5 5 5 5 5 5 3 5 5 5 5 5 5 5 5 5 5 5 5 5 5 5 5 5 5 5 5 5 5 5 5 5 5 5 5 5 5 5 5 5 5 5 5 5 5 5 5 5 5 5 5 5 5 5 5 3 5 5 5 5 5 5 5 5 5 5 5 5 5 5 5 5 5 5 3 5 3 5 5 5 5 5 5 5 5 5 5 5 5 5 5 5 5 5 5 5 5 5 5 5 5 5 3 5 3 5 5 5 5 3 5 3 5 3 5 5 5 5 5 3 3 5 5 3 3 5 5 5 5 5 5 5 3 5 5 5 5 5 5 5 3 5 5 5 5 5 5 3 3 5 5 5 5 3 3 5 5 5 5 5 5 5 5 5 5 5 5 5 5 5 5 5 5 5 5 5 5 5 5 5 5 5 5 3 5 5 3 5 5 5 5 5 5 5 5 5 5 5 5 5 5 5 5 5 5 3 5 3 5 5 5 5 5 5 5 5 5 5 5 5 5 5 5 3 5 5 3 5 5 5 5 5 5 5 5 5 5 5 3 5 5 5 5 5 5 5 5 3 5 5 5 5 5 5 5 5 5 5 5 5 5 5 5 5 5 5 5 5 5 5 5 3 5 5 5 5 5 5 5 5 3 5 3 5 5 3 5 3 5 3 5 3 5 5 3 5 5 5 5 5 5 5 5 5 5 3 5 5 5 5 5 5 5 5 5 5 5 5 5 5 5 5 5 5 5 3 3 5 5 3 5 5 5 5 5 5 5 5 5 5 5 5 5 5 5 5 5 5 5 5 5 5 5 5 5 5 5 5 5 5 5 5 5 5 5 5 5 5 5 5 3 5 5 5 5 5 5 5 5 3 5 5 3 5 5 5 3 5 5 5 3 5 3 5 3 3 5 5 5 5 5 3 5 5 5 5 5 5 3 5 5 5 5 5 5 5 3 3 5 5 5 5 5 5 5 5 3 5 5 5 5 3 5 5 5 5 5 5 3 5 5 5 5 5 5 5 5 3 5 5 5 3 5 5 5 5 5 5 5 5 5 3 5 5 5 5 5 5 5 3 5 5 5 5 5 5 3 5 5 5 5 5 5 5 5 5 3 5 5 5 5 3 3 5 5 5 5 5 5 5 5 5 5 5 5 5 5 5 5 5 3 5 5 5 5 5 5 5 5 5 5 5 5 5 5 5 5 5 5 5 5 5 3 5 5 5 5 3 5 5 5 3 5 5 5 5 5 5 5 5 5 5 5 5 5 5 5 5 5 3 5 5 5 5 5 3 5 3 5 5 5 5 3 5 5 5 5 5 5 5 5 5 3 5 5 5 5 5 5 5 5 5 5 5 5 5 5 5 5 5 5 5 5 5 5 5 5 5 5 5 5 5 5 5 5 5 5 5 5 5 5 5 5 5 5 5 5 5 5 5 5 5 5 5 5 5 5 5 5 5 5 5 5 5 5 3 5 5 5 5 5 3 5 3 5 5 5 5 5 5 5 5 5 5 5 5 5 5 5 5 5 5 5 5 5 5 3 5 5 5 5 5 3 5 5 5 5 5 5 5 3 5 5 5 5 5 5 3 3 5 5 5 5 5 5 5 5 5 5 5 5 5 3 5 5 5 5 5 5 5 5 5 5 5 5 3 5 5 5 5 5 3 5 5 5 5 5 5 5 5 5 5 5 5 5 5 5 5 5 5 5 3 5 5 5 5 5 5 5 5 5 5 3 5 5 5 5 5 3 5 5 5 3 5 5 5 5 5 3 5 5 5 5 5 5 5 5 5 5 5 5 3 5 5 5 5 3 5 5 5 5 3 5 5 3 5 5 3 5 5 5 5 5 3 5 5 5 3 5 5 5 3 5 5 5 5 5 5 5 5 5 5 3 5 5 5 5 5 5 5 5 3 5 5 5 5 3 5 5 3 3 5 5 5 5 5 5 5 5 3 5 5 3 5 5 3 5 5 5 3 5 5 5 5 5 5 5 5 3 5 5 5 5 5 3 5 5 3 5 5 5 5 5 3 5 5 5 3 5 5 5 5 3 5 5 5 3 5 3 5 5 5 3 5 5 5 5 5 5 5 5 5 5 5 5 5 5 5 5 5 5 5 5 5 5 5 5 5 5 5 5 5 5 5 5 5 5 5 5 5 5 5 5 5 5 5 5 3 3 3 3 5 5 5 5 5 3 5 5 5 5 5 5 5 5 5 5 3 5 5 5 3 3 5 5 3 5 5 5 5 5 5 5 5 3 5 5 3 3 5 5 3 3 5 5 5 5 5 5 5 5 5 3 5 5 5 5 5 5 3 5 5 5 5 5 5 5 5 5 5 5 5 5 5 5 5 5 5 5 5 5 5 5 5 5 3 5 5 5 5 5 3 3 5 3 5 5 5 3 5 5 5 3 5 5 5 3 5 5 5 3 5 5 5 3 5 3 5 5 5 5 5 5 5 5 5 5 5 5 5 5 5 5 3 5 5 5 5 5 5 5 5 5 5 5 3 5 5 3 3 5 5 5 5 5 5 5 5 3 5 5 5 5 5 5 5 5 3 5 3 5 5 5 5 5 5 5 5 5 5 3 5 5 5 3 5 5 5 3 5 5 5 5 5 3 5 3 5 5 5 5 5 5 5 5 5 5 5 5 5 5 5 5 5 5 5 5 5 5 3 5 5 5 5 5 5 5 5 5 5 5 5 5 5 5 5 5 3 3 5 3 5 5 5 5 5 5 5 3 5 5 5 5 3 5 5 5 5 5 5 5 5 5 5 5 5 5 5 5 5 5 5 5 3 5 5 3 5 5 5 5 5 5 5 5 3 5 5 5 3 5 5 5 5 5 5 5 5 5 5 5 5 3 5 5 5 5 5 5 5 5 5 5 5 5 5 5 5 5 5 5 5 5 5 5 5 5 5 5 5 5 5 5 5 3 5 5 5 3 5 5 5 3 5 5 5 3 5 5 3 5 5 5 5 5 5 5 5 5 5 5 5 5 5 5 5 5 5 5 3 5 5 5 3 5 5 5 5 5 5 5 5 5 5 3 5 5 3 5 5 5 5 5 3 5 3 5 5 5 3 5 5 5 5 5 5 5 5 5 5 5 5 5 5 3 3 5 5 5 5 5 5 5 5 5 5 5 5 5 5 5 5 5 5 5 5 5 3 3 5 5 5 5 5 5 5 5 5 5 5 5 3 5 5 5 5 5 5 5 5 5 5 3 5 5 3 5 5 5 5 5 5 3 5 5 3 5 5 5 5 5 3 5 5 5 5 5 5 5 5 3 5 3 5 5 5 5 3 5 5 5 5 5 5 5 5 5 5 3 5 5 5 5 5 5 5 5 5 5 5 3 5 3 5 3 5 5 5 5 5 5 3 5 5 5 5 5 5 5 5 3 3 5 5 5 5 5 5 5 5 5 3 5 5 5 5 5 3 3 3 5 5 5 5 3 5 5 5 5 3 5 5 5 5 5 5 3 5 5 5 5 5 5 3 5 5 5 5 3 5 5 3 3 5 5 5 5 5 5 5 5 5 3 5 5 3 5 5 5 5 5 5 5 5 5 5 5 5 5 5 5 5 5 5 5 5 5 5 5 5 5 5 3 5 5 5 3 5 5 5 5 5 5 3 5 5 5 5 5 5 5 5 5 5 3 5 5 3 5 5 5 5 5 5 5 5 5 5 5 5 5 5 3 5 5 5 5 5 5 5 5 5 5 5 5 5 5 5 5 5 5 5 5 5 5 5 5 5 5 5 5 5 3 5 5 5 5 5 5 5 5 5 5 5 5 5 5 5 5 5 5 5 5 5 5 5 5 5 5 5 5 5 5 5 5 5 5 5 5 5 5 5 5 5 5 5 5 5 5 5 5 5 5 5 5 5 5 5 5 5 5 5 5 5 5 5 5 5 5 5 5 5 5 5 5 5 5 5 5 5 5 5 5 5 5 5 5 5 5 5 5 5 5 5 5 3 5 5 5 5 5 3 5 5 5 5 5 5 5 5 5 5 5 3 5 5 5 5 3 5 3 3 5 3 5 5 5 5 5 5 5 5 3 5 5 5 5 5 5 5 5 5 5 5 5 5 5 5 5 5 5 5 5 5 5 5 5 5 5 5 5 5 5 5 5 5 5 5 3 3 5 5 3 5 5 3 5 5 3 5 5 5 5 3 5 3 5 5 5 3 5 3 5 3 3 3 5 5 3 3 5 5 5 5 5 5 5 3 5 5 5 5 5 5 3 5 5 3 5 3 5 5 5 5 5 3 5 5 3 5 5 5 5 5 5 5 5 5 5 5 5 5 5 5 5 5 5 5 3 5 5 3 3 5 3 5 3 5 5 5 3 3 5 5 5 5 3 5 5 5 5 5 5 5 5 5 5 5 5 5 5 5 3 5 5 5 3 5 5 5 5 3 5 5 3 5 5 5 5 5 5 5 5 5 3 5 5 5 5 5 5 5 5 5 5 5 5 5 5 5 5 5 5 5 5 5 5 5 5 3 5 5 5 5 5 5 5 5 5 5 5 5 3 5 5 5 5 3 5 5 3 5 5 5 5 5 5 3 5 5 5 5 5 5 3 3 3 5 5 5 3 5 5 5 5 5 5 5 5 5 5 5 5 5 3 5 5 5 5 5 5 5 5 3 5 5 3 5 3 5 5 5 5 5 3 3 5 5 5 5 5 5 5 5 5 3 3 5 5 5 5 5 5 5 3 5 5 5 5 5 5 5 5 5 5 5 5 5 5 5 5 5 5 5 5 5 5 5 5 3 5 5 5 5 5 5 5 5 5 5 5 5 5 5 5 5 5 5 5 5 5 5 5 5 5 5 5 5 5 5 3 5 3 5 5 5 3 5 5 5 5 3 5 5 5 3 5 5 5 5 5 5 5 3 3 5 5 3 5 5 5 5 5 5 5 5 5 5 5 5 5 5 5 3 3 5 5 5 5 5 3 5 5 5 5 5 3 5 5 5 3 5 5 5 5 5 5 5 5 5 5 5 5 5 5 5 5 5 5 5 5 5 5 5 5 3 5 5 3 5 5 3 5 5 5 5 5 5 5 5 5 5 5 5 5 5 5 5 5 5 5 5 5 5 5 5 5 3 5 5 5 3 5 5 5 5 5 5 5 5 5 5 5 5 5 5 5 5 5 5 5 5 5 5 5 5 5 5 5 5 5 5 5 5 5 5 5 5 5 5 5 5 5 5 5 5 5 5 5 5 3 5 5 5 5 5 5 5 5 5 5 5 5 3 5 5 5 5 5 5 5 5 3 5 3 5 5 5 5 5 5 5 5 5 5 5 5 5 5 5 3 5 5 5 5 5 5 5 5 3 3 5 5 3 5 5 5 5 3 5 3 5 5 5 5 5 3 3 5 5 5 5 5 5 5 5 5 5 5 5 5 5 5 5 5 5 5 5 5 5 5 5 3 5 5 5 5 3 5 3 5 5 5 5 5 5 5 5 5 5 5 5 5 5 5 5 5 5 5 5 3 5 5 3 5 5 5 5 5 5 5 5 5 5 5 5 5 5 5 5 3 5 5 5 5 5 5 3 3 5 5 5 5 5 5 5 5 5 5 5 5 5 5 5 5 5 5 5 5 5 5 5 5 5 5 3 5 5 5 5 5 5 5 5 5 5 5 5 5 5 5 5 5 5 3 5 5 5 5 5 5 5 5 3 5 3 5 5 5 5 5 5 5 5 5 5 5 3 5 5 5 5 5 5 5 5 5 5 5 5 5 5 3 5 5 5 5 3 5 5 5 5 3 5 3 3 5 5 5 5 3 5 5 5 5 5 5 5 3 5 5 3 3 5 5 5 5 5 5 5 5 3 5 5 5 5 5 5 5 5 5 5 5 5 5 5 5 5 5 5 3 5 5 5 3 5 5 5 5 3 5 5 5 5 5 5 5 5 5 5 5 5 5 5 3 5 5 5 5 5 5 5 5 5 5 5 5 3 5 5 5 5 5 3 5 5 5 5 5 5 5 3 5 5 5 5 5 5 5 3 5 5 3 5 3 5 5 5 3 5 5 5 5 5 5 5 5 5 5 5 5 5 5 3 5 5 5 5 5 5 5 5 5 5 3 5 5 5 3 5 5 3 5 5 5 3 5 3 5 5 5 5 5 5 5 3 5 5 5 5 5 5 3 5 5 5 5 5 5 5 5 5 5 5 5 3 5 5 5 5 5 5 5 5 3 5 5 5 5 5 5 5 5 5 3 5 5 5 5 5 5 5 3 5 5 5 5 5 5 5 5 5 5 5 5 5 3 5 5 5 3 5 3 3 5 5 5 5 5 5 3 5 5 5 5 5 5 5 5 5 5 5 5 5 5 5 3 5 5 5 5 5 5 3 5 5 5 5 5 5 5 5 5 5 5 5 5 5 3 5 3 5 5 5 5 3 5 5 5 5 5 5 3 5 5 5 5 5 5 3 5 5 5 5 5 5 5 5 5 5 5 5 5 5 5 5 5 5 5 5 5 5 5 5 5 5 5 5 5 5 5 5 5 5 5 5 5 5 5 5 5 5 5 5 5 5 5 5 5 3 5 5 5 5 3 5 3 5 5 5 5 5 5 5 5 5 5 5 5 5 5 5 5 5 5 5 3 5 3 5 5 5 5 3 5 3 3 5 5 5 5 3 3 3 5 5 3 3 5 5 5 5 5 5 5 5 5 5 5 5 5 5 5 5 5 3 5 5 5 5 3 5 5 5 3 5 5 5 5 5 5 5 5 3 5 5 5 5 5 5 5 5 5 5 5 5 5 3 5 3 5 5 5 5 5 5 5 5 5 5 5 3 5 5 5 5 5 5 5 5 3 5 3 3 5 3 5 5 3 5 5 5 5 5 5 5 5 5 5 5 5 5 5 5 5 5 5 5 3 5 5 3 5 5 5 5 5 5 5 3 5 5 3 5 5 5 5 5 3 5 5 3 5 5 3 3 5 5 5 5 5 5 5 3 5 5 5 5 5 3 5 3 5 5 5 5 3 5 3 5 5 5 5 5 5 5 5 5 5 5 5 5 5 5 5 5 5 3 5 5 3 5 3 5 5 5 5 5 5 5 5 5 5 5 5 5 5 5 5 5 5 5 3 5 5 5 5 5 5 5 5 5 5 5 5 5 5 5 5 5 5 5 3 5 5 5 5 3 5 5 3 5 5 5 5 5 3 5 5 5 5 5 5 5 5 5 5 5 5 3 5 5 5 5 5 5 5 3 5 5 5 5 5 5 5 5 5 5 5 3 5 5 3 5 3 5 5 5 5 3 5 5 5 5 3 5 3 5 5 5 3 5 5 5 5 3 5 5 5 5 5 5 5 5 5 5 5 5 5 5 5 3 3 5 5 5 5 3 5 3 5 5 5 5 3 5 5 5 5 5 3 5 5 3 5 5 5 3 5 5 3 5 5 3 5 5 5 5 5 5 5 5 5 5 5 5 5 5 3 5 5 5 5 3 5 5 5 5 5 3 5 5 5 5 5 5 5 5 5 5 5 5 5 5 5 5 5 5 5 5 5 5 5 5 5 5 5 5 5 5 5 5 5 3 5 5 5 5 5 5 3 5 5 5 5 5 5 3 5 5 5 3 5 5 5 5 5 3 5 5 3 5 5 5 3 5 5 5 5 5 5 5 5 5 5 5 5 5 5 5 5 5 5 5 5 5 5 5 5 5 5 5 5 5 5 5 5 5 5 5 5 5 3 5 5 5 3 5 5 5 5 5 5 5 5 5 3 5 5 3 5 5 5 5 5 5 5 5 5 5 5 3 5 5 5 3 5 5 5 5 5 5 5 5 5 3 5 5 5 5 3 5 5 5 5 5 5 5 5 5 3 5 5 5 5 3 5 5 5 5 5 5 5 5 5 5 5 5 5 5 5 5 5 3 3 5 5 5 5 3 5 5 5 5 3 5 3 5 5 5 5 5 5 5 5 5 3 5 5 3 5 5 5 5 5 5 5 5 5 5 5 3 5 5 5 5 5 5 5 5 5 5 5 5 5 5 5 3 5 5 5 5 5 5 5 5 3 5 5 5 5 5 3 5 5 5 5 5 5 3 5 5 5 5 5 5 5 5 5 5 5 5 5 5 5 5 5 5 5 5 5 5 5 5 5 5 5 5 5 5 5 5 5 5 5 5 5 5 5 5 5 5 5 5 5 5 5 5 5 5 5 5 5 5 5 5 3 5 5 5 5 5 5 5 5 5 5 5 5 5 5 5 3 5 5 5 5 5 5 5 5 5 5 5 3 5 5 3 5 5 5 5 5 5 5 5 3 5 5 5 5 5 5 5 5 3 3 5 5 5 5 5 3 5 5 5 5 5 5 5 5 5 3 5 5 5 5 5 5 5 5 5 5 5 5 5 5 5 5 5 5 5 5 5 5 5 5 5 5 5 5 5 5 5 5 3 5 5 3 5 5 5 5 5 5 5 5 5 3 5 5 5 5 5 5 5 5 5 5 5 5 5 5 5 5 5 5 5 5 5 5 5 5 5 5 5 5 5 5 5 3 5 5 5 5 5 3 5 5 5 5 5 5 3 5 5 5 5 3 3 5 5 5 5 5 3 5 5 5 5 5 5 5 5 5 5 5 5 3 5 5 5 5 5 5 5 5 5 5 5 5 5 5 5 5 5 5 5 5 5 5 5 5 5 5 5 5 5 5 5 5 5 5 5 5 5 5 5 5 5 5 5 5 5 5 5 5 3 5 5 5 5 5 5 5 5 5 5 5 5 5 5 5 5 5 5 5 5 5 5 5 5 5 3 5 5 5 5 5 5 5 5 5 5 5 5 3 5 5 5 5 5 5 5 5 5 5 5 5 5 5 5 5 5 5 5 5 3 5 5 5 5 3 5 5 5 3 3 5 5 5 5 3 5 5 5 5 5 5 5 3 5 5 5 5 5 3 5 5 5 3 5 5 5 5 3 5 5 5 5 5 5 5 5 5 5 5 5 5 3 5 5 5 5 5 3 5 3 5 5 3 5 5 5 3 3 5 5 5 5 5 5 3 3 5 3 5 5 5 5 5 5 5 5 5 5 5 5 5 5 5 5 5 5 5 5 5 5 5 5 5 5 5 5 5 3 5 5 5 5 5 5 5 5 5 5 5 5 5 5 5 5 5 5 5 5 5 5 5 5 5 5 5 5 5 5 5 5 5 3 5 5 5 5 5 5 5 3 5 5 5 5 5 5 5 5 5 5 5 5 5 3 5 5 5 5 5 5 5 5 3 5 3 5 3 5 5 5 5 5 5 5 5 5 5 5 5 3 5 5 5 5 5 5 3 5 5 5 5 5 5 5 5 5 5 5 5 5 5 5 5 5 5 5 5 5 5 5 5 5 5 5 5 5 5 5 5 5 3 5 5 5 5 5 5 5 5 5 5 3 5 5 5 5 3 5 5 5 5 5 5 5 5 5 5 5 5 5 5 5 3 5 5 5 5 5 3 5 5 5 5 3 5 5 5 3 5 5 3 5 5 3 5 5 5 5 5 3 5 5 5 5 5 3 5 5 3 5 5 5 5 3 5 5 5 3 5 5 5 5 5 5 5 5 5 5 5 5 5 5 5 5 5 5 5 5 5 5 5 5 5 3 5 5 5 5 5 3 5 3 5 5 5 5 3 5 3 5 5 3 5 5 5 5 5 5 5 3 5 5 5 5 5 5 5 5 5 5 5 5 5 5 5 5 5 5 5 3 3 5 5 5 5 5 5 5 5 3 5 3 5 5 5 5 5 3 5 5 5 5 5 5 5 5 5 5 5 5 5 5 5 5 5 5 5 5 5 5 5 5 5 5 5 5 3 5 5 3 5 5 5 3 5 5 3 5 3 3 5 5 5 5 5 5 5 5 3 5 3 5 3 5 5 5 5 5 5 5 5 5 5 5 3 5 5 5 5 5 5 3 5 5 5 5 5 3 3 5 5 5 5 5 3 5 5 5 3 5 3 5 3 5 5 5 5 3 5 5 3 5 5 3 5 3 5 5 5 5 5 5 5 5 5 5 5 5 5 3 5 5 5 5 3 5 5 5 5 5 5 5 5 5 5 5 3 5 5 3 5 5 5 3 5 3 3 5 5 5 5 5 5 5 3 5 5 5 5 5 5 5 5 5 5 3 5 5 3 5 5 5 5 5 5 5 5 5 5 5 5 5 3 5 3 5 5 5 5 5 5 5 5 5 5 5 5 3 5 5 5 5 5 5 5 5 5 5 5 3 5 5 5 3 5 5 5 5 5 5 5 5 5 5 3 5 3 5 5 3 5 5 5 3 5 5 3 5 5 5 3 5 5 3 5 5 5 5 3 3 5 5 5 3 5 5 5 3 5 5 5 5 5 5 5 5 5 3 5 5 5 5 5 5 5 5 5 5 3 3 5 5 5 5 5 5 5 3 3 5 5 5 3 5 3 5 5 5 5 5 5 5 5 5 5 5 5 5 5 5 5 5 5 5 5 5 5 5 5 5 5 5 5 5 5 5 5 5 5 5 5 5 3 5 5 5 5 5 5 5 3 5 3 5 5 3 5 5 3 3 5 5 5 3 5 3 5 5 5 3 3 5 3 3 5 3 5 5 3 3 5 3 5 5 5 5 5 5 5 5 5 5 5 5 5 5 5 5 3 5 5 5 5 3 3 3 5 5 5 3 3 5 5 5 5 5 5 3 5 3 3 5 5 5 3 5 5 5 3 5 5 5 5 3 5 3 5 5 3 5 5 5 5 5 5 5 5 5 5 5 5 5 5 5 5 5 5 5 5 5 5 5 5 5 5 5 5 5 5 5 5 5 5 5 5 3 5 5 5 5 5 5 5 5 5 5 5 5 5 5 5 5 5 5 5 5 5 5 5 5 5 5 5 5 5 5 5 5 5 5 5 5 5 5 5 5 5 5 5 5 5 5 5 5 5 5 5 5 5 5 5 5 5 5 5 5 5 5 5 3 5 5 5 3 3 5 5 5 5 5 5 5 5 5 5 5 5 5 5 5 3 5 5 5 3 5 3 3 5 5 5 5 5 5 5 5 5 5 3 5 5 3 3 5 3 5 3 5 5 5 5 5 5 5 5 5 5 5 5 5 5 5 5 5 3 3 3 5 5 5 5 5 3 5 5 5 5 5 5 5 5 5 5 5 5 5 5 5 5 5 5 5 5 5 5 5 5 5 5 5 5 5 3 5 5 5 5 5 5 3 5 5 5 5 5 5 5 5 5 3 3 5 5 5 5 5 5 5 3 3 5 5 5 3 5 5 5 5 3 5 3 3 3 5 5 5 5 3 5 5 5 5 3 5 5 5 5 3 5 5 5 5 5 3 3 5 5 5 5 5 5 3 5 5 3 5 5 5 5 5 3 5 5 5 5 5 5 5 3 5 5 5 5 5 5 5 3 5 5 5 5 5 5 5 5 5 5 5 5 5 5 5 5 5 5 5 5 5 5 5 5 5 5 3 5 5 5 5 5 5 5 5 5 5 5 5 5 5 5 5 5 3 5 5 3 5 3 5 5 3 5 5 5 5 3 3 5 5 5 5 5 5 5 5 5 5 3 5 5 5 5 5 5 5 5 5 5 5 5 5 5 5 5 5 5 5 5 5 5 5 5 5 5 5 5 5 5 5 5 5 5 5 5 5 5 5 5 5 5 5 5 5 5 5 3 5 5 5 5 5 5 5 5 5 3 5 5 5 3 3 3 5 5 5 5 3 5 5 3 3 5 5 3 3 5 5 5 5 5 5 5 5 5 5 5 5 3 5 5 5 5 3 5 5 5 5 5 5 5 5 5 5 3 5 5 5 5 5 5 5 5 5 5 5 5 5 5 5 3 5 3 3 5 5 5 3 5 5 5 5 5 5 5 5 5 5 5 5 5 5 5 5 5 5 5 5 5 5 5 5 5 5 5 5 5 5 5 5 5 3 5 5 5 5 5 5 5 5 5 5 3 5 5 5 5 5 3 5 5 5 5 5 5 5 5 5 5 3 5 5 5 3 5 5 5 5 5 5 5 5 5 5 5 5 5 5 5 5 5 5 5 5 5 5 5 5 3 5 3 5 5 5 5 5 5 3 5 5 5 5 5 5 5 3 5 5 5 5 5 3 5 5 5 5 5 3 5 3 5 5 5 5 5 5 3 5 5 5 5 5 3 5 5 5 5 5 5 5 5 5 5 5 5 5 5 5 5 3 5 5 5 5 5 5 5 3 5 3 3 3 5 3 5 5 5 5 5 5 5 5 5 5 3 5 5 5 5 5 5 5 5 5 5 5 5 5 3 5 5 5 5 5 3 5 5 5 5 5 3 5 5 5 5 5 3 5 5 3 5 3 3 5 5 3 5 5 5 3 3 5 5 3 5 5 5 5 3 5 5 5 5 5 3 5 5 5 5 5 5 5 5 3 3 5 5 5 3 5 5 3 5 5 3 5 5 5 5 3 5 5 5 3 5 3 5 5 3 3 5 3 3 5 5 5 5 3 3 3 5 5 5 5 5 5 5 5 5 5 5 5 3 5 5 5 5 5 5 5 5 3 3 3 5 5 5 3 3 3 5 5 5 5 5 5 5 5 5 5 5 5 5 3 5 5 5 3 5 5 5 3 5 5 5 5 3 5 5 5 3 5 5 5 3 5 5 5 5 5 5 5 5 5 5 5 5 5 5 5 5 5 5 5 5 5 5 5 5 5 5 5 5 3 5 3 5 5 5 5 5 5 5 5 5 5 5 5 5 5 5 5 5 5 5 5 3 3 5 5 5 5 5 5 3 5 5 5 5 5 5 3 5 5 5 5 5 5 5 5 5 5 3 5 5 5 5 3 5 3 5 5 3 5 5 3 5 3 5 5 5 3 5 3 5 5 3 5 3 5 3 5 3 5 5 3 5 5 5 3 5 5 5 5 5 5 5 5 5 5 5 3 3 3 3 5 5 5 3 5 5 3 5 5 5 3 3 5 5 5 5 5 5 5 3 5 5 5 5 5 5 3 3 5 5 5 5 5 3 3 3 5 5 5 5 5 5 5 5 5 3 5 5 5 5 5 5 5 5 5 5 3 5 5 5 5 5 5 5 5 5 5 5 5 5 5 5 5 5 3 5 5 5 5 5 5 3 5 5 5 5 5 3 5 5 5 5 5 5 5 5 5 5 5 5 5 5 5 5 5 5 5 5 5 5 5 5 5 5 5 5 5 5 5 5 5 5 5 5 5 5 5 5 5 5 3 5 5 5 5 5 5 5 5 5 5 5 5 5 5 5 5 3 5 5 5 5 5 5 5 5 5 5 5 5 5 5 5 5 5 3 5 3 5 5 5 5 5 5 5 5 5 5 5 5 5 5 5 5 5 5 5 5 5 5 5 5 5 3 5 5 5 5 3 5 5 5 5 5 5 5 5 5 5 5 5 5 3 5 5 5 5 5 5 5 5 5 5 5 5 5 5 5 5 5 5 5 5 5 5 5 5 5 5 5 5 5 5 5 5 5 5 5 3 5 5 5 5 5 5 5 5 5 3 5 5 5 3 5 5 5 5 5 5 5 5 5 5 5 5 5 5 5 5 5 5 5 5 5 5 5 5 5 5 5 5 5 3 5 5 5 5 3 5 5 5 3 5 5 5 5 5 5 5 5 5 5 5 5 5 3 5 5 5 5 5 5 5 5 5 5 5 5 5 5 5 5 5 5 3 5 5 5 5 5 5 5 3 5 5 3 5 5 5 5 5 5 5 5 3 5 5 3 5 5 5 5 5 3 5 5 3 5 3 5 5 5 5 5 5 5 5 5 5 3 3 3 3 5 5 3 5 5 5 5 5 5 3 5 5 5 5 5 5 5 5 5 5 5 5 5 3 5 5 3 5 5 5 3 5 5 5 5 5 5 5 5 5 5 5 5 5 5 5 5 5 3 5 5 3 5 5 5 5 5 5 5 5 5 3 5 5 5 3 5 5 5 5 3 5 5 5 5 5 5 3 3 5 5 5 5 5 5 5 5 3 5 5 3 5 5 5 5 3 5 5 5 5 5 5 5 3 5 5 5 3 5 5 5 5 5 5 5 5 5 5 5 5 5 5 5 5 5 5 5 5 5 5 5 5 3 5 5 5 3 5 5 5 3 5 3 5 3 5 5 5 5 3 5 3 3 5 3 5 5 5 5 5 5 3 5 5 3 3 5 5 3 5 5 3 5 5 3 5 5 5 5 5 3 5 5 5 5 3 5 5 3 3 5 5 5 3 5 5 5 5 5 3 5 3 5 5 5 5 3 5 5 5 5 5 5 5 5 5 5 5 5 5 5 5 5 5 5 5 5 5 5 5 5 5 5 5 5 5 3 5 5 5 3 5 5 5 5 5 5 5 5 5 5 3 5 5 5 5 5 5 5 5 5 5 5 3 5 5 5 5 5 3 5 5 5 3 5 5 5 5 3 3 5 5 5 5 5 5 5 3 5 5 5 5 5 5 5 5 5 3 5 5 5 5 5 5 5 5 5 5 5 3 5 5 5 5 5 5 5 5 5 5 5 5 5 5 5 5 5 5 5 5 5 3 5 5 5 5 5 5 5 5 5 5 5 5 5 5 5 5 5 5 5 5 5 5 5 5 5 5 5 5 5 5 5 5 5 5 5 5 3 5 5 5 5 5 5 5 5 5 5 5 3 5 5 5 3 3 5 5 5 5 3 5 3 5 5 3 3 5 5 5 3 5 5 5 5 5 3 5 5 5 3 5 5 5 5 5 5 5 5 5 5 5 5 3 5 5 5 5 5 5 5 5 3 3 5 5 5 5 5 5 5 5 5 3 5 5 5 3 3 5 5 5 5 5 3 5 3 3 5 3 5 5 5 3 3 5 5 3 5 5 3 3 5 5 5 3 5 3 5 5 3 5 5 5 5 5 5 5 3 5 5 5 5 5 5 5 5 5 3 5 5 3 5 3 5 5 3 5 5 3 3 5 5 5 5 5 5 5 5 5 5 5 5 3 3 5 5 5 5 5 5 5 3 5 5 5 5 5 5 5 3 3 5 5 5 5 5 5 5 5 5 5 5 5 3 3 5 5 5 3 5 5 5 3 5 5 5 5 5 3 5 5 5 5 5 5 5 5 5 5 5 5 5 5 5 5 5 5 5 5 5 5 3 5 5 5 5 3 5 5 5 5 5 5 5 5 5 5 5 5 5 5 3 5 5 5 5 5 5 3 5 3 5 5 3 5 5 5 3 5 3 5 5 5 3 5 5 5 5 5 5 3 5 5 5 5 5 5 5 5 5 5 5 5 3 5 5 5 5 5 5 5 3 5 5 5 5 5 5 5 5 5 3 5 5 3 5 5 5 5 5 5 3 5 5 5 5 3 3 5 5 3 5 5 5 5 5 5 5 5 5 5 5 5 5 5 5 5 3 5 5 3 5 5 5 5 3 5 3 5 5 5 5 5 3 5 5 5 5 3 5 3 5 5 3 5 5 5 5 5 3 5 5 3 5 5 3 5 5 5 5 5 5 5 5 5 3 5 3 5 5 5 5 3 5 5 3 3 5 5 5 5 3 3 5 3 5 5 5 5 3 3 3 5 5 3 5 5 3 3 5 5 5 5 3 5 5 5 5 3 5 5 3 5 5 5 5 5 5 5 3 5 5 5 5 5 5 5 5 3 5 5 5 5 3 5 5 5 5 5 5 5 5 5 5 5 5 5 5 3 5 5 5 5 5 5 5 5 5 5 5 3 5 5 5 5 5 3 5 5 5 5 5 5 5 5 5 5 5 5 5 5 5 5 5 5 5 5 5 5 5 5 5 5 5 5 5 5 5 5 5 5 5 5 5 5 5 5 5 5 5 5 5 5 5 5 5 5 5 5 5 5 5 5 5 5 5 5 5 5 3 5 5 3 5 5 5 5 5 5 5 5 5 5 5 5 5 5 5 5 3 5 5 5 5 5 5 5 5 5 5 3 5 5 5 5 5 5 5 5 5 5 5 5 5 5 5 5 5 5 3 5 3 5 5 5 5 5 3 3 5 5 5 5 5 5 5 5 5 5 3 3 3 5 5 3 5 5 3 5 5 3 5 5 5 5 5 5 5 5 5 5 5 5 5 5 5 5 5 5 3 5 5 5 5 5 3 5 5 5 5 3 5 3 5 5 5 5 3 5 5 5 5 5 5 5 5 5 5 5 5 5 5 5 5 5 5 5 5 5 5 5 5 5 5 5 5 5 5 5 5 3 5 5 5 5 5 5 5 3 5 5 5 3 5 5 5 5 5 5 5 3 5 5 5 5 5 5 5 5 5 5 5 5 5 5 5 5 5 5 5 5 5 5 5 5 3 5 5 5 5 3 5 5 5 3 5 5 5 5 5 5 5 5 5 5 5 3 5 5 5 5 5 3 5 5 5 5 5 5 5 3 5 5 5 5 5 3 5 5 5 5 5 5 5 5 5 3 5 5 5 5 5 5 5 5 5 5 5 5 5 5 3 5 5 5 5 5 5 5 5 5 5 5 5 5 5 3 3 5 5 5 5 5 5 5 5 5 5 5 5 5 5 5 5 5 5 5 5 5 5 5 5 5 5 5 5 5 5 5 5 5 5 5 5 5 5 5 3 3 5 5 5 5 5 5 5 5 5 5 5 3 5 5 5 5 5 5 5 5 5 3 5 5 5 5 5 3 5 5 5 5 3 5 5 5 5 5 5 5 5 5 5 5 5 5 5 5 5 5 5 5 5 5 5 5 5 5 3 5 5 3 5 3 5 3 5 5 5 5 5 5 3 5 3 5 5 5 5 5 3 5 5 5 5 5 5 5 5 5 5 5 5 5 5 5 5 5 5 5 5 5 5 5 5 5 5 5 5 5 5 3 5 5 5 5 3 5 5 5 5 5 5 5 5 5 3 5 5 5 5 5 5 5 5 5 5 3 5 3 3 5 5 5 5 5 5 5 5 5 5 5 5 5 5 5 5 3 5 5 5 5 5 5 5 5 5 5 5 5 5 5 5 5 5 5 5 5 5 5 5 3 5 5 5 5 5 5 5 5 3 3 5 5 5 5 5 3 3 5 5 5 3 5 5 5 5 5 5 5 3 5 5 3 5 5 5 5 5 3 5 3 5 5 3 5 5 5 5 5 5 5 5 3 5 5 5 5 5 5 5 5 5 5 3 3 5 5 5 5 5 5 5 5 5 5 3 5 5 5 5 5 3 3 5 5 5 3 5 5 5 5 5 5 5 5 5 5 3 3 5 5 5 5 5 3 5 5 3 5 5 5 3 5 5 5 5 3 5 5 5 5 5 5 5 5 5 5 5 5 5 5 5 5 5 5 
</DataArray>
</Cells>
<PointData Scalars="" Vectors="displacement," Tensors="">
<DataArray type="Float64" Name="displacement" NumberOfComponents="3" format="ascii">
0.024999578569107627 3.3599863066882829e-08 0 0.024998920764665172 6.1227328244058152e-08 0 0.024178464053272068 2.5211978012444999e-05 0 0.024999578569107627 3.3599863066882829e-08 0 0.024178464053272068 2.5211978012444999e-05 0 0.022653835035186327 1.8097988740063635e-07 0 0.024999462654538371 -3.7309560053647024e-08 0 0.023615953596608182 0.00016408475443131719 0 0.024998248138181616 2.136321332233008e-07 0 0.025000073976068862 -1.3285699700542749e-07 0 0.023450186884794871 0.0003183919852328859 0 0.024998920764665172 6.1227328244058152e-08 0 0.023910278598685351 1.7089842108828957e-05 0 0.024178464053272068 2.5211978012444999e-05 0 0.023301733241224479 0.00036903337194259793 0 0.023031793861750451 0.00031490974920527355 0 0.023450186884794871 0.0003183919852328859 0 0.025000073976068862 -1.3285699700542749e-07 0 0.023301733241224479 0.00036903337194259793 0 0.023450186884794871 0.0003183919852328859 0 0.023910278598685351 1.7089842108828957e-05 0 0.024178464053272068 2.5211978012444999e-05 0 0.022653835035186327 1.8097988740063635e-07 0 0.023910278598685351 1.7089842108828957e-05 0 0.022541051826781719 -1.1182177875783886e-05 0 0.022653835035186327 1.8097988740063635e-07 0 0.022541051826781719 -1.1182177875783886e-05 0 0.022653835035186327 1.8097988740063635e-07 0 0.021094467311242288 2.272316299523208e-05 0 0.023301733241224479 0.00036903337194259793 0 0.02255228893958882 0.0002501772625381192 0 0.022079710082936722 0.00020905978373178256 0 0.023301733241224479 0.00036903337194259793 0 0.02255228893958882 0.0002501772625381192 0 0.023031793861750451 0.00031490974920527355 0 0.023615953596608182 0.00016408475443131719 0 0.022293362328973727 0.00012235748942468635 0 0.02255228893958882 0.0002501772625381192 0 0.022079710082936722 0.00020905978373178256 0 0.022128827135274764 0.00011648767478968184 0 0.022526972014285176 9.9531917182749826e-05 0 0.022957044249360393 0.0002502822119939608 0 0.022914707560040559 3.1547307260854321e-05 0 0.022526972014285176 9.9531917182749826e-05 0 0.022914707560040559 3.1547307260854321e-05 0 0.022071192624412209 1.9703744705594135e-05 0 0.02255228893958882 0.0002501772625381192 0 0.022128827135274764 0.00011648767478968184 0 0.022957044249360393 0.0002502822119939608 0 0.022526972014285176 9.9531917182749826e-05 0 0.022128827135274764 0.00011648767478968184 0 0.022957044249360393 0.0002502822119939608 0 0.023153295680704806 0.00023137920827990668 0 0.023848159784553236 0.00015856252998510675 0 0.023031793861750451 0.00031490974920527355 0 0.022957044249360393 0.0002502822119939608 0 0.023450186884794871 0.0003183919852328859 0 0.02255228893958882 0.0002501772625381192 0 0.023031793861750451 0.00031490974920527355 0 0.022957044249360393 0.0002502822119939608 0 0.022957044249360393 0.0002502822119939608 0 0.023363358786724849 0.00011328008308304089 0 0.023507293171931214 0.00013238051126100676 0 0.022957044249360393 0.0002502822119939608 0 0.023363358786724849 0.00011328008308304089 0 0.022914707560040559 3.1547307260854321e-05 0 0.023872744342343061 4.9679723510820289e-05 0 0.024310954353440044 -4.2427859958362677e-05 0 0.023558539802831738 9.3429076806882878e-05 0 0.023363358786724849 0.00011328008308304089 0 0.023507293171931214 0.00013238051126100676 0 0.023586243544192968 9.3651916690482245e-05 0 0.023363358786724849 0.00011328008308304089 0 0.023586243544192968 9.3651916690482245e-05 0 0.023641760253020522 3.5326348432423945e-05 0 0.023507293171931214 0.00013238051126100676 0 0.023872744342343061 4.9679723510820289e-05 0 0.023586243544192968 9.3651916690482245e-05 0 0.023586243544192968 9.3651916690482245e-05 0 0.023558539802831738 9.3429076806882878e-05 0 0.023641760253020522 3.5326348432423945e-05 0 0.023872744342343061 4.9679723510820289e-05 0 0.023586243544192968 9.3651916690482245e-05 0 0.023558539802831738 9.3429076806882878e-05 0 0.022957044249360393 0.0002502822119939608 0 0.023507293171931214 0.00013238051126100676 0 0.024225461111027257 -3.2327297336243853e-05 0 0.023507293171931214 0.00013238051126100676 0 0.023872744342343061 4.9679723510820289e-05 0 0.024225461111027257 -3.2327297336243853e-05 0 0.023872744342343061 4.9679723510820289e-05 0 0.024310954353440044 -4.2427859958362677e-05 0 0.024225461111027257 -3.2327297336243853e-05 0 0.024999469444782318 9.2882581216064368e-08 0 0.023848159784553236 0.00015856252998510675 0 0.02499907032396596 -4.5400050485040645e-08 0 0.02477968300897513 1.2082196137013691e-05 0 0.024999897285235988 6.8861317341470608e-08 0 0.02499907032396596 -4.5400050485040645e-08 0 0.024310954353440044 -4.2427859958362677e-05 0 0.024225461111027257 -3.2327297336243853e-05 0 0.02499907032396596 -4.5400050485040645e-08 0 0.024310954353440044 -4.2427859958362677e-05 0 0.02477968300897513 1.2082196137013691e-05 0 0.024310954353440044 -4.2427859958362677e-05 0 0.025043670770774368 -4.9567678070960019e-05 0 0.02477968300897513 1.2082196137013691e-05 0 0.024345087861832579 -8.4825754046820852e-06 0 0.024320118555519358 -6.261779685861855e-06 0 0.025043670770774368 -4.9567678070960019e-05 0 0.02477968300897513 1.2082196137013691e-05 0 0.024999897285235988 6.8861317341470608e-08 0 0.023558539802831738 9.3429076806882878e-05 0 0.024997451120614519 1.0594410176858773e-06 0 0.024083487652238951 6.8383119639679375e-07 0 0.025043670770774368 -4.9567678070960019e-05 0 0.024999897285235988 6.8861317341470608e-08 0 0.02500010856915235 -4.7498027160545015e-08 0 0.024320118555519358 -6.261779685861855e-06 0 0.024999668494804839 2.9781846656915459e-09 0 0.024997451120614519 1.0594410176858773e-06 0 0.024083487652238951 6.8383119639679375e-07 0 0.024345880588321819 6.5867922089677655e-05 0 0.024083487652238951 6.8383119639679375e-07 0 0.024345880588321819 6.5867922089677655e-05 0 0.023659798870608616 3.8319313493534717e-05 0 0.023641760253020522 3.5326348432423945e-05 0 0.024083487652238951 6.8383119639679375e-07 0 0.023659798870608616 3.8319313493534717e-05 0 0.023363358786724849 0.00011328008308304089 0 0.023641760253020522 3.5326348432423945e-05 0 0.023659798870608616 3.8319313493534717e-05 0 0.023558539802831738 9.3429076806882878e-05 0 0.023641760253020522 3.5326348432423945e-05 0 0.024083487652238951 6.8383119639679375e-07 0 0.024998969374043205 1.3931644640765203e-07 0 0.025000287040026794 -1.7088374408155263e-07 0 0.024740104174064449 5.3435242829573621e-05 0 0.024998969374043205 1.3931644640765203e-07 0 0.024740104174064449 5.3435242829573621e-05 0 0.024814194705657641 4.3541719896594677e-05 0 0.025000287040026794 -1.7088374408155263e-07 0 0.024345880588321819 6.5867922089677655e-05 0 0.024740104174064449 5.3435242829573621e-05 0 0.024997451120614519 1.0594410176858773e-06 0 0.025000287040026794 -1.7088374408155263e-07 0 0.024345880588321819 6.5867922089677655e-05 0 0.024345880588321819 6.5867922089677655e-05 0 0.024740104174064449 5.3435242829573621e-05 0 0.024496408365584806 -4.6070437393833261e-06 0 0.024740104174064449 5.3435242829573621e-05 0 0.024496408365584806 -4.6070437393833261e-06 0 0.024691164034383855 1.1271442367222302e-06 0 0.024496408365584806 -4.6070437393833261e-06 0 0.024521552199382613 -0.00010969709728072624 0 0.024175338204344234 -9.877692944301881e-05 0 0.024496408365584806 -4.6070437393833261e-06 0 0.024521552199382613 -0.00010969709728072624 0 0.024691164034383855 1.1271442367222302e-06 0 0.024345880588321819 6.5867922089677655e-05 0 0.024175338204344234 -9.877692944301881e-05 0 0.023585707647890211 -0.00010181578822626673 0 0.024345880588321819 6.5867922089677655e-05 0 0.024496408365584806 -4.6070437393833261e-06 0 0.024175338204344234 -9.877692944301881e-05 0 0.024175338204344234 -9.877692944301881e-05 0 0.023871324973692598 -0.00041183104020956867 0 0.024287337236043708 -0.00027828517344703454 0 0.024175338204344234 -9.877692944301881e-05 0 0.023871324973692598 -0.00041183104020956867 0 0.023585707647890211 -0.00010181578822626673 0 0.024287337236043708 -0.00027828517344703454 0 0.024464374601715265 -0.00047165069978054113 0 0.024620362076257524 -0.00024031184060525047 0 0.024521552199382613 -0.00010969709728072624 0 0.024175338204344234 -9.877692944301881e-05 0 0.024287337236043708 -0.00027828517344703454 0 0.024521552199382613 -0.00010969709728072624 0 0.024287337236043708 -0.00027828517344703454 0 0.024620362076257524 -0.00024031184060525047 0 0.023659798870608616 3.8319313493534717e-05 0 0.023585707647890211 -0.00010181578822626673 0 0.022914707560040559 3.1547307260854321e-05 0 0.023363358786724849 0.00011328008308304089 0 0.023659798870608616 3.8319313493534717e-05 0 0.022914707560040559 3.1547307260854321e-05 0 0.024345880588321819 6.5867922089677655e-05 0 0.023659798870608616 3.8319313493534717e-05 0 0.023585707647890211 -0.00010181578822626673 0 0.023585707647890211 -0.00010181578822626673 0 0.022914707560040559 3.1547307260854321e-05 0 0.022516262422568489 -9.1289928043493954e-05 0 0.023486676546128429 -4.9129452208879937e-05 0 0.023037295627783408 -0.00029587148180636267 0 0.023871324973692598 -0.00041183104020956867 0 0.023585707647890211 -0.00010181578822626673 0 0.023520840573902725 -0.00060624098005976085 0 0.022914707560040559 3.1547307260854321e-05 0 0.022516262422568489 -9.1289928043493954e-05 0 0.022071192624412209 1.9703744705594135e-05 0 0.022516262422568489 -9.1289928043493954e-05 0 0.021708915748637057 -5.9515154758319165e-05 0 0.022071192624412209 1.9703744705594135e-05 0 0.023520840573902725 -0.00060624098005976085 0 0.023653324983803889 -0.00080935793828298182 0 0.023386225021107553 -0.00092426021740098566 0 0.023520840573902725 -0.00060624098005976085 0 0.023786965874992093 -0.00062845113754355655 0 0.023653324983803889 -0.00080935793828298182 0 0.023037295627783408 -0.00029587148180636267 0 0.022477082242780812 -0.00045178714220861526 0 0.022516262422568489 -9.1289928043493954e-05 0 0.021708915748637057 -5.9515154758319165e-05 0 0.021538966442483529 -8.6412081276703059e-05 0 0.024287337236043708 -0.00027828517344703454 0 0.02432607134443196 -0.00056413905703370021 0 0.02402927443026533 -0.00061221056972805485 0 0.024079581641724811 -0.00059719858054836194 0 0.02402927443026533 -0.00061221056972805485 0 0.024032670406619477 -0.00078994371128955068 0 0.023876824559254887 -0.00052540611755346833 0 0.024117862340632634 -0.00056209279195348362 0 0.024326662355454973 -0.00037114263604359559 0 0.023876824559254887 -0.00052540611755346833 0 0.023871324973692598 -0.00041183104020956867 0 0.024287337236043708 -0.00027828517344703454 0 0.02402927443026533 -0.00061221056972805485 0 0.02402927443026533 -0.00061221056972805485 0 0.023786965874992093 -0.00062845113754355655 0 0.023904280977989141 -0.00075327401954609766 0 0.023871324973692598 -0.00041183104020956867 0 0.02402927443026533 -0.00061221056972805485 0 0.023786965874992093 -0.00062845113754355655 0 0.023871324973692598 -0.00041183104020956867 0 0.023520840573902725 -0.00060624098005976085 0 0.023786965874992093 -0.00062845113754355655 0 0.023653324983803889 -0.00080935793828298182 0 0.023904280977989141 -0.00075327401954609766 0 0.023887367946829097 -0.0010181076717023512 0 0.023786965874992093 -0.00062845113754355655 0 0.023653324983803889 -0.00080935793828298182 0 0.023904280977989141 -0.00075327401954609766 0 0.023904280977989141 -0.00075327401954609766 0 0.024032670406619477 -0.00078994371128955068 0 0.023887367946829097 -0.0010181076717023512 0 0.02402927443026533 -0.00061221056972805485 0 0.023904280977989141 -0.00075327401954609766 0 0.024032670406619477 -0.00078994371128955068 0 0.024032670406619477 -0.00078994371128955068 0 0.023887367946829097 -0.0010181076717023512 0 0.024221879872974368 -0.00086647141636441403 0 0.023887367946829097 -0.0010181076717023512 0 0.023526879113973047 -0.0009323182692109038 0 0.023275516250743762 -0.00099374187500015547 0 0.023653324983803889 -0.00080935793828298182 0 0.023887367946829097 -0.0010181076717023512 0 0.023526879113973047 -0.0009323182692109038 0 0.022362778211872918 -0.0011539464238411153 0 0.022776423167756962 -0.00071707987929486058 0 0.023275516250743762 -0.00099374187500015547 0 0.023256586357603158 -0.0011300667171509928 0 0.023245681523662215 -0.00098638391545762157 0 0.022362778211872918 -0.0011539464238411153 0 0.022776423167756962 -0.00071707987929486058 0 0.022293352291577483 -0.00071800745010458294 0 0.022362778211872918 -0.0011539464238411153 0 0.022293352291577483 -0.00071800745010458294 0 0.022008739292727269 -0.00094466217156932892 0 0.022477082242780812 -0.00045178714220861526 0 0.021990693712283925 -0.00043868143157493655 0 0.021538966442483529 -8.6412081276703059e-05 0 0.020585335812812324 -3.4340761202751087e-05 0 0.020992689335276184 -6.5749859247614381e-05 0 0.021708915748637057 -5.9515154758319165e-05 0 0.021538966442483529 -8.6412081276703059e-05 0 0.020992689335276184 -6.5749859247614381e-05 0 0.023653324983803889 -0.00080935793828298182 0 0.023526879113973047 -0.0009323182692109038 0 0.023386225021107553 -0.00092426021740098566 0 0.023526879113973047 -0.0009323182692109038 0 0.023386225021107553 -0.00092426021740098566 0 0.023275516250743762 -0.00099374187500015547 0 0.023386225021107553 -0.00092426021740098566 0 0.023275516250743762 -0.00099374187500015547 0 0.023401237668902796 -0.00090710151555743171 0 0.022776423167756962 -0.00071707987929486058 0 0.023275516250743762 -0.00099374187500015547 0 0.023198480168989871 -0.00066026505953909408 0 0.023275516250743762 -0.00099374187500015547 0 0.023401237668902796 -0.00090710151555743171 0 0.023198480168989871 -0.00066026505953909408 0 0.020585335812812324 -3.4340761202751087e-05 0 0.020488016390783875 -3.5691248951202034e-05 0 0.020992689335276184 -6.5749859247614381e-05 0 0.020585335812812324 -3.4340761202751087e-05 0 0.020488016390783875 -3.5691248951202034e-05 0 0.020051942522692847 1.39805276949173e-05 0 0.022653835035186327 1.8097988740063635e-07 0 0.019502747450972469 -4.7232719611003894e-07 0 0.021094467311242288 2.272316299523208e-05 0 0.020488016390783875 -3.5691248951202034e-05 0 0.020992689335276184 -6.5749859247614381e-05 0 0.020749455822324046 -8.2529296970728833e-05 0 0.020488016390783875 -3.5691248951202034e-05 0 0.020749455822324046 -8.2529296970728833e-05 0 0.020015670977082969 -3.079646586913781e-05 0 0.020992689335276184 -6.5749859247614381e-05 0 0.020749455822324046 -8.2529296970728833e-05 0 0.021398268538027169 -3.7041099925705765e-05 0 0.021708915748637057 -5.9515154758319165e-05 0 0.020992689335276184 -6.5749859247614381e-05 0 0.021398268538027169 -3.7041099925705765e-05 0 0.020749455822324046 -8.2529296970728833e-05 0 0.020535609394613408 1.3845184434807623e-05 0 0.021371179338380755 2.3322857796088617e-05 0 0.020749455822324046 -8.2529296970728833e-05 0 0.020199096968029132 -0.0001570349717991612 0 0.020535609394613408 1.3845184434807623e-05 0 0.020749455822324046 -8.2529296970728833e-05 0 0.020199096968029132 -0.0001570349717991612 0 0.020015670977082969 -3.079646586913781e-05 0 0.020199096968029132 -0.0001570349717991612 0 0.019502747450972469 -4.7232719611003894e-07 0 0.019894022693836159 -0.00018097826848509612 0 0.020199096968029132 -0.0001570349717991612 0 0.019502747450972469 -4.7232719611003894e-07 0 0.020535609394613408 1.3845184434807623e-05 0 0.019498919671925369 1.8527615091176488e-07 0 0.018806466518374212 -2.3111770735392845e-05 0 0.019502747450972469 -4.7232719611003894e-07 0 0.020535609394613408 1.3845184434807623e-05 0 0.021094467311242288 2.272316299523208e-05 0 0.020535609394613408 1.3845184434807623e-05 0 0.021094467311242288 2.272316299523208e-05 0 0.021371179338380755 2.3322857796088617e-05 0 0.022293362328973727 0.00012235748942468635 0 0.021301102733152354 2.3919369026062681e-05 0 0.022128827135274764 0.00011648767478968184 0 0.021094467311242288 2.272316299523208e-05 0 0.021371179338380755 2.3322857796088617e-05 0 0.022079710082936722 0.00020905978373178256 0 0.022128827135274764 0.00011648767478968184 0 0.021094467311242288 2.272316299523208e-05 0 0.022526972014285176 9.9531917182749826e-05 0 0.022128827135274764 0.00011648767478968184 0 0.022071192624412209 1.9703744705594135e-05 0 0.022128827135274764 0.00011648767478968184 0 0.022071192624412209 1.9703744705594135e-05 0 0.021371179338380755 2.3322857796088617e-05 0 0.021708915748637057 -5.9515154758319165e-05 0 0.022071192624412209 1.9703744705594135e-05 0 0.021398268538027169 -3.7041099925705765e-05 0 0.020749455822324046 -8.2529296970728833e-05 0 0.021398268538027169 -3.7041099925705765e-05 0 0.021371179338380755 2.3322857796088617e-05 0 0.022071192624412209 1.9703744705594135e-05 0 0.021398268538027169 -3.7041099925705765e-05 0 0.021371179338380755 2.3322857796088617e-05 0 0.021627992442827169 -0.00020777368784249671 0 0.021707613359965256 -0.00022742937157383726 0 0.021919426557274524 -0.00011651138384051957 0 0.02175722044224453 -0.00034077006478296562 0 0.021707613359965256 -0.00022742937157383726 0 0.021919426557274524 -0.00011651138384051957 0 0.022763395576900516 -0.00022347588952816998 0 0.023115217730912116 0.00022128771609987663 0 0.023256054693791276 -0.00025743548569346118 0 0.021845638004649698 -0.00029991754044663696 0 0.023335912871954856 0.00018739568415958592 0 0.021693211214721366 -0.0002776197400275753 0 0.021651873101861861 -0.00025887435219348003 0 0.021707613359965256 -0.00022742937157383726 0 0.021693211214721366 -0.0002776197400275753 0 0.021651873101861861 -0.00025887435219348003 0 0.021622253321492854 -0.00028396600629136069 0 0.021610082206215585 -0.00026726067295914513 0 0.021588504796570238 -0.00028660966977650575 0 0.021622253321492854 -0.00028396600629136069 0 0.021651873101861861 -0.00025887435219348003 0 0.021610082206215585 -0.00026726067295914513 0 0.021622253321492854 -0.00028396600629136069 0 0.021651873101861861 -0.00025887435219348003 0 0.021610082206215585 -0.00026726067295914513 0 0.021627992442827169 -0.00020777368784249671 0 0.021845638004649698 -0.00029991754044663696 0 0.021754933162083462 -0.00022844114152636508 0 0.021651873101861861 -0.00025887435219348003 0 0.021627992442827169 -0.00020777368784249671 0 0.021707613359965256 -0.00022742937157383726 0 0.02493296565798921 6.7496107897390775e-05 0 0.024938386011661869 3.9360075632580252e-05 0 0.024963143377254693 5.0161636996262727e-05 0 0.02493296565798921 6.7496107897390775e-05 0 0.024938386011661869 3.9360075632580252e-05 0 0.024881564027821351 6.696637882798467e-05 0 0.024938386011661869 3.9360075632580252e-05 0 0.024881564027821351 6.696637882798467e-05 0 0.024899485918204008 3.5852023557604965e-05 0 0.023287449277507196 -8.3806908676385943e-05 0 0.023335912871954856 0.00018739568415958592 0 0.024881564027821351 6.696637882798467e-05 0 0.024899485918204008 3.5852023557604965e-05 0 0.024855928925625617 3.4902336331687292e-05 0 0.025040511226753461 -2.5961664960339149e-05 0 0.024444306036059581 0.00016074975448698985 0 0.024899485918204008 3.5852023557604965e-05 0 0.024919491875394481 4.0863715773130143e-06 0 0.024855928925625617 3.4902336331687292e-05 0 0.024938386011661869 3.9360075632580252e-05 0 0.024899485918204008 3.5852023557604965e-05 0 0.024919491875394481 4.0863715773130143e-06 0 0.024999946940729743 -7.7364629023481152e-09 0 0.025003316917987524 1.5936167187263614e-05 0 0.024951057836306006 3.2982382129090635e-05 0 0.024999946940729743 -7.7364629023481152e-09 0 0.025003316917987524 1.5936167187263614e-05 0 0.025000041420364303 1.0238448542082883e-08 0 0.025040511226753461 -2.5961664960339149e-05 0 0.024999879893649282 7.4397634906648699e-08 0 0.024919491875394481 4.0863715773130143e-06 0 0.024999875249064402 -3.478704950003267e-08 0 0.024969475090770809 1.4996916257873715e-05 0 0.024938386011661869 3.9360075632580252e-05 0 0.024919491875394481 4.0863715773130143e-06 0 0.024969475090770809 1.4996916257873715e-05 0 0.024938386011661869 3.9360075632580252e-05 0 0.024969475090770809 1.4996916257873715e-05 0 0.024974935218961637 2.7831024203876091e-05 0 0.024974935218961637 2.7831024203876091e-05 0 0.024990315656350758 7.2769523248677084e-06 0 0.024993969831292893 2.0026258150211475e-05 0 0.024969475090770809 1.4996916257873715e-05 0 0.024974935218961637 2.7831024203876091e-05 0 0.024990315656350758 7.2769523248677084e-06 0 0.024999875249064402 -3.478704950003267e-08 0 0.024990315656350758 7.2769523248677084e-06 0 0.025000024977057618 1.5427887068074305e-08 0 0.024999875249064402 -3.478704950003267e-08 0 0.024969475090770809 1.4996916257873715e-05 0 0.024990315656350758 7.2769523248677084e-06 0 0.024990315656350758 7.2769523248677084e-06 0 0.025000024977057618 1.5427887068074305e-08 0 0.024999372113217656 3.5476464475457482e-06 0 0.024990315656350758 7.2769523248677084e-06 0 0.024999372113217656 3.5476464475457482e-06 0 0.024993969831292893 2.0026258150211475e-05 0 0.024999372113217656 3.5476464475457482e-06 0 0.024993969831292893 2.0026258150211475e-05 0 0.025007634021386654 1.3301177635642588e-05 0 0.024993969831292893 2.0026258150211475e-05 0 0.02500994210941309 3.0125665820903464e-05 0 0.025007634021386654 1.3301177635642588e-05 0 0.024974935218961637 2.7831024203876091e-05 0 0.024993969831292893 2.0026258150211475e-05 0 0.024985793460173371 4.3983889519959497e-05 0 0.024993969831292893 2.0026258150211475e-05 0 0.024985793460173371 4.3983889519959497e-05 0 0.02500994210941309 3.0125665820903464e-05 0 0.024985793460173371 4.3983889519959497e-05 0 0.024976819985841253 6.850600892853735e-05 0 0.02500994210941309 3.0125665820903464e-05 0 0.023575339602003212 -0.00022548792696343826 0 0.025177927050717207 -4.0114069014249416e-05 0 0.024985793460173371 4.3983889519959497e-05 0 0.024963143377254693 5.0161636996262727e-05 0 0.02496912833096248 6.6964001420206703e-05 0 0.024938386011661869 3.9360075632580252e-05 0 0.024974935218961637 2.7831024203876091e-05 0 0.024963143377254693 5.0161636996262727e-05 0 0.024974935218961637 2.7831024203876091e-05 0 0.024985793460173371 4.3983889519959497e-05 0 0.024963143377254693 5.0161636996262727e-05 0 0.02493296565798921 6.7496107897390775e-05 0 0.024963143377254693 5.0161636996262727e-05 0 0.02496912833096248 6.6964001420206703e-05 0 0.023287449277507196 -8.3806908676385943e-05 0 0.023313849039431712 -0.00017167444361623771 0 0.021627992442827169 -0.00020777368784249671 0 0.021581086239305158 -0.00028476756342517523 0 0.021568705780956786 -0.00028317883778149872 0 0.021610082206215585 -0.00026726067295914513 0 0.021627992442827169 -0.00020777368784249671 0 0.021581086239305158 -0.00028476756342517523 0 0.021610082206215585 -0.00026726067295914513 0 0.021588504796570238 -0.00028660966977650575 0 0.021581086239305158 -0.00028476756342517523 0 0.021581086239305158 -0.00028476756342517523 0 0.021566905512208554 -0.00030673235876680293 0 0.021568178757781404 -0.00030025269353425605 0 0.021588504796570238 -0.00028660966977650575 0 0.021581086239305158 -0.00028476756342517523 0 0.021568178757781404 -0.00030025269353425605 0 0.021581086239305158 -0.00028476756342517523 0 0.021566905512208554 -0.00030673235876680293 0 0.021564700322944694 -0.00031158199101129252 0 0.021581086239305158 -0.00028476756342517523 0 0.021564700322944694 -0.00031158199101129252 0 0.021568705780956786 -0.00028317883778149872 0 0.024985793460173371 4.3983889519959497e-05 0 0.02496912833096248 6.6964001420206703e-05 0 0.024976819985841253 6.850600892853735e-05 0 0.022922554602619299 7.6130552167772583e-05 0 0.023575339602003212 -0.00022548792696343826 0 0.021564700322944694 -0.00031158199101129252 0 0.021574485566253833 -0.00032646826269226074 0 0.021570845606494998 -0.00034690356028083607 0 0.021564700322944694 -0.00031158199101129252 0 0.021574485566253833 -0.00032646826269226074 0 0.02157253881405646 -0.00031621710891776715 0 0.021566905512208554 -0.00030673235876680293 0 0.021564700322944694 -0.00031158199101129252 0 0.02157253881405646 -0.00031621710891776715 0 0.02157253881405646 -0.00031621710891776715 0 0.021592745376340577 -0.00033660516114306728 0 0.021588307635082685 -0.0003167245302976696 0 0.021574485566253833 -0.00032646826269226074 0 0.02157253881405646 -0.00031621710891776715 0 0.021592745376340577 -0.00033660516114306728 0 0.021592745376340577 -0.00033660516114306728 0 0.021570845606494998 -0.00034690356028083607 0 0.021626762561186865 -0.00035417218914727882 0 0.021574485566253833 -0.00032646826269226074 0 0.021592745376340577 -0.00033660516114306728 0 0.021570845606494998 -0.00034690356028083607 0 0.021564700322944694 -0.00031158199101129252 0 0.021568705780956786 -0.00028317883778149872 0 0.02155638458161252 -0.00029103385192648574 0 0.023313849039431712 -0.00017167444361623771 0 0.023575339602003212 -0.00022548792696343826 0 0.023575339602003212 -0.00022548792696343826 0 0.023236387791555933 -0.000321625867327043 0 0.021570845606494998 -0.00034690356028083607 0 0.021626762561186865 -0.00035417218914727882 0 0.021675540594256807 -0.0004031753452365637 0 0.024988550441796525 -0.00018340426083322605 0 0.024911936069407042 -0.00020726859238270052 0 0.024896665019513476 -0.00014638999544912311 0 0.024911936069407042 -0.00020726859238270052 0 0.024892395237301381 -0.00021911594914862721 0 0.024896665019513476 -0.00014638999544912311 0 0.021592745376340577 -0.00033660516114306728 0 0.021626762561186865 -0.00035417218914727882 0 0.021616116977339773 -0.00032700202539996692 0 0.021626762561186865 -0.00035417218914727882 0 0.021675540594256807 -0.0004031753452365637 0 0.021719238758847476 -0.00042592935882127978 0 0.023236387791555933 -0.000321625867327043 0 0.023327346785943139 -0.00032066671860012428 0 0.023327346785943139 -0.00032066671860012428 0 0.023354854775623268 -0.00036601162911525226 0 0.024892395237301381 -0.00021911594914862721 0 0.024834803770787062 -0.00019196741784370926 0 0.024767887143608291 -0.00032054546156929129 0 0.024892395237301381 -0.00021911594914862721 0 0.024834803770787062 -0.00019196741784370926 0 0.024896665019513476 -0.00014638999544912311 0 0.024896665019513476 -0.00014638999544912311 0 0.024863679929291414 -4.3265343406494965e-05 0 0.024818489138865366 -0.00010681405243754027 0 0.024834803770787062 -0.00019196741784370926 0 0.024896665019513476 -0.00014638999544912311 0 0.024818489138865366 -0.00010681405243754027 0 0.024896665019513476 -0.00014638999544912311 0 0.024938938163777697 -6.1753082255119955e-05 0 0.024863679929291414 -4.3265343406494965e-05 0 0.024988550441796525 -0.00018340426083322605 0 0.024896665019513476 -0.00014638999544912311 0 0.024938938163777697 -6.1753082255119955e-05 0 0.02500994210941309 3.0125665820903464e-05 0 0.025007634021386654 1.3301177635642588e-05 0 0.0250270315781226 -2.0595293735586816e-07 0 0.024938938163777697 -6.1753082255119955e-05 0 0.024864051121432789 3.649739643359871e-05 0 0.024863679929291414 -4.3265343406494965e-05 0 0.025177927050717207 -4.0114069014249416e-05 0 0.024948854787480282 3.0719356988862308e-05 0 0.025000024977057618 1.5427887068074305e-08 0 0.024999372113217656 3.5476464475457482e-06 0 0.025000251227384248 4.1591508757309958e-07 0 0.024999372113217656 3.5476464475457482e-06 0 0.025007634021386654 1.3301177635642588e-05 0 0.0250270315781226 -2.0595293735586816e-07 0 0.025026793611300169 -4.1474955870686138e-06 0 0.024948854787480282 3.0719356988862308e-05 0 0.025000024977057618 1.5427887068074305e-08 0 0.024999989403830972 -6.3000236523089831e-09 0 0.025000251227384248 4.1591508757309958e-07 0 0.024948854787480282 3.0719356988862308e-05 0 0.024898401002122199 1.133415555591872e-05 0 0.024999999020795964 5.7637512102688332e-10 0 0.02499980405199493 1.7417281288892663e-07 0 0.024999920950899465 1.5503089366561332e-08 0 0.024999956142061186 -2.9003906958365741e-09 0 0.024948854787480282 3.0719356988862308e-05 0 0.024864051121432789 3.649739643359871e-05 0 0.024863679929291414 -4.3265343406494965e-05 0 0.024800830266015844 1.036589412013761e-06 0 0.024863679929291414 -4.3265343406494965e-05 0 0.024800830266015844 1.036589412013761e-06 0 0.024818489138865366 -0.00010681405243754027 0 0.024999999020795964 5.7637512102688332e-10 0 0.024999999377830581 -3.4473800231411461e-11 0 0.024999920950899465 1.5503089366561332e-08 0 0.024800830266015844 1.036589412013761e-06 0 0.024791848792191876 2.2481738586820613e-05 0 0.024814194705657641 4.3541719896594677e-05 0 0.024864051121432789 3.649739643359871e-05 0 0.024800830266015844 1.036589412013761e-06 0 0.024791848792191876 2.2481738586820613e-05 0 0.024998969374043205 1.3931644640765203e-07 0 0.024791848792191876 2.2481738586820613e-05 0 0.024814194705657641 4.3541719896594677e-05 0 0.024999999918134497 -8.8383819023672588e-11 0 0.024999999377830581 -3.4473800231411461e-11 0 0.024999920950899465 1.5503089366561332e-08 0 0.024999971328928009 2.7225884368081911e-09 0 0.024898401002122199 1.133415555591872e-05 0 0.024800830266015844 1.036589412013761e-06 0 0.024691164034383855 1.1271442367222302e-06 0 0.02472397331796521 -9.9536907388812543e-05 0 0.024740104174064449 5.3435242829573621e-05 0 0.024814194705657641 4.3541719896594677e-05 0 0.024691164034383855 1.1271442367222302e-06 0 0.024800830266015844 1.036589412013761e-06 0 0.024814194705657641 4.3541719896594677e-05 0 0.024691164034383855 1.1271442367222302e-06 0 0.024521552199382613 -0.00010969709728072624 0 0.02472397331796521 -9.9536907388812543e-05 0 0.024620362076257524 -0.00024031184060525047 0 0.024521552199382613 -0.00010969709728072624 0 0.024691164034383855 1.1271442367222302e-06 0 0.02472397331796521 -9.9536907388812543e-05 0 0.02472397331796521 -9.9536907388812543e-05 0 0.024818489138865366 -0.00010681405243754027 0 0.02476357627953259 -0.00018628523403347325 0 0.024800830266015844 1.036589412013761e-06 0 0.02472397331796521 -9.9536907388812543e-05 0 0.024818489138865366 -0.00010681405243754027 0 0.024834803770787062 -0.00019196741784370926 0 0.024818489138865366 -0.00010681405243754027 0 0.02476357627953259 -0.00018628523403347325 0 0.024834803770787062 -0.00019196741784370926 0 0.02476357627953259 -0.00018628523403347325 0 0.024767887143608291 -0.00032054546156929129 0 0.02476357627953259 -0.00018628523403347325 0 0.024620362076257524 -0.00024031184060525047 0 0.024767887143608291 -0.00032054546156929129 0 0.02472397331796521 -9.9536907388812543e-05 0 0.02476357627953259 -0.00018628523403347325 0 0.024620362076257524 -0.00024031184060525047 0 0.023876824559254887 -0.00052540611755346833 0 0.023354854775623268 -0.00036601162911525226 0 0.024464374601715265 -0.00047165069978054113 0 0.024620362076257524 -0.00024031184060525047 0 0.024767887143608291 -0.00032054546156929129 0 0.022546018107603243 -0.00034447252590642509 0 0.022103949819722801 -0.00042332605885375094 0 0.022206508605449014 -0.00018009169872240357 0 0.022103949819722801 -0.00042332605885375094 0 0.022206508605449014 -0.00018009169872240357 0 0.021924217463978029 -4.9246264076405636e-05 0 0.022206508605449014 -0.00018009169872240357 0 0.022264935204922766 9.4646706470129496e-05 0 0.021924217463978029 -4.9246264076405636e-05 0 0.022406660663363585 -0.00050607573040711775 0 0.021676075147330814 -0.00013847980903198301 0 0.023876824559254887 -0.00052540611755346833 0 0.022406660663363585 -0.00050607573040711775 0 0.024079581641724811 -0.00059719858054836194 0 0.024032670406619477 -0.00078994371128955068 0 0.024221879872974368 -0.00086647141636441403 0 0.022546018107603243 -0.00034447252590642509 0 0.022206508605449014 -0.00018009169872240357 0 0.022264935204922766 9.4646706470129496e-05 0 0.021563322192878952 -0.00024906992652376752 0 0.021551139757221938 -0.00025525698671810326 0 0.021566293703588285 -0.00024370619062961745 0 0.022362778211872918 -0.0011539464238411153 0 0.02184726301330988 -0.0012524741707720614 0 0.022008739292727269 -0.00094466217156932892 0 0.023256586357603158 -0.0011300667171509928 0 0.022406660663363585 -0.00050607573040711775 0 0.022293352291577483 -0.00071800745010458294 0 0.022008739292727269 -0.00094466217156932892 0 0.022001093700265689 -0.00058441045356308406 0 0.022008739292727269 -0.00094466217156932892 0 0.021615051496183976 -0.00073422011463937476 0 0.022001093700265689 -0.00058441045356308406 0 0.02184726301330988 -0.0012524741707720614 0 0.022008739292727269 -0.00094466217156932892 0 0.021615051496183976 -0.00073422011463937476 0 0.022406660663363585 -0.00050607573040711775 0 0.021485795314727024 -0.00051804471213575721 0 0.021551139757221938 -0.00025525698671810326 0 0.021556787785132137 -0.00025071852317532796 0 0.021566293703588285 -0.00024370619062961745 0 0.021556787785132137 -0.00025071852317532796 0 0.021577717284999996 -0.0002480064476226566 0 0.021566293703588285 -0.00024370619062961745 0 0.021556787785132137 -0.00025071852317532796 0 0.021551847108413506 -0.00024555834564452954 0 0.021539360160401855 -0.00025077593830597958 0 0.021556787785132137 -0.00025071852317532796 0 0.021551847108413506 -0.00024555834564452954 0 0.021577717284999996 -0.0002480064476226566 0 0.021551847108413506 -0.00024555834564452954 0 0.021577717284999996 -0.0002480064476226566 0 0.021568156108260426 -0.00025164833203416957 0 0.021618674561676359 -0.00023183681259370318 0 0.021587362403850178 -0.00028053129237518189 0 0.021568156108260426 -0.00025164833203416957 0 0.021577717284999996 -0.0002480064476226566 0 0.021618674561676359 -0.00023183681259370318 0 0.021568156108260426 -0.00025164833203416957 0 0.021577717284999996 -0.0002480064476226566 0 0.021618674561676359 -0.00023183681259370318 0 0.021566293703588285 -0.00024370619062961745 0 0.021618674561676359 -0.00023183681259370318 0 0.021924217463978029 -4.9246264076405636e-05 0 0.021836579583380818 -0.00028608817560446965 0 0.021653307861319627 -0.00021395109296895148 0 0.021676075147330814 -0.00013847980903198301 0 0.022103949819722801 -0.00042332605885375094 0 0.021924217463978029 -4.9246264076405636e-05 0 0.021836579583380818 -0.00028608817560446965 0 0.021719238758847476 -0.00042592935882127978 0 0.022103949819722801 -0.00042332605885375094 0 0.021836579583380818 -0.00028608817560446965 0 0.021719238758847476 -0.00042592935882127978 0 0.021836579583380818 -0.00028608817560446965 0 0.021664609668669389 -0.00032041762132651691 0 0.021626762561186865 -0.00035417218914727882 0 0.021719238758847476 -0.00042592935882127978 0 0.021664609668669389 -0.00032041762132651691 0 0.021664609668669389 -0.00032041762132651691 0 0.021616116977339773 -0.00032700202539996692 0 0.021587362403850178 -0.00028053129237518189 0 0.021626762561186865 -0.00035417218914727882 0 0.021664609668669389 -0.00032041762132651691 0 0.021616116977339773 -0.00032700202539996692 0 0.021618674561676359 -0.00023183681259370318 0 0.021664609668669389 -0.00032041762132651691 0 0.021587362403850178 -0.00028053129237518189 0 0.021618674561676359 -0.00023183681259370318 0 0.021836579583380818 -0.00028608817560446965 0 0.021664609668669389 -0.00032041762132651691 0 0.021563739103293081 -0.00028531017191742245 0 0.021587362403850178 -0.00028053129237518189 0 0.021570132260081427 -0.0003021215364172912 0 0.021587362403850178 -0.00028053129237518189 0 0.021588307635082685 -0.0003167245302976696 0 0.021570132260081427 -0.0003021215364172912 0 0.021616116977339773 -0.00032700202539996692 0 0.021587362403850178 -0.00028053129237518189 0 0.021588307635082685 -0.0003167245302976696 0 0.021592745376340577 -0.00033660516114306728 0 0.021616116977339773 -0.00032700202539996692 0 0.021588307635082685 -0.0003167245302976696 0 0.02157253881405646 -0.00031621710891776715 0 0.021588307635082685 -0.0003167245302976696 0 0.021570132260081427 -0.0003021215364172912 0 0.021566905512208554 -0.00030673235876680293 0 0.021570132260081427 -0.0003021215364172912 0 0.021568178757781404 -0.00030025269353425605 0 0.021563739103293081 -0.00028531017191742245 0 0.021570132260081427 -0.0003021215364172912 0 0.021568178757781404 -0.00030025269353425605 0 0.021566905512208554 -0.00030673235876680293 0 0.02157253881405646 -0.00031621710891776715 0 0.021570132260081427 -0.0003021215364172912 0 0.021568178757781404 -0.00030025269353425605 0 0.021575063880030373 -0.00029597913036914271 0 0.021562517072587536 -0.00029323525227766808 0 0.021588504796570238 -0.00028660966977650575 0 0.021568178757781404 -0.00030025269353425605 0 0.021575063880030373 -0.00029597913036914271 0 0.021588504796570238 -0.00028660966977650575 0 0.021575063880030373 -0.00029597913036914271 0 0.02158952179217296 -0.00029577309018191672 0 0.021575063880030373 -0.00029597913036914271 0 0.02158952179217296 -0.00029577309018191672 0 0.021570807948797354 -0.00029773903422191744 0 0.021575063880030373 -0.00029597913036914271 0 0.021570807948797354 -0.00029773903422191744 0 0.021562517072587536 -0.00029323525227766808 0 0.021563739103293081 -0.00028531017191742245 0 0.021568178757781404 -0.00030025269353425605 0 0.021562517072587536 -0.00029323525227766808 0 0.021570807948797354 -0.00029773903422191744 0 0.021562517072587536 -0.00029323525227766808 0 0.021523379249059751 -0.00026097340413188931 0 0.021563739103293081 -0.00028531017191742245 0 0.021562517072587536 -0.00029323525227766808 0 0.021523379249059751 -0.00026097340413188931 0 0.021570807948797354 -0.00029773903422191744 0 0.021523379249059751 -0.00026097340413188931 0 0.021591621309692235 -0.0003097216828765962 0 0.021538057702996594 -0.00025574039715784466 0 0.021528784870814065 -0.00028118537838116943 0 0.021563739103293081 -0.00028531017191742245 0 0.021587362403850178 -0.00028053129237518189 0 0.021568156108260426 -0.00025164833203416957 0 0.021563739103293081 -0.00028531017191742245 0 0.021523379249059751 -0.00026097340413188931 0 0.021568156108260426 -0.00025164833203416957 0 0.021523379249059751 -0.00026097340413188931 0 0.021568156108260426 -0.00025164833203416957 0 0.021522027809228017 -0.00024380998252952201 0 0.021551847108413506 -0.00024555834564452954 0 0.021568156108260426 -0.00025164833203416957 0 0.021522027809228017 -0.00024380998252952201 0 0.021551847108413506 -0.00024555834564452954 0 0.021526597725714122 -0.00023778592367127205 0 0.021539360160401855 -0.00025077593830597958 0 0.021551847108413506 -0.00024555834564452954 0 0.021526597725714122 -0.00023778592367127205 0 0.021522027809228017 -0.00024380998252952201 0 0.021526597725714122 -0.00023778592367127205 0 0.021473189104331374 -0.00021566568337086719 0 0.021522027809228017 -0.00024380998252952201 0 0.021473189104331374 -0.00021566568337086719 0 0.021522027809228017 -0.00024380998252952201 0 0.021458696390719772 -0.00023648749108205194 0 0.021523379249059751 -0.00026097340413188931 0 0.021522027809228017 -0.00024380998252952201 0 0.021458696390719772 -0.00023648749108205194 0 0.021523379249059751 -0.00026097340413188931 0 0.021467974304182146 -0.00022750445862213363 0 0.021458696390719772 -0.00023648749108205194 0 0.021467974304182146 -0.00022750445862213363 0 0.021458696390719772 -0.00023648749108205194 0 0.021433292215033175 -0.00022580101117695783 0 0.021458696390719772 -0.00023648749108205194 0 0.021433292215033175 -0.00022580101117695783 0 0.021371383754585305 -0.00022521407223204278 0 0.021473189104331374 -0.00021566568337086719 0 0.021458696390719772 -0.00023648749108205194 0 0.0214075829473616 -0.00020223382476936022 0 0.021458696390719772 -0.00023648749108205194 0 0.021371383754585305 -0.00022521407223204278 0 0.0214075829473616 -0.00020223382476936022 0 0.02146088694609494 -0.00023342461202249451 0 0.021533306391929127 -0.00023223314211571133 0 0.021520073405682003 -0.00030596366220538913 0 0.021371383754585305 -0.00022521407223204278 0 0.02146088694609494 -0.00023342461202249451 0 0.021520073405682003 -0.00030596366220538913 0 0.021433292215033175 -0.00022580101117695783 0 0.021371383754585305 -0.00022521407223204278 0 0.02146088694609494 -0.00023342461202249451 0 0.021433292215033175 -0.00022580101117695783 0 0.02146088694609494 -0.00023342461202249451 0 0.021477079567761938 -0.00021552514544013584 0 0.02146088694609494 -0.00023342461202249451 0 0.021533306391929127 -0.00023223314211571133 0 0.021477079567761938 -0.00021552514544013584 0 0.021467974304182146 -0.00022750445862213363 0 0.021484748193313061 -0.00022867977282794389 0 0.021501088851032382 -0.00019436793464264686 0 0.021467974304182146 -0.00022750445862213363 0 0.021477079567761938 -0.00021552514544013584 0 0.021501088851032382 -0.00019436793464264686 0 0.021533306391929127 -0.00023223314211571133 0 0.021477079567761938 -0.00021552514544013584 0 0.021501088851032382 -0.00019436793464264686 0 0.021467974304182146 -0.00022750445862213363 0 0.021433292215033175 -0.00022580101117695783 0 0.021477079567761938 -0.00021552514544013584 0 0.021484748193313061 -0.00022867977282794389 0 0.021481434057193417 -0.00024165535408614324 0 0.021501088851032382 -0.00019436793464264686 0 0.021484748193313061 -0.00022867977282794389 0 0.021497892564786344 -0.00025012308402288001 0 0.021481434057193417 -0.00024165535408614324 0 0.022148532870145864 -0.00031508990628825175 0 0.021896936651076095 -0.00022323433761725278 0 0.021523379249059751 -0.00026097340413188931 0 0.021467974304182146 -0.00022750445862213363 0 0.021494053045337622 -0.00024620839098256884 0 0.021467974304182146 -0.00022750445862213363 0 0.021484748193313061 -0.00022867977282794389 0 0.021494053045337622 -0.00024620839098256884 0 0.021523379249059751 -0.00026097340413188931 0 0.021494053045337622 -0.00024620839098256884 0 0.021495286905060043 -0.00025005500068945447 0 0.021494053045337622 -0.00024620839098256884 0 0.021497892564786344 -0.00025012308402288001 0 0.021495286905060043 -0.00025005500068945447 0 0.021484748193313061 -0.00022867977282794389 0 0.021494053045337622 -0.00024620839098256884 0 0.021497892564786344 -0.00025012308402288001 0 0.021506623827849847 -0.00024259623024404568 0 0.021495286905060043 -0.00025005500068945447 0 0.021515606817568346 -0.00023191202392388509 0 0.021845638004649698 -0.00029991754044663696 0 0.021528784870814065 -0.00028118537838116943 0 0.021524985664919706 -0.00020478719313366935 0 0.021495286905060043 -0.00025005500068945447 0 0.021515606817568346 -0.00023191202392388509 0 0.021693211214721366 -0.0002776197400275753 0 0.021591621309692235 -0.0003097216828765962 0 0.021622253321492854 -0.00028396600629136069 0 0.021497892564786344 -0.00025012308402288001 0 0.021506623827849847 -0.00024259623024404568 0 0.021546728216362786 -0.00025164549649140278 0 0.021497892564786344 -0.00025012308402288001 0 0.021506623827849847 -0.00024259623024404568 0 0.021495286905060043 -0.00025005500068945447 0 0.02158952179217296 -0.00029577309018191672 0 0.021570807948797354 -0.00029773903422191744 0 0.021591621309692235 -0.0003097216828765962 0 0.02158952179217296 -0.00029577309018191672 0 0.021591621309692235 -0.0003097216828765962 0 0.021622253321492854 -0.00028396600629136069 0 0.021588504796570238 -0.00028660966977650575 0 0.02158952179217296 -0.00029577309018191672 0 0.021622253321492854 -0.00028396600629136069 0 0.021845638004649698 -0.00029991754044663696 0 0.022148532870145864 -0.00031508990628825175 0 0.021315416926143829 -0.0002846395262295152 0 0.022148532870145864 -0.00031508990628825175 0 0.021524985664919706 -0.00020478719313366935 0 0.021515606817568346 -0.00023191202392388509 0 0.021546728216362786 -0.00025164549649140278 0 0.022763395576900516 -0.00022347588952816998 0 0.022965153644384666 -0.00070440470275057252 0 0.023256054693791276 -0.00025743548569346118 0 0.021506623827849847 -0.00024259623024404568 0 0.021515606817568346 -0.00023191202392388509 0 0.021546728216362786 -0.00025164549649140278 0 0.020895855358716145 -0.00070530764418250949 0 0.020792475302467608 -0.00099914299621768838 0 0.021023218736093585 -0.0009686402676894806 0 0.020585249635082029 -0.00079546376843579161 0 0.020895855358716145 -0.00070530764418250949 0 0.020792475302467608 -0.00099914299621768838 0 0.020585249635082029 -0.00079546376843579161 0 0.020478644828413602 -0.00056943814124253407 0 0.020895855358716145 -0.00070530764418250949 0 0.020585249635082029 -0.00079546376843579161 0 0.020278275536274044 -0.00063203594847974275 0 0.020504701275161893 -0.001066664502896382 0 0.020585249635082029 -0.00079546376843579161 0 0.020478644828413602 -0.00056943814124253407 0 0.020278275536274044 -0.00063203594847974275 0 0.020585249635082029 -0.00079546376843579161 0 0.020504701275161893 -0.001066664502896382 0 0.020792475302467608 -0.00099914299621768838 0 0.020271546369212804 -0.00064676877391437783 0 0.020343892036656742 -0.00081499797507089244 0 0.021013837610073322 -0.00073117833720252228 0 0.021309032233614064 -0.00045814347198098402 0 0.021084678518722314 -0.00036595471456739759 0 0.021013837610073322 -0.00073117833720252228 0 0.021084678518722314 -0.00036595471456739759 0 0.020769962201796371 -0.00046933709324666853 0 0.021013837610073322 -0.00073117833720252228 0 0.021464822905617624 -0.00079511665569739092 0 0.021309032233614064 -0.00045814347198098402 0 0.021464822905617624 -0.00079511665569739092 0 0.021309032233614064 -0.00045814347198098402 0 0.021638346116036669 -0.0005310417452609865 0 0.02074111330201182 -0.00064660304247825956 0 0.021165488864359681 -0.00074254670294700384 0 0.021309032233614064 -0.00045814347198098402 0 0.021357414852617811 -0.00019084949180618149 0 0.021638346116036669 -0.0005310417452609865 0 0.021309032233614064 -0.00045814347198098402 0 0.021264300624466353 -0.0002496198158859986 0 0.021084678518722314 -0.00036595471456739759 0 0.021309032233614064 -0.00045814347198098402 0 0.021264300624466353 -0.0002496198158859986 0 0.021357414852617811 -0.00019084949180618149 0 0.021371383754585305 -0.00022521407223204278 0 0.021357414852617811 -0.00019084949180618149 0 0.021309844503740155 -0.00015732162690909409 0 0.021372524885523145 -0.00024167225798637433 0 0.021426689082089872 -0.00035181493264478035 0 0.021371383754585305 -0.00022521407223204278 0 0.021482117105924486 -0.00051138368376471631 0 0.021520073405682003 -0.00030596366220538913 0 0.021482117105924486 -0.00051138368376471631 0 0.021520073405682003 -0.00030596366220538913 0 0.021668870919184475 -0.00043585632842576421 0 0.021264300624466353 -0.0002496198158859986 0 0.021357414852617811 -0.00019084949180618149 0 0.021309844503740155 -0.00015732162690909409 0 0.021309844503740155 -0.00015732162690909409 0 0.021465116493168745 -9.1602416497147475e-05 0 0.021437608727782408 -0.00015434760879853247 0 0.0214075829473616 -0.00020223382476936022 0 0.021309844503740155 -0.00015732162690909409 0 0.021437608727782408 -0.00015434760879853247 0 0.021371383754585305 -0.00022521407223204278 0 0.0214075829473616 -0.00020223382476936022 0 0.021309844503740155 -0.00015732162690909409 0 0.021264300624466353 -0.0002496198158859986 0 0.021309844503740155 -0.00015732162690909409 0 0.021084678518722314 -0.00036595471456739759 0 0.021309844503740155 -0.00015732162690909409 0 0.021084678518722314 -0.00036595471456739759 0 0.020655970423455603 -0.00026909953154797021 0 0.021260713680726809 -0.00015503581437483887 0 0.021054051892593659 -0.0002012047502783121 0 0.021084678518722314 -0.00036595471456739759 0 0.020655970423455603 -0.00026909953154797021 0 0.020769962201796371 -0.00046933709324666853 0 0.021465116493168745 -9.1602416497147475e-05 0 0.021437608727782408 -0.00015434760879853247 0 0.021542822521863153 -0.0001339909292581003 0 0.020655970423455603 -0.00026909953154797021 0 0.02030974860893971 -0.00052883008262194205 0 0.020769962201796371 -0.00046933709324666853 0 0.021473189104331374 -0.00021566568337086719 0 0.021437608727782408 -0.00015434760879853247 0 0.021542822521863153 -0.0001339909292581003 0 0.021476163450998474 -0.00021875714638880549 0 0.021528905753745883 -0.00018746300888069565 0 0.021473189104331374 -0.00021566568337086719 0 0.0214075829473616 -0.00020223382476936022 0 0.021437608727782408 -0.00015434760879853247 0 0.021526597725714122 -0.00023778592367127205 0 0.02152451890164455 -0.00024119251242169299 0 0.021539360160401855 -0.00025077593830597958 0 0.021526597725714122 -0.00023778592367127205 0 0.021473189104331374 -0.00021566568337086719 0 0.02152451890164455 -0.00024119251242169299 0 0.021465116493168745 -9.1602416497147475e-05 0 0.021542822521863153 -0.0001339909292581003 0 0.021523792968853261 -9.104115563245435e-05 0 0.021465116493168745 -9.1602416497147475e-05 0 0.021523792968853261 -9.104115563245435e-05 0 0.021531060923297981 -5.5771085525972411e-05 0 0.021542822521863153 -0.0001339909292581003 0 0.021523792968853261 -9.104115563245435e-05 0 0.021556409384485904 -8.4649174517481977e-05 0 0.021523792968853261 -9.104115563245435e-05 0 0.021556409384485904 -8.4649174517481977e-05 0 0.021531060923297981 -5.5771085525972411e-05 0 0.021556409384485904 -8.4649174517481977e-05 0 0.021531060923297981 -5.5771085525972411e-05 0 0.02158732293819041 -5.3330610882383862e-05 0 0.020114926478349109 -0.0005482335403689002 0 0.02030974860893971 -0.00052883008262194205 0 0.020208941265192536 -0.0006057412219766516 0 0.021013837610073322 -0.00073117833720252228 0 0.02030974860893971 -0.00052883008262194205 0 0.020769962201796371 -0.00046933709324666853 0 0.02074111330201182 -0.00064660304247825956 0 0.020344835991060111 -0.00054268566182729761 0 0.020655970423455603 -0.00026909953154797021 0 0.020114926478349109 -0.0005482335403689002 0 0.02030974860893971 -0.00052883008262194205 0 0.021054051892593659 -0.0002012047502783121 0 0.020837077491480664 -0.00029535251326628708 0 0.020478644828413602 -0.00056943814124253407 0 0.02030974860893971 -0.00052883008262194205 0 0.020278275536274044 -0.00063203594847974275 0 0.02030974860893971 -0.00052883008262194205 0 0.020208941265192536 -0.0006057412219766516 0 0.020278275536274044 -0.00063203594847974275 0 0.020278275536274044 -0.00063203594847974275 0 0.020186725065225671 -0.00061422269467845125 0 0.020160235617648563 -0.00058568928515616465 0 0.020208941265192536 -0.0006057412219766516 0 0.020278275536274044 -0.00063203594847974275 0 0.020186725065225671 -0.00061422269467845125 0 0.020208941265192536 -0.0006057412219766516 0 0.020186725065225671 -0.00061422269467845125 0 0.020118288620283468 -0.00060506111177100006 0 0.020114926478349109 -0.0005482335403689002 0 0.020118288620283468 -0.00060506111177100006 0 0.020007475310471177 -0.00056428544624139039 0 0.020118288620283468 -0.00060506111177100006 0 0.020007475310471177 -0.00056428544624139039 0 0.02003661241093721 -0.00061097553103255304 0 0.020114926478349109 -0.0005482335403689002 0 0.020208941265192536 -0.0006057412219766516 0 0.020118288620283468 -0.00060506111177100006 0 0.021603453668811015 6.7650551428028017e-06 0 0.021650233301702109 -8.0474100032766937e-06 0 0.021626629207333166 -3.5012905853829531e-05 0 0.02167235929770454 1.579570803126689e-05 0 0.021660272924822827 2.8802044072066149e-05 0 0.021681933142669974 7.6643406150100318e-05 0 0.02181128014190049 0.00011791603777762407 0 0.021098110461196879 -0.00025816469193629192 0 0.021732574033892577 4.0605454395679051e-05 0 0.021692247733655315 -3.1027218166091129e-05 0 0.021737226585166348 8.5497909091928348e-05 0 0.020753418877033563 -0.00030138068576258064 0 0.021098110461196879 -0.00025816469193629192 0 0.02167235929770454 1.579570803126689e-05 0 0.021660272924822827 2.8802044072066149e-05 0 0.021650233301702109 -8.0474100032766937e-06 0 0.021603453668811015 6.7650551428028017e-06 0 0.021660272924822827 2.8802044072066149e-05 0 0.021681933142669974 7.6643406150100318e-05 0 0.02167235929770454 1.579570803126689e-05 0 0.021692247733655315 -3.1027218166091129e-05 0 0.021681933142669974 7.6643406150100318e-05 0 0.021732574033892577 4.0605454395679051e-05 0 0.021747257868866731 5.0441255917066849e-05 0 0.021743624298560464 6.219757479380881e-05 0 0.021732574033892577 4.0605454395679051e-05 0 0.021747257868866731 5.0441255917066849e-05 0 0.021742831934946784 2.9781593768665873e-05 0 0.021732574033892577 4.0605454395679051e-05 0 0.021722542931422083 4.208396814249795e-06 0 0.021742831934946784 2.9781593768665873e-05 0 0.021722542931422083 4.208396814249795e-06 0 0.021723010594475709 -2.2941912246228948e-05 0 0.021742831934946784 2.9781593768665873e-05 0 0.021732574033892577 4.0605454395679051e-05 0 0.021722542931422083 4.208396814249795e-06 0 0.021692247733655315 -3.1027218166091129e-05 0 0.021722542931422083 4.208396814249795e-06 0 0.021723010594475709 -2.2941912246228948e-05 0 0.021692247733655315 -3.1027218166091129e-05 0 0.021603453668811015 6.7650551428028017e-06 0 0.021660272924822827 2.8802044072066149e-05 0 0.021650233301702109 -8.0474100032766937e-06 0 0.02167235929770454 1.579570803126689e-05 0 0.021650233301702109 -8.0474100032766937e-06 0 0.021692247733655315 -3.1027218166091129e-05 0 0.021697298338828361 -3.4288706849389453e-05 0 0.021566078394759457 -0.00014871669987754217 0 0.021723010594475709 -2.2941912246228948e-05 0 0.021692247733655315 -3.1027218166091129e-05 0 0.021608603883792727 -8.7518549679560439e-05 0 0.021650233301702109 -8.0474100032766937e-06 0 0.021692247733655315 -3.1027218166091129e-05 0 0.021626629207333166 -3.5012905853829531e-05 0 0.021664703186565236 -4.4775047740703322e-05 0 0.021622103000426111 -0.00016371620469624178 0 0.021511274329842463 -0.00021873158671441303 0 0.021692247733655315 -3.1027218166091129e-05 0 0.021608603883792727 -8.7518549679560439e-05 0 0.021626629207333166 -3.5012905853829531e-05 0 0.021664703186565236 -4.4775047740703322e-05 0 0.021622103000426111 -0.00016371620469624178 0 0.021741786235132277 -0.00011690197238133321 0 0.021622103000426111 -0.00016371620469624178 0 0.021652074902316607 -0.00021730395571572622 0 0.021741786235132277 -0.00011690197238133321 0 0.021622103000426111 -0.00016371620469624178 0 0.02156938221306217 -0.00022230238781222915 0 0.021652074902316607 -0.00021730395571572622 0 0.021622103000426111 -0.00016371620469624178 0 0.021511274329842463 -0.00021873158671441303 0 0.02156938221306217 -0.00022230238781222915 0 0.020837077491480664 -0.00029535251326628708 0 0.020753418877033563 -0.00030138068576258064 0 0.021531060923297981 -5.5771085525972411e-05 0 0.021603453668811015 6.7650551428028017e-06 0 0.02158732293819041 -5.3330610882383862e-05 0 0.021608603883792727 -8.7518549679560439e-05 0 0.021626629207333166 -3.5012905853829531e-05 0 0.02158732293819041 -5.3330610882383862e-05 0 0.021603453668811015 6.7650551428028017e-06 0 0.021626629207333166 -3.5012905853829531e-05 0 0.02158732293819041 -5.3330610882383862e-05 0 0.021556409384485904 -8.4649174517481977e-05 0 0.021608603883792727 -8.7518549679560439e-05 0 0.02158732293819041 -5.3330610882383862e-05 0 0.021528905753745883 -0.00018746300888069565 0 0.021566078394759457 -0.00014871669987754217 0 0.02152451890164455 -0.00024119251242169299 0 0.021511274329842463 -0.00021873158671441303 0 0.021526774901733367 -0.00025348357150340502 0 0.021542822521863153 -0.0001339909292581003 0 0.021556409384485904 -8.4649174517481977e-05 0 0.021608603883792727 -8.7518549679560439e-05 0 0.021511274329842463 -0.00021873158671441303 0 0.021526774901733367 -0.00025348357150340502 0 0.021533810280536518 -0.00028261210730575804 0 0.02152451890164455 -0.00024119251242169299 0 0.021526774901733367 -0.00025348357150340502 0 0.021539360160401855 -0.00025077593830597958 0 0.021556787785132137 -0.00025071852317532796 0 0.021539360160401855 -0.00025077593830597958 0 0.021533810280536518 -0.00028261210730575804 0 0.021526774901733367 -0.00025348357150340502 0 0.021539360160401855 -0.00025077593830597958 0 0.021533810280536518 -0.00028261210730575804 0 0.021551139757221938 -0.00025525698671810326 0 0.021556787785132137 -0.00025071852317532796 0 0.021533810280536518 -0.00028261210730575804 0 0.021615051496183976 -0.00073422011463937476 0 0.021533810280536518 -0.00028261210730575804 0 0.021691341192394964 -0.00033911721839079265 0 0.021485795314727024 -0.00051804471213575721 0 0.02156428257835025 -0.00030452971503507699 0 0.021533810280536518 -0.00028261210730575804 0 0.021652074902316607 -0.00021730395571572622 0 0.021691341192394964 -0.00033911721839079265 0 0.021511274329842463 -0.00021873158671441303 0 0.021533810280536518 -0.00028261210730575804 0 0.02156938221306217 -0.00022230238781222915 0 0.021533810280536518 -0.00028261210730575804 0 0.02156938221306217 -0.00022230238781222915 0 0.021652074902316607 -0.00021730395571572622 0 0.021652074902316607 -0.00021730395571572622 0 0.021751613729054216 -0.00019973142154451973 0 0.021691341192394964 -0.00033911721839079265 0 0.021751613729054216 -0.00019973142154451973 0 0.021691341192394964 -0.00033911721839079265 0 0.021851249678976288 -0.00024697076099369081 0 0.021691341192394964 -0.00033911721839079265 0 0.021839966617854405 -0.00042783925523690399 0 0.021851249678976288 -0.00024697076099369081 0 0.021615051496183976 -0.00073422011463937476 0 0.021691341192394964 -0.00033911721839079265 0 0.021839966617854405 -0.00042783925523690399 0 0.021615051496183976 -0.00073422011463937476 0 0.022001093700265689 -0.00058441045356308406 0 0.021839966617854405 -0.00042783925523690399 0 0.022001093700265689 -0.00058441045356308406 0 0.022031921403964524 -0.00028689478046011341 0 0.022173157853528025 -0.00042704163632052255 0 0.022001093700265689 -0.00058441045356308406 0 0.021839966617854405 -0.00042783925523690399 0 0.022031921403964524 -0.00028689478046011341 0 0.022031921403964524 -0.00028689478046011341 0 0.021851249678976288 -0.00024697076099369081 0 0.021961854274890204 -0.00014389257631716276 0 0.021839966617854405 -0.00042783925523690399 0 0.022031921403964524 -0.00028689478046011341 0 0.021851249678976288 -0.00024697076099369081 0 0.021961854274890204 -0.00014389257631716276 0 0.021979256801569317 -6.3328951594817033e-06 0 0.021837351803196701 -4.7857845372590933e-05 0 0.021961854274890204 -0.00014389257631716276 0 0.021833356417717789 -0.00014553930812846602 0 0.021837351803196701 -4.7857845372590933e-05 0 0.021851249678976288 -0.00024697076099369081 0 0.021961854274890204 -0.00014389257631716276 0 0.021833356417717789 -0.00014553930812846602 0 0.021751613729054216 -0.00019973142154451973 0 0.021851249678976288 -0.00024697076099369081 0 0.021833356417717789 -0.00014553930812846602 0 0.021751613729054216 -0.00019973142154451973 0 0.021833356417717789 -0.00014553930812846602 0 0.021741786235132277 -0.00011690197238133321 0 0.021652074902316607 -0.00021730395571572622 0 0.021751613729054216 -0.00019973142154451973 0 0.021741786235132277 -0.00011690197238133321 0 0.021664703186565236 -4.4775047740703322e-05 0 0.021741786235132277 -0.00011690197238133321 0 0.021771581966088645 -3.2332847540290718e-05 0 0.021833356417717789 -0.00014553930812846602 0 0.021741786235132277 -0.00011690197238133321 0 0.021837351803196701 -4.7857845372590933e-05 0 0.021741786235132277 -0.00011690197238133321 0 0.021771581966088645 -3.2332847540290718e-05 0 0.021837351803196701 -4.7857845372590933e-05 0 0.021697298338828361 -3.4288706849389453e-05 0 0.021827849246335379 6.2052052712149229e-05 0 0.021771581966088645 -3.2332847540290718e-05 0 0.021837351803196701 -4.7857845372590933e-05 0 0.02184045514948605 6.717429653966071e-05 0 0.021723010594475709 -2.2941912246228948e-05 0 0.02177053257585964 3.7987945095089449e-05 0 0.02184045514948605 6.717429653966071e-05 0 0.021664703186565236 -4.4775047740703322e-05 0 0.021771581966088645 -3.2332847540290718e-05 0 0.02184045514948605 6.717429653966071e-05 0 0.021723010594475709 -2.2941912246228948e-05 0 0.021742831934946784 2.9781593768665873e-05 0 0.02177053257585964 3.7987945095089449e-05 0 0.02177053257585964 3.7987945095089449e-05 0 0.021762513206400394 5.1579303935622521e-05 0 0.021788599663925243 6.5271308180413893e-05 0 0.021742831934946784 2.9781593768665873e-05 0 0.02177053257585964 3.7987945095089449e-05 0 0.021762513206400394 5.1579303935622521e-05 0 0.021747257868866731 5.0441255917066849e-05 0 0.021742831934946784 2.9781593768665873e-05 0 0.021762513206400394 5.1579303935622521e-05 0 0.021882439410704651 2.3296286198151924e-05 0 0.021979256801569317 -6.3328951594817033e-06 0 0.021842852830663031 0.00010907158670229467 0 0.021882439410704651 2.3296286198151924e-05 0 0.021837351803196701 -4.7857845372590933e-05 0 0.02184045514948605 6.717429653966071e-05 0 0.022059925282347428 -0.00022668436584799613 0 0.022008590347600963 -0.00028623804986725938 0 0.021882439410704651 2.3296286198151924e-05 0 0.021979256801569317 -6.3328951594817033e-06 0 0.021837351803196701 -4.7857845372590933e-05 0 0.02212798596918128 -0.0004450871675061152 0 0.022194501954669193 -0.00069317618630843091 0 0.022094868613395879 -0.00061323534236668443 0 0.022194501954669193 -0.00069317618630843091 0 0.022039218546081624 -0.00074543907158743474 0 0.022094868613395879 -0.00061323534236668443 0 0.022194501954669193 -0.00069317618630843091 0 0.022118024061355941 -0.00081632346086945304 0 0.022039218546081624 -0.00074543907158743474 0 0.021842852830663031 0.00010907158670229467 0 0.02184045514948605 6.717429653966071e-05 0 0.021811226045812766 8.0793450424190253e-05 0 0.021882439410704651 2.3296286198151924e-05 0 0.021842852830663031 0.00010907158670229467 0 0.02184045514948605 6.717429653966071e-05 0 0.02177053257585964 3.7987945095089449e-05 0 0.02184045514948605 6.717429653966071e-05 0 0.021788599663925243 6.5271308180413893e-05 0 0.02184045514948605 6.717429653966071e-05 0 0.021788599663925243 6.5271308180413893e-05 0 0.021811226045812766 8.0793450424190253e-05 0 0.021811226045812766 8.0793450424190253e-05 0 0.021785226600101668 7.8962807560416684e-05 0 0.02178675902622863 9.4346471231565509e-05 0 0.021788599663925243 6.5271308180413893e-05 0 0.021811226045812766 8.0793450424190253e-05 0 0.021785226600101668 7.8962807560416684e-05 0 0.021762513206400394 5.1579303935622521e-05 0 0.021754545385191466 6.7006425047874178e-05 0 0.021770408277521937 7.2064217488287586e-05 0 0.021747257868866731 5.0441255917066849e-05 0 0.021762513206400394 5.1579303935622521e-05 0 0.021754545385191466 6.7006425047874178e-05 0 0.021762513206400394 5.1579303935622521e-05 0 0.021788599663925243 6.5271308180413893e-05 0 0.021770408277521937 7.2064217488287586e-05 0 0.021788599663925243 6.5271308180413893e-05 0 0.021770408277521937 7.2064217488287586e-05 0 0.021785226600101668 7.8962807560416684e-05 0 0.021770408277521937 7.2064217488287586e-05 0 0.021785226600101668 7.8962807560416684e-05 0 0.021771186930314552 8.7050302171488232e-05 0 0.021785226600101668 7.8962807560416684e-05 0 0.02178675902622863 9.4346471231565509e-05 0 0.021771186930314552 8.7050302171488232e-05 0 0.021770408277521937 7.2064217488287586e-05 0 0.021761114469070818 7.8249341716797954e-05 0 0.021771186930314552 8.7050302171488232e-05 0 0.021754545385191466 6.7006425047874178e-05 0 0.021770408277521937 7.2064217488287586e-05 0 0.021761114469070818 7.8249341716797954e-05 0 0.02175998517704842 8.5681728962425316e-05 0 0.021761114469070818 7.8249341716797954e-05 0 0.021771186930314552 8.7050302171488232e-05 0 0.02175998517704842 8.5681728962425316e-05 0 0.021761114469070818 7.8249341716797954e-05 0 0.021753348390811816 7.8688355470541148e-05 0 0.02175998517704842 8.5681728962425316e-05 0 0.021753348390811816 7.8688355470541148e-05 0 0.021752039754284046 8.5520577722816792e-05 0 0.021754545385191466 6.7006425047874178e-05 0 0.021761114469070818 7.8249341716797954e-05 0 0.021753348390811816 7.8688355470541148e-05 0 0.02175998517704842 8.5681728962425316e-05 0 0.021764094735172226 9.6147457513157187e-05 0 0.021752039754284046 8.5520577722816792e-05 0 0.02175998517704842 8.5681728962425316e-05 0 0.021764094735172226 9.6147457513157187e-05 0 0.021771186930314552 8.7050302171488232e-05 0 0.021764094735172226 9.6147457513157187e-05 0 0.02178675902622863 9.4346471231565509e-05 0 0.021771186930314552 8.7050302171488232e-05 0 0.021764094735172226 9.6147457513157187e-05 0 0.02178675902622863 9.4346471231565509e-05 0 0.021792835372135548 0.0001083869630147839 0 0.021842852830663031 0.00010907158670229467 0 0.021807723806798868 9.9403197047495315e-05 0 0.021792835372135548 0.0001083869630147839 0 0.021842852830663031 0.00010907158670229467 0 0.021811226045812766 8.0793450424190253e-05 0 0.021807723806798868 9.9403197047495315e-05 0 0.021811226045812766 8.0793450424190253e-05 0 0.02178675902622863 9.4346471231565509e-05 0 0.021807723806798868 9.9403197047495315e-05 0 0.02178675902622863 9.4346471231565509e-05 0 0.021807723806798868 9.9403197047495315e-05 0 0.021792835372135548 0.0001083869630147839 0 0.021764094735172226 9.6147457513157187e-05 0 0.021778031292280047 0.00011364546926975363 0 0.021774544235663554 0.0001179127894978533 0 0.021842852830663031 0.00010907158670229467 0 0.021792835372135548 0.0001083869630147839 0 0.021773290376306369 0.00011704208929036423 0 0.022008590347600963 -0.00028623804986725938 0 0.022136305177554716 -0.0004359591380211534 0 0.021792835372135548 0.0001083869630147839 0 0.021778031292280047 0.00011364546926975363 0 0.021773290376306369 0.00011704208929036423 0 0.021764094735172226 9.6147457513157187e-05 0 0.021792835372135548 0.0001083869630147839 0 0.021778031292280047 0.00011364546926975363 0 0.021778031292280047 0.00011364546926975363 0 0.021773290376306369 0.00011704208929036423 0 0.021774544235663554 0.0001179127894978533 0 0.022194501954669193 -0.00069317618630843091 0 0.022285435145823512 -0.00095003091312721613 0 0.022167625493093014 -0.00088981996903625827 0 0.022194501954669193 -0.00069317618630843091 0 0.022167625493093014 -0.00088981996903625827 0 0.022118024061355941 -0.00081632346086945304 0 0.022118024061355941 -0.00081632346086945304 0 0.022051336140284743 -0.00091644916700140474 0 0.022039218546081624 -0.00074543907158743474 0 0.022167625493093014 -0.00088981996903625827 0 0.022051336140284743 -0.00091644916700140474 0 0.022147479799497875 -0.0010293861566100764 0 0.022167625493093014 -0.00088981996903625827 0 0.022118024061355941 -0.00081632346086945304 0 0.022051336140284743 -0.00091644916700140474 0 0.022051336140284743 -0.00091644916700140474 0 0.022147479799497875 -0.0010293861566100764 0 0.021954677470948057 -0.0010984148494694295 0 0.022285435145823512 -0.00095003091312721613 0 0.022167625493093014 -0.00088981996903625827 0 0.022147479799497875 -0.0010293861566100764 0 0.022147479799497875 -0.0010293861566100764 0 0.022095611026545475 -0.0012227190270740359 0 0.022230844588981225 -0.0011383583218658824 0 0.022147479799497875 -0.0010293861566100764 0 0.022095611026545475 -0.0012227190270740359 0 0.021954677470948057 -0.0010984148494694295 0 0.022095611026545475 -0.0012227190270740359 0 0.02223750744223673 -0.001286332555459084 0 0.022074804393222895 -0.0014921389073173094 0 0.022095611026545475 -0.0012227190270740359 0 0.02223750744223673 -0.001286332555459084 0 0.022230844588981225 -0.0011383583218658824 0 0.02223750744223673 -0.001286332555459084 0 0.022383769067422357 -0.0012047482214892901 0 0.022354343706415088 -0.0014041925359537042 0 0.021080442301590955 -0.00072009900080699204 0 0.019763156236194797 -0.00034887519662631274 0 0.02223750744223673 -0.001286332555459084 0 0.022230844588981225 -0.0011383583218658824 0 0.022383769067422357 -0.0012047482214892901 0 0.022136305177554716 -0.0004359591380211534 0 0.021080442301590955 -0.00072009900080699204 0 0.022285435145823512 -0.00095003091312721613 0 0.022230844588981225 -0.0011383583218658824 0 0.022383769067422357 -0.0012047482214892901 0 0.021773290376306369 0.00011704208929036423 0 0.021768251585102257 7.5931372653055388e-05 0 0.021774544235663554 0.0001179127894978533 0 0.022285435145823512 -0.00095003091312721613 0 0.022147479799497875 -0.0010293861566100764 0 0.022230844588981225 -0.0011383583218658824 0 0.019847944120404738 -0.00071084245488067788 0 0.019832698533550484 -0.00072999516477245067 0 0.01985282650556958 -0.0006808358577877631 0 0.021080442301590955 -0.00072009900080699204 0 0.020776334026564917 -0.00021560278702570046 0 0.019879967871333677 -0.00068493602592527964 0 0.019847944120404738 -0.00071084245488067788 0 0.019871049230466644 -0.00070081089693074848 0 0.019879967871333677 -0.00068493602592527964 0 0.019847944120404738 -0.00071084245488067788 0 0.01985282650556958 -0.0006808358577877631 0 0.019847944120404738 -0.00071084245488067788 0 0.019812475779949663 -0.00073691390204686891 0 0.019871049230466644 -0.00070081089693074848 0 0.020188094688508292 -0.00076890716790945651 0 0.020221588313134024 -0.00033943426979044856 0 0.019994936812119141 -0.00039157976285370509 0 0.019847944120404738 -0.00071084245488067788 0 0.019832698533550484 -0.00072999516477245067 0 0.019812475779949663 -0.00073691390204686891 0 0.021080442301590955 -0.00072009900080699204 0 0.019339063633987699 -0.00040086621347311846 0 0.019832698533550484 -0.00072999516477245067 0 0.019812475779949663 -0.00073691390204686891 0 0.019820918920313145 -0.00070638350862115126 0 0.019812475779949663 -0.00073691390204686891 0 0.019820918920313145 -0.00070638350862115126 0 0.019725096962721112 -0.00075064186551643979 0 0.019812475779949663 -0.00073691390204686891 0 0.019845430405511556 -0.00071632390505600057 0 0.019725096962721112 -0.00075064186551643979 0 0.019845430405511556 -0.00071632390505600057 0 0.019871049230466644 -0.00070081089693074848 0 0.019930950697923989 -0.00067327543579426188 0 0.019812475779949663 -0.00073691390204686891 0 0.019845430405511556 -0.00071632390505600057 0 0.019871049230466644 -0.00070081089693074848 0 0.019879967871333677 -0.00068493602592527964 0 0.019871049230466644 -0.00070081089693074848 0 0.019928804800580215 -0.0006633422356211048 0 0.019871049230466644 -0.00070081089693074848 0 0.019928804800580215 -0.0006633422356211048 0 0.019930950697923989 -0.00067327543579426188 0 0.019928804800580215 -0.0006633422356211048 0 0.020002784366853894 -0.00063647295549970259 0 0.019930950697923989 -0.00067327543579426188 0 0.019928804800580215 -0.0006633422356211048 0 0.019961774052658827 -0.00063325788538806324 0 0.020002784366853894 -0.00063647295549970259 0 0.019961774052658827 -0.00063325788538806324 0 0.019911197677658976 -0.00065562553762901039 0 0.019921833620364784 -0.00062620700399048442 0 0.019928804800580215 -0.0006633422356211048 0 0.019961774052658827 -0.00063325788538806324 0 0.019911197677658976 -0.00065562553762901039 0 0.019879967871333677 -0.00068493602592527964 0 0.019928804800580215 -0.0006633422356211048 0 0.019911197677658976 -0.00065562553762901039 0 0.020776334026564917 -0.00021560278702570046 0 0.021098110461196879 -0.00025816469193629192 0 0.01985282650556958 -0.0006808358577877631 0 0.019921833620364784 -0.00062620700399048442 0 0.019897935840516495 -0.00059851991191957647 0 0.019879967871333677 -0.00068493602592527964 0 0.01985282650556958 -0.0006808358577877631 0 0.019911197677658976 -0.00065562553762901039 0 0.021764094735172226 9.6147457513157187e-05 0 0.021774544235663554 0.0001179127894978533 0 0.021737226585166348 8.5497909091928348e-05 0 0.01985282650556958 -0.0006808358577877631 0 0.019911197677658976 -0.00065562553762901039 0 0.019921833620364784 -0.00062620700399048442 0 0.020007475310471177 -0.00056428544624139039 0 0.019897935840516495 -0.00059851991191957647 0 0.019966739328157405 -0.00060359682369105988 0 0.019921833620364784 -0.00062620700399048442 0 0.019897935840516495 -0.00059851991191957647 0 0.019966739328157405 -0.00060359682369105988 0 0.021764094735172226 9.6147457513157187e-05 0 0.021752039754284046 8.5520577722816792e-05 0 0.021737226585166348 8.5497909091928348e-05 0 0.021732574033892577 4.0605454395679051e-05 0 0.021737226585166348 8.5497909091928348e-05 0 0.021743624298560464 6.219757479380881e-05 0 0.021746224091743923 7.3614378124085215e-05 0 0.021737226585166348 8.5497909091928348e-05 0 0.021743624298560464 6.219757479380881e-05 0 0.021752039754284046 8.5520577722816792e-05 0 0.021746109905628173 8.0307507761456242e-05 0 0.021737226585166348 8.5497909091928348e-05 0 0.021753348390811816 7.8688355470541148e-05 0 0.021746224091743923 7.3614378124085215e-05 0 0.021746109905628173 8.0307507761456242e-05 0 0.021754545385191466 6.7006425047874178e-05 0 0.021753348390811816 7.8688355470541148e-05 0 0.021746224091743923 7.3614378124085215e-05 0 0.021753348390811816 7.8688355470541148e-05 0 0.021752039754284046 8.5520577722816792e-05 0 0.021746109905628173 8.0307507761456242e-05 0 0.021746224091743923 7.3614378124085215e-05 0 0.021746109905628173 8.0307507761456242e-05 0 0.021737226585166348 8.5497909091928348e-05 0 0.021747257868866731 5.0441255917066849e-05 0 0.021754545385191466 6.7006425047874178e-05 0 0.021743624298560464 6.219757479380881e-05 0 0.021754545385191466 6.7006425047874178e-05 0 0.021746224091743923 7.3614378124085215e-05 0 0.021743624298560464 6.219757479380881e-05 0 0.020007475310471177 -0.00056428544624139039 0 0.019966739328157405 -0.00060359682369105988 0 0.02003661241093721 -0.00061097553103255304 0 0.019961774052658827 -0.00063325788538806324 0 0.02003661241093721 -0.00061097553103255304 0 0.020002784366853894 -0.00063647295549970259 0 0.019961774052658827 -0.00063325788538806324 0 0.019966739328157405 -0.00060359682369105988 0 0.02003661241093721 -0.00061097553103255304 0 0.019961774052658827 -0.00063325788538806324 0 0.019921833620364784 -0.00062620700399048442 0 0.019966739328157405 -0.00060359682369105988 0 0.02003661241093721 -0.00061097553103255304 0 0.020108425279055084 -0.000610113477885158 0 0.020002784366853894 -0.00063647295549970259 0 0.020186725065225671 -0.00061422269467845125 0 0.020118288620283468 -0.00060506111177100006 0 0.020108425279055084 -0.000610113477885158 0 0.020118288620283468 -0.00060506111177100006 0 0.02003661241093721 -0.00061097553103255304 0 0.020108425279055084 -0.000610113477885158 0 0.020108425279055084 -0.000610113477885158 0 0.020128389264841392 -0.00060092642385740165 0 0.020160235617648563 -0.00058568928515616465 0 0.020186725065225671 -0.00061422269467845125 0 0.020108425279055084 -0.000610113477885158 0 0.020160235617648563 -0.00058568928515616465 0 0.020108425279055084 -0.000610113477885158 0 0.020128389264841392 -0.00060092642385740165 0 0.020038478294888605 -0.00063519142661331955 0 0.020128389264841392 -0.00060092642385740165 0 0.020038478294888605 -0.00063519142661331955 0 0.020131793115591327 -0.00065318912623445581 0 0.020108425279055084 -0.000610113477885158 0 0.020038478294888605 -0.00063519142661331955 0 0.020002784366853894 -0.00063647295549970259 0 0.020038478294888605 -0.00063519142661331955 0 0.020002784366853894 -0.00063647295549970259 0 0.019930950697923989 -0.00067327543579426188 0 0.020038478294888605 -0.00063519142661331955 0 0.019930950697923989 -0.00067327543579426188 0 0.01996318836147944 -0.00068855299862395159 0 0.019845430405511556 -0.00071632390505600057 0 0.019930950697923989 -0.00067327543579426188 0 0.01996318836147944 -0.00068855299862395159 0 0.019845430405511556 -0.00071632390505600057 0 0.01996318836147944 -0.00068855299862395159 0 0.019851389322804669 -0.00075079110437065036 0 0.019845430405511556 -0.00071632390505600057 0 0.019851389322804669 -0.00075079110437065036 0 0.019725096962721112 -0.00075064186551643979 0 0.01996318836147944 -0.00068855299862395159 0 0.020024200985602057 -0.00075920391284782355 0 0.020131793115591327 -0.00065318912623445581 0 0.01996318836147944 -0.00068855299862395159 0 0.019851389322804669 -0.00075079110437065036 0 0.020024200985602057 -0.00075920391284782355 0 0.020038478294888605 -0.00063519142661331955 0 0.01996318836147944 -0.00068855299862395159 0 0.020131793115591327 -0.00065318912623445581 0 0.020131793115591327 -0.00065318912623445581 0 0.020278958011451468 -0.00081747630110287888 0 0.020443319759333309 -0.00068519489973630973 0 0.020024200985602057 -0.00075920391284782355 0 0.020131793115591327 -0.00065318912623445581 0 0.020278958011451468 -0.00081747630110287888 0 0.020278958011451468 -0.00081747630110287888 0 0.020443319759333309 -0.00068519489973630973 0 0.020737233435250173 -0.0010758211440349715 0 0.020131793115591327 -0.00065318912623445581 0 0.020443319759333309 -0.00068519489973630973 0 0.020241676006793639 -0.00058002222649178455 0 0.020948753880545342 -0.0013640511543624011 0 0.020781354415551952 -0.00135748416756434 0 0.020998293361766788 -0.0013695734000445455 0 0.020684364740866611 -0.0010322821506517743 0 0.020514249877361206 -0.00096329655478533875 0 0.020781354415551952 -0.00135748416756434 0 0.020995241828706667 -0.0011906870699708409 0 0.020998293361766788 -0.0013695734000445455 0 0.020128389264841392 -0.00060092642385740165 0 0.020131793115591327 -0.00065318912623445581 0 0.020241676006793639 -0.00058002222649178455 0 0.020514249877361206 -0.00096329655478533875 0 0.020343892036656742 -0.00081499797507089244 0 0.020128389264841392 -0.00060092642385740165 0 0.020241676006793639 -0.00058002222649178455 0 0.020160235617648563 -0.00058568928515616465 0 0.020781354415551952 -0.00135748416756434 0 0.020504701275161893 -0.001066664502896382 0 0.020792475302467608 -0.00099914299621768838 0 0.020781354415551952 -0.00135748416756434 0 0.020792475302467608 -0.00099914299621768838 0 0.020995241828706667 -0.0011906870699708409 0 0.016919734332706 -0.00035276117958702645 0 0.018147427075246175 9.9505608956733973e-05 0 0.019155572982099314 -0.00031773067701067843 0 0.018147427075246175 9.9505608956733973e-05 0 0.019356366889438061 7.7701780422994533e-05 0 0.019155572982099314 -0.00031773067701067843 0 0.016919734332706 -0.00035276117958702645 0 0.015612961194936348 -0.0011641390093684229 0 0.015743891951799177 -3.6274421567671876e-05 0 0.015987287399520107 -0.00070740644491949865 0 0.019852367910940617 -0.00025505423615213105 0 0.016919734332706 -0.00035276117958702645 0 0.016506125424071778 -0.00011902934914092368 0 0.018147427075246175 9.9505608956733973e-05 0 0.016506125424071778 -0.00011902934914092368 0 0.016726798187908651 -1.6359404478928384e-08 0 0.015340891417347721 -5.6773496054765535e-09 0 0.016506125424071778 -0.00011902934914092368 0 0.016726798187908651 -1.6359404478928384e-08 0 0.017395104535316581 0.00010411745293268316 0 0.016506125424071778 -0.00011902934914092368 0 0.017395104535316581 0.00010411745293268316 0 0.018147427075246175 9.9505608956733973e-05 0 0.017395104535316581 0.00010411745293268316 0 0.017757806309009565 8.6501929723412519e-05 0 0.018147427075246175 9.9505608956733973e-05 0 0.019894022693836159 -0.00018097826848509612 0 0.019421486608793299 -1.8671489463849691e-05 0 0.018147427075246175 9.9505608956733973e-05 0 0.018806466518374212 -2.3111770735392845e-05 0 0.018279039421185795 3.8780535221672495e-05 0 0.017395104535316581 0.00010411745293268316 0 0.018112967442050112 6.3076538236686083e-07 0 0.017757806309009565 8.6501929723412519e-05 0 0.016726798187908651 -1.6359404478928384e-08 0 0.017395104535316581 0.00010411745293268316 0 0.018112967442050112 6.3076538236686083e-07 0 0.019497867967200048 -7.2431138610231343e-07 0 0.018112967442050112 6.3076538236686083e-07 0 0.017757806309009565 8.6501929723412519e-05 0 0.020199096968029132 -0.0001570349717991612 0 0.019894022693836159 -0.00018097826848509612 0 0.019421486608793299 -1.8671489463849691e-05 0 0.020199096968029132 -0.0001570349717991612 0 0.019421486608793299 -1.8671489463849691e-05 0 0.020015670977082969 -3.079646586913781e-05 0 0.019421486608793299 -1.8671489463849691e-05 0 0.018147427075246175 9.9505608956733973e-05 0 0.019356366889438061 7.7701780422994533e-05 0 0.019356366889438061 7.7701780422994533e-05 0 0.020015670977082969 -3.079646586913781e-05 0 0.020051942522692847 1.39805276949173e-05 0 0.019421486608793299 -1.8671489463849691e-05 0 0.019356366889438061 7.7701780422994533e-05 0 0.020015670977082969 -3.079646586913781e-05 0 0.020488016390783875 -3.5691248951202034e-05 0 0.020015670977082969 -3.079646586913781e-05 0 0.020051942522692847 1.39805276949173e-05 0 0.023401237668902796 -0.00090710151555743171 0 0.023198480168989871 -0.00066026505953909408 0 0.023527127996162182 -0.00018363042857486012 0 0.021990693712283925 -0.00043868143157493655 0 0.021834009337930435 4.510395318645293e-05 0 0.020585335812812324 -3.4340761202751087e-05 0 0.020051942522692847 1.39805276949173e-05 0 0.01978990926089616 1.6058876339239674e-05 0 0.019356366889438061 7.7701780422994533e-05 0 0.020051942522692847 1.39805276949173e-05 0 0.01978990926089616 1.6058876339239674e-05 0 0.023198480168989871 -0.00066026505953909408 0 0.022927338544530818 -0.00036162545475240741 0 0.023527127996162182 -0.00018363042857486012 0 0.022776423167756962 -0.00071707987929486058 0 0.023198480168989871 -0.00066026505953909408 0 0.022927338544530818 -0.00036162545475240741 0 0.022927338544530818 -0.00036162545475240741 0 0.023527127996162182 -0.00018363042857486012 0 0.023027134131096874 0.00018350446621306045 0 0.019356366889438061 7.7701780422994533e-05 0 0.01978990926089616 1.6058876339239674e-05 0 0.019155572982099314 -0.00031773067701067843 0 0.022293352291577483 -0.00071800745010458294 0 0.022001093700265689 -0.00058441045356308406 0 0.022173157853528025 -0.00042704163632052255 0 0.022293352291577483 -0.00071800745010458294 0 0.022173157853528025 -0.00042704163632052255 0 0.022464464823530688 -0.00048550600052517026 0 0.022173157853528025 -0.00042704163632052255 0 0.022464464823530688 -0.00048550600052517026 0 0.022257481983677239 -0.00018751710646264605 0 0.022776423167756962 -0.00071707987929486058 0 0.022293352291577483 -0.00071800745010458294 0 0.022464464823530688 -0.00048550600052517026 0 0.022927338544530818 -0.00036162545475240741 0 0.022464464823530688 -0.00048550600052517026 0 0.022257481983677239 -0.00018751710646264605 0 0.022776423167756962 -0.00071707987929486058 0 0.022927338544530818 -0.00036162545475240741 0 0.022464464823530688 -0.00048550600052517026 0 0.022257481983677239 -0.00018751710646264605 0 0.022137814604643702 -0.00019833681219288184 0 0.021957960014680256 -0.00026986542973572454 0 0.022032393443558892 -0.00026142572477136746 0 0.022900775256739909 0.00017505052297875909 0 0.022257481983677239 -0.00018751710646264605 0 0.021957960014680256 -0.00026986542973572454 0 0.02172943825545277 -0.00016132729428139939 0 0.022927338544530818 -0.00036162545475240741 0 0.022257481983677239 -0.00018751710646264605 0 0.023027134131096874 0.00018350446621306045 0 0.022031921403964524 -0.00028689478046011341 0 0.022257481983677239 -0.00018751710646264605 0 0.022137814604643702 -0.00019833681219288184 0 0.022031921403964524 -0.00028689478046011341 0 0.021961854274890204 -0.00014389257631716276 0 0.022137814604643702 -0.00019833681219288184 0 0.022031921403964524 -0.00028689478046011341 0 0.022173157853528025 -0.00042704163632052255 0 0.022257481983677239 -0.00018751710646264605 0 0.022059925282347428 -0.00022668436584799613 0 0.022116944312138086 -0.00020096149638501151 0 0.021961854274890204 -0.00014389257631716276 0 0.021979256801569317 -6.3328951594817033e-06 0 0.022137814604643702 -0.00019833681219288184 0 0.02212798596918128 -0.0004450871675061152 0 0.022137814604643702 -0.00019833681219288184 0 0.022029247269035893 -0.00037308484889687552 0 0.022137814604643702 -0.00019833681219288184 0 0.022029247269035893 -0.00037308484889687552 0 0.021957960014680256 -0.00026986542973572454 0 0.022029247269035893 -0.00037308484889687552 0 0.021957960014680256 -0.00026986542973572454 0 0.021864901505989878 -0.00045812463097139516 0 0.021957960014680256 -0.00026986542973572454 0 0.021864901505989878 -0.00045812463097139516 0 0.021671598437390454 -0.00037362095777983305 0 0.022029247269035893 -0.00037308484889687552 0 0.021864901505989878 -0.00045812463097139516 0 0.022016708153531562 -0.00057151558322770873 0 0.02212798596918128 -0.0004450871675061152 0 0.022029247269035893 -0.00037308484889687552 0 0.022016708153531562 -0.00057151558322770873 0 0.02212798596918128 -0.0004450871675061152 0 0.022094868613395879 -0.00061323534236668443 0 0.022016708153531562 -0.00057151558322770873 0 0.023527127996162182 -0.00018363042857486012 0 0.023591853856563223 0.00048800894615465279 0 0.023027134131096874 0.00018350446621306045 0 0.021834009337930435 4.510395318645293e-05 0 0.019852367910940617 -0.00025505423615213105 0 0.019852367910940617 -0.00025505423615213105 0 0.022900775256739909 0.00017505052297875909 0 0.021352744927772442 -0.00031616314531300648 0 0.02172943825545277 -0.00016132729428139939 0 0.021671598437390454 -0.00037362095777983305 0 0.021957960014680256 -0.00026986542973572454 0 0.02172943825545277 -0.00016132729428139939 0 0.021671598437390454 -0.00037362095777983305 0 0.021864901505989878 -0.00045812463097139516 0 0.021671598437390454 -0.00037362095777983305 0 0.021587652241609578 -0.00057504516874185864 0 0.021352744927772442 -0.00031616314531300648 0 0.021671598437390454 -0.00037362095777983305 0 0.021587652241609578 -0.00057504516874185864 0 0.021352744927772442 -0.00031616314531300648 0 0.021259212166795868 -0.00063305909573936755 0 0.021587652241609578 -0.00057504516874185864 0 0.019852367910940617 -0.00025505423615213105 0 0.018338621324028064 -0.00046937908216424624 0 0.021259212166795868 -0.00063305909573936755 0 0.021587652241609578 -0.00057504516874185864 0 0.021497375630815444 -0.00084951645249747149 0 0.021587652241609578 -0.00057504516874185864 0 0.021497375630815444 -0.00084951645249747149 0 0.021812546971065338 -0.00070585734912999949 0 0.021497375630815444 -0.00084951645249747149 0 0.021709845945357055 -0.00091371501465563364 0 0.021584456840419163 -0.0010951507722779105 0 0.021497375630815444 -0.00084951645249747149 0 0.021390045114630368 -0.00106595942394644 0 0.021147580973288629 -0.00092633531959897318 0 0.021259212166795868 -0.00063305909573936755 0 0.021497375630815444 -0.00084951645249747149 0 0.021147580973288629 -0.00092633531959897318 0 0.022039218546081624 -0.00074543907158743474 0 0.022016708153531562 -0.00057151558322770873 0 0.021812546971065338 -0.00070585734912999949 0 0.022039218546081624 -0.00074543907158743474 0 0.022094868613395879 -0.00061323534236668443 0 0.022016708153531562 -0.00057151558322770873 0 0.021864901505989878 -0.00045812463097139516 0 0.022016708153531562 -0.00057151558322770873 0 0.021812546971065338 -0.00070585734912999949 0 0.021864901505989878 -0.00045812463097139516 0 0.021587652241609578 -0.00057504516874185864 0 0.021812546971065338 -0.00070585734912999949 0 0.021812546971065338 -0.00070585734912999949 0 0.021709845945357055 -0.00091371501465563364 0 0.021887242646905867 -0.00089362560664784339 0 0.021497375630815444 -0.00084951645249747149 0 0.021812546971065338 -0.00070585734912999949 0 0.021709845945357055 -0.00091371501465563364 0 0.021709845945357055 -0.00091371501465563364 0 0.021887242646905867 -0.00089362560664784339 0 0.021784430350032347 -0.0010436813672523486 0 0.022039218546081624 -0.00074543907158743474 0 0.021812546971065338 -0.00070585734912999949 0 0.021887242646905867 -0.00089362560664784339 0 0.022051336140284743 -0.00091644916700140474 0 0.022039218546081624 -0.00074543907158743474 0 0.021887242646905867 -0.00089362560664784339 0 0.022051336140284743 -0.00091644916700140474 0 0.021887242646905867 -0.00089362560664784339 0 0.021954677470948057 -0.0010984148494694295 0 0.021887242646905867 -0.00089362560664784339 0 0.021954677470948057 -0.0010984148494694295 0 0.021784430350032347 -0.0010436813672523486 0 0.021954677470948057 -0.0010984148494694295 0 0.021784430350032347 -0.0010436813672523486 0 0.02174928748281646 -0.0012106428388758631 0 0.021709845945357055 -0.00091371501465563364 0 0.021784430350032347 -0.0010436813672523486 0 0.021584456840419163 -0.0010951507722779105 0 0.021784430350032347 -0.0010436813672523486 0 0.02174928748281646 -0.0012106428388758631 0 0.021584456840419163 -0.0010951507722779105 0 0.02174928748281646 -0.0012106428388758631 0 0.021584456840419163 -0.0010951507722779105 0 0.021558566733232729 -0.0013156003445240494 0 0.02174928748281646 -0.0012106428388758631 0 0.021558566733232729 -0.0013156003445240494 0 0.021706288305346901 -0.0013825096868907655 0 0.02174928748281646 -0.0012106428388758631 0 0.021888839864175186 -0.0013344678233625003 0 0.021706288305346901 -0.0013825096868907655 0 0.021954677470948057 -0.0010984148494694295 0 0.02174928748281646 -0.0012106428388758631 0 0.021888839864175186 -0.0013344678233625003 0 0.022095611026545475 -0.0012227190270740359 0 0.021954677470948057 -0.0010984148494694295 0 0.021888839864175186 -0.0013344678233625003 0 0.021390045114630368 -0.00106595942394644 0 0.021259236930879631 -0.0012097086608758455 0 0.021147580973288629 -0.00092633531959897318 0 0.021497375630815444 -0.00084951645249747149 0 0.021390045114630368 -0.00106595942394644 0 0.021584456840419163 -0.0010951507722779105 0 0.021390045114630368 -0.00106595942394644 0 0.021584456840419163 -0.0010951507722779105 0 0.021435944968411048 -0.0012105246083947265 0 0.021584456840419163 -0.0010951507722779105 0 0.021435944968411048 -0.0012105246083947265 0 0.021558566733232729 -0.0013156003445240494 0 0.021435944968411048 -0.0012105246083947265 0 0.021558566733232729 -0.0013156003445240494 0 0.02137351657960487 -0.0013594356846508696 0 0.021259236930879631 -0.0012097086608758455 0 0.021018372360679698 -0.0012416146032134567 0 0.021196119738590976 -0.001490246246893269 0 0.02137351657960487 -0.0013594356846508696 0 0.021259236930879631 -0.0012097086608758455 0 0.021196119738590976 -0.001490246246893269 0 0.021435944968411048 -0.0012105246083947265 0 0.02137351657960487 -0.0013594356846508696 0 0.021259236930879631 -0.0012097086608758455 0 0.021390045114630368 -0.00106595942394644 0 0.021435944968411048 -0.0012105246083947265 0 0.021259236930879631 -0.0012097086608758455 0 0.015175352874603766 2.7818412530218035e-05 0 0.014464545166752839 9.0665778232366177e-05 0 0.014369697884950941 -0.00023167586893606772 0 0.015175352874603766 2.7818412530218035e-05 0 0.015248938330177124 0.00016421444487891559 0 0.014464545166752839 9.0665778232366177e-05 0 0.015248938330177124 0.00016421444487891559 0 0.015451622415887498 8.0016101426905328e-05 0 0.014464545166752839 9.0665778232366177e-05 0 0.021259236930879631 -0.0012097086608758455 0 0.021018372360679698 -0.0012416146032134567 0 0.021147580973288629 -0.00092633531959897318 0 0.018090535068098788 -0.00057178334681940086 0 0.01837062247311835 -0.00032552285444511369 0 0.015175352874603766 2.7818412530218035e-05 0 0.015248938330177124 0.00016421444487891559 0 0.015566909851639077 0.000209251136253293 0 0.018338621324028064 -0.00046937908216424624 0 0.01837062247311835 -0.00032552285444511369 0 0.015743891951799177 -3.6274421567671876e-05 0 0.015566909851639077 0.000209251136253293 0 0.015921142973413058 9.1722614042950195e-05 0 0.015248938330177124 0.00016421444487891559 0 0.015566909851639077 0.000209251136253293 0 0.015921142973413058 9.1722614042950195e-05 0 0.015248938330177124 0.00016421444487891559 0 0.015921142973413058 9.1722614042950195e-05 0 0.015451622415887498 8.0016101426905328e-05 0 0.016919734332706 -0.00035276117958702645 0 0.015921142973413058 9.1722614042950195e-05 0 0.015451622415887498 8.0016101426905328e-05 0 0.016919734332706 -0.00035276117958702645 0 0.015743891951799177 -3.6274421567671876e-05 0 0.015921142973413058 9.1722614042950195e-05 0 0.016506125424071778 -0.00011902934914092368 0 0.015340891417347721 -5.6773496054765535e-09 0 0.015451622415887498 8.0016101426905328e-05 0 0.016919734332706 -0.00035276117958702645 0 0.016506125424071778 -0.00011902934914092368 0 0.015451622415887498 8.0016101426905328e-05 0 0.015340891417347721 -5.6773496054765535e-09 0 0.015451622415887498 8.0016101426905328e-05 0 0.013954742815051475 3.7550966270577143e-08 0 0.015451622415887498 8.0016101426905328e-05 0 0.013954742815051475 3.7550966270577143e-08 0 0.014464545166752839 9.0665778232366177e-05 0 0.014464545166752839 9.0665778232366177e-05 0 0.012568210093518982 8.8936761709093827e-07 0 0.013310046359182854 -0.00019994438609262176 0 0.013954742815051475 3.7550966270577143e-08 0 0.014464545166752839 9.0665778232366177e-05 0 0.012568210093518982 8.8936761709093827e-07 0 0.012568210093518982 8.8936761709093827e-07 0 0.013310046359182854 -0.00019994438609262176 0 0.011592660500091804 -0.00017578806195701514 0 0.013310046359182854 -0.00019994438609262176 0 0.013714418953258737 -0.00058918924290266754 0 0.014369697884950941 -0.00023167586893606772 0 0.014464545166752839 9.0665778232366177e-05 0 0.013310046359182854 -0.00019994438609262176 0 0.014369697884950941 -0.00023167586893606772 0 0.013310046359182854 -0.00019994438609262176 0 0.012942985293885193 -0.00052172566702115338 0 0.013714418953258737 -0.00058918924290266754 0 0.012942985293885193 -0.00052172566702115338 0 0.011592660500091804 -0.00017578806195701514 0 0.01356410249335083 -0.0014114493801220696 0 0.013714418953258737 -0.00058918924290266754 0 0.014349674340731595 -0.00096373099860239402 0 0.01356410249335083 -0.0014114493801220696 0 0.012942985293885193 -0.00052172566702115338 0 0.013714418953258737 -0.00058918924290266754 0 0.01356410249335083 -0.0014114493801220696 0 0.013310046359182854 -0.00019994438609262176 0 0.012942985293885193 -0.00052172566702115338 0 0.011592660500091804 -0.00017578806195701514 0 0.011849878393982943 -0.00032834744959895176 0 0.013270092087731455 -0.0010377241127415839 0 0.012568210093518982 8.8936761709093827e-07 0 0.011592660500091804 -0.00017578806195701514 0 0.011184431624589573 -3.1808657222706167e-06 0 0.021018372360679698 -0.0012416146032134567 0 0.020880522243768088 -0.0016027601181247784 0 0.021196119738590976 -0.001490246246893269 0 0.018090535068098788 -0.00057178334681940086 0 0.018041104878491608 -0.0012527642353267511 0 0.020880522243768088 -0.0016027601181247784 0 0.021083132568152019 -0.0016301246608662694 0 0.021196119738590976 -0.001490246246893269 0 0.015175352874603766 2.7818412530218035e-05 0 0.014369697884950941 -0.00023167586893606772 0 0.014879734320147 -0.00053145763901167045 0 0.014369697884950941 -0.00023167586893606772 0 0.014349674340731595 -0.00096373099860239402 0 0.014879734320147 -0.00053145763901167045 0 0.014349674340731595 -0.00096373099860239402 0 0.014879734320147 -0.00053145763901167045 0 0.014743811920064586 -0.001649635086327881 0 0.013714418953258737 -0.00058918924290266754 0 0.014369697884950941 -0.00023167586893606772 0 0.014349674340731595 -0.00096373099860239402 0 0.020880522243768088 -0.0016027601181247784 0 0.020758405332009133 -0.0019916149262642823 0 0.021066281149305373 -0.001797856380644749 0 0.018041104878491608 -0.0012527642353267511 0 0.01618425992528652 -0.00085633538224532367 0 0.020880522243768088 -0.0016027601181247784 0 0.021083132568152019 -0.0016301246608662694 0 0.021066281149305373 -0.001797856380644749 0 0.01618425992528652 -0.00085633538224532367 0 0.019593932004911205 -0.00089520386652074569 0 0.017311256516310172 -0.00025655900825748628 0 0.017428246212482939 -0.00024229904274258396 0 0.017444444955304537 -0.00019298714700197856 0 0.017311256516310172 -0.00025655900825748628 0 0.017428246212482939 -0.00024229904274258396 0 0.017449987785283148 -0.00028445086367295239 0 0.020758405332009133 -0.0019916149262642823 0 0.021079524435205298 -0.0018439938437645139 0 0.021066281149305373 -0.001797856380644749 0 0.01618425992528652 -0.00085633538224532367 0 0.017097217829101303 -0.00010391173163259387 0 0.015292517885145164 -0.0012959396456808236 0 0.014034726815685298 -0.0018917309091391081 0 0.013456230851872395 -0.0007621082410735634 0 0.014349674340731595 -0.00096373099860239402 0 0.014743811920064586 -0.001649635086327881 0 0.01356410249335083 -0.0014114493801220696 0 0.01618425992528652 -0.00085633538224532367 0 0.013270092087731455 -0.0010377241127415839 0 0.01618425992528652 -0.00085633538224532367 0 0.01312827714050803 -0.00094798113538726355 0 0.013005863098872928 0.00034995922624946589 0 0.012479137562666122 0.00011610184080454242 0 0.012832904853732764 -0.00044322941606574431 0 0.01618425992528652 -0.00085633538224532367 0 0.014704010224321419 -0.00011156980014756813 0 0.012479137562666122 0.00011610184080454242 0 0.012403534866679727 -0.00027975221338252744 0 0.012832904853732764 -0.00044322941606574431 0 0.016157058946803558 0.00014026298196268911 0 0.016398825456617017 -0.00024765851441426855 0 0.016071922921772723 -0.00037889251287618589 0 0.016157058946803558 0.00014026298196268911 0 0.016398825456617017 -0.00024765851441426855 0 0.016606258829817915 2.136497606487299e-05 0 0.01118059855039367 -5.8776220518078597e-07 0 0.010007207889630167 -0.00011886457088144907 0 0.0097787817594581963 -1.3855962049755275e-07 0 0.011592660500091804 -0.00017578806195701514 0 0.012027638491742701 -0.0013288231574567358 0 0.013456230851872395 -0.0007621082410735634 0 0.011592660500091804 -0.00017578806195701514 0 0.011184431624589573 -3.1808657222706167e-06 0 0.012027638491742701 -0.0013288231574567358 0 0.011181260313227991 -1.0909917994387121e-07 0 0.011031646854643237 -0.00068396241968037355 0 0.012027638491742701 -0.0013288231574567358 0 0.013456230851872395 -0.0007621082410735634 0 0.013074698427253171 -0.0016162317947535675 0 0.014034726815685298 -0.0018917309091391081 0 0.013456230851872395 -0.0007621082410735634 0 0.013074698427253171 -0.0016162317947535675 0 0.012027638491742701 -0.0013288231574567358 0 0.013074698427253171 -0.0016162317947535675 0 0.012782192759792817 -0.0024777870735857338 0 0.0089599902172373402 -0.00019467956830770624 0 0.0090756522022649062 -0.0001303240031786453 0 0.0080392444206661921 -2.1973630754222498e-05 0 0.011971258149327238 -0.00011970891272704402 0 0.012403534866679727 -0.00027975221338252744 0 0.012329688905157316 -0.00066975635790617516 0 0.011174864323863602 -0.00058127883403468058 0 0.010034266690517298 -9.4925710769169165e-05 0 0.011174864323863602 -0.00058127883403468058 0 0.01070640096247292 -0.00069065836316661389 0 0.01312827714050803 -0.00094798113538726355 0 0.011174864323863602 -0.00058127883403468058 0 0.012479137562666122 0.00011610184080454242 0 0.011971258149327238 -0.00011970891272704402 0 0.012403534866679727 -0.00027975221338252744 0 0.014034726815685298 -0.0018917309091391081 0 0.013074698427253171 -0.0016162317947535675 0 0.012782192759792817 -0.0024777870735857338 0 0.0090756522022649062 -0.0001303240031786453 0 0.0097787817594581963 -1.3855962049755275e-07 0 0.008579425533303502 1.3943397862862078e-05 0 0.010007207889630167 -0.00011886457088144907 0 0.0090298992237173945 -0.00015422621458215493 0 0.0090756522022649062 -0.0001303240031786453 0 0.011031646854643237 -0.00068396241968037355 0 0.011174864323863602 -0.00058127883403468058 0 0.010007207889630167 -0.00011886457088144907 0 0.0090756522022649062 -0.0001303240031786453 0 0.0097787817594581963 -1.3855962049755275e-07 0 0.0097787817594581963 -1.3855962049755275e-07 0 0.008579425533303502 1.3943397862862078e-05 0 0.0083767721385016019 2.145022595717477e-07 0 0.008579425533303502 1.3943397862862078e-05 0 0.0083767721385016019 2.145022595717477e-07 0 0.0076349436508962865 0.00010401684223243203 0 0.0076349436508962865 0.00010401684223243203 0 0.0080392444206661921 -2.1973630754222498e-05 0 0.0075292424454919248 4.8411346702328354e-05 0 0.008579425533303502 1.3943397862862078e-05 0 0.0076349436508962865 0.00010401684223243203 0 0.0080392444206661921 -2.1973630754222498e-05 0 0.0090756522022649062 -0.0001303240031786453 0 0.008579425533303502 1.3943397862862078e-05 0 0.0080392444206661921 -2.1973630754222498e-05 0 0.014704010224321419 -0.00011156980014756813 0 0.010346670867050604 -0.0011777291119214471 0 0.016071922921772723 -0.00037889251287618589 0 0.016342231612775204 -0.00069135867351963144 0 0.016010521877862522 -0.00084640496415951539 0 0.012329688905157316 -0.00066975635790617516 0 0.012832904853732764 -0.00044322941606574431 0 0.012664442420430565 -0.0012108536833582326 0 0.012403534866679727 -0.00027975221338252744 0 0.012329688905157316 -0.00066975635790617516 0 0.012832904853732764 -0.00044322941606574431 0 0.016398825456617017 -0.00024765851441426855 0 0.016342231612775204 -0.00069135867351963144 0 0.016681679568583605 -0.00053079908390732638 0 0.016398825456617017 -0.00024765851441426855 0 0.016071922921772723 -0.00037889251287618589 0 0.016342231612775204 -0.00069135867351963144 0 0.016342231612775204 -0.00069135867351963144 0 0.016010521877862522 -0.00084640496415951539 0 0.016276947581042613 -0.00099458945032021313 0 0.010034266690517298 -9.4925710769169165e-05 0 0.010346670867050604 -0.0011777291119214471 0 0.0057954021229396583 -0.0027659769612286438 0 0.0059574369510538728 -0.001528312809480475 0 0.0048654002353141004 -0.0014464149990841221 0 0.010346670867050604 -0.0011777291119214471 0 0.0062428071603919475 -0.00080565936480315537 0 0.010346670867050604 -0.0011777291119214471 0 0.010659167325735587 -0.0014009677151907065 0 0.016010521877862522 -0.00084640496415951539 0 0.016276947581042613 -0.00099458945032021313 0 0.016246459964352408 -0.0010727255749509513 0 0.016276947581042613 -0.00099458945032021313 0 0.016246459964352408 -0.0010727255749509513 0 0.016367361516839218 -0.0010069686617915014 0 0.010659167325735587 -0.0014009677151907065 0 0.010100649482462367 -0.00063522032412682969 0 0.0048654002353141004 -0.0014464149990841221 0 0.0050052649623986865 -0.0003732584804095328 0 0.0039243520140568415 -0.00017142063018367131 0 0.0062428071603919475 -0.00080565936480315537 0 0.0063223815515177457 -9.5551741598394328e-05 0 0.0059574369510538728 -0.001528312809480475 0 0.0048654002353141004 -0.0014464149990841221 0 0.0050052649623986865 -0.0003732584804095328 0 0.0059574369510538728 -0.001528312809480475 0 0.0061696478712087791 -0.00014490245412927176 0 0.0050052649623986865 -0.0003732584804095328 0 0.0068465194348876759 1.4326805480785195e-05 0 0.006179437634373508 -6.5210419894725944e-05 0 0.0061696478712087791 -0.00014490245412927176 0 0.0070746762878453537 6.8905184721852091e-05 0 0.0068465194348876759 1.4326805480785195e-05 0 0.0061696478712087791 -0.00014490245412927176 0 0.0068465194348876759 1.4326805480785195e-05 0 0.0069748034664029257 2.0287776855208051e-07 0 0.006179437634373508 -6.5210419894725944e-05 0 0.0083767721385016019 2.145022595717477e-07 0 0.0076349436508962865 0.00010401684223243203 0 0.0069748034664029257 2.0287776855208051e-07 0 0.0076349436508962865 0.00010401684223243203 0 0.0068465194348876759 1.4326805480785195e-05 0 0.0069748034664029257 2.0287776855208051e-07 0 0.0076349436508962865 0.00010401684223243203 0 0.0075292424454919248 4.8411346702328354e-05 0 0.0070746762878453537 6.8905184721852091e-05 0 0.0076349436508962865 0.00010401684223243203 0 0.0070746762878453537 6.8905184721852091e-05 0 0.0068465194348876759 1.4326805480785195e-05 0 0.016602630298785909 -0.00093893711172480241 0 0.016451581253892407 -0.00085454701725895001 0 0.016717925196292744 -0.0007250496355316751 0 0.016602630298785909 -0.00093893711172480241 0 0.016717925196292744 -0.0007250496355316751 0 0.016968222011226317 -0.0009869771842775162 0 0.016668971824712747 -0.0011050159240691315 0 0.016968222011226317 -0.0009869771842775162 0 0.016789919484975782 -0.0012495749568826931 0 0.016602630298785909 -0.00093893711172480241 0 0.016668971824712747 -0.0011050159240691315 0 0.016480917559100559 -0.0010919839121330884 0 0.016602630298785909 -0.00093893711172480241 0 0.016668971824712747 -0.0011050159240691315 0 0.016968222011226317 -0.0009869771842775162 0 0.016602630298785909 -0.00093893711172480241 0 0.016480917559100559 -0.0010919839121330884 0 0.016367361516839218 -0.0010069686617915014 0 0.016246459964352408 -0.0010727255749509513 0 0.016367361516839218 -0.0010069686617915014 0 0.0163178680465993 -0.0011739668111192345 0 0.016480917559100559 -0.0010919839121330884 0 0.016367361516839218 -0.0010069686617915014 0 0.0163178680465993 -0.0011739668111192345 0 0.016314873616705812 -0.00099368741871443361 0 0.016691397211434991 -0.00093099243845778913 0 0.016276947581042613 -0.00099458945032021313 0 0.016367361516839218 -0.0010069686617915014 0 0.016451581253892407 -0.00085454701725895001 0 0.016602630298785909 -0.00093893711172480241 0 0.016367361516839218 -0.0010069686617915014 0 0.016451581253892407 -0.00085454701725895001 0 0.016921765051703945 -0.0010205969788378356 0 0.017142676605996481 -0.00056119650217418453 0 0.017564049615976563 -0.00091072472968385958 0 0.016691397211434991 -0.00093099243845778913 0 0.017141387525397903 -0.00081668634481369187 0 0.016342231612775204 -0.00069135867351963144 0 0.016276947581042613 -0.00099458945032021313 0 0.016921765051703945 -0.0010205969788378356 0 0.016342231612775204 -0.00069135867351963144 0 0.016921765051703945 -0.0010205969788378356 0 0.016681679568583605 -0.00053079908390732638 0 0.016681679568583605 -0.00053079908390732638 0 0.017142676605996481 -0.00056119650217418453 0 0.016781211990708336 -0.00025631697756973553 0 0.016921765051703945 -0.0010205969788378356 0 0.016681679568583605 -0.00053079908390732638 0 0.017142676605996481 -0.00056119650217418453 0 0.017142676605996481 -0.00056119650217418453 0 0.017564049615976563 -0.00091072472968385958 0 0.017616682459274943 -0.00036264618713348291 0 0.017141387525397903 -0.00081668634481369187 0 0.017526548538222043 -0.00069564710163852786 0 0.016717925196292744 -0.0007250496355316751 0 0.017052164547495866 -0.00061119337502700685 0 0.016968222011226317 -0.0009869771842775162 0 0.017564049615976563 -0.00091072472968385958 0 0.017892512579871265 -0.00051320195151040326 0 0.018000955214588936 -0.00077906393184561833 0 0.017564049615976563 -0.00091072472968385958 0 0.017892512579871265 -0.00051320195151040326 0 0.017616682459274943 -0.00036264618713348291 0 0.017892512579871265 -0.00051320195151040326 0 0.01780660844172835 -0.00033104456672715615 0 0.017616682459274943 -0.00036264618713348291 0 0.017892512579871265 -0.00051320195151040326 0 0.01780660844172835 -0.00033104456672715615 0 0.018002939884887399 -0.00034037656526613721 0 0.017616682459274943 -0.00036264618713348291 0 0.017670399836252577 -0.00025335521840825549 0 0.017561042297352284 -0.00031774870282152214 0 0.01759419998847821 -0.00034008111648622626 0 0.01731613051252618 -0.00022840916607811873 0 0.01780660844172835 -0.00033104456672715615 0 0.017616682459274943 -0.00036264618713348291 0 0.017670399836252577 -0.00025335521840825549 0 0.01780660844172835 -0.00033104456672715615 0 0.017824650494426324 -0.00020147434616624583 0 0.018002939884887399 -0.00034037656526613721 0 0.01780660844172835 -0.00033104456672715615 0 0.017670399836252577 -0.00025335521840825549 0 0.017824650494426324 -0.00020147434616624583 0 0.01731613051252618 -0.00022840916607811873 0 0.017097217829101303 -0.00010391173163259387 0 0.016781211990708336 -0.00025631697756973553 0 0.017091726792544098 -0.00012410068753914146 0 0.016606258829817915 2.136497606487299e-05 0 0.016398825456617017 -0.00024765851441426855 0 0.016681679568583605 -0.00053079908390732638 0 0.016781211990708336 -0.00025631697756973553 0 0.016398825456617017 -0.00024765851441426855 0 0.016781211990708336 -0.00025631697756973553 0 0.016606258829817915 2.136497606487299e-05 0 0.017142676605996481 -0.00056119650217418453 0 0.016781211990708336 -0.00025631697756973553 0 0.017091726792544098 -0.00012410068753914146 0 0.017142676605996481 -0.00056119650217418453 0 0.017616682459274943 -0.00036264618713348291 0 0.017091726792544098 -0.00012410068753914146 0 0.017670399836252577 -0.00025335521840825549 0 0.017561042297352284 -0.00031774870282152214 0 0.017592590033905432 -0.00020158571828457405 0 0.017561042297352284 -0.00031774870282152214 0 0.017592590033905432 -0.00020158571828457405 0 0.017530713915867205 -0.00022575415657001872 0 0.017592590033905432 -0.00020158571828457405 0 0.017530713915867205 -0.00022575415657001872 0 0.017541588864585522 -0.00018441242391467559 0 0.017530713915867205 -0.00022575415657001872 0 0.017509644687425805 -0.00019564877028622099 0 0.017541588864585522 -0.00018441242391467559 0 0.017561042297352284 -0.00031774870282152214 0 0.017530713915867205 -0.00022575415657001872 0 0.017484952052124709 -0.00024291959836106135 0 0.017561042297352284 -0.00031774870282152214 0 0.017484952052124709 -0.00024291959836106135 0 0.017449987785283148 -0.00028445086367295239 0 0.017530713915867205 -0.00022575415657001872 0 0.017484952052124709 -0.00024291959836106135 0 0.017509644687425805 -0.00019564877028622099 0 0.017484952052124709 -0.00024291959836106135 0 0.017509644687425805 -0.00019564877028622099 0 0.017444444955304537 -0.00019298714700197856 0 0.017484952052124709 -0.00024291959836106135 0 0.017428246212482939 -0.00024229904274258396 0 0.017444444955304537 -0.00019298714700197856 0 0.017484952052124709 -0.00024291959836106135 0 0.017428246212482939 -0.00024229904274258396 0 0.017449987785283148 -0.00028445086367295239 0 0.021079524435205298 -0.0018439938437645139 0 0.021066281149305373 -0.001797856380644749 0 0.021179619611246495 -0.0017528865116887029 0 0.021480715124463576 -0.0017610663714447119 0 0.02013154599260706 -0.0013386522059999086 0 0.021066281149305373 -0.001797856380644749 0 0.021275036501160745 -0.0016718535992425287 0 0.021418567604213162 -0.0017180434573704341 0 0.017509644687425805 -0.00019564877028622099 0 0.017444444955304537 -0.00019298714700197856 0 0.017554781997829578 -0.00013193635834810212 0 0.019593932004911205 -0.00089520386652074569 0 0.02013154599260706 -0.0013386522059999086 0 0.021188614002036626 -0.0016344970287439581 0 0.021066281149305373 -0.001797856380644749 0 0.021275036501160745 -0.0016718535992425287 0 0.021083132568152019 -0.0016301246608662694 0 0.021188614002036626 -0.0016344970287439581 0 0.021066281149305373 -0.001797856380644749 0 0.021188614002036626 -0.0016344970287439581 0 0.021275036501160745 -0.0016718535992425287 0 0.021287265088126877 -0.0015837906239981475 0 0.021275036501160745 -0.0016718535992425287 0 0.021407865787466944 -0.0016213502362722085 0 0.021287265088126877 -0.0015837906239981475 0 0.021419260059496407 -0.0017120546439932246 0 0.021477618292040975 -0.0016784412562448369 0 0.021765929891411608 -0.0015965709532205518 0 0.017592590033905432 -0.00020158571828457405 0 0.017554781997829578 -0.00013193635834810212 0 0.017729117452706031 -5.6910422295238385e-05 0 0.021275036501160745 -0.0016718535992425287 0 0.021407865787466944 -0.0016213502362722085 0 0.021418567604213162 -0.0017180434573704341 0 0.021407865787466944 -0.0016213502362722085 0 0.021477618292040975 -0.0016784412562448369 0 0.021460447892654805 -0.0015472141895707971 0 0.02013154599260706 -0.0013386522059999086 0 0.020682877593668877 -0.0012465547351984353 0 0.021407865787466944 -0.0016213502362722085 0 0.021418567604213162 -0.0017180434573704341 0 0.021477618292040975 -0.0016784412562448369 0 0.017509644687425805 -0.00019564877028622099 0 0.017554781997829578 -0.00013193635834810212 0 0.017541588864585522 -0.00018441242391467559 0 0.017592590033905432 -0.00020158571828457405 0 0.017554781997829578 -0.00013193635834810212 0 0.017541588864585522 -0.00018441242391467559 0 0.021477618292040975 -0.0016784412562448369 0 0.021577422113224227 -0.0014984661169052823 0 0.021460447892654805 -0.0015472141895707971 0 0.021577422113224227 -0.0014984661169052823 0 0.021468032286920066 -0.0014355442773329105 0 0.021460447892654805 -0.0015472141895707971 0 0.021558566733232729 -0.0013156003445240494 0 0.021577422113224227 -0.0014984661169052823 0 0.021468032286920066 -0.0014355442773329105 0 0.021558566733232729 -0.0013156003445240494 0 0.02137351657960487 -0.0013594356846508696 0 0.021468032286920066 -0.0014355442773329105 0 0.02137351657960487 -0.0013594356846508696 0 0.021468032286920066 -0.0014355442773329105 0 0.021368856611390378 -0.0015048923377639406 0 0.021468032286920066 -0.0014355442773329105 0 0.021368856611390378 -0.0015048923377639406 0 0.021460447892654805 -0.0015472141895707971 0 0.021407865787466944 -0.0016213502362722085 0 0.021368856611390378 -0.0015048923377639406 0 0.021460447892654805 -0.0015472141895707971 0 0.021407865787466944 -0.0016213502362722085 0 0.021368856611390378 -0.0015048923377639406 0 0.021287265088126877 -0.0015837906239981475 0 0.021188614002036626 -0.0016344970287439581 0 0.021287265088126877 -0.0015837906239981475 0 0.021196119738590976 -0.001490246246893269 0 0.021368856611390378 -0.0015048923377639406 0 0.021287265088126877 -0.0015837906239981475 0 0.021196119738590976 -0.001490246246893269 0 0.02137351657960487 -0.0013594356846508696 0 0.021368856611390378 -0.0015048923377639406 0 0.021196119738590976 -0.001490246246893269 0 0.021083132568152019 -0.0016301246608662694 0 0.021188614002036626 -0.0016344970287439581 0 0.021196119738590976 -0.001490246246893269 0 0.017824650494426324 -0.00020147434616624583 0 0.017729117452706031 -5.6910422295238385e-05 0 0.017992209892606269 2.0229081044665054e-05 0 0.017670399836252577 -0.00025335521840825549 0 0.017824650494426324 -0.00020147434616624583 0 0.017729117452706031 -5.6910422295238385e-05 0 0.02013154599260706 -0.0013386522059999086 0 0.01960163304337758 -0.00079867705503447722 0 0.017670399836252577 -0.00025335521840825549 0 0.017592590033905432 -0.00020158571828457405 0 0.017729117452706031 -5.6910422295238385e-05 0 0.021477618292040975 -0.0016784412562448369 0 0.021577422113224227 -0.0014984661169052823 0 0.021765929891411608 -0.0015965709532205518 0 0.021577422113224227 -0.0014984661169052823 0 0.021765929891411608 -0.0015965709532205518 0 0.021706288305346901 -0.0013825096868907655 0 0.021888839864175186 -0.0013344678233625003 0 0.021765929891411608 -0.0015965709532205518 0 0.021706288305346901 -0.0013825096868907655 0 0.021558566733232729 -0.0013156003445240494 0 0.021577422113224227 -0.0014984661169052823 0 0.021706288305346901 -0.0013825096868907655 0 0.021888839864175186 -0.0013344678233625003 0 0.021765929891411608 -0.0015965709532205518 0 0.022074804393222895 -0.0014921389073173094 0 0.01960163304337758 -0.00079867705503447722 0 0.020165873062137792 -0.00075766596438216758 0 0.022095611026545475 -0.0012227190270740359 0 0.021888839864175186 -0.0013344678233625003 0 0.022074804393222895 -0.0014921389073173094 0 0.017824650494426324 -0.00020147434616624583 0 0.017992209892606269 2.0229081044665054e-05 0 0.018037245216098115 -0.0001805585840680736 0 0.017992209892606269 2.0229081044665054e-05 0 0.018037245216098115 -0.0001805585840680736 0 0.018249697658228915 -0.00013343113885907738 0 0.018195073422544367 8.955833005785426e-07 0 0.019763156236194797 -0.00034887519662631274 0 0.02223750744223673 -0.001286332555459084 0 0.022074804393222895 -0.0014921389073173094 0 0.022354343706415088 -0.0014041925359537042 0 0.020165873062137792 -0.00075766596438216758 0 0.019763156236194797 -0.00034887519662631274 0 0.017992209892606269 2.0229081044665054e-05 0 0.018249697658228915 -0.00013343113885907738 0 0.018285634645126839 8.5800841457804217e-05 0 0.019763156236194797 -0.00034887519662631274 0 0.019339063633987699 -0.00040086621347311846 0 0.019457384370688537 -0.00078237544629741296 0 0.019602072378785182 -0.00085615427870765952 0 0.019535020589900354 -0.0010117139056878299 0 0.019339063633987699 -0.00040086621347311846 0 0.018947084576772952 -0.00056079591772687637 0 0.018284944179425451 9.6328142052913205e-05 0 0.018392353741522365 0.00012052414939964396 0 0.018365120901668877 -5.9425009576176801e-05 0 0.019457384370688537 -0.00078237544629741296 0 0.019725096962721112 -0.00075064186551643979 0 0.019602072378785182 -0.00085615427870765952 0 0.019339063633987699 -0.00040086621347311846 0 0.019791049897442594 -0.00074232839183159289 0 0.019725096962721112 -0.00075064186551643979 0 0.019602072378785182 -0.00085615427870765952 0 0.019630992782087638 -0.00087772107940486607 0 0.019602072378785182 -0.00085615427870765952 0 0.019630992782087638 -0.00087772107940486607 0 0.019535020589900354 -0.0010117139056878299 0 0.019630992782087638 -0.00087772107940486607 0 0.019535020589900354 -0.0010117139056878299 0 0.01940650750088543 -0.00092566390031632948 0 0.018249697658228915 -0.00013343113885907738 0 0.018284944179425451 9.6328142052913205e-05 0 0.018365120901668877 -5.9425009576176801e-05 0 0.018392353741522365 0.00012052414939964396 0 0.018532754653598674 -0.00014767451696614877 0 0.018365120901668877 -5.9425009576176801e-05 0 0.018532754653598674 -0.00014767451696614877 0 0.018365120901668877 -5.9425009576176801e-05 0 0.018352144453789528 -0.00025313609520596144 0 0.018249697658228915 -0.00013343113885907738 0 0.018365120901668877 -5.9425009576176801e-05 0 0.018352144453789528 -0.00025313609520596144 0 0.018532754653598674 -0.00014767451696614877 0 0.018352144453789528 -0.00025313609520596144 0 0.018466387957575308 -0.00042201627993524181 0 0.018352144453789528 -0.00025313609520596144 0 0.018466387957575308 -0.00042201627993524181 0 0.018336456888833043 -0.00043271832667383307 0 0.018352144453789528 -0.00025313609520596144 0 0.018336456888833043 -0.00043271832667383307 0 0.018184900783535386 -0.00031015234448669444 0 0.018532754653598674 -0.00014767451696614877 0 0.018466387957575308 -0.00042201627993524181 0 0.018733326940899735 -0.00061840977152075635 0 0.019535020589900354 -0.0010117139056878299 0 0.019012866682727975 -0.0007951341159260683 0 0.018733326940899735 -0.00061840977152075635 0 0.018947084576772952 -0.00056079591772687637 0 0.018825086821877595 -0.00064573566338657965 0 0.019535020589900354 -0.0010117139056878299 0 0.01940650750088543 -0.00092566390031632948 0 0.019012866682727975 -0.0007951341159260683 0 0.01940650750088543 -0.00092566390031632948 0 0.019012866682727975 -0.0007951341159260683 0 0.019431027691180304 -0.00093913981697289371 0 0.018733326940899735 -0.00061840977152075635 0 0.018429688331855185 -0.00057118532319304772 0 0.018315600190293765 -0.00051750067431826871 0 0.018466387957575308 -0.00042201627993524181 0 0.018733326940899735 -0.00061840977152075635 0 0.018429688331855185 -0.00057118532319304772 0 0.018336456888833043 -0.00043271832667383307 0 0.018429688331855185 -0.00057118532319304772 0 0.018199329253188866 -0.0005061333929512826 0 0.018466387957575308 -0.00042201627993524181 0 0.018336456888833043 -0.00043271832667383307 0 0.018429688331855185 -0.00057118532319304772 0 0.018336456888833043 -0.00043271832667383307 0 0.018199329253188866 -0.0005061333929512826 0 0.018184900783535386 -0.00031015234448669444 0 0.018199329253188866 -0.0005061333929512826 0 0.018002939884887399 -0.00034037656526613721 0 0.018184900783535386 -0.00031015234448669444 0 0.017892512579871265 -0.00051320195151040326 0 0.018199329253188866 -0.0005061333929512826 0 0.018002939884887399 -0.00034037656526613721 0 0.017824650494426324 -0.00020147434616624583 0 0.018037245216098115 -0.0001805585840680736 0 0.018002939884887399 -0.00034037656526613721 0 0.018037245216098115 -0.0001805585840680736 0 0.018002939884887399 -0.00034037656526613721 0 0.018184900783535386 -0.00031015234448669444 0 0.018037245216098115 -0.0001805585840680736 0 0.018249697658228915 -0.00013343113885907738 0 0.018184900783535386 -0.00031015234448669444 0 0.018249697658228915 -0.00013343113885907738 0 0.018352144453789528 -0.00025313609520596144 0 0.018184900783535386 -0.00031015234448669444 0 0.0205105191933511 -0.0010624086201755666 0 0.020315665462330729 -0.00098119099017378373 0 0.020183042699086197 -0.0010587175577614163 0 0.020278958011451468 -0.00081747630110287888 0 0.020315665462330729 -0.00098119099017378373 0 0.020737233435250173 -0.0010758211440349715 0 0.0205105191933511 -0.0010624086201755666 0 0.020315665462330729 -0.00098119099017378373 0 0.020737233435250173 -0.0010758211440349715 0 0.020024200985602057 -0.00075920391284782355 0 0.020278958011451468 -0.00081747630110287888 0 0.020091746011655122 -0.00089964318397434064 0 0.020278958011451468 -0.00081747630110287888 0 0.020315665462330729 -0.00098119099017378373 0 0.020091746011655122 -0.00089964318397434064 0 0.020315665462330729 -0.00098119099017378373 0 0.020091746011655122 -0.00089964318397434064 0 0.020183042699086197 -0.0010587175577614163 0 0.020091746011655122 -0.00089964318397434064 0 0.020183042699086197 -0.0010587175577614163 0 0.019882958017317355 -0.00099867486534329177 0 0.020091746011655122 -0.00089964318397434064 0 0.019882958017317355 -0.00099867486534329177 0 0.019842426377259879 -0.00084622965415768971 0 0.019851389322804669 -0.00075079110437065036 0 0.020024200985602057 -0.00075920391284782355 0 0.019842426377259879 -0.00084622965415768971 0 0.020024200985602057 -0.00075920391284782355 0 0.020091746011655122 -0.00089964318397434064 0 0.019842426377259879 -0.00084622965415768971 0 0.019851389322804669 -0.00075079110437065036 0 0.019725096962721112 -0.00075064186551643979 0 0.019630992782087638 -0.00087772107940486607 0 0.019851389322804669 -0.00075079110437065036 0 0.019630992782087638 -0.00087772107940486607 0 0.019842426377259879 -0.00084622965415768971 0 0.019630992782087638 -0.00087772107940486607 0 0.01940650750088543 -0.00092566390031632948 0 0.019608014918965775 -0.00092219986513262793 0 0.019882958017317355 -0.00099867486534329177 0 0.019842426377259879 -0.00084622965415768971 0 0.019608014918965775 -0.00092219986513262793 0 0.019630992782087638 -0.00087772107940486607 0 0.019842426377259879 -0.00084622965415768971 0 0.019608014918965775 -0.00092219986513262793 0 0.019882958017317355 -0.00099867486534329177 0 0.019608014918965775 -0.00092219986513262793 0 0.019656343990774115 -0.0010065710603140018 0 0.019608014918965775 -0.00092219986513262793 0 0.019431027691180304 -0.00093913981697289371 0 0.019656343990774115 -0.0010065710603140018 0 0.01940650750088543 -0.00092566390031632948 0 0.019608014918965775 -0.00092219986513262793 0 0.019431027691180304 -0.00093913981697289371 0 0.019012866682727975 -0.0007951341159260683 0 0.018733326940899735 -0.00061840977152075635 0 0.018374046266185027 -0.00077370733355953719 0 0.019012866682727975 -0.0007951341159260683 0 0.019431027691180304 -0.00093913981697289371 0 0.019818417002466764 -0.001264957751194096 0 0.019096802635366492 -0.00086225535771842197 0 0.018975859811531076 -0.00092629895710960087 0 0.019431027691180304 -0.00093913981697289371 0 0.019656343990774115 -0.0010065710603140018 0 0.019818417002466764 -0.001264957751194096 0 0.018733326940899735 -0.00061840977152075635 0 0.018374046266185027 -0.00077370733355953719 0 0.01843643568655878 -0.00049216988080060995 0 0.018733326940899735 -0.00061840977152075635 0 0.01843643568655878 -0.00049216988080060995 0 0.018315600190293765 -0.00051750067431826871 0 0.018141907938594173 -0.00091176540646287403 0 0.017886858297490153 -0.00048774892741090787 0 0.017813555961487069 -0.0010306353302786783 0 0.018141907938594173 -0.00091176540646287403 0 0.017886858297490153 -0.00048774892741090787 0 0.018417640056501042 -0.00047726485790529897 0 0.018975859811531076 -0.00092629895710960087 0 0.018040648298212746 -0.00071868775134640152 0 0.018975859811531076 -0.00092629895710960087 0 0.019322835387664335 -0.00084033349418045195 0 0.020183042699086197 -0.0010587175577614163 0 0.019882958017317355 -0.00099867486534329177 0 0.01986141060764695 -0.001247183596010378 0 0.019735515600582076 -0.001053959470445312 0 0.018975859811531076 -0.00092629895710960087 0 0.019882958017317355 -0.00099867486534329177 0 0.019656343990774115 -0.0010065710603140018 0 0.019818417002466764 -0.001264957751194096 0 0.0205105191933511 -0.0010624086201755666 0 0.020183042699086197 -0.0010587175577614163 0 0.020273208873661699 -0.0012327657335432002 0 0.020183042699086197 -0.0010587175577614163 0 0.01986141060764695 -0.001247183596010378 0 0.020273208873661699 -0.0012327657335432002 0 0.018141907938594173 -0.00091176540646287403 0 0.018417640056501042 -0.00047726485790529897 0 0.018568621002736204 -0.00096351739281518565 0 0.018417640056501042 -0.00047726485790529897 0 0.018568621002736204 -0.00096351739281518565 0 0.01915128767032459 -0.0004702145857651291 0 0.018568621002736204 -0.00096351739281518565 0 0.019093286848740242 -0.0011871834199601767 0 0.01915128767032459 -0.0004702145857651291 0 0.0205105191933511 -0.0010624086201755666 0 0.020273208873661699 -0.0012327657335432002 0 0.020551311165880392 -0.0010728729795337515 0 0.019322835387664335 -0.00084033349418045195 0 0.019844270227620621 -0.000782324362496168 0 0.018694735655509422 -0.0013149294577361516 0 0.018283579486283279 -0.0016594590556968654 0 0.018960647856051924 -0.001468109018387115 0 0.018568621002736204 -0.00096351739281518565 0 0.018694735655509422 -0.0013149294577361516 0 0.019093286848740242 -0.0011871834199601767 0 0.018694735655509422 -0.0013149294577361516 0 0.019093286848740242 -0.0011871834199601767 0 0.018960647856051924 -0.001468109018387115 0 0.018568621002736204 -0.00096351739281518565 0 0.018694735655509422 -0.0013149294577361516 0 0.018299842641472941 -0.0012874055922738714 0 0.018141907938594173 -0.00091176540646287403 0 0.018568621002736204 -0.00096351739281518565 0 0.018299842641472941 -0.0012874055922738714 0 0.018694735655509422 -0.0013149294577361516 0 0.018299842641472941 -0.0012874055922738714 0 0.018283579486283279 -0.0016594590556968654 0 0.017976394784540418 -0.0012811734247662331 0 0.017783885210898 -0.0014205023208252543 0 0.017922096528686975 -0.0015155576970413145 0 0.018299842641472941 -0.0012874055922738714 0 0.017976394784540418 -0.0012811734247662331 0 0.017922096528686975 -0.0015155576970413145 0 0.017976394784540418 -0.0012811734247662331 0 0.017813555961487069 -0.0010306353302786783 0 0.017783885210898 -0.0014205023208252543 0 0.018141907938594173 -0.00091176540646287403 0 0.017976394784540418 -0.0012811734247662331 0 0.017813555961487069 -0.0010306353302786783 0 0.018141907938594173 -0.00091176540646287403 0 0.018299842641472941 -0.0012874055922738714 0 0.017976394784540418 -0.0012811734247662331 0 0.018040648298212746 -0.00071868775134640152 0 0.018032840054806789 -0.0010750542951942191 0 0.01843643568655878 -0.00049216988080060995 0 0.018279307531707336 -0.00074290608247784128 0 0.018315600190293765 -0.00051750067431826871 0 0.018032840054806789 -0.0010750542951942191 0 0.01785082911347478 -0.0013017570648096079 0 0.018279307531707336 -0.00074290608247784128 0 0.017981382691910488 -0.001097081128769634 0 0.017803491885956035 -0.00085871458614844153 0 0.017783885210898 -0.0014205023208252543 0 0.017734575388051406 -0.0015359314691148435 0 0.017922096528686975 -0.0015155576970413145 0 0.01785082911347478 -0.0013017570648096079 0 0.017694755898095008 -0.0013988938502886466 0 0.017734575388051406 -0.0015359314691148435 0 0.017692705031968906 -0.0015223567469165881 0 0.017922096528686975 -0.0015155576970413145 0 0.018299842641472941 -0.0012874055922738714 0 0.017922096528686975 -0.0015155576970413145 0 0.018283579486283279 -0.0016594590556968654 0 0.017692705031968906 -0.0015223567469165881 0 0.017922096528686975 -0.0015155576970413145 0 0.018283579486283279 -0.0016594590556968654 0 0.017729061256521333 -0.0015091747573812355 0 0.017968752306797963 -0.0014096505665878896 0 0.017692705031968906 -0.0015223567469165881 0 0.017553114877291814 -0.0012394271071918591 0 0.017601269436834977 -0.0013892172603544811 0 0.017553114877291814 -0.0012394271071918591 0 0.017601269436834977 -0.0013892172603544811 0 0.017732381123463276 -0.0012044492974829222 0 0.017553114877291814 -0.0012394271071918591 0 0.017732381123463276 -0.0012044492974829222 0 0.017667790614286003 -0.00087535978597106615 0 0.017968752306797963 -0.0014096505665878896 0 0.018180868803684639 -0.0011821109009690813 0 0.017052164547495866 -0.00061119337502700685 0 0.017531624092420407 -0.00049832612848973686 0 0.017252053159996124 -0.00086362539888947584 0 0.017892512579871265 -0.00051320195151040326 0 0.018199329253188866 -0.0005061333929512826 0 0.018000955214588936 -0.00077906393184561833 0 0.018199329253188866 -0.0005061333929512826 0 0.018000955214588936 -0.00077906393184561833 0 0.018316950792648383 -0.00066249834180182629 0 0.017526548538222043 -0.00069564710163852786 0 0.017921132371990507 -0.00058628334815744032 0 0.017921132371990507 -0.00058628334815744032 0 0.018273758625558946 -0.00052118437826566115 0 0.018429688331855185 -0.00057118532319304772 0 0.018199329253188866 -0.0005061333929512826 0 0.018316950792648383 -0.00066249834180182629 0 0.018429688331855185 -0.00057118532319304772 0 0.018316950792648383 -0.00066249834180182629 0 0.018315600190293765 -0.00051750067431826871 0 0.018279307531707336 -0.00074290608247784128 0 0.018315600190293765 -0.00051750067431826871 0 0.017803491885956035 -0.00085871458614844153 0 0.017531624092420407 -0.00049832612848973686 0 0.017803491885956035 -0.00085871458614844153 0 0.017252053159996124 -0.00086362539888947584 0 0.017531624092420407 -0.00049832612848973686 0 0.018315600190293765 -0.00051750067431826871 0 0.017803491885956035 -0.00085871458614844153 0 0.017803491885956035 -0.00085871458614844153 0 0.017456381626426088 -0.0010392812070799222 0 0.017252053159996124 -0.00086362539888947584 0 0.017981382691910488 -0.001097081128769634 0 0.017576035356921614 -0.0012247134853709931 0 0.01765302502001161 -0.0014055025626496078 0 0.017981382691910488 -0.001097081128769634 0 0.017803491885956035 -0.00085871458614844153 0 0.017576035356921614 -0.0012247134853709931 0 0.017576035356921614 -0.0012247134853709931 0 0.017456381626426088 -0.0010392812070799222 0 0.017256867651324375 -0.0011874535322437315 0 0.017803491885956035 -0.00085871458614844153 0 0.017576035356921614 -0.0012247134853709931 0 0.017456381626426088 -0.0010392812070799222 0 0.017456381626426088 -0.0010392812070799222 0 0.017256867651324375 -0.0011874535322437315 0 0.017252053159996124 -0.00086362539888947584 0 0.017052164547495866 -0.00061119337502700685 0 0.017252053159996124 -0.00086362539888947584 0 0.016968222011226317 -0.0009869771842775162 0 0.017256867651324375 -0.0011874535322437315 0 0.017252053159996124 -0.00086362539888947584 0 0.016968222011226317 -0.0009869771842775162 0 0.017256867651324375 -0.0011874535322437315 0 0.016968222011226317 -0.0009869771842775162 0 0.017027216393933325 -0.0012569747090752359 0 0.017027216393933325 -0.0012569747090752359 0 0.016963950436472575 -0.0013755940833657053 0 0.017143805738006588 -0.0013539818271229259 0 0.017027216393933325 -0.0012569747090752359 0 0.016963950436472575 -0.0013755940833657053 0 0.016789919484975782 -0.0012495749568826931 0 0.016963950436472575 -0.0013755940833657053 0 0.017143805738006588 -0.0013539818271229259 0 0.01706669030078398 -0.0014403452070814453 0 0.017143805738006588 -0.0013539818271229259 0 0.017234877295041685 -0.0014493029287255073 0 0.01706669030078398 -0.0014403452070814453 0 0.017143805738006588 -0.0013539818271229259 0 0.017343116901990509 -0.0013408723447856528 0 0.017234877295041685 -0.0014493029287255073 0 0.017256867651324375 -0.0011874535322437315 0 0.017027216393933325 -0.0012569747090752359 0 0.017143805738006588 -0.0013539818271229259 0 0.017256867651324375 -0.0011874535322437315 0 0.017143805738006588 -0.0013539818271229259 0 0.017343116901990509 -0.0013408723447856528 0 0.017576035356921614 -0.0012247134853709931 0 0.017256867651324375 -0.0011874535322437315 0 0.017343116901990509 -0.0013408723447856528 0 0.017576035356921614 -0.0012247134853709931 0 0.017343116901990509 -0.0013408723447856528 0 0.01765302502001161 -0.0014055025626496078 0 0.017421157801434096 -0.001434964621211514 0 0.01765302502001161 -0.0014055025626496078 0 0.017511748296792962 -0.0014637357654268793 0 0.017343116901990509 -0.0013408723447856528 0 0.017421157801434096 -0.001434964621211514 0 0.01765302502001161 -0.0014055025626496078 0 0.017343116901990509 -0.0013408723447856528 0 0.017421157801434096 -0.001434964621211514 0 0.017234877295041685 -0.0014493029287255073 0 0.017421157801434096 -0.001434964621211514 0 0.017234877295041685 -0.0014493029287255073 0 0.017326087221510508 -0.0014946623101426866 0 0.017234877295041685 -0.0014493029287255073 0 0.017326087221510508 -0.0014946623101426866 0 0.01713373163363394 -0.0015223012996748828 0 0.017326087221510508 -0.0014946623101426866 0 0.017511748296792962 -0.0014637357654268793 0 0.017406560809333522 -0.0015238262832722735 0 0.017421157801434096 -0.001434964621211514 0 0.017326087221510508 -0.0014946623101426866 0 0.017511748296792962 -0.0014637357654268793 0 0.01729358771914833 -0.001549086897447293 0 0.017406560809333522 -0.0015238262832722735 0 0.017329472207824447 -0.0015798428101515391 0 0.017326087221510508 -0.0014946623101426866 0 0.01729358771914833 -0.001549086897447293 0 0.017406560809333522 -0.0015238262832722735 0 0.017326087221510508 -0.0014946623101426866 0 0.01729358771914833 -0.001549086897447293 0 0.01713373163363394 -0.0015223012996748828 0 0.01729358771914833 -0.001549086897447293 0 0.01713373163363394 -0.0015223012996748828 0 0.017202609818173394 -0.0015838203151216544 0 0.01713373163363394 -0.0015223012996748828 0 0.016928936412008273 -0.0014903455796579904 0 0.016918303711573303 -0.0015536229314259478 0 0.016928936412008273 -0.0014903455796579904 0 0.016784713738592187 -0.0015413229578180117 0 0.016918303711573303 -0.0015536229314259478 0 0.016928936412008273 -0.0014903455796579904 0 0.016784713738592187 -0.0015413229578180117 0 0.016752946399362534 -0.0015030954864572105 0 0.016963950436472575 -0.0013755940833657053 0 0.016928936412008273 -0.0014903455796579904 0 0.01677634908372351 -0.0013936108701166872 0 0.016963950436472575 -0.0013755940833657053 0 0.016928936412008273 -0.0014903455796579904 0 0.01706669030078398 -0.0014403452070814453 0 0.017234877295041685 -0.0014493029287255073 0 0.01713373163363394 -0.0015223012996748828 0 0.01706669030078398 -0.0014403452070814453 0 0.01713373163363394 -0.0015223012996748828 0 0.016928936412008273 -0.0014903455796579904 0 0.01706669030078398 -0.0014403452070814453 0 0.01759217915268288 -0.0015128840032401032 0 0.017625626684451844 -0.0014743912663917097 0 0.01759954324436884 -0.001458333644145276 0 0.017629335952858666 -0.0015438080773860817 0 0.01759217915268288 -0.0015128840032401032 0 0.017625626684451844 -0.0014743912663917097 0 0.017625626684451844 -0.0014743912663917097 0 0.017601269436834977 -0.0013892172603544811 0 0.017725862012042137 -0.0014108668782007877 0 0.017625626684451844 -0.0014743912663917097 0 0.017601269436834977 -0.0013892172603544811 0 0.01759954324436884 -0.001458333644145276 0 0.017692705031968906 -0.0015223567469165881 0 0.017601269436834977 -0.0013892172603544811 0 0.01759954324436884 -0.001458333644145276 0 0.01759217915268288 -0.0015128840032401032 0 0.01759954324436884 -0.001458333644145276 0 0.017562973749786655 -0.0014824192926697869 0 0.01759217915268288 -0.0015128840032401032 0 0.017562973749786655 -0.0014824192926697869 0 0.017559577162538378 -0.0015389298284896034 0 0.017562973749786655 -0.0014824192926697869 0 0.017630715435668631 -0.0014519491809137847 0 0.017511748296792962 -0.0014637357654268793 0 0.01759954324436884 -0.001458333644145276 0 0.017562973749786655 -0.0014824192926697869 0 0.017630715435668631 -0.0014519491809137847 0 0.017734575388051406 -0.0015359314691148435 0 0.017692705031968906 -0.0015223567469165881 0 0.017630715435668631 -0.0014519491809137847 0 0.017692705031968906 -0.0015223567469165881 0 0.01759954324436884 -0.001458333644145276 0 0.017630715435668631 -0.0014519491809137847 0 0.017734575388051406 -0.0015359314691148435 0 0.017630715435668631 -0.0014519491809137847 0 0.01765302502001161 -0.0014055025626496078 0 0.017630715435668631 -0.0014519491809137847 0 0.01765302502001161 -0.0014055025626496078 0 0.017511748296792962 -0.0014637357654268793 0 0.017511748296792962 -0.0014637357654268793 0 0.017492809497456768 -0.0015075257035317665 0 0.017406560809333522 -0.0015238262832722735 0 0.017562973749786655 -0.0014824192926697869 0 0.017511748296792962 -0.0014637357654268793 0 0.017492809497456768 -0.0015075257035317665 0 0.017406560809333522 -0.0015238262832722735 0 0.017442126883350787 -0.0015515699388437703 0 0.017329472207824447 -0.0015798428101515391 0 0.017442126883350787 -0.0015515699388437703 0 0.017389641768876831 -0.0015986044597010635 0 0.017329472207824447 -0.0015798428101515391 0 0.017492809497456768 -0.0015075257035317665 0 0.017406560809333522 -0.0015238262832722735 0 0.017442126883350787 -0.0015515699388437703 0 0.017442126883350787 -0.0015515699388437703 0 0.017480499904647274 -0.0015837420339996746 0 0.017520748837200086 -0.0015367911584792827 0 0.017442126883350787 -0.0015515699388437703 0 0.017480499904647274 -0.0015837420339996746 0 0.017389641768876831 -0.0015986044597010635 0 0.017492809497456768 -0.0015075257035317665 0 0.017442126883350787 -0.0015515699388437703 0 0.017520748837200086 -0.0015367911584792827 0 0.017562973749786655 -0.0014824192926697869 0 0.017492809497456768 -0.0015075257035317665 0 0.017520748837200086 -0.0015367911584792827 0 0.017562973749786655 -0.0014824192926697869 0 0.017520748837200086 -0.0015367911584792827 0 0.017559577162538378 -0.0015389298284896034 0 0.017520748837200086 -0.0015367911584792827 0 0.017559577162538378 -0.0015389298284896034 0 0.017544733369740398 -0.0015853260292387245 0 0.017480499904647274 -0.0015837420339996746 0 0.017520748837200086 -0.0015367911584792827 0 0.017544733369740398 -0.0015853260292387245 0 0.017544733369740398 -0.0015853260292387245 0 0.017569295651001599 -0.0016526333444679703 0 0.017509925886237405 -0.0016183070694627774 0 0.017480499904647274 -0.0015837420339996746 0 0.017544733369740398 -0.0015853260292387245 0 0.017509925886237405 -0.0016183070694627774 0 0.017569295651001599 -0.0016526333444679703 0 0.01759566009244222 -0.0015919254357848001 0 0.017630119622720097 -0.00167131869432426 0 0.017544733369740398 -0.0015853260292387245 0 0.017569295651001599 -0.0016526333444679703 0 0.01759566009244222 -0.0015919254357848001 0 0.017559577162538378 -0.0015389298284896034 0 0.017544733369740398 -0.0015853260292387245 0 0.01759566009244222 -0.0015919254357848001 0 0.01759217915268288 -0.0015128840032401032 0 0.017559577162538378 -0.0015389298284896034 0 0.01759566009244222 -0.0015919254357848001 0 0.017629335952858666 -0.0015438080773860817 0 0.01759217915268288 -0.0015128840032401032 0 0.01759566009244222 -0.0015919254357848001 0 0.017509099364086254 -0.0016898960751630303 0 0.017486866471454362 -0.0016779035092115402 0 0.017452129608837737 -0.0017143367070314997 0 0.017509099364086254 -0.0016898960751630303 0 0.01753226752050234 -0.0016723917177699596 0 0.017568512088197742 -0.0016828171875901197 0 0.017509099364086254 -0.0016898960751630303 0 0.017486866471454362 -0.0016779035092115402 0 0.01753226752050234 -0.0016723917177699596 0 0.017569295651001599 -0.0016526333444679703 0 0.017514797400314707 -0.0016523908817574838 0 0.017509925886237405 -0.0016183070694627774 0 0.017569295651001599 -0.0016526333444679703 0 0.01753226752050234 -0.0016723917177699596 0 0.017514797400314707 -0.0016523908817574838 0 0.017569295651001599 -0.0016526333444679703 0 0.01753226752050234 -0.0016723917177699596 0 0.017568512088197742 -0.0016828171875901197 0 0.017486866471454362 -0.0016779035092115402 0 0.01753226752050234 -0.0016723917177699596 0 0.017514797400314707 -0.0016523908817574838 0 0.017514797400314707 -0.0016523908817574838 0 0.017509925886237405 -0.0016183070694627774 0 0.017459748078625034 -0.0016573173828769265 0 0.017509925886237405 -0.0016183070694627774 0 0.017459748078625034 -0.0016573173828769265 0 0.01743196401293064 -0.0016265384234953868 0 0.017486866471454362 -0.0016779035092115402 0 0.017427617667850004 -0.0016908180571954473 0 0.017452129608837737 -0.0017143367070314997 0 0.017486866471454362 -0.0016779035092115402 0 0.017459748078625034 -0.0016573173828769265 0 0.017427617667850004 -0.0016908180571954473 0 0.017486866471454362 -0.0016779035092115402 0 0.017514797400314707 -0.0016523908817574838 0 0.017459748078625034 -0.0016573173828769265 0 0.017427617667850004 -0.0016908180571954473 0 0.017384994953078915 -0.0016684345893521336 0 0.017376370804781209 -0.0017007591948789464 0 0.017384994953078915 -0.0016684345893521336 0 0.017350928107288777 -0.0016428510455443993 0 0.017313819142731068 -0.001690397342717514 0 0.017384994953078915 -0.0016684345893521336 0 0.017313819142731068 -0.001690397342717514 0 0.017376370804781209 -0.0017007591948789464 0 0.017384994953078915 -0.0016684345893521336 0 0.01743196401293064 -0.0016265384234953868 0 0.017350928107288777 -0.0016428510455443993 0 0.017459748078625034 -0.0016573173828769265 0 0.017384994953078915 -0.0016684345893521336 0 0.01743196401293064 -0.0016265384234953868 0 0.017459748078625034 -0.0016573173828769265 0 0.017427617667850004 -0.0016908180571954473 0 0.017384994953078915 -0.0016684345893521336 0 0.017480499904647274 -0.0015837420339996746 0 0.017509925886237405 -0.0016183070694627774 0 0.01743196401293064 -0.0016265384234953868 0 0.017480499904647274 -0.0015837420339996746 0 0.01743196401293064 -0.0016265384234953868 0 0.017389641768876831 -0.0015986044597010635 0 0.01743196401293064 -0.0016265384234953868 0 0.017389641768876831 -0.0015986044597010635 0 0.017350928107288777 -0.0016428510455443993 0 0.017389641768876831 -0.0015986044597010635 0 0.017350928107288777 -0.0016428510455443993 0 0.017278221653958602 -0.0016332417239781846 0 0.017389641768876831 -0.0015986044597010635 0 0.017329472207824447 -0.0015798428101515391 0 0.017278221653958602 -0.0016332417239781846 0 0.017350928107288777 -0.0016428510455443993 0 0.01728761417189929 -0.0016648953889166174 0 0.017278221653958602 -0.0016332417239781846 0 0.017350928107288777 -0.0016428510455443993 0 0.017313819142731068 -0.001690397342717514 0 0.01728761417189929 -0.0016648953889166174 0 0.017313819142731068 -0.001690397342717514 0 0.01728761417189929 -0.0016648953889166174 0 0.017233635313204914 -0.0016888469635339316 0 0.017313819142731068 -0.001690397342717514 0 0.01725213116960431 -0.0017149318500260888 0 0.017233635313204914 -0.0016888469635339316 0 0.017313819142731068 -0.001690397342717514 0 0.017276691658884881 -0.0017344317974903466 0 0.017326711833350862 -0.0017200281531303252 0 0.017313819142731068 -0.001690397342717514 0 0.01725213116960431 -0.0017149318500260888 0 0.017276691658884881 -0.0017344317974903466 0 0.017276691658884881 -0.0017344317974903466 0 0.017293102097545122 -0.0017552301872958268 0 0.017326711833350862 -0.0017200281531303252 0 0.017276691658884881 -0.0017344317974903466 0 0.017205892145049893 -0.0017406351218395768 0 0.017233465677830219 -0.0017725823660567626 0 0.01725213116960431 -0.0017149318500260888 0 0.017276691658884881 -0.0017344317974903466 0 0.017205892145049893 -0.0017406351218395768 0 0.017205892145049893 -0.0017406351218395768 0 0.017233465677830219 -0.0017725823660567626 0 0.017165605959817976 -0.0017746717315157293 0 0.017233465677830219 -0.0017725823660567626 0 0.017191494915320481 -0.0018086040887478883 0 0.017165605959817976 -0.0017746717315157293 0 0.017233465677830219 -0.0017725823660567626 0 0.017191494915320481 -0.0018086040887478883 0 0.017230316445948714 -0.0018098103284604318 0 0.017191494915320481 -0.0018086040887478883 0 0.017230316445948714 -0.0018098103284604318 0 0.017223137771044682 -0.0018280733256913525 0 0.017191494915320481 -0.0018086040887478883 0 0.017182575986839931 -0.0018335029666822283 0 0.017223137771044682 -0.0018280733256913525 0 0.017233465677830219 -0.0017725823660567626 0 0.017230316445948714 -0.0018098103284604318 0 0.017262166650688648 -0.0017855312175114788 0 0.017255978090258334 -0.0018117142617021409 0 0.017230316445948714 -0.0018098103284604318 0 0.017229017219799692 -0.0018272264924803988 0 0.017230316445948714 -0.0018098103284604318 0 0.017229017219799692 -0.0018272264924803988 0 0.017223137771044682 -0.0018280733256913525 0 0.017255978090258334 -0.0018117142617021409 0 0.017230316445948714 -0.0018098103284604318 0 0.017262166650688648 -0.0017855312175114788 0 0.017233465677830219 -0.0017725823660567626 0 0.017262166650688648 -0.0017855312175114788 0 0.017293102097545122 -0.0017552301872958268 0 0.017276691658884881 -0.0017344317974903466 0 0.017233465677830219 -0.0017725823660567626 0 0.017293102097545122 -0.0017552301872958268 0 0.017301834665855342 -0.0018053937760657392 0 0.017360103232990337 -0.0017700824902243148 0 0.017343660235758427 -0.0018404890066645618 0 0.017293102097545122 -0.0017552301872958268 0 0.017309389977334937 -0.0017745205566696513 0 0.017344590225283431 -0.0017395381019897713 0 0.017262166650688648 -0.0017855312175114788 0 0.017293102097545122 -0.0017552301872958268 0 0.017309389977334937 -0.0017745205566696513 0 0.017255978090258334 -0.0018117142617021409 0 0.017301834665855342 -0.0018053937760657392 0 0.017213468009146093 -0.0018553275331461565 0 0.017255978090258334 -0.0018117142617021409 0 0.017262166650688648 -0.0017855312175114788 0 0.017309389977334937 -0.0017745205566696513 0 0.017255978090258334 -0.0018117142617021409 0 0.017309389977334937 -0.0017745205566696513 0 0.017301834665855342 -0.0018053937760657392 0 0.017309389977334937 -0.0017745205566696513 0 0.017301834665855342 -0.0018053937760657392 0 0.017360103232990337 -0.0017700824902243148 0 0.017309389977334937 -0.0017745205566696513 0 0.017360103232990337 -0.0017700824902243148 0 0.017344590225283431 -0.0017395381019897713 0 0.017344590225283431 -0.0017395381019897713 0 0.017376370804781209 -0.0017007591948789464 0 0.017390189032388325 -0.001727035013939348 0 0.017360103232990337 -0.0017700824902243148 0 0.017344590225283431 -0.0017395381019897713 0 0.017390189032388325 -0.001727035013939348 0 0.017293102097545122 -0.0017552301872958268 0 0.017344590225283431 -0.0017395381019897713 0 0.017326711833350862 -0.0017200281531303252 0 0.017313819142731068 -0.001690397342717514 0 0.017326711833350862 -0.0017200281531303252 0 0.017376370804781209 -0.0017007591948789464 0 0.017344590225283431 -0.0017395381019897713 0 0.017326711833350862 -0.0017200281531303252 0 0.017376370804781209 -0.0017007591948789464 0 0.017427617667850004 -0.0016908180571954473 0 0.017376370804781209 -0.0017007591948789464 0 0.017390189032388325 -0.001727035013939348 0 0.017427617667850004 -0.0016908180571954473 0 0.017390189032388325 -0.001727035013939348 0 0.017452129608837737 -0.0017143367070314997 0 0.017410567366253297 -0.0017474068943678707 0 0.017430072050799536 -0.0017537277698690592 0 0.017452129608837737 -0.0017143367070314997 0 0.017390189032388325 -0.001727035013939348 0 0.017410567366253297 -0.0017474068943678707 0 0.017452129608837737 -0.0017143367070314997 0 0.017360103232990337 -0.0017700824902243148 0 0.017394220323084797 -0.0017821417050097221 0 0.017410567366253297 -0.0017474068943678707 0 0.017360103232990337 -0.0017700824902243148 0 0.017394220323084797 -0.0017821417050097221 0 0.017343660235758427 -0.0018404890066645618 0 0.017394220323084797 -0.0017821417050097221 0 0.017430072050799536 -0.0017537277698690592 0 0.01740484122134342 -0.001796797704612917 0 0.017360103232990337 -0.0017700824902243148 0 0.017390189032388325 -0.001727035013939348 0 0.017410567366253297 -0.0017474068943678707 0 0.017394220323084797 -0.0017821417050097221 0 0.017410567366253297 -0.0017474068943678707 0 0.017430072050799536 -0.0017537277698690592 0 0.017430072050799536 -0.0017537277698690592 0 0.017436221595899602 -0.0017585985677795873 0 0.01740484122134342 -0.001796797704612917 0 0.017430072050799536 -0.0017537277698690592 0 0.017436221595899602 -0.0017585985677795873 0 0.017464632604365697 -0.0017256525522730665 0 0.017509099364086254 -0.0016898960751630303 0 0.017464632604365697 -0.0017256525522730665 0 0.017452129608837737 -0.0017143367070314997 0 0.017430072050799536 -0.0017537277698690592 0 0.017464632604365697 -0.0017256525522730665 0 0.017452129608837737 -0.0017143367070314997 0 0.016947863151869483 -0.0016510428109870853 0 0.016853031770933953 -0.0016188920672193744 0 0.017039936555109148 -0.0015914793835084865 0 0.016947863151869483 -0.0016510428109870853 0 0.017039936555109148 -0.0015914793835084865 0 0.01705534401786496 -0.0016503222704046699 0 0.016947863151869483 -0.0016510428109870853 0 0.01705534401786496 -0.0016503222704046699 0 0.016939152185292277 -0.0017032138022297914 0 0.016947863151869483 -0.0016510428109870853 0 0.016853031770933953 -0.0016188920672193744 0 0.016853557899710443 -0.0016875709680261206 0 0.016853031770933953 -0.0016188920672193744 0 0.016780183503162738 -0.0016721369868618842 0 0.016853557899710443 -0.0016875709680261206 0 0.016868726786825026 -0.0012671987454923083 0 0.0094552167213343211 -0.00040534345312000729 0 0.016868726786825026 -0.0012671987454923083 0 0.016847565371728612 -0.0016302673304245331 0 0.016746481745037553 -0.0015418196133438057 0 0.016784713738592187 -0.0015413229578180117 0 0.016918303711573303 -0.0015536229314259478 0 0.016853031770933953 -0.0016188920672193744 0 0.016918303711573303 -0.0015536229314259478 0 0.017039936555109148 -0.0015914793835084865 0 0.01713373163363394 -0.0015223012996748828 0 0.016918303711573303 -0.0015536229314259478 0 0.017039936555109148 -0.0015914793835084865 0 0.01713373163363394 -0.0015223012996748828 0 0.017039936555109148 -0.0015914793835084865 0 0.017202609818173394 -0.0015838203151216544 0 0.017039936555109148 -0.0015914793835084865 0 0.017202609818173394 -0.0015838203151216544 0 0.017118109505480459 -0.0016157667470779729 0 0.017202609818173394 -0.0015838203151216544 0 0.017118109505480459 -0.0016157667470779729 0 0.017172477106696699 -0.0016348465323652377 0 0.017039936555109148 -0.0015914793835084865 0 0.017118109505480459 -0.0016157667470779729 0 0.01705534401786496 -0.0016503222704046699 0 0.01729358771914833 -0.001549086897447293 0 0.017329472207824447 -0.0015798428101515391 0 0.017251349069220882 -0.001604605060462324 0 0.01729358771914833 -0.001549086897447293 0 0.017202609818173394 -0.0015838203151216544 0 0.017251349069220882 -0.001604605060462324 0 0.017202609818173394 -0.0015838203151216544 0 0.017251349069220882 -0.001604605060462324 0 0.017172477106696699 -0.0016348465323652377 0 0.017251349069220882 -0.001604605060462324 0 0.017278221653958602 -0.0016332417239781846 0 0.017172477106696699 -0.0016348465323652377 0 0.017329472207824447 -0.0015798428101515391 0 0.017251349069220882 -0.001604605060462324 0 0.017278221653958602 -0.0016332417239781846 0 0.01728761417189929 -0.0016648953889166174 0 0.017278221653958602 -0.0016332417239781846 0 0.017212035574401992 -0.001663388743350246 0 0.017278221653958602 -0.0016332417239781846 0 0.017172477106696699 -0.0016348465323652377 0 0.017212035574401992 -0.001663388743350246 0 0.017172477106696699 -0.0016348465323652377 0 0.017212035574401992 -0.001663388743350246 0 0.017144515157693819 -0.001685863941793934 0 0.017212035574401992 -0.001663388743350246 0 0.017233635313204914 -0.0016888469635339316 0 0.017144515157693819 -0.001685863941793934 0 0.01728761417189929 -0.0016648953889166174 0 0.017212035574401992 -0.001663388743350246 0 0.017233635313204914 -0.0016888469635339316 0 0.017118109505480459 -0.0016157667470779729 0 0.017172477106696699 -0.0016348465323652377 0 0.01705534401786496 -0.0016503222704046699 0 0.017172477106696699 -0.0016348465323652377 0 0.01705534401786496 -0.0016503222704046699 0 0.017144515157693819 -0.001685863941793934 0 0.01705534401786496 -0.0016503222704046699 0 0.017042206977614639 -0.0017008493044606372 0 0.017144515157693819 -0.001685863941793934 0 0.01705534401786496 -0.0016503222704046699 0 0.017042206977614639 -0.0017008493044606372 0 0.016939152185292277 -0.0017032138022297914 0 0.017042206977614639 -0.0017008493044606372 0 0.017144515157693819 -0.001685863941793934 0 0.017125395642793601 -0.0017336707549418652 0 0.017042206977614639 -0.0017008493044606372 0 0.017125395642793601 -0.0017336707549418652 0 0.017030196814179045 -0.0017508814860613372 0 0.017042206977614639 -0.0017008493044606372 0 0.017030196814179045 -0.0017508814860613372 0 0.016939152185292277 -0.0017032138022297914 0 0.017233635313204914 -0.0016888469635339316 0 0.017179219074057721 -0.0017128384464315024 0 0.017144515157693819 -0.001685863941793934 0 0.01725213116960431 -0.0017149318500260888 0 0.017233635313204914 -0.0016888469635339316 0 0.017179219074057721 -0.0017128384464315024 0 0.017179219074057721 -0.0017128384464315024 0 0.017144515157693819 -0.001685863941793934 0 0.017125395642793601 -0.0017336707549418652 0 0.01725213116960431 -0.0017149318500260888 0 0.017205892145049893 -0.0017406351218395768 0 0.017179219074057721 -0.0017128384464315024 0 0.017205892145049893 -0.0017406351218395768 0 0.017179219074057721 -0.0017128384464315024 0 0.017125395642793601 -0.0017336707549418652 0 0.017205892145049893 -0.0017406351218395768 0 0.017125395642793601 -0.0017336707549418652 0 0.017165605959817976 -0.0017746717315157293 0 0.017125395642793601 -0.0017336707549418652 0 0.017165605959817976 -0.0017746717315157293 0 0.01709911151659842 -0.0017822626825840736 0 0.017125395642793601 -0.0017336707549418652 0 0.01709911151659842 -0.0017822626825840736 0 0.017030196814179045 -0.0017508814860613372 0 0.01709911151659842 -0.0017822626825840736 0 0.017119650806348207 -0.0018229084688002903 0 0.017032895204589234 -0.0018102288465739562 0 0.017165605959817976 -0.0017746717315157293 0 0.01709911151659842 -0.0017822626825840736 0 0.017119650806348207 -0.0018229084688002903 0 0.017191494915320481 -0.0018086040887478883 0 0.017165605959817976 -0.0017746717315157293 0 0.017119650806348207 -0.0018229084688002903 0 0.017191494915320481 -0.0018086040887478883 0 0.017119650806348207 -0.0018229084688002903 0 0.017182575986839931 -0.0018335029666822283 0 0.017030196814179045 -0.0017508814860613372 0 0.016922772424578302 -0.0017745468325536167 0 0.016939152185292277 -0.0017032138022297914 0 0.017030196814179045 -0.0017508814860613372 0 0.017032895204589234 -0.0018102288465739562 0 0.016922772424578302 -0.0017745468325536167 0 0.01709911151659842 -0.0017822626825840736 0 0.017030196814179045 -0.0017508814860613372 0 0.017032895204589234 -0.0018102288465739562 0 0.017032895204589234 -0.0018102288465739562 0 0.016922772424578302 -0.0017745468325536167 0 0.016967696485397692 -0.0018672772756043235 0 0.016922772424578302 -0.0017745468325536167 0 0.016798805669786934 -0.001730192392003408 0 0.016813848324701133 -0.001825476323025006 0 0.016922772424578302 -0.0017745468325536167 0 0.016939152185292277 -0.0017032138022297914 0 0.016798805669786934 -0.001730192392003408 0 0.0096147636122475393 -0.00096968992652205854 0 0.0072722747679368422 -0.00041085667673850798 0 0.016939152185292277 -0.0017032138022297914 0 0.016853557899710443 -0.0016875709680261206 0 0.016798805669786934 -0.001730192392003408 0 0.016947863151869483 -0.0016510428109870853 0 0.016939152185292277 -0.0017032138022297914 0 0.016853557899710443 -0.0016875709680261206 0 0.0094552167213343211 -0.00040534345312000729 0 0.0096147636122475393 -0.00096968992652205854 0 0.016780183503162738 -0.0016721369868618842 0 0.016853557899710443 -0.0016875709680261206 0 0.016798805669786934 -0.001730192392003408 0 0.0023111398327205122 -0.00026253046994056034 0 0.0019476961393147354 0.00027168538893938393 0 0.0021036497381701613 0.00042621944552930765 0 0.0019476961393147354 0.00027168538893938393 0 0.0021036497381701613 0.00042621944552930765 0 0.0017077798267643566 0.00068852245343311463 0 0.0021036497381701613 0.00042621944552930765 0 0.0022933745120033303 0.00058521428160586073 0 0.0020720924878155308 0.00068370749326214996 0 0.0022933745120033303 0.00058521428160586073 0 0.0025086989064105245 0.00033674633579199736 0 0.0024878742601134626 0.00077959506616283292 0 0.0023111398327205122 -0.00026253046994056034 0 0.0021036497381701613 0.00042621944552930765 0 0.0025086989064105245 0.00033674633579199736 0 0.0028732386613515232 0.001394308698330684 0 0.0026944377702191359 0.001363115693632245 0 0.0027185625014555575 0.0010706887545009053 0 0.0021036497381701613 0.00042621944552930765 0 0.0022933745120033303 0.00058521428160586073 0 0.0025086989064105245 0.00033674633579199736 0 0.0026944377702191359 0.001363115693632245 0 0.0027658375728154671 0.0015397819758642842 0 0.0025620336358603692 0.0014789127617255136 0 0.0028732386613515232 0.001394308698330684 0 0.0026944377702191359 0.001363115693632245 0 0.0027658375728154671 0.0015397819758642842 0 0.0026944377702191359 0.001363115693632245 0 0.0025620336358603692 0.0014789127617255136 0 0.0025429437547994154 0.0012527620014687866 0 0.0094552167213343211 -0.00040534345312000729 0 0.0021506626791158189 0.0007017941730705253 0 0.0029576623520048049 0.0014967492471907018 0 0.0028732386613515232 0.001394308698330684 0 0.0027658375728154671 0.0015397819758642842 0 0.016746481745037553 -0.0015418196133438057 0 0.016662922430807942 -0.0014801613713325405 0 0.016700267283247611 -0.0015326493375664905 0 0.0094552167213343211 -0.00040534345312000729 0 0.0098193197127152462 7.7034913770041724e-05 0 0.0029576623520048049 0.0014967492471907018 0 0.0027658375728154671 0.0015397819758642842 0 0.0028749222034557846 0.0015665836828783054 0 0.0027658375728154671 0.0015397819758642842 0 0.0028749222034557846 0.0015665836828783054 0 0.0028579747698198807 0.0015839914087832278 0 0.0098193197127152462 7.7034913770041724e-05 0 0.0097327805863943271 -1.2913280541107294e-05 0 0.0028749222034557846 0.0015665836828783054 0 0.0028579747698198807 0.0015839914087832278 0 0.0028707425768621114 0.0014767829363049178 0 0.016746481745037553 -0.0015418196133438057 0 0.016784713738592187 -0.0015413229578180117 0 0.016700267283247611 -0.0015326493375664905 0 0.016784713738592187 -0.0015413229578180117 0 0.016700267283247611 -0.0015326493375664905 0 0.016752946399362534 -0.0015030954864572105 0 0.0028643158481443517 0.0015773378702816877 0 0.0027527824560202832 0.001593870063057474 0 0.0030825097150766574 0.001552992365473281 0 0.0028579747698198807 0.0015839914087832278 0 0.0027527824560202832 0.001593870063057474 0 0.0030825097150766574 0.001552992365473281 0 0.0027658375728154671 0.0015397819758642842 0 0.0028579747698198807 0.0015839914087832278 0 0.0027527824560202832 0.001593870063057474 0 0.0027527824560202832 0.001593870063057474 0 0.0026922301685696178 0.0015846877521918505 0 0.0025317185196174611 0.0015716245346552719 0 0.0028643158481443517 0.0015773378702816877 0 0.0027527824560202832 0.001593870063057474 0 0.0026922301685696178 0.0015846877521918505 0 0.0025317185196174611 0.0015716245346552719 0 0.0022672943718797687 0.0015536637130255878 0 0.0025279658027441252 0.0015980649430480263 0 0.0026922301685696178 0.0015846877521918505 0 0.0025317185196174611 0.0015716245346552719 0 0.0025279658027441252 0.0015980649430480263 0 0.0027658375728154671 0.0015397819758642842 0 0.0025317185196174611 0.0015716245346552719 0 0.0025620336358603692 0.0014789127617255136 0 0.0027658375728154671 0.0015397819758642842 0 0.0027527824560202832 0.001593870063057474 0 0.0025317185196174611 0.0015716245346552719 0 0.0025317185196174611 0.0015716245346552719 0 0.0025620336358603692 0.0014789127617255136 0 0.0022672943718797687 0.0015536637130255878 0 0.0025620336358603692 0.0014789127617255136 0 0.0022672943718797687 0.0015536637130255878 0 0.0025429437547994154 0.0012527620014687866 0 0.0022672943718797687 0.0015536637130255878 0 0.0025279658027441252 0.0015980649430480263 0 0.0018077011133549984 0.0014444340435464053 0 0.0016016387804342314 0.0023372343469481587 0 0.0019121693929805062 0.0013861970433758114 0 0.00068138776828721172 0.0021631550824939925 0 0.0010125428610776525 0.0028616615436269088 0 0.0018077011133549984 0.0014444340435464053 0 0.00068138776828721172 0.0021631550824939925 0 0.0003996851183640565 0.0026591696356706336 0 0.0010125428610776525 0.0028616615436269088 0 0.00068138776828721172 0.0021631550824939925 0 9.5681501942337013e-05 0.0020699529290998005 0 0.0006520553877404847 0.0015063753370685076 0 9.5681501942337013e-05 0.0020699529290998005 0 0.0003996851183640565 0.0026591696356706336 0 5.5857301586429425e-05 0.0031517823576167185 0 -8.3567874308864126e-05 2.8467332554324814e-05 0 2.4596211822374182e-05 -0.00080362779092890311 0 0.00043618035004504947 1.4949057436278637e-05 0 0.00091490053413234172 0.00078518151656753487 0 0.00044322852226022551 -0.00039263888258088555 0 -7.1227297693932183e-05 0.0011342993391174256 0 0.00091490053413234172 0.00078518151656753487 0 -8.3567874308864126e-05 2.8467332554324814e-05 0 0.00043618035004504947 1.4949057436278637e-05 0 -2.2136856454962309e-05 0.00022435133638183956 0 0.00068138776828721172 0.0021631550824939925 0 9.5681501942337013e-05 0.0020699529290998005 0 0.0003996851183640565 0.0026591696356706336 0 5.5857301586429425e-05 0.0031517823576167185 0 0.0010125428610776525 0.0028616615436269088 0 0.00050293711082796157 0.0039978296104100511 0 0.0003996851183640565 0.0026591696356706336 0 5.5857301586429425e-05 0.0031517823576167185 0 0.0010125428610776525 0.0028616615436269088 0 0.0007908343219288844 3.8639494009515147e-05 0 0.00011674654409917444 9.9439034445755081e-05 0 -3.595713333412958e-05 1.5080300415153988e-07 0 0.0007908343219288844 3.8639494009515147e-05 0 0.0013659442525106658 1.1156293294974264e-07 0 -3.595713333412958e-05 1.5080300415153988e-07 0 0.0007908343219288844 3.8639494009515147e-05 0 0.00043618035004504947 1.4949057436278637e-05 0 0.00011674654409917444 9.9439034445755081e-05 0 0.0007908343219288844 3.8639494009515147e-05 0 0.00043618035004504947 1.4949057436278637e-05 0 0.0010995684628481741 4.6143160595354366e-05 0 0.0016209645460496 7.5142669607726234e-05 0 0.0010995684628481741 4.6143160595354366e-05 0 0.0015852515448336448 0.0001014390850304819 0 0.0016209645460496 7.5142669607726234e-05 0 0.00043618035004504947 1.4949057436278637e-05 0 0.0010995684628481741 4.6143160595354366e-05 0 0.0007908343219288844 3.8639494009515147e-05 0 0.0010995684628481741 4.6143160595354366e-05 0 0.0015852515448336448 0.0001014390850304819 0 0.0007908343219288844 3.8639494009515147e-05 0 0.0013659442525106658 1.1156293294974264e-07 0 0.0015852515448336448 0.0001014390850304819 0 0.0013659442525106658 1.1156293294974264e-07 0 0.0015852515448336448 0.0001014390850304819 0 0.0027680656505962306 2.8145896841691157e-07 0 0.0022217998984060384 0.00011683718242650072 0 0.0015852515448336448 0.0001014390850304819 0 0.0027680656505962306 2.8145896841691157e-07 0 0.0022217998984060384 0.00011683718242650072 0 0.0015852515448336448 0.0001014390850304819 0 0.0021113687103219893 0.00019425641321386467 0 0.0022217998984060384 0.00011683718242650072 0 0.0026276283723070401 0.00013329252377706189 0 0.0021113687103219893 0.00019425641321386467 0 0.0026276283723070401 0.00013329252377706189 0 0.0027680656505962306 2.8145896841691157e-07 0 0.0034098877711951229 4.9429841045076889e-05 0 0.0022217998984060384 0.00011683718242650072 0 0.0026276283723070401 0.00013329252377706189 0 0.0027680656505962306 2.8145896841691157e-07 0 0.0026922301685696178 0.0015846877521918505 0 0.0025279658027441252 0.0015980649430480263 0 0.002793531985233457 0.001584580594497178 0 0.0016016387804342314 0.0023372343469481587 0 0.0026572357690782082 0.0022707541695235461 0 0.0028643158481443517 0.0015773378702816877 0 0.0026922301685696178 0.0015846877521918505 0 0.002793531985233457 0.001584580594497178 0 0.00091490053413234172 0.00078518151656753487 0 0.0026572357690782082 0.0022707541695235461 0 0.0020988312151530996 0.00020510036550121499 0 0.0021276600693267522 0.00019098404558153632 0 0.0021113687103219893 0.00019425641321386467 0 0.0016209645460496 7.5142669607726234e-05 0 0.0015852515448336448 0.0001014390850304819 0 0.0021113687103219893 0.00019425641321386467 0 0.00091490053413234172 0.00078518151656753487 0 0.0019443105496036494 1.2237043200905183e-05 0 0.0021276600693267522 0.00019098404558153632 0 0.0021113687103219893 0.00019425641321386467 0 0.0027967213490083386 6.6988227289584875e-05 0 0.0026572357690782082 0.0022707541695235461 0 0.0043206211372628887 0.0011954669336881655 0 0.0026276283723070401 0.00013329252377706189 0 0.0021113687103219893 0.00019425641321386467 0 0.0027967213490083386 6.6988227289584875e-05 0 0.0028643158481443517 0.0015773378702816877 0 0.002793531985233457 0.001584580594497178 0 0.0030189984309051832 0.0015703781283737258 0 0.0048845151830981598 0.003899139554913058 0 0.0042893070696217034 0.0026721461499179464 0 0.0055654013297155589 0.0024011940291462771 0 0.0026572357690782082 0.0022707541695235461 0 0.0038234871060907325 0.0022309182087387222 0 0.0042893070696217034 0.0026721461499179464 0 0.0055654013297155589 0.0024011940291462771 0 0.0047872675033485256 0.0014270914375101608 0 0.0055654013297155589 0.0024011940291462771 0 0.0047872675033485256 0.0014270914375101608 0 0.0062220543546088261 0.00082589054846814581 0 0.0047872675033485256 0.0014270914375101608 0 0.004012562317071592 0.00075523725187448651 0 0.00353990377772241 0.001332402608878435 0 0.0042893070696217034 0.0026721461499179464 0 0.0047872675033485256 0.0014270914375101608 0 0.00353990377772241 0.001332402608878435 0 0.0027680656505962306 2.8145896841691157e-07 0 0.0034098877711951229 4.9429841045076889e-05 0 0.0041701037276564512 1.1088750491071629e-07 0 0.0026276283723070401 0.00013329252377706189 0 0.0027967213490083386 6.6988227289584875e-05 0 0.0034098877711951229 4.9429841045076889e-05 0 0.0043206211372628887 0.0011954669336881655 0 0.0051725811231801543 0.00046276577703778261 0 0.0027967213490083386 6.6988227289584875e-05 0 0.0034098877711951229 4.9429841045076889e-05 0 0.0041893323645993434 -0.00011312472952445877 0 0.0034098877711951229 4.9429841045076889e-05 0 0.0041701037276564512 1.1088750491071629e-07 0 0.0041893323645993434 -0.00011312472952445877 0 0.0041701037276564512 1.1088750491071629e-07 0 0.0041893323645993434 -0.00011312472952445877 0 0.0055726773859138745 -4.6774694440746421e-07 0 0.0062220543546088261 0.00082589054846814581 0 0.006179437634373508 -6.5210419894725944e-05 0 0.0061696478712087791 -0.00014490245412927176 0 0.0051725811231801543 0.00046276577703778261 0 0.0060210158691609882 6.3403532085745086e-06 0 0.0069748034664029257 2.0287776855208051e-07 0 0.006179437634373508 -6.5210419894725944e-05 0 0.0055726773859138745 -4.6774694440746421e-07 0 0.0041893323645993434 -0.00011312472952445877 0 0.006179437634373508 -6.5210419894725944e-05 0 0.0055726773859138745 -4.6774694440746421e-07 0 0.0050395976932115722 0.00040317519202698218 0 0.0039243520140568415 -0.00017142063018367131 0 0.004012562317071592 0.00075523725187448651 0 0.0047872675033485256 0.0014270914375101608 0 0.0050395976932115722 0.00040317519202698218 0 0.004012562317071592 0.00075523725187448651 0 0.0062220543546088261 0.00082589054846814581 0 0.0050395976932115722 0.00040317519202698218 0 0.0061696478712087791 -0.00014490245412927176 0 0.0047872675033485256 0.0014270914375101608 0 0.0062220543546088261 0.00082589054846814581 0 0.0050395976932115722 0.00040317519202698218 0 0.0050395976932115722 0.00040317519202698218 0 0.0061696478712087791 -0.00014490245412927176 0 0.0050052649623986865 -0.0003732584804095328 0 0.0050395976932115722 0.00040317519202698218 0 0.0050052649623986865 -0.0003732584804095328 0 0.0039243520140568415 -0.00017142063018367131 0 0.0039243520140568415 -0.00017142063018367131 0 0.004012562317071592 0.00075523725187448651 0 0.0031293856308921386 0.0010461181442384163 0 0.004012562317071592 0.00075523725187448651 0 0.0031293856308921386 0.0010461181442384163 0 0.00353990377772241 0.001332402608878435 0 0.010100649482462367 -0.00063522032412682969 0 0.0098022588421655156 -0.00016396589034119353 0 0.0163178680465993 -0.0011739668111192345 0 0.016452056768604558 -0.0013475814733896743 0 0.016577468867203172 -0.0012300621904738748 0 0.016668971824712747 -0.0011050159240691315 0 0.016480917559100559 -0.0010919839121330884 0 0.016577468867203172 -0.0012300621904738748 0 0.016480917559100559 -0.0010919839121330884 0 0.0163178680465993 -0.0011739668111192345 0 0.016577468867203172 -0.0012300621904738748 0 0.016452056768604558 -0.0013475814733896743 0 0.016577468867203172 -0.0012300621904738748 0 0.01677634908372351 -0.0013936108701166872 0 0.016668971824712747 -0.0011050159240691315 0 0.016577468867203172 -0.0012300621904738748 0 0.016789919484975782 -0.0012495749568826931 0 0.016968222011226317 -0.0009869771842775162 0 0.017027216393933325 -0.0012569747090752359 0 0.016789919484975782 -0.0012495749568826931 0 0.016963950436472575 -0.0013755940833657053 0 0.016789919484975782 -0.0012495749568826931 0 0.01677634908372351 -0.0013936108701166872 0 0.016577468867203172 -0.0012300621904738748 0 0.016789919484975782 -0.0012495749568826931 0 0.01677634908372351 -0.0013936108701166872 0 0.01677634908372351 -0.0013936108701166872 0 0.016752946399362534 -0.0015030954864572105 0 0.016596707189870375 -0.0014868164679339871 0 0.016452056768604558 -0.0013475814733896743 0 0.01677634908372351 -0.0013936108701166872 0 0.016596707189870375 -0.0014868164679339871 0 0.016928936412008273 -0.0014903455796579904 0 0.01677634908372351 -0.0013936108701166872 0 0.016752946399362534 -0.0015030954864572105 0 0.016700267283247611 -0.0015326493375664905 0 0.016752946399362534 -0.0015030954864572105 0 0.016596707189870375 -0.0014868164679339871 0 0.0028579747698198807 0.0015839914087832278 0 0.0028707425768621114 0.0014767829363049178 0 0.0030825097150766574 0.001552992365473281 0 0.0038234871060907325 0.0022309182087387222 0 0.0034453133987123034 0.001296815831312042 0 0.0028643158481443517 0.0015773378702816877 0 0.0030189984309051832 0.0015703781283737258 0 0.0030825097150766574 0.001552992365473281 0 0.0030189984309051832 0.0015703781283737258 0 0.0030825097150766574 0.001552992365473281 0 0.00353990377772241 0.001332402608878435 0 0.0031293856308921386 0.0010461181442384163 0 0.0030825097150766574 0.001552992365473281 0 0.00353990377772241 0.001332402608878435 0 0.0031293856308921386 0.0010461181442384163 0 0.0028707425768621114 0.0014767829363049178 0 0.0030825097150766574 0.001552992365473281 0 0.0098022588421655156 -0.00016396589034119353 0 0.0097327805863943271 -1.2913280541107294e-05 0 0.0051132940331231344 -0.00052083729209070233 0 0.0040910318126683182 -0.0003675070621423286 0 0.0054299494542639094 -0.00030362402929442773 0 0.0053670913949058624 -7.5231917802407152e-05 0 0.0055189998133099074 -0.00017637079344832643 0 0.0047241372775929215 -0.00062393939670433421 0 0.0047194166116446487 -0.00062699775815548947 0 0.0047492376262632252 -0.0005602355695993259 0 0.0047194166116446487 -0.00062699775815548947 0 0.0047492376262632252 -0.0005602355695993259 0 0.0046807298824713033 -0.000498991219570351 0 0.0040910318126683182 -0.0003675070621423286 0 0.0032394981717868915 -0.00046331271709776773 0 0.0053670913949058624 -7.5231917802407152e-05 0 0.0055424383484124337 -8.7512106050434532e-05 0 0.0055189998133099074 -0.00017637079344832643 0 0.0040910318126683182 -0.0003675070621423286 0 0.0054957655054806136 -9.8964168930154868e-05 0 0.0045324293573622059 -8.253298107867765e-05 0 0.005149061733579441 -0.00011126255503090762 0 0.0049845429559856064 0.00043106388632362385 0 0.0055424383484124337 -8.7512106050434532e-05 0 0.005610926492945029 -0.00015316843527129212 0 0.0056794564968418821 -5.529145458079689e-05 0 0.0054957655054806136 -9.8964168930154868e-05 0 0.0055868025949940298 -7.1022412924167649e-05 0 0.0055424383484124337 -8.7512106050434532e-05 0 0.005610926492945029 -0.00015316843527129212 0 0.0055189998133099074 -0.00017637079344832643 0 0.0034563948669268721 -0.00093609794822822954 0 0.0037103482677054789 -0.0013302868994264198 0 0.0038216296141683555 -0.0010976274931942258 0 0.0056794564968418821 -5.529145458079689e-05 0 0.0055748410498118904 0.00015134640593933589 0 0.005863163710689831 -0.00024200164939904589 0 0.005149061733579441 -0.00011126255503090762 0 0.0056794564968418821 -5.529145458079689e-05 0 0.0055748410498118904 0.00015134640593933589 0 0.0030594622582556259 -0.00078877589731036373 0 0.0056103466570757536 -0.00097582597780229252 0 0.0030594622582556259 -0.00078877589731036373 0 0.0020636626539472596 -0.0018314906480050514 0 0.0056794564968418821 -5.529145458079689e-05 0 0.0056826258106243985 -0.00017909756928018793 0 0.0057496969853788474 -0.0002018833406738716 0 0.005610926492945029 -0.00015316843527129212 0 0.0056794564968418821 -5.529145458079689e-05 0 0.0056826258106243985 -0.00017909756928018793 0 0.0056794564968418821 -5.529145458079689e-05 0 0.0057496969853788474 -0.0002018833406738716 0 0.005863163710689831 -0.00024200164939904589 0 0.0058198029593278374 -0.00026579223936068269 0 0.0057219564967676559 -0.00023538700718898212 0 0.0057069051247000836 -0.00028350794384621089 0 0.0058198029593278374 -0.00026579223936068269 0 0.0057496969853788474 -0.0002018833406738716 0 0.005863163710689831 -0.00024200164939904589 0 0.0070425595185396013 -0.00051634059756945996 0 0.0056103466570757536 -0.00097582597780229252 0 0.0058198029593278374 -0.00026579223936068269 0 0.0057496969853788474 -0.0002018833406738716 0 0.0057219564967676559 -0.00023538700718898212 0 0.0057219564967676559 -0.00023538700718898212 0 0.0056631678221517653 -0.00023158438268606818 0 0.0057069051247000836 -0.00028350794384621089 0 0.0056826258106243985 -0.00017909756928018793 0 0.0057219564967676559 -0.00023538700718898212 0 0.0056631678221517653 -0.00023158438268606818 0 0.0056826258106243985 -0.00017909756928018793 0 0.0057496969853788474 -0.0002018833406738716 0 0.0057219564967676559 -0.00023538700718898212 0 0.005610926492945029 -0.00015316843527129212 0 0.0056826258106243985 -0.00017909756928018793 0 0.0056631678221517653 -0.00023158438268606818 0 0.0056578943185161615 -0.00028543945468305798 0 0.005685233354637385 -0.00033233694303106201 0 0.0057069051247000836 -0.00028350794384621089 0 0.0056631678221517653 -0.00023158438268606818 0 0.0056578943185161615 -0.00028543945468305798 0 0.0057069051247000836 -0.00028350794384621089 0 0.0056578943185161615 -0.00028543945468305798 0 0.005685233354637385 -0.00033233694303106201 0 0.0056268744291225756 -0.00033926015086799244 0 0.005685233354637385 -0.00033233694303106201 0 0.0057069051247000836 -0.00028350794384621089 0 0.0057406017936003188 -0.00032108618016110353 0 0.0058198029593278374 -0.00026579223936068269 0 0.0057069051247000836 -0.00028350794384621089 0 0.0057406017936003188 -0.00032108618016110353 0 0.0070425595185396013 -0.00051634059756945996 0 0.0094761332060283015 -0.00067100558987507198 0 0.010507458358958234 -0.0010624497628198603 0 0.010524683302554363 -0.0011505519585837116 0 0.010457026004898668 -0.0011981073335324631 0 0.0058198029593278374 -0.00026579223936068269 0 0.0057406017936003188 -0.00032108618016110353 0 0.00573673595669819 -0.00037473143952218574 0 0.0054299494542639094 -0.00030362402929442773 0 0.0055189998133099074 -0.00017637079344832643 0 0.0056052768290635133 -0.00023835284415382233 0 0.0054299494542639094 -0.00030362402929442773 0 0.0056052768290635133 -0.00023835284415382233 0 0.0056268744291225756 -0.00033926015086799244 0 0.005610926492945029 -0.00015316843527129212 0 0.0055189998133099074 -0.00017637079344832643 0 0.0056052768290635133 -0.00023835284415382233 0 0.005610926492945029 -0.00015316843527129212 0 0.0056631678221517653 -0.00023158438268606818 0 0.0056052768290635133 -0.00023835284415382233 0 0.0056631678221517653 -0.00023158438268606818 0 0.0056578943185161615 -0.00028543945468305798 0 0.0056052768290635133 -0.00023835284415382233 0 0.0056578943185161615 -0.00028543945468305798 0 0.0056052768290635133 -0.00023835284415382233 0 0.0056268744291225756 -0.00033926015086799244 0 0.0055734949075305438 -0.0004262415334547997 0 0.0056942571893948205 -0.00047607257495982494 0 0.0054972392045488216 -0.00053210478473684065 0 0.0054299494542639094 -0.00030362402929442773 0 0.0056268744291225756 -0.00033926015086799244 0 0.0055734949075305438 -0.0004262415334547997 0 0.0056268744291225756 -0.00033926015086799244 0 0.0055734949075305438 -0.0004262415334547997 0 0.0056756198220993346 -0.00038565970911535389 0 0.0055734949075305438 -0.0004262415334547997 0 0.0056756198220993346 -0.00038565970911535389 0 0.0056942571893948205 -0.00047607257495982494 0 0.010524683302554363 -0.0011505519585837116 0 0.010457026004898668 -0.0011981073335324631 0 0.010502944812034704 -0.0012799696021082425 0 0.005685233354637385 -0.00033233694303106201 0 0.0057406017936003188 -0.00032108618016110353 0 0.00573673595669819 -0.00037473143952218574 0 0.005685233354637385 -0.00033233694303106201 0 0.0056268744291225756 -0.00033926015086799244 0 0.0056756198220993346 -0.00038565970911535389 0 0.005685233354637385 -0.00033233694303106201 0 0.00573673595669819 -0.00037473143952218574 0 0.0056756198220993346 -0.00038565970911535389 0 0.0094761332060283015 -0.00067100558987507198 0 0.010232335042352964 6.0223086832836707e-05 0 0.010850797465220444 -0.00015752668927869977 0 0.010865454608800304 -0.00012729512782682311 0 0.010848513042911678 -0.00013573070022586926 0 0.010232335042352964 6.0223086832836707e-05 0 0.013819212611293626 -0.00038292448162399642 0 0.00573673595669819 -0.00037473143952218574 0 0.0056756198220993346 -0.00038565970911535389 0 0.0056942571893948205 -0.00047607257495982494 0 0.0094761332060283015 -0.00067100558987507198 0 0.013819212611293626 -0.00038292448162399642 0 0.014405435287941255 0.0012215950822907849 0 0.014916114341163201 0.0013655798288740382 0 0.014712865051028871 0.00028001579009219891 0 0.014916114341163201 0.0013655798288740382 0 0.015602100256723681 -9.892703791796488e-05 0 0.014712865051028871 0.00028001579009219891 0 0.010232335042352964 6.0223086832836707e-05 0 0.005743826011029649 -0.00022976637492399011 0 0.010232335042352964 6.0223086832836707e-05 0 0.011540071809943184 0.0013303368740280412 0 0.0092571697546159123 0.00028773870829029138 0 0.0094469165775295794 0.00034745733860561389 0 0.0094086825264842432 0.00057862290677142942 0 0.014405435287941255 0.0012215950822907849 0 0.013666141229023791 -0.00020625934749004228 0 0.014712865051028871 0.00028001579009219891 0 0.0046887130840253567 -0.00057147793174979779 0 0.0047410693492943162 -0.00053247705670255395 0 0.0047286355742159041 -0.00060061920862459377 0 0.0046887130840253567 -0.00057147793174979779 0 0.0046861304684702445 -0.00060979968101334604 0 0.0046221502788216292 -0.00057873158232956703 0 0.0046887130840253567 -0.00057147793174979779 0 0.0046221502788216292 -0.00057873158232956703 0 0.0047286355742159041 -0.00060061920862459377 0 0.0046887130840253567 -0.00057147793174979779 0 0.0047073608052156787 -0.00061805377055469159 0 0.0046861304684702445 -0.00060979968101334604 0 0.0046887130840253567 -0.00057147793174979779 0 0.0046763906490089298 -0.00058617995216467462 0 0.0047073608052156787 -0.00061805377055469159 0 0.0048720359616787222 -0.00049436436347519608 0 0.005743826011029649 -0.00022976637492399011 0 0.0054299494542639094 -0.00030362402929442773 0 0.0055734949075305438 -0.0004262415334547997 0 0.0054972392045488216 -0.00053210478473684065 0 0.0051132940331231344 -0.00052083729209070233 0 0.005743826011029649 -0.00022976637492399011 0 0.0047241372775929215 -0.00062393939670433421 0 0.0046763906490089298 -0.00058617995216467462 0 0.0047073608052156787 -0.00061805377055469159 0 0.0047241372775929215 -0.00062393939670433421 0 0.0047194166116446487 -0.00062699775815548947 0 0.0047073608052156787 -0.00061805377055469159 0 0.0047073608052156787 -0.00061805377055469159 0 0.0047176018342892905 -0.00065307472700543796 0 0.0046861304684702445 -0.00060979968101334604 0 0.0047194166116446487 -0.00062699775815548947 0 0.0047073608052156787 -0.00061805377055469159 0 0.0047176018342892905 -0.00065307472700543796 0 0.0047176018342892905 -0.00065307472700543796 0 0.0046861304684702445 -0.00060979968101334604 0 0.0047206933191620898 -0.00061240321768622058 0 0.0046861304684702445 -0.00060979968101334604 0 0.0047206933191620898 -0.00061240321768622058 0 0.0046221502788216292 -0.00057873158232956703 0 0.0047206933191620898 -0.00061240321768622058 0 0.0047836644490404003 -0.00061890854328527196 0 0.0047636482726601112 -0.00053461209641674889 0 0.0047206933191620898 -0.00061240321768622058 0 0.0047435174945617024 -0.00066687347619178686 0 0.0047836644490404003 -0.00061890854328527196 0 0.0047176018342892905 -0.00065307472700543796 0 0.0047206933191620898 -0.00061240321768622058 0 0.0047435174945617024 -0.00066687347619178686 0 0.0047435174945617024 -0.00066687347619178686 0 0.0047836644490404003 -0.00061890854328527196 0 0.0047869805253744728 -0.00068705256494312121 0 0.0047836644490404003 -0.00061890854328527196 0 0.0047869805253744728 -0.00068705256494312121 0 0.004853667407691691 -0.00059766901573243424 0 0.0047869805253744728 -0.00068705256494312121 0 0.0048803053337669634 -0.00063968876132243491 0 0.004853667407691691 -0.00059766901573243424 0 0.0048078369742148071 -0.00070374923444228854 0 0.0047869805253744728 -0.00068705256494312121 0 0.0048803053337669634 -0.00063968876132243491 0 0.0048078369742148071 -0.00070374923444228854 0 0.0049166167588845927 -0.00066633322751930523 0 0.0048803053337669634 -0.00063968876132243491 0 0.0048078369742148071 -0.00070374923444228854 0 0.0047869805253744728 -0.00068705256494312121 0 0.0046787014244931962 -0.00074276903835568224 0 0.004693122122033406 -0.00069500464876700782 0 0.0046787014244931962 -0.00074276903835568224 0 0.0045253204278554848 -0.00073544745099548864 0 0.0047869805253744728 -0.00068705256494312121 0 0.004693122122033406 -0.00069500464876700782 0 0.0046787014244931962 -0.00074276903835568224 0 0.0047194166116446487 -0.00062699775815548947 0 0.0047176018342892905 -0.00065307472700543796 0 0.004693122122033406 -0.00069500464876700782 0 0.0047176018342892905 -0.00065307472700543796 0 0.0047435174945617024 -0.00066687347619178686 0 0.004693122122033406 -0.00069500464876700782 0 0.0047435174945617024 -0.00066687347619178686 0 0.0047869805253744728 -0.00068705256494312121 0 0.004693122122033406 -0.00069500464876700782 0 0.0047631022109799557 -0.0010996324034377111 0 0.0045300098812465868 -0.0011854178948480806 0 0.0050745879825182172 -0.00085797217738564787 0 0.0047631022109799557 -0.0010996324034377111 0 0.0049868857440591458 -0.00064888901185557386 0 0.0050745879825182172 -0.00085797217738564787 0 0.0046386449711648169 -0.00081215316215075693 0 0.0047131126225515452 -0.00075298087073426214 0 0.0049166167588845927 -0.00066633322751930523 0 0.0046386449711648169 -0.00081215316215075693 0 0.0049166167588845927 -0.00066633322751930523 0 0.0049603262945003748 -0.00064552764970371294 0 0.0046386449711648169 -0.00081215316215075693 0 0.0047131126225515452 -0.00075298087073426214 0 0.0044759868871053895 -0.00078560444419811391 0 0.0048078369742148071 -0.00070374923444228854 0 0.0047131126225515452 -0.00075298087073426214 0 0.0049166167588845927 -0.00066633322751930523 0 0.0048078369742148071 -0.00070374923444228854 0 0.0047131126225515452 -0.00075298087073426214 0 0.0046787014244931962 -0.00074276903835568224 0 0.0045253204278554848 -0.00073544745099548864 0 0.0044759868871053895 -0.00078560444419811391 0 0.0042150359014200764 -0.00073191171027849359 0 0.0047131126225515452 -0.00075298087073426214 0 0.0046787014244931962 -0.00074276903835568224 0 0.0044759868871053895 -0.00078560444419811391 0 0.0046787014244931962 -0.00074276903835568224 0 0.0045253204278554848 -0.00073544745099548864 0 0.0044759868871053895 -0.00078560444419811391 0 0.0046693677066612267 -0.00092912009502380954 0 0.0041177524696551808 -0.0009800907814022763 0 0.0046386449711648169 -0.00081215316215075693 0 0.0044759868871053895 -0.00078560444419811391 0 0.0039736971338812056 -0.0008160467697542282 0 0.0047631022109799557 -0.0010996324034377111 0 0.0045300098812465868 -0.0011854178948480806 0 0.0042966406441259817 -0.0011543190161766685 0 0.0044759868871053895 -0.00078560444419811391 0 0.0039736971338812056 -0.0008160467697542282 0 0.0042150359014200764 -0.00073191171027849359 0 0.0039736971338812056 -0.0008160467697542282 0 0.0042150359014200764 -0.00073191171027849359 0 0.0037498100310020305 -0.0006744833167687598 0 0.0042150359014200764 -0.00073191171027849359 0 0.0040245569412970016 -0.00060759876113086894 0 0.0037498100310020305 -0.0006744833167687598 0 0.0042150359014200764 -0.00073191171027849359 0 0.0043685252520216013 -0.00063524039657836717 0 0.0040245569412970016 -0.00060759876113086894 0 0.0045253204278554848 -0.00073544745099548864 0 0.0042150359014200764 -0.00073191171027849359 0 0.0043685252520216013 -0.00063524039657836717 0 0.0043685252520216013 -0.00063524039657836717 0 0.0043795549270688443 -0.0003347130842261935 0 0.0040245569412970016 -0.00060759876113086894 0 0.0043685252520216013 -0.00063524039657836717 0 0.0043795549270688443 -0.0003347130842261935 0 0.0045989331579640918 -0.00061017218583310853 0 0.0043795549270688443 -0.0003347130842261935 0 0.0040245569412970016 -0.00060759876113086894 0 0.0032303413819746284 -0.00054423151122836102 0 0.0040245569412970016 -0.00060759876113086894 0 0.0037498100310020305 -0.0006744833167687598 0 0.0032303413819746284 -0.00054423151122836102 0 0.0047194166116446487 -0.00062699775815548947 0 0.004693122122033406 -0.00069500464876700782 0 0.0045989331579640918 -0.00061017218583310853 0 0.0045253204278554848 -0.00073544745099548864 0 0.0043685252520216013 -0.00063524039657836717 0 0.0045989331579640918 -0.00061017218583310853 0 0.004693122122033406 -0.00069500464876700782 0 0.0045253204278554848 -0.00073544745099548864 0 0.0045989331579640918 -0.00061017218583310853 0 0.0034692811113809429 -0.00042111042804977579 0 0.0032394981717868915 -0.00046331271709776773 0 0.0043795549270688443 -0.0003347130842261935 0 0.0045989331579640918 -0.00061017218583310853 0 0.0046807298824713033 -0.000498991219570351 0 0.0047194166116446487 -0.00062699775815548947 0 0.0045989331579640918 -0.00061017218583310853 0 0.0046807298824713033 -0.000498991219570351 0 0.0021605564625502547 -0.00041791923529724793 0 0.0021535434938818178 -0.00059576379766398512 0 0.0023487693668302377 -0.00062926742903859543 0 0.0021605564625502547 -0.00041791923529724793 0 0.0021535434938818178 -0.00059576379766398512 0 0.00202140669025045 -0.00053759648759268118 0 0.0024905936103665812 -0.00046460619813686147 0 0.0021605564625502547 -0.00041791923529724793 0 0.0023487693668302377 -0.00062926742903859543 0 0.0023487693668302377 -0.00062926742903859543 0 0.0024596868171422857 -0.0008139499136407374 0 0.0022704971431166355 -0.00075519034578973927 0 0.0023487693668302377 -0.00062926742903859543 0 0.0024596868171422857 -0.0008139499136407374 0 0.0025730965921148892 -0.00074284646208974746 0 0.0022704971431166355 -0.00075519034578973927 0 0.0021715774625646485 -0.00094844163711735102 0 0.0019800450411875323 -0.0006537046791077406 0 0.0021535434938818178 -0.00059576379766398512 0 0.0022704971431166355 -0.00075519034578973927 0 0.0019800450411875323 -0.0006537046791077406 0 0.0021535434938818178 -0.00059576379766398512 0 0.0019800450411875323 -0.0006537046791077406 0 0.00202140669025045 -0.00053759648759268118 0 0.0021535434938818178 -0.00059576379766398512 0 0.0023487693668302377 -0.00062926742903859543 0 0.0022704971431166355 -0.00075519034578973927 0 0.0034692811113809429 -0.00042111042804977579 0 0.0032429977775783451 -0.00051500515251408526 0 0.0024905936103665812 -0.00046460619813686147 0 0.0028079980477969746 -0.00074064197677307236 0 0.0032303413819746284 -0.00054423151122836102 0 0.0028079980477969746 -0.00074064197677307236 0 0.0032303413819746284 -0.00054423151122836102 0 0.0029017057135826449 -0.00084021244370668068 0 0.0024905936103665812 -0.00046460619813686147 0 0.0028079980477969746 -0.00074064197677307236 0 0.0025730965921148892 -0.00074284646208974746 0 0.0024905936103665812 -0.00046460619813686147 0 0.0023487693668302377 -0.00062926742903859543 0 0.0025730965921148892 -0.00074284646208974746 0 0.0024596868171422857 -0.0008139499136407374 0 0.0025730965921148892 -0.00074284646208974746 0 0.0025988693241820958 -0.0008794262451172158 0 0.0025730965921148892 -0.00074284646208974746 0 0.0027290826733627422 -0.00092282346973620558 0 0.0025988693241820958 -0.0008794262451172158 0 0.0028079980477969746 -0.00074064197677307236 0 0.0025730965921148892 -0.00074284646208974746 0 0.0027290826733627422 -0.00092282346973620558 0 0.0028079980477969746 -0.00074064197677307236 0 0.0027290826733627422 -0.00092282346973620558 0 0.0029017057135826449 -0.00084021244370668068 0 0.0027290826733627422 -0.00092282346973620558 0 0.0025988693241820958 -0.0008794262451172158 0 0.0024934665787222005 -0.00074928754238282372 0 0.0025988693241820958 -0.0008794262451172158 0 0.0025325656093588291 -0.00085327426640133123 0 0.0024934665787222005 -0.00074928754238282372 0 0.0025988693241820958 -0.0008794262451172158 0 0.0024945650488185952 -0.00089010665626456232 0 0.0025325656093588291 -0.00085327426640133123 0 0.0024596868171422857 -0.0008139499136407374 0 0.0025988693241820958 -0.0008794262451172158 0 0.0024945650488185952 -0.00089010665626456232 0 0.0025325656093588291 -0.00085327426640133123 0 0.0024442540799763683 -0.00093490301224889315 0 0.0025299418369951281 -0.00088744810738197754 0 0.0024945650488185952 -0.00089010665626456232 0 0.0025325656093588291 -0.00085327426640133123 0 0.0024442540799763683 -0.00093490301224889315 0 0.0025325656093588291 -0.00085327426640133123 0 0.0024934665787222005 -0.00074928754238282372 0 0.0025299418369951281 -0.00088744810738197754 0 0.0026593950490916758 -0.00092198304126667565 0 0.0021125603762211904 0.00016383352308659899 0 0.0022704971431166355 -0.00075519034578973927 0 0.0021715774625646485 -0.00094844163711735102 0 0.0023780130246821391 -0.00088579247750222184 0 0.0024596868171422857 -0.0008139499136407374 0 0.0022704971431166355 -0.00075519034578973927 0 0.0023780130246821391 -0.00088579247750222184 0 0.0021715774625646485 -0.00094844163711735102 0 0.0023780130246821391 -0.00088579247750222184 0 0.0024442540799763683 -0.00093490301224889315 0 0.0024596868171422857 -0.0008139499136407374 0 0.0024945650488185952 -0.00089010665626456232 0 0.0023780130246821391 -0.00088579247750222184 0 0.0024945650488185952 -0.00089010665626456232 0 0.0023780130246821391 -0.00088579247750222184 0 0.0024442540799763683 -0.00093490301224889315 0 0.00074557379750365851 -6.8736683873765601e-05 0 0.00023561712159884436 0.00045938792739161192 0 0.00046717009108030691 0.00053662876602024923 0 0.00023561712159884436 0.00045938792739161192 0 0.00046717009108030691 0.00053662876602024923 0 0.00024605246056217951 0.00069314695373028231 0 0.00074557379750365851 -6.8736683873765601e-05 0 0.0010696837587548407 0.00033401516797193482 0 0.00070525259409189619 0.00063636310673635601 0 0.00074557379750365851 -6.8736683873765601e-05 0 0.00046717009108030691 0.00053662876602024923 0 0.00070525259409189619 0.00063636310673635601 0 0.0014877420932129025 -0.00050719514576826378 0 0.0011856667126917044 -0.00022875580358045947 0 0.0010696837587548407 0.00033401516797193482 0 0.0010387735715229642 0.00085356435819879779 0 0.00070525259409189619 0.00063636310673635601 0 0.0013728776414020367 0.0004479159103413139 0 0.0010888514059242951 0.00081487445336496042 0 0.0010696837587548407 0.00033401516797193482 0 0.0016071939261834314 0.00029434495352851021 0 0.0010387735715229642 0.00085356435819879779 0 0.0010696837587548407 0.00033401516797193482 0 0.0016071939261834314 0.00029434495352851021 0 0.0013387134365972686 -9.8214502505716364e-05 0 0.0011692962898482173 0.00060298507550759866 0 0.0013592483621350795 0.00073957676596869909 0 0.0012452622202437829 0.00091725108678499022 0 0.0016071939261834314 0.00029434495352851021 0 0.0016985860599210668 -0.00038518120181804943 0 0.0013387134365972686 -9.8214502505716364e-05 0 0.0013728776414020367 0.0004479159103413139 0 0.0017155221958520955 -2.838003522035154e-05 0 0.0016071939261834314 0.00029434495352851021 0 0.0016985860599210668 -0.00038518120181804943 0 0.0020122970804012262 -0.00032849505771363296 0 0.0011692962898482173 0.00060298507550759866 0 0.0013393184081452163 0.00029894962280306071 0 0.0015175955784154447 0.0004867686058329913 0 0.0014877420932129025 -0.00050719514576826378 0 0.0015641893663929714 -0.00063423576560619989 0 0.00074557379750365851 -6.8736683873765601e-05 0 0.0010696837587548407 0.00033401516797193482 0 0.0013387134365972686 -9.8214502505716364e-05 0 0.0016985860599210668 -0.00038518120181804943 0 0.0013387134365972686 -9.8214502505716364e-05 0 0.0015889523890837182 -0.00065659620135939656 0 0.00074557379750365851 -6.8736683873765601e-05 0 0.0013387134365972686 -9.8214502505716364e-05 0 0.0015889523890837182 -0.00065659620135939656 0 0.0021715774625646485 -0.00094844163711735102 0 0.0019800450411875323 -0.0006537046791077406 0 0.0015889523890837182 -0.00065659620135939656 0 0.0019800450411875323 -0.0006537046791077406 0 0.0019253133339380622 -0.00060653397132310585 0 0.00202140669025045 -0.00053759648759268118 0 0.0019800450411875323 -0.0006537046791077406 0 0.0015865128071533652 -0.00058297966723725597 0 0.0015980369821110647 -0.00062853572177107742 0 0.0019800450411875323 -0.0006537046791077406 0 0.0015980369821110647 -0.00062853572177107742 0 0.0015889523890837182 -0.00065659620135939656 0 0.0018471368183885664 -0.00047924522450103153 0 0.0026920172718134143 -2.5830740864346469e-05 0 0.0026920172718134143 -2.5830740864346469e-05 0 0.0026625405243839405 -7.9528611188893348e-05 0 0.0016985860599210668 -0.00038518120181804943 0 0.0015889523890837182 -0.00065659620135939656 0 0.001722253744562071 -0.00064720362203938122 0 0.0016985860599210668 -0.00038518120181804943 0 0.0019148373919524121 -0.00059336311583377092 0 0.001722253744562071 -0.00064720362203938122 0 0.0016985860599210668 -0.00038518120181804943 0 0.0020122970804012262 -0.00032849505771363296 0 0.0019148373919524121 -0.00059336311583377092 0 0.0019148373919524121 -0.00059336311583377092 0 0.0018763729994923121 -0.00073727113952762444 0 0.002130713855091716 -0.00081464269914510615 0 0.0019148373919524121 -0.00059336311583377092 0 0.0018763729994923121 -0.00073727113952762444 0 0.001722253744562071 -0.00064720362203938122 0 0.0016057817149097492 -0.00068937032172382273 0 0.0018763729994923121 -0.00073727113952762444 0 0.001722253744562071 -0.00064720362203938122 0 0.0015980369821110647 -0.00062853572177107742 0 0.0015889523890837182 -0.00065659620135939656 0 0.001722253744562071 -0.00064720362203938122 0 0.0016057817149097492 -0.00068937032172382273 0 0.0015980369821110647 -0.00062853572177107742 0 0.001722253744562071 -0.00064720362203938122 0 0.0040910318126683182 -0.0003675070621423286 0 0.0026920172718134143 -2.5830740864346469e-05 0 0.0016057817149097492 -0.00068937032172382273 0 0.0018763729994923121 -0.00073727113952762444 0 0.0020323655773085069 -0.00093142403550902858 0 0.0045324293573622059 -8.253298107867765e-05 0 0.0043538671082694186 0.00069615932124909136 0 0.0049845429559856064 0.00043106388632362385 0 0.0026920172718134143 -2.5830740864346469e-05 0 0.0036945543730126928 -0.00029589926751681119 0 0.0018952316632717381 -0.00040929754712112063 0 0.0019253133339380622 -0.00060653397132310585 0 0.00202140669025045 -0.00053759648759268118 0 0.0018952316632717381 -0.00040929754712112063 0 0.0021605564625502547 -0.00041791923529724793 0 0.00202140669025045 -0.00053759648759268118 0 0.00064002679881989546 -0.001422453154889749 0 0.0012356995116645033 -0.0012679590609874333 0 0.0015862976951935693 -0.001838546562417656 0 0.0007335626923942809 -0.00094547813532554214 0 0.00064002679881989546 -0.001422453154889749 0 0.00022056610263327178 -0.0007431628562616355 0 0.0007335626923942809 -0.00094547813532554214 0 0.00022056610263327178 -0.0007431628562616355 0 0.00065436595150231505 -0.00063390130032358748 0 0.0007335626923942809 -0.00094547813532554214 0 0.00065436595150231505 -0.00063390130032358748 0 0.0010146812891250584 -0.00069317054391915961 0 0.0007335626923942809 -0.00094547813532554214 0 0.0010146812891250584 -0.00069317054391915961 0 0.0012356995116645033 -0.0012679590609874333 0 0.0007335626923942809 -0.00094547813532554214 0 0.00064002679881989546 -0.001422453154889749 0 0.0012356995116645033 -0.0012679590609874333 0 0.0024963756184938329 -0.0011286093299226856 0 0.0020323655773085069 -0.00093142403550902858 0 0.0022811958651829593 -0.00083022041216027499 0 0.005149061733579441 -0.00011126255503090762 0 0.0055748410498118904 0.00015134640593933589 0 0.0049845429559856064 0.00043106388632362385 0 0.0030594622582556259 -0.00078877589731036373 0 0.0036945543730126928 -0.00029589926751681119 0 0.0018763729994923121 -0.00073727113952762444 0 0.0020323655773085069 -0.00093142403550902858 0 0.002130713855091716 -0.00081464269914510615 0 0.0020323655773085069 -0.00093142403550902858 0 0.002130713855091716 -0.00081464269914510615 0 0.0022811958651829593 -0.00083022041216027499 0 0.0030594622582556259 -0.00078877589731036373 0 0.001466443284865012 -0.0004681017216387331 0 0.0024963756184938329 -0.0011286093299226856 0 0.0022811958651829593 -0.00083022041216027499 0 0.0022803219259430151 -0.00079335395095460782 0 0.002130713855091716 -0.00081464269914510615 0 0.0022811958651829593 -0.00083022041216027499 0 0.0022797297032999455 -0.00079436579986424873 0 0.0014831305344536194 -0.00049579103146806035 0 0.001466443284865012 -0.0004681017216387331 0 0.0020122970804012262 -0.00032849505771363296 0 0.002130713855091716 -0.00081464269914510615 0 0.0022797297032999455 -0.00079436579986424873 0 0.00022056610263327178 -0.0007431628562616355 0 0.00064626672492223676 -0.00015461923947225717 0 0.00024762004873920938 0.00074274696332870442 0 0.0020122970804012262 -0.00032849505771363296 0 0.0019148373919524121 -0.00059336311583377092 0 0.002130713855091716 -0.00081464269914510615 0 0.0017155221958520955 -2.838003522035154e-05 0 0.001466443284865012 -0.0004681017216387331 0 0.001466443284865012 -0.0004681017216387331 0 0.00080051882699835918 0.00062145422549407699 0 0.00064626672492223676 -0.00015461923947225717 0 0.00065436595150231505 -0.00063390130032358748 0 0.0010146812891250584 -0.00069317054391915961 0 0.00022056610263327178 -0.0007431628562616355 0 0.00064626672492223676 -0.00015461923947225717 0 0.00065436595150231505 -0.00063390130032358748 0 0.00064626672492223676 -0.00015461923947225717 0 0.0010146812891250584 -0.00069317054391915961 0 0.0011848351705138849 -1.7862960928102239e-05 0 0.00079642926875418858 0.00038999903222043111 0 0.00024762004873920938 0.00074274696332870442 0 0.0011117793864090855 0.00097865526908224535 0 0.0011848351705138849 -1.7862960928102239e-05 0 0.00079642926875418858 0.00038999903222043111 0 0.0011117793864090855 0.00097865526908224535 0 0.00064626672492223676 -0.00015461923947225717 0 0.0011848351705138849 -1.7862960928102239e-05 0 0.00079642926875418858 0.00038999903222043111 0 0.00064626672492223676 -0.00015461923947225717 0 0.00079642926875418858 0.00038999903222043111 0 0.00024762004873920938 0.00074274696332870442 0 0.0013393184081452163 0.00029894962280306071 0 0.001527131108946493 -1.133489816482458e-05 0 0.0015175955784154447 0.0004867686058329913 0 0.0015175955784154447 0.0004867686058329913 0 0.0013592483621350795 0.00073957676596869909 0 0.0015114550355811878 0.00095196262498123353 0 0.00024762004873920938 0.00074274696332870442 0 0.00068547929760455863 0.0014499338754917356 0 0.00032157583269402647 0.0020516278759764779 0 0.0011692962898482173 0.00060298507550759866 0 0.0015175955784154447 0.0004867686058329913 0 0.0013592483621350795 0.00073957676596869909 0 0.00080051882699835918 0.00062145422549407699 0 0.00092186723199177989 0.0015358808520860238 0 0.00024762004873920938 0.00074274696332870442 0 0.0011117793864090855 0.00097865526908224535 0 0.00068547929760455863 0.0014499338754917356 0 0.0011117793864090855 0.00097865526908224535 0 0.00068547929760455863 0.0014499338754917356 0 0.0012305927625680887 0.001834660893766743 0 0.0011117793864090855 0.00097865526908224535 0 0.001712522750173251 0.0014031476167207573 0 0.0021275604179155977 0.00076013035060950771 0 0.0011117793864090855 0.00097865526908224535 0 0.001712522750173251 0.0014031476167207573 0 0.0012305927625680887 0.001834660893766743 0 0.0011848351705138849 -1.7862960928102239e-05 0 0.0011117793864090855 0.00097865526908224535 0 0.0018660348423419331 0.00011878586331155994 0 0.0011117793864090855 0.00097865526908224535 0 0.0018660348423419331 0.00011878586331155994 0 0.0021275604179155977 0.00076013035060950771 0 0.0026296393805591328 0.00011155276209164408 0 0.0021275604179155977 0.00076013035060950771 0 0.002764413377186194 0.0010792752316736815 0 0.0018660348423419331 0.00011878586331155994 0 0.0026296393805591328 0.00011155276209164408 0 0.0021275604179155977 0.00076013035060950771 0 0.001712522750173251 0.0014031476167207573 0 0.0021275604179155977 0.00076013035060950771 0 0.002764413377186194 0.0010792752316736815 0 0.001712522750173251 0.0014031476167207573 0 0.002764413377186194 0.0010792752316736815 0 0.0018389917949281885 0.0020514773833618547 0 0.002764413377186194 0.0010792752316736815 0 0.0043299657820231744 0.00097557919358651365 0 0.0034510938565981675 0.0022128300780287196 0 0.0043299657820231744 0.00097557919358651365 0 0.0035063055951403757 0.00029701679012077181 0 0.0042233511155815948 -0.00027710298531826452 0 0.0026296393805591328 0.00011155276209164408 0 0.002764413377186194 0.0010792752316736815 0 0.0035063055951403757 0.00029701679012077181 0 0.002764413377186194 0.0010792752316736815 0 0.0043299657820231744 0.00097557919358651365 0 0.0035063055951403757 0.00029701679012077181 0 0.0026296393805591328 0.00011155276209164408 0 0.0035063055951403757 0.00029701679012077181 0 0.0033765148372438937 -0.0007827835740597804 0 0.0033765148372438937 -0.0007827835740597804 0 0.0042233511155815948 -0.00027710298531826452 0 0.0043905621891982697 -0.0013208448529579777 0 0.0035063055951403757 0.00029701679012077181 0 0.0033765148372438937 -0.0007827835740597804 0 0.0042233511155815948 -0.00027710298531826452 0 0.0033765148372438937 -0.0007827835740597804 0 0.0043905621891982697 -0.0013208448529579777 0 0.0035434694081746755 -0.0014856793819916685 0 0.0033765148372438937 -0.0007827835740597804 0 0.0035434694081746755 -0.0014856793819916685 0 0.0030040711843366437 -0.0014939611661143027 0 0.0030040711843366437 -0.0014939611661143027 0 0.0021449339341337013 -0.00076677681978982732 0 0.0025309832026075576 -0.00187193528406813 0 0.0033765148372438937 -0.0007827835740597804 0 0.0030040711843366437 -0.0014939611661143027 0 0.0021449339341337013 -0.00076677681978982732 0 0.0021449339341337013 -0.00076677681978982732 0 0.0020004276545466048 -0.0019385771675607302 0 0.0025309832026075576 -0.00187193528406813 0 0.0012356995116645033 -0.0012679590609874333 0 0.0021449339341337013 -0.00076677681978982732 0 0.0015862976951935693 -0.001838546562417656 0 0.0021449339341337013 -0.00076677681978982732 0 0.0017510149323997296 -0.0018308836376396815 0 0.0020004276545466048 -0.0019385771675607302 0 0.0010146812891250584 -0.00069317054391915961 0 0.0012356995116645033 -0.0012679590609874333 0 0.0021449339341337013 -0.00076677681978982732 0 0.002035093418735384 -0.0008624868795214344 0 0.0020636626539472596 -0.0018314906480050514 0 0.0010146812891250584 -0.00069317054391915961 0 0.0011848351705138849 -1.7862960928102239e-05 0 0.0021449339341337013 -0.00076677681978982732 0 0.0011848351705138849 -1.7862960928102239e-05 0 0.0018660348423419331 0.00011878586331155994 0 0.0021449339341337013 -0.00076677681978982732 0 0.0026296393805591328 0.00011155276209164408 0 0.0033765148372438937 -0.0007827835740597804 0 0.0021449339341337013 -0.00076677681978982732 0 0.0018660348423419331 0.00011878586331155994 0 0.0026296393805591328 0.00011155276209164408 0 0.0021449339341337013 -0.00076677681978982732 0 0.017509099364086254 -0.0016898960751630303 0 0.017494523075596017 -0.0017046161953553031 0 0.017532373384331727 -0.0016776661682980974 0 0.017509099364086254 -0.0016898960751630303 0 0.017464632604365697 -0.0017256525522730665 0 0.017494523075596017 -0.0017046161953553031 0 0.017464632604365697 -0.0017256525522730665 0 0.017494523075596017 -0.0017046161953553031 0 0.017463169512952507 -0.0017312166401711989 0 0.017494523075596017 -0.0017046161953553031 0 0.017463169512952507 -0.0017312166401711989 0 0.017490918271651227 -0.0016940566280548241 0 0.012603749398204087 -0.0003900345537053847 0 0.0095039447237747106 0.00099044834478630205 0 0.017436221595899602 -0.0017585985677795873 0 0.017464632604365697 -0.0017256525522730665 0 0.017463169512952507 -0.0017312166401711989 0 0.017463169512952507 -0.0017312166401711989 0 0.017490918271651227 -0.0016940566280548241 0 0.017422936227240445 -0.0017727039337653511 0 0.017436221595899602 -0.0017585985677795873 0 0.017463169512952507 -0.0017312166401711989 0 0.017422936227240445 -0.0017727039337653511 0 0.017490918271651227 -0.0016940566280548241 0 0.01746871347669321 -0.0015959731161187417 0 0.017532373384331727 -0.0016776661682980974 0 0.017494523075596017 -0.0017046161953553031 0 0.017490918271651227 -0.0016940566280548241 0 0.017532373384331727 -0.0016776661682980974 0 0.012603749398204087 -0.0003900345537053847 0 0.011447225411577626 -0.0009046933498639047 0 0.006676093396024649 0.00093685483849702408 0 0.0055596251496826824 0.0012451225584028682 0 0.0054948873721242086 -0.00024565591546198281 0 0.006676093396024649 0.00093685483849702408 0 0.0055596251496826824 0.0012451225584028682 0 0.0063654064066644223 0.0022440437193679994 0 0.0043299657820231744 0.00097557919358651365 0 0.0055596251496826824 0.0012451225584028682 0 0.0048999512430071661 0.0022423666223819619 0 0.0043299657820231744 0.00097557919358651365 0 0.0042233511155815948 -0.00027710298531826452 0 0.0054948873721242086 -0.00024565591546198281 0 0.0043299657820231744 0.00097557919358651365 0 0.0055596251496826824 0.0012451225584028682 0 0.0054948873721242086 -0.00024565591546198281 0 0.0042233511155815948 -0.00027710298531826452 0 0.0043905621891982697 -0.0013208448529579777 0 0.0054948873721242086 -0.00024565591546198281 0 0.010396111341807443 -0.0016235151212375999 0 0.011447225411577626 -0.0009046933498639047 0 0.017087282688908256 -0.0016802406940681673 0 0.017428147093411304 -0.0017494578928779407 0 0.01746871347669321 -0.0015959731161187417 0 0.017428147093411304 -0.0017494578928779407 0 0.01758305240895636 -0.0017121112850850084 0 0.01746871347669321 -0.0015959731161187417 0 0.01758305240895636 -0.0017121112850850084 0 0.01746871347669321 -0.0015959731161187417 0 0.017585861881531953 -0.0016899113524425232 0 0.01746871347669321 -0.0015959731161187417 0 0.017585861881531953 -0.0016899113524425232 0 0.017532373384331727 -0.0016776661682980974 0 0.01758305240895636 -0.0017121112850850084 0 0.017585861881531953 -0.0016899113524425232 0 0.017647454746652268 -0.0017306550633350063 0 0.017585861881531953 -0.0016899113524425232 0 0.017604243468251634 -0.0016888936733177855 0 0.017647454746652268 -0.0017306550633350063 0 0.017585861881531953 -0.0016899113524425232 0 0.017604243468251634 -0.0016888936733177855 0 0.017568512088197742 -0.0016828171875901197 0 0.017569295651001599 -0.0016526333444679703 0 0.017604243468251634 -0.0016888936733177855 0 0.017568512088197742 -0.0016828171875901197 0 0.017509099364086254 -0.0016898960751630303 0 0.017568512088197742 -0.0016828171875901197 0 0.017532373384331727 -0.0016776661682980974 0 0.017585861881531953 -0.0016899113524425232 0 0.017568512088197742 -0.0016828171875901197 0 0.017532373384331727 -0.0016776661682980974 0 0.017671096650368218 -0.0016150884296683076 0 0.017630119622720097 -0.00167131869432426 0 0.017692491193795755 -0.0017166892472041621 0 0.01759566009244222 -0.0015919254357848001 0 0.017671096650368218 -0.0016150884296683076 0 0.017630119622720097 -0.00167131869432426 0 0.017629335952858666 -0.0015438080773860817 0 0.01759566009244222 -0.0015919254357848001 0 0.017671096650368218 -0.0016150884296683076 0 0.017569295651001599 -0.0016526333444679703 0 0.017604243468251634 -0.0016888936733177855 0 0.017630119622720097 -0.00167131869432426 0 0.017604243468251634 -0.0016888936733177855 0 0.017630119622720097 -0.00167131869432426 0 0.017647454746652268 -0.0017306550633350063 0 0.017630119622720097 -0.00167131869432426 0 0.017647454746652268 -0.0017306550633350063 0 0.017692491193795755 -0.0017166892472041621 0 0.01758305240895636 -0.0017121112850850084 0 0.017647454746652268 -0.0017306550633350063 0 0.01772145341718491 -0.0018193733539728797 0 0.017692491193795755 -0.0017166892472041621 0 0.017774112343564692 -0.0017351510807738077 0 0.01772145341718491 -0.0018193733539728797 0 0.017647454746652268 -0.0017306550633350063 0 0.017692491193795755 -0.0017166892472041621 0 0.01772145341718491 -0.0018193733539728797 0 0.017692491193795755 -0.0017166892472041621 0 0.017754652780007339 -0.0016502598189393764 0 0.017774112343564692 -0.0017351510807738077 0 0.017671096650368218 -0.0016150884296683076 0 0.017692491193795755 -0.0017166892472041621 0 0.017754652780007339 -0.0016502598189393764 0 0.017840283564945641 -0.0018193400628642123 0 0.018077182132451332 -0.0016715718892980533 0 0.017891768625465748 -0.0016111863118849783 0 0.017840283564945641 -0.0018193400628642123 0 0.017774112343564692 -0.0017351510807738077 0 0.017891768625465748 -0.0016111863118849783 0 0.017754652780007339 -0.0016502598189393764 0 0.017774112343564692 -0.0017351510807738077 0 0.017891768625465748 -0.0016111863118849783 0 0.017840283564945641 -0.0018193400628642123 0 0.017774112343564692 -0.0017351510807738077 0 0.01772145341718491 -0.0018193733539728797 0 0.017840283564945641 -0.0018193400628642123 0 0.01772145341718491 -0.0018193733539728797 0 0.017702922310306173 -0.0017585991714365369 0 0.017246925678508964 -0.0018832321003326351 0 0.018513467397038894 -0.0018308834236490362 0 0.017428147093411304 -0.0017494578928779407 0 0.01758305240895636 -0.0017121112850850084 0 0.01772145341718491 -0.0018193733539728797 0 0.017087282688908256 -0.0016802406940681673 0 0.017428147093411304 -0.0017494578928779407 0 0.017193669331355462 -0.0020855516771618784 0 0.017428147093411304 -0.0017494578928779407 0 0.01772145341718491 -0.0018193733539728797 0 0.017193669331355462 -0.0020855516771618784 0 0.017840283564945641 -0.0018193400628642123 0 0.018077182132451332 -0.0016715718892980533 0 0.018346584410231941 -0.0018270077139354393 0 0.017840283564945641 -0.0018193400628642123 0 0.017702922310306173 -0.0017585991714365369 0 0.017583691974532856 -0.002042154996884911 0 0.017883687671512227 -0.0018491721090192696 0 0.017893818970147909 -0.0019336698851852398 0 0.018293166152059372 -0.0016020809697804691 0 0.018077182132451332 -0.0016715718892980533 0 0.018346584410231941 -0.0018270077139354393 0 0.018293166152059372 -0.0016020809697804691 0 0.018077182132451332 -0.0016715718892980533 0 0.01810353175386668 -0.0015127450984609876 0 0.018293166152059372 -0.0016020809697804691 0 0.01810353175386668 -0.0015127450984609876 0 0.018336579813480552 -0.0014171367958023301 0 0.018336579813480552 -0.0014171367958023301 0 0.018188887937677398 -0.0013374736558460745 0 0.018407509005784538 -0.001228919234496424 0 0.01810353175386668 -0.0015127450984609876 0 0.018336579813480552 -0.0014171367958023301 0 0.018188887937677398 -0.0013374736558460745 0 0.01810353175386668 -0.0015127450984609876 0 0.018188887937677398 -0.0013374736558460745 0 0.018013089556981814 -0.0014093381114916276 0 0.018188887937677398 -0.0013374736558460745 0 0.018013089556981814 -0.0014093381114916276 0 0.018112174025507015 -0.0012120919837596794 0 0.018013089556981814 -0.0014093381114916276 0 0.017886653888987317 -0.0013001893362177388 0 0.018112174025507015 -0.0012120919837596794 0 0.01810353175386668 -0.0015127450984609876 0 0.018013089556981814 -0.0014093381114916276 0 0.017891768625465748 -0.0016111863118849783 0 0.018013089556981814 -0.0014093381114916276 0 0.017891768625465748 -0.0016111863118849783 0 0.017863487850121467 -0.0014417396939191392 0 0.018077182132451332 -0.0016715718892980533 0 0.01810353175386668 -0.0015127450984609876 0 0.017891768625465748 -0.0016111863118849783 0 0.017891768625465748 -0.0016111863118849783 0 0.017761587606755353 -0.0015425810969424316 0 0.017863487850121467 -0.0014417396939191392 0 0.017754652780007339 -0.0016502598189393764 0 0.017891768625465748 -0.0016111863118849783 0 0.017761587606755353 -0.0015425810969424316 0 0.017671096650368218 -0.0016150884296683076 0 0.017754652780007339 -0.0016502598189393764 0 0.017761587606755353 -0.0015425810969424316 0 0.017761587606755353 -0.0015425810969424316 0 0.017863487850121467 -0.0014417396939191392 0 0.017725862012042137 -0.0014108668782007877 0 0.017863487850121467 -0.0014417396939191392 0 0.017725862012042137 -0.0014108668782007877 0 0.017886653888987317 -0.0013001893362177388 0 0.018013089556981814 -0.0014093381114916276 0 0.017863487850121467 -0.0014417396939191392 0 0.017886653888987317 -0.0013001893362177388 0 0.017625626684451844 -0.0014743912663917097 0 0.017725862012042137 -0.0014108668782007877 0 0.017686895897514442 -0.0015135425468336512 0 0.017629335952858666 -0.0015438080773860817 0 0.017625626684451844 -0.0014743912663917097 0 0.017686895897514442 -0.0015135425468336512 0 0.017761587606755353 -0.0015425810969424316 0 0.017725862012042137 -0.0014108668782007877 0 0.017686895897514442 -0.0015135425468336512 0 0.017671096650368218 -0.0016150884296683076 0 0.017761587606755353 -0.0015425810969424316 0 0.017686895897514442 -0.0015135425468336512 0 0.017629335952858666 -0.0015438080773860817 0 0.017671096650368218 -0.0016150884296683076 0 0.017686895897514442 -0.0015135425468336512 0 0.010747029113545827 -0.0010331488361061244 0 0.01096681950197703 -0.0010223708134170235 0 0.010775871512450163 -0.0012194006904622105 0 0.010747029113545827 -0.0010331488361061244 0 0.01061362647251495 -0.0011513750083419743 0 0.010775871512450163 -0.0012194006904622105 0 0.005603408778800209 -0.0018369759149662454 0 0.0069902619857258848 -0.00094854065721224708 0 0.010747029113545827 -0.0010331488361061244 0 0.01061362647251495 -0.0011513750083419743 0 0.01052281212852783 -0.0010448537752688657 0 0.0024589130821282409 -0.0024104117173306167 0 0.0016616967676946364 -0.0024559684223153149 0 0.001885216976109567 -0.002235262765037205 0 0.0099041752200839071 -0.0018860841498331881 0 0.0069902619857258848 -0.00094854065721224708 0 0.010524683302554363 -0.0011505519585837116 0 0.01061362647251495 -0.0011513750083419743 0 0.010541972480252243 -0.0010575872568258575 0 0.010507458358958234 -0.0010624497628198603 0 0.010524683302554363 -0.0011505519585837116 0 0.010541972480252243 -0.0010575872568258575 0 0.0062041918936630554 -0.00077662916310919882 0 0.0061551260559928756 -0.00078375470064002604 0 0.0061788398706437873 -0.00082401153392482236 0 0.0070425595185396013 -0.00051634059756945996 0 0.0069902619857258848 -0.00094854065721224708 0 0.0016616967676946364 -0.0024559684223153149 0 0.001591221346675304 -0.0023373687475876513 0 0.001885216976109567 -0.002235262765037205 0 0.0069902619857258848 -0.00094854065721224708 0 0.0056103466570757536 -0.00097582597780229252 0 0.001885216976109567 -0.002235262765037205 0 0.0018162784522270891 -0.0018560761979545192 0 0.0020004276545466048 -0.0019385771675607302 0 0.0024589130821282409 -0.0024104117173306167 0 0.001885216976109567 -0.002235262765037205 0 0.0022050148862873156 -0.002147598578747462 0 0.001885216976109567 -0.002235262765037205 0 0.0020004276545466048 -0.0019385771675607302 0 0.0022050148862873156 -0.002147598578747462 0 0.0056103466570757536 -0.00097582597780229252 0 0.0020636626539472596 -0.0018314906480050514 0 0.001591221346675304 -0.0023373687475876513 0 0.001885216976109567 -0.002235262765037205 0 0.0018162784522270891 -0.0018560761979545192 0 0.0020636626539472596 -0.0018314906480050514 0 0.0019922437601336881 -0.001834773776945145 0 0.0024589130821282409 -0.0024104117173306167 0 0.0025309832026075576 -0.00187193528406813 0 0.0034048520555292117 -0.0023301465285908546 0 0.0020004276545466048 -0.0019385771675607302 0 0.0022050148862873156 -0.002147598578747462 0 0.0025309832026075576 -0.00187193528406813 0 0.0024589130821282409 -0.0024104117173306167 0 0.0022050148862873156 -0.002147598578747462 0 0.0025309832026075576 -0.00187193528406813 0 0.0035434694081746755 -0.0014856793819916685 0 0.0030040711843366437 -0.0014939611661143027 0 0.0034048520555292117 -0.0023301465285908546 0 0.0030040711843366437 -0.0014939611661143027 0 0.0025309832026075576 -0.00187193528406813 0 0.0034048520555292117 -0.0023301465285908546 0 0.018513467397038894 -0.0018308834236490362 0 0.011878675080421095 -0.002084092328587269 0 0.010396111341807443 -0.0016235151212375999 0 0.011878675080421095 -0.002084092328587269 0 0.017087282688908256 -0.0016802406940681673 0 0.017193669331355462 -0.0020855516771618784 0 0.016465391994863684 -0.0021912239665066841 0 0.0043905621891982697 -0.0013208448529579777 0 0.0035434694081746755 -0.0014856793819916685 0 0.0034048520555292117 -0.0023301465285908546 0 0.018346584410231941 -0.0018270077139354393 0 0.018708496467667913 -0.0017301147553648371 0 0.018501079175373934 -0.0016475873118182746 0 0.017583691974532856 -0.002042154996884911 0 0.016899979930379928 -0.0017762694267597135 0 0.016934594098429939 -0.0022525236628949986 0 0.017702922310306173 -0.0017585991714365369 0 0.017583691974532856 -0.002042154996884911 0 0.016899979930379928 -0.0017762694267597135 0 0.017893818970147909 -0.0019336698851852398 0 0.018092439092152159 -0.0019388199168574169 0 0.005603408778800209 -0.0018369759149662454 0 0.011878675080421095 -0.002084092328587269 0 0.011878675080421095 -0.002084092328587269 0 0.016117266543077883 -0.0018800279648421075 0 0.016899979930379928 -0.0017762694267597135 0 0.016934594098429939 -0.0022525236628949986 0 0.016260391487943952 -0.0024336943918155472 0 0.018092439092152159 -0.0019388199168574169 0 0.016117266543077883 -0.0018800279648421075 0 0.018708496467667913 -0.0017301147553648371 0 0.018657802813233659 -0.0014931972755286363 0 0.018914868250687375 -0.0014544244572055763 0 0.018293166152059372 -0.0016020809697804691 0 0.018501079175373934 -0.0016475873118182746 0 0.01846278589601304 -0.0015090747121653399 0 0.018293166152059372 -0.0016020809697804691 0 0.018346584410231941 -0.0018270077139354393 0 0.018501079175373934 -0.0016475873118182746 0 0.018708496467667913 -0.0017301147553648371 0 0.018657802813233659 -0.0014931972755286363 0 0.018501079175373934 -0.0016475873118182746 0 0.018657802813233659 -0.0014931972755286363 0 0.018501079175373934 -0.0016475873118182746 0 0.01846278589601304 -0.0015090747121653399 0 0.018293166152059372 -0.0016020809697804691 0 0.018336579813480552 -0.0014171367958023301 0 0.01846278589601304 -0.0015090747121653399 0 0.018336579813480552 -0.0014171367958023301 0 0.01846278589601304 -0.0015090747121653399 0 0.018561410886224143 -0.0013527154809419308 0 0.018657802813233659 -0.0014931972755286363 0 0.01846278589601304 -0.0015090747121653399 0 0.018561410886224143 -0.0013527154809419308 0 0.018336579813480552 -0.0014171367958023301 0 0.018561410886224143 -0.0013527154809419308 0 0.018407509005784538 -0.001228919234496424 0 0.018775141481030735 -0.0013206777315721914 0 0.018914868250687375 -0.0014544244572055763 0 0.018966625683912722 -0.0012223951458809634 0 0.018657802813233659 -0.0014931972755286363 0 0.018775141481030735 -0.0013206777315721914 0 0.018914868250687375 -0.0014544244572055763 0 0.018657802813233659 -0.0014931972755286363 0 0.018561410886224143 -0.0013527154809419308 0 0.018775141481030735 -0.0013206777315721914 0 0.018561410886224143 -0.0013527154809419308 0 0.018775141481030735 -0.0013206777315721914 0 0.018731109457129407 -0.0011537295171738257 0 0.019101847520890457 -0.0013287388029683026 0 0.018914868250687375 -0.0014544244572055763 0 0.018966625683912722 -0.0012223951458809634 0 0.019101847520890457 -0.0013287388029683026 0 0.018914868250687375 -0.0014544244572055763 0 0.019066102512317201 -0.0015198105083361886 0 0.018708496467667913 -0.0017301147553648371 0 0.018914868250687375 -0.0014544244572055763 0 0.018995458038179581 -0.0016190481942888442 0 0.018914868250687375 -0.0014544244572055763 0 0.019066102512317201 -0.0015198105083361886 0 0.018995458038179581 -0.0016190481942888442 0 0.01822864488769602 -0.0009102166388030655 0 0.016117266543077883 -0.0018800279648421075 0 0.010502944812034704 -0.0012799696021082425 0 0.01061362647251495 -0.0011513750083419743 0 0.010775871512450163 -0.0012194006904622105 0 0.013819212611293626 -0.00038292448162399642 0 0.016117266543077883 -0.0018800279648421075 0 0.019293365378065679 -0.0014807591607054738 0 0.019066102512317201 -0.0015198105083361886 0 0.018995470118460818 -0.0015953715217852434 0 0.010524683302554363 -0.0011505519585837116 0 0.010502944812034704 -0.0012799696021082425 0 0.01061362647251495 -0.0011513750083419743 0 0.019293365378065679 -0.0014807591607054738 0 0.019101847520890457 -0.0013287388029683026 0 0.019243324881312703 -0.0011278405602366617 0 0.019293365378065679 -0.0014807591607054738 0 0.019101847520890457 -0.0013287388029683026 0 0.019066102512317201 -0.0015198105083361886 0 0.013819212611293626 -0.00038292448162399642 0 0.017892802178584813 -0.0008704123629708838 0 0.017892802178584813 -0.0008704123629708838 0 0.018163275595742118 6.5422709195766496e-05 0 0.018163275595742118 6.5422709195766496e-05 0 0.017323669998504349 0.0016882312463462085 0 0.015602100256723681 -9.892703791796488e-05 0 0.016293435146628194 -0.0015761547715552025 0 0.014973784883651498 -0.00089814732213063994 0 0.018978393384695525 -0.00095229508702983693 0 0.019004985998998979 -0.00076508919293343902 0 0.019224702751523839 -0.00069050459991687962 0 0.019243324881312703 -0.0011278405602366617 0 0.018978393384695525 -0.00095229508702983693 0 0.019224702751523839 -0.00069050459991687962 0 0.019243324881312703 -0.0011278405602366617 0 0.018966625683912722 -0.0012223951458809634 0 0.018978393384695525 -0.00095229508702983693 0 0.019101847520890457 -0.0013287388029683026 0 0.019243324881312703 -0.0011278405602366617 0 0.018966625683912722 -0.0012223951458809634 0 0.018966625683912722 -0.0012223951458809634 0 0.018731109457129407 -0.0011537295171738257 0 0.018978393384695525 -0.00095229508702983693 0 0.018775141481030735 -0.0013206777315721914 0 0.018966625683912722 -0.0012223951458809634 0 0.018731109457129407 -0.0011537295171738257 0 0.018665344051618318 -0.00092238633113966189 0 0.018407509005784538 -0.001228919234496424 0 0.0183194497004164 -0.0010443365304027541 0 0.018561410886224143 -0.0013527154809419308 0 0.018731109457129407 -0.0011537295171738257 0 0.018407509005784538 -0.001228919234496424 0 0.018731109457129407 -0.0011537295171738257 0 0.018665344051618318 -0.00092238633113966189 0 0.018407509005784538 -0.001228919234496424 0 0.018665344051618318 -0.00092238633113966189 0 0.018978393384695525 -0.00095229508702983693 0 0.019004985998998979 -0.00076508919293343902 0 0.018731109457129407 -0.0011537295171738257 0 0.018665344051618318 -0.00092238633113966189 0 0.018978393384695525 -0.00095229508702983693 0 0.018665344051618318 -0.00092238633113966189 0 0.019004985998998979 -0.00076508919293343902 0 0.018908521491022734 -0.00067664411008365878 0 0.018908521491022734 -0.00067664411008365878 0 0.01921556240689043 -0.0004169374452742916 0 0.019165201149202234 -0.0005845441118038111 0 0.019004985998998979 -0.00076508919293343902 0 0.018908521491022734 -0.00067664411008365878 0 0.019165201149202234 -0.0005845441118038111 0 0.018665344051618318 -0.00092238633113966189 0 0.01861217507857315 -0.00069353094248972974 0 0.018329207717069057 -0.00077728544637659049 0 0.018665344051618318 -0.00092238633113966189 0 0.018908521491022734 -0.00067664411008365878 0 0.01861217507857315 -0.00069353094248972974 0 0.018908521491022734 -0.00067664411008365878 0 0.01861217507857315 -0.00069353094248972974 0 0.018593436845438824 -0.00041389528853241021 0 0.019970419943571412 -0.00035784206801950879 0 0.01921556240689043 -0.0004169374452742916 0 0.019684315885822094 -0.00064918474198441686 0 0.019288961015087674 -0.00040330192477834684 0 0.019231997999279472 -0.0004071488110081991 0 0.01921556240689043 -0.0004169374452742916 0 0.019222481579799559 -0.00048987593340668785 0 0.019165201149202234 -0.0005845441118038111 0 0.018908521491022734 -0.00067664411008365878 0 0.018593436845438824 -0.00041389528853241021 0 0.01921556240689043 -0.0004169374452742916 0 0.01921556240689043 -0.0004169374452742916 0 0.019222481579799559 -0.00048987593340668785 0 0.019684315885822094 -0.00064918474198441686 0 0.020431205148673751 0.0018907064453355703 0 0.019556585322278473 0.00234734092870923 0 0.019518314622000776 0.0016269812506502855 0 0.020431205148673751 0.0018907064453355703 0 0.019556585322278473 0.00234734092870923 0 0.01982472092499037 0.0033021057223923595 0 0.01997314265481898 0.0009222692518047463 0 0.018163275595742118 6.5422709195766496e-05 0 0.018848266338204949 0.0020501063690783541 0 0.019556585322278473 0.00234734092870923 0 0.019518314622000776 0.0016269812506502855 0 0.018848266338204949 0.0020501063690783541 0 0.019556585322278473 0.00234734092870923 0 0.018894823310696612 0.0028826185915554058 0 0.018894823310696612 0.0028826185915554058 0 0.01982472092499037 0.0033021057223923595 0 0.01841812319789057 0.004064692551954162 0 0.019556585322278473 0.00234734092870923 0 0.018894823310696612 0.0028826185915554058 0 0.01982472092499037 0.0033021057223923595 0 0.018163275595742118 6.5422709195766496e-05 0 0.019251247385370991 -0.00059233774857188532 0 0.019222481579799559 -0.00048987593340668785 0 0.019177633623852549 -0.00060232086905280188 0 0.019165201149202234 -0.0005845441118038111 0 0.019004985998998979 -0.00076508919293343902 0 0.019224702751523839 -0.00069050459991687962 0 0.019165201149202234 -0.0005845441118038111 0 0.017732381123463276 -0.0012044492974829222 0 0.017845968776706845 -0.0009734100664289258 0 0.017667790614286003 -0.00087535978597106615 0 0.017601269436834977 -0.0013892172603544811 0 0.017725862012042137 -0.0014108668782007877 0 0.017732381123463276 -0.0012044492974829222 0 0.017725862012042137 -0.0014108668782007877 0 0.017732381123463276 -0.0012044492974829222 0 0.017886653888987317 -0.0013001893362177388 0 0.017732381123463276 -0.0012044492974829222 0 0.017886653888987317 -0.0013001893362177388 0 0.017939557601921091 -0.0011109178099868394 0 0.017732381123463276 -0.0012044492974829222 0 0.017939557601921091 -0.0011109178099868394 0 0.017845968776706845 -0.0009734100664289258 0 0.017939557601921091 -0.0011109178099868394 0 0.017845968776706845 -0.0009734100664289258 0 0.018017274116064519 -0.00089672255890488025 0 0.018130856881332005 -0.001025124803817218 0 0.018329207717069057 -0.00077728544637659049 0 0.018017274116064519 -0.00089672255890488025 0 0.017939557601921091 -0.0011109178099868394 0 0.018130856881332005 -0.001025124803817218 0 0.018017274116064519 -0.00089672255890488025 0 0.017886653888987317 -0.0013001893362177388 0 0.017939557601921091 -0.0011109178099868394 0 0.018112174025507015 -0.0012120919837596794 0 0.017939557601921091 -0.0011109178099868394 0 0.018130856881332005 -0.001025124803817218 0 0.018112174025507015 -0.0012120919837596794 0 0.018130856881332005 -0.001025124803817218 0 0.018112174025507015 -0.0012120919837596794 0 0.0183194497004164 -0.0010443365304027541 0 0.018112174025507015 -0.0012120919837596794 0 0.018407509005784538 -0.001228919234496424 0 0.0183194497004164 -0.0010443365304027541 0 0.018188887937677398 -0.0013374736558460745 0 0.018112174025507015 -0.0012120919837596794 0 0.018407509005784538 -0.001228919234496424 0 0.018665344051618318 -0.00092238633113966189 0 0.0183194497004164 -0.0010443365304027541 0 0.018329207717069057 -0.00077728544637659049 0 0.018130856881332005 -0.001025124803817218 0 0.0183194497004164 -0.0010443365304027541 0 0.018329207717069057 -0.00077728544637659049 0 0.01861217507857315 -0.00069353094248972974 0 0.018593436845438824 -0.00041389528853241021 0 0.018329207717069057 -0.00077728544637659049 0 0.018593436845438824 -0.00041389528853241021 0 0.018329207717069057 -0.00077728544637659049 0 0.018227240679473334 -0.00047641937954607405 0 0.019288961015087674 -0.00040330192477834684 0 0.019302368417887749 -0.00042828653721912221 0 0.019970419943571412 -0.00035784206801950879 0 0.020409336854129764 -0.00045328638661750516 0 0.020181722466109237 -0.00066210421082922599 0 0.019302368417887749 -0.00042828653721912221 0 0.019429694981454731 -0.00094685265784654404 0 0.018227240679473334 -0.00047641937954607405 0 0.018071156915715859 -0.00067253876663104454 0 0.017912116875215735 -0.00051173346166040695 0 0.018329207717069057 -0.00077728544637659049 0 0.018227240679473334 -0.00047641937954607405 0 0.018071156915715859 -0.00067253876663104454 0 0.018329207717069057 -0.00077728544637659049 0 0.018071156915715859 -0.00067253876663104454 0 0.018017274116064519 -0.00089672255890488025 0 0.017899977920985702 -0.00078685238680680902 0 0.017912116875215735 -0.00051173346166040695 0 0.017667790614286003 -0.00087535978597106615 0 0.017845968776706845 -0.0009734100664289258 0 0.018017274116064519 -0.00089672255890488025 0 0.017899977920985702 -0.00078685238680680902 0 0.018071156915715859 -0.00067253876663104454 0 0.018017274116064519 -0.00089672255890488025 0 0.017899977920985702 -0.00078685238680680902 0 0.018071156915715859 -0.00067253876663104454 0 0.017899977920985702 -0.00078685238680680902 0 0.017912116875215735 -0.00051173346166040695 0 0.020160701020168134 -0.0013305384821722509 0 0.019093286848740242 -0.0011871834199601767 0 0.01970206857303879 -0.00094842667295731004 0 0.019429694981454731 -0.00094685265784654404 0 0.018180868803684639 -0.0011821109009690813 0 0.019429694981454731 -0.00094685265784654404 0 0.019278705936514748 -0.0012456186149584839 0 0.019344527006495596 -0.0012097380432773981 0 0.019093286848740242 -0.0011871834199601767 0 0.018960647856051924 -0.001468109018387115 0 0.017845968776706845 -0.0009734100664289258 0 0.017899977920985702 -0.00078685238680680902 0 0.017667790614286003 -0.00087535978597106615 0 0.020551311165880392 -0.0010728729795337515 0 0.020346275418965123 -0.00077892139012447137 0 0.020586690329299599 -0.0010429257231339042 0 0.019844270227620621 -0.000782324362496168 0 0.020274930392885269 -0.0007776663476500138 0 0.0205105191933511 -0.0010624086201755666 0 0.020551311165880392 -0.0010728729795337515 0 0.020586690329299599 -0.0010429257231339042 0 0.019093286848740242 -0.0011871834199601767 0 0.01915128767032459 -0.0004702145857651291 0 0.01970206857303879 -0.00094842667295731004 0 0.01915128767032459 -0.0004702145857651291 0 0.01970206857303879 -0.00094842667295731004 0 0.020346275418965123 -0.00077892139012447137 0 0.020160701020168134 -0.0013305384821722509 0 0.01970206857303879 -0.00094842667295731004 0 0.020346275418965123 -0.00077892139012447137 0 0.020160701020168134 -0.0013305384821722509 0 0.020346275418965123 -0.00077892139012447137 0 0.020499655960203225 -0.00082053021257211603 0 0.020346275418965123 -0.00077892139012447137 0 0.020500916131901803 -0.00093546504534003014 0 0.020586690329299599 -0.0010429257231339042 0 0.020346275418965123 -0.00077892139012447137 0 0.020500916131901803 -0.00093546504534003014 0 0.020499655960203225 -0.00082053021257211603 0 0.020500916131901803 -0.00093546504534003014 0 0.020499655960203225 -0.00082053021257211603 0 0.020243021823267274 -0.00095996613199076362 0 0.020409336854129764 -0.00045328638661750516 0 0.020808962483157074 -0.00050472619198222443 0 0.020499655960203225 -0.00082053021257211603 0 0.019429694981454731 -0.00094685265784654404 0 0.02080509261705624 -0.00071060106129344899 0 0.020499655960203225 -0.00082053021257211603 0 0.020181722466109237 -0.00066210421082922599 0 0.020243021823267274 -0.00095996613199076362 0 0.020409336854129764 -0.00045328638661750516 0 0.020499655960203225 -0.00082053021257211603 0 0.020181722466109237 -0.00066210421082922599 0 0.020635908663211491 -0.0012646349575056899 0 0.020568400508334375 -0.0010841098395568253 0 0.020195034501102483 -0.0011962019511083102 0 0.020243021823267274 -0.00095996613199076362 0 0.020568400508334375 -0.0010841098395568253 0 0.020195034501102483 -0.0011962019511083102 0 0.020635908663211491 -0.0012646349575056899 0 0.020568400508334375 -0.0010841098395568253 0 0.020865371641785067 -0.0013220162045703943 0 0.020568400508334375 -0.0010841098395568253 0 0.02071559240279551 -0.0011301872684344747 0 0.020865371641785067 -0.0013220162045703943 0 0.020500916131901803 -0.00093546504534003014 0 0.020243021823267274 -0.00095996613199076362 0 0.020568400508334375 -0.0010841098395568253 0 0.020500916131901803 -0.00093546504534003014 0 0.020568400508334375 -0.0010841098395568253 0 0.02071559240279551 -0.0011301872684344747 0 0.020500916131901803 -0.00093546504534003014 0 0.02071559240279551 -0.0011301872684344747 0 0.020586690329299599 -0.0010429257231339042 0 0.02071559240279551 -0.0011301872684344747 0 0.020737233435250173 -0.0010758211440349715 0 0.020586690329299599 -0.0010429257231339042 0 0.0205105191933511 -0.0010624086201755666 0 0.020737233435250173 -0.0010758211440349715 0 0.020586690329299599 -0.0010429257231339042 0 0.019937906777477046 0.00068655769327466442 0 0.021004296438465471 0.00057155706509617378 0 0.020578484051451681 -0.00016794700970056652 0 0.019937906777477046 0.00068655769327466442 0 0.018965951503140864 0.0011025190941363963 0 0.019085690058731945 5.4194594216849421e-05 0 0.018848266338204949 0.0020501063690783541 0 0.018965951503140864 0.0011025190941363963 0 0.019518314622000776 0.0016269812506502855 0 0.019937906777477046 0.00068655769327466442 0 0.018965951503140864 0.0011025190941363963 0 0.019518314622000776 0.0016269812506502855 0 0.020431205148673751 0.0018907064453355703 0 0.019937906777477046 0.00068655769327466442 0 0.019518314622000776 0.0016269812506502855 0 0.020431205148673751 0.0018907064453355703 0 0.019937906777477046 0.00068655769327466442 0 0.021004296438465471 0.00057155706509617378 0 0.01997314265481898 0.0009222692518047463 0 0.020344695518439114 -0.00020902511895236732 0 0.019222481579799559 -0.00048987593340668785 0 0.019684315885822094 -0.00064918474198441686 0 0.019721310309828485 -0.00094603167185826234 0 0.019970419943571412 -0.00035784206801950879 0 0.020181722466109237 -0.00066210421082922599 0 0.019684315885822094 -0.00064918474198441686 0 0.020181722466109237 -0.00066210421082922599 0 0.020243021823267274 -0.00095996613199076362 0 0.019684315885822094 -0.00064918474198441686 0 0.020243021823267274 -0.00095996613199076362 0 0.019684315885822094 -0.00064918474198441686 0 0.019721310309828485 -0.00094603167185826234 0 0.021004296438465471 0.00057155706509617378 0 0.020578484051451681 -0.00016794700970056652 0 0.021513236499426706 -0.00070129222946780799 0 0.020344695518439114 -0.00020902511895236732 0 0.020835476801947438 -0.00092429517924971945 0 0.020243021823267274 -0.00095996613199076362 0 0.019721310309828485 -0.00094603167185826234 0 0.020195034501102483 -0.0011962019511083102 0 0.020635908663211491 -0.0012646349575056899 0 0.020195034501102483 -0.0011962019511083102 0 0.020626696654211178 -0.001392636993345955 0 0.020835476801947438 -0.00092429517924971945 0 0.02116227375248653 -0.0014424750710426339 0 0.021513236499426706 -0.00070129222946780799 0 0.020555256520100665 -0.00098085741959417529 0 0.021331848718419096 -0.0016565359580907064 0 0.020578484051451681 -0.00016794700970056652 0 0.021513236499426706 -0.00070129222946780799 0 0.020555256520100665 -0.00098085741959417529 0 0.019817509829168536 -0.0009875549001936506 0 0.020037734586505131 -0.0013826929324873916 0 0.019668107300460508 -0.0013587210571681363 0 0.020555256520100665 -0.00098085741959417529 0 0.019817509829168536 -0.0009875549001936506 0 0.020037734586505131 -0.0013826929324873916 0 0.020555256520100665 -0.00098085741959417529 0 0.019817509829168536 -0.0009875549001936506 0 0.019838928538858682 -0.00033542044388728409 0 0.020578484051451681 -0.00016794700970056652 0 0.020555256520100665 -0.00098085741959417529 0 0.019838928538858682 -0.00033542044388728409 0 0.019937906777477046 0.00068655769327466442 0 0.020578484051451681 -0.00016794700970056652 0 0.019838928538858682 -0.00033542044388728409 0 0.019937906777477046 0.00068655769327466442 0 0.019838928538858682 -0.00033542044388728409 0 0.019085690058731945 5.4194594216849421e-05 0 0.019085690058731945 5.4194594216849421e-05 0 0.019291611278244192 -0.00066154482085268381 0 0.01838847042892235 -0.00086143258932389912 0 0.019838928538858682 -0.00033542044388728409 0 0.019085690058731945 5.4194594216849421e-05 0 0.019291611278244192 -0.00066154482085268381 0 0.01932343962274417 -0.0011090345076666891 0 0.01838847042892235 -0.00086143258932389912 0 0.019441701990129033 -0.0016668064829565086 0 0.019291611278244192 -0.00066154482085268381 0 0.01932343962274417 -0.0011090345076666891 0 0.01838847042892235 -0.00086143258932389912 0 0.019817509829168536 -0.0009875549001936506 0 0.019291611278244192 -0.00066154482085268381 0 0.01932343962274417 -0.0011090345076666891 0 0.019817509829168536 -0.0009875549001936506 0 0.019838928538858682 -0.00033542044388728409 0 0.019291611278244192 -0.00066154482085268381 0 0.019817509829168536 -0.0009875549001936506 0 0.01932343962274417 -0.0011090345076666891 0 0.019668107300460508 -0.0013587210571681363 0 0.021170042761288532 -5.7339335284248866e-05 0 0.021534269597643388 -0.00053588589671427049 0 0.023183947931109592 0.0010985735977325425 0 0.022571079634496193 0.0017299431663788071 0 0.022593616238984073 0.00081105476006436872 0 0.023183947931109592 0.0010985735977325425 0 0.022593616238984073 0.00081105476006436872 0 0.023227790376757641 0.00062834345889418628 0 0.021170042761288532 -5.7339335284248866e-05 0 0.017773927339988661 0.001299224410125587 0 0.01838847042892235 -0.00086143258932389912 0 0.017423132330203144 -3.8634914841411552e-05 0 0.018266159544246159 0.00053584723619752323 0 0.019085690058731945 5.4194594216849421e-05 0 0.01838847042892235 -0.00086143258932389912 0 0.018266159544246159 0.00053584723619752323 0 0.022571079634496193 0.0017299431663788071 0 0.021735254225180339 0.0013137215689597282 0 0.022593616238984073 0.00081105476006436872 0 0.017773927339988661 0.001299224410125587 0 0.015895168908865547 0.0019936240510128656 0 0.012129650011899105 0.0034972719964844051 0 0.0098705880362149785 0.0021852061946534278 0 0.010613093557760229 0.0048076939828670508 0 0.0098705880362149785 0.0021852061946534278 0 0.010613093557760229 0.0048076939828670508 0 0.0089497442457313857 0.0034842356308210031 0 0.0091886399440397025 0.0047103306978371227 0 0.010613093557760229 0.0048076939828670508 0 0.0089497442457313857 0.0034842356308210031 0 0.01697205204338758 -0.00030628894599165951 0 0.015896680862295974 0.00061825529020098071 0 0.017103333924253384 0.0012189332066727912 0 0.017773927339988661 0.001299224410125587 0 0.013175957727252064 0.0029533266729515769 0 0.015896680862295974 0.00061825529020098071 0 0.016374939537718135 0.001519317277479344 0 0.015734108488455606 0.0015818869577116713 0 0.015896680862295974 0.00061825529020098071 0 0.016374939537718135 0.001519317277479344 0 0.017103333924253384 0.0012189332066727912 0 0.016374939537718135 0.001519317277479344 0 0.017103333924253384 0.0012189332066727912 0 0.016681483073004346 0.0020948363673471823 0 0.016374939537718135 0.001519317277479344 0 0.015734108488455606 0.0015818869577116713 0 0.016125883492394685 0.0020623297120012361 0 0.015896680862295974 0.00061825529020098071 0 0.015734108488455606 0.0015818869577116713 0 0.014836849626748619 0.0015221698257687419 0 0.0091886399440397025 0.0047103306978371227 0 0.010613093557760229 0.0048076939828670508 0 0.0091507609223484762 0.006067552506225548 0 0.013175957727252064 0.0029533266729515769 0 0.0084961813744070785 0.0021086145334911319 0 0.015734108488455606 0.0015818869577116713 0 0.015486532063813235 0.0023263085783302231 0 0.014836849626748619 0.0015221698257687419 0 0.018965951503140864 0.0011025190941363963 0 0.019085690058731945 5.4194594216849421e-05 0 0.018266159544246159 0.00053584723619752323 0 0.017773927339988661 0.001299224410125587 0 0.017851316532958187 7.9192910222735221e-05 0 0.01697205204338758 -0.00030628894599165951 0 0.018266159544246159 0.00053584723619752323 0 0.017103333924253384 0.0012189332066727912 0 0.017103333924253384 0.0012189332066727912 0 0.018055728950124611 0.0016629251314396042 0 0.017397537401937033 0.002358133281037067 0 0.018266159544246159 0.00053584723619752323 0 0.017103333924253384 0.0012189332066727912 0 0.018055728950124611 0.0016629251314396042 0 0.018848266338204949 0.0020501063690783541 0 0.018965951503140864 0.0011025190941363963 0 0.018055728950124611 0.0016629251314396042 0 0.018965951503140864 0.0011025190941363963 0 0.018266159544246159 0.00053584723619752323 0 0.018055728950124611 0.0016629251314396042 0 0.018848266338204949 0.0020501063690783541 0 0.018055728950124611 0.0016629251314396042 0 0.01819109542172391 0.0023732582157839537 0 0.018055728950124611 0.0016629251314396042 0 0.01819109542172391 0.0023732582157839537 0 0.017397537401937033 0.002358133281037067 0 0.01819109542172391 0.0023732582157839537 0 0.018040513113334312 0.0030438884623639382 0 0.017397537401937033 0.002358133281037067 0 0.018848266338204949 0.0020501063690783541 0 0.018894823310696612 0.0028826185915554058 0 0.01819109542172391 0.0023732582157839537 0 0.018894823310696612 0.0028826185915554058 0 0.018040513113334312 0.0030438884623639382 0 0.01841812319789057 0.004064692551954162 0 0.018894823310696612 0.0028826185915554058 0 0.01819109542172391 0.0023732582157839537 0 0.018040513113334312 0.0030438884623639382 0 0.018040513113334312 0.0030438884623639382 0 0.017544385477814471 0.0033453950064775192 0 0.01841812319789057 0.004064692551954162 0 0.016927512628235549 0.0033322903299128495 0 0.017544385477814471 0.0033453950064775192 0 0.017132460840768735 0.0037392626415407647 0 0.016927512628235549 0.0033322903299128495 0 0.017544385477814471 0.0033453950064775192 0 0.017230279249083089 0.0029719672507323913 0 0.018040513113334312 0.0030438884623639382 0 0.017544385477814471 0.0033453950064775192 0 0.017230279249083089 0.0029719672507323913 0 0.018040513113334312 0.0030438884623639382 0 0.017230279249083089 0.0029719672507323913 0 0.017397537401937033 0.002358133281037067 0 0.016927512628235549 0.0033322903299128495 0 0.017230279249083089 0.0029719672507323913 0 0.016733931597916824 0.0028243721881262766 0 0.017397537401937033 0.002358133281037067 0 0.016681483073004346 0.0020948363673471823 0 0.016733931597916824 0.0028243721881262766 0 0.017230279249083089 0.0029719672507323913 0 0.017397537401937033 0.002358133281037067 0 0.016733931597916824 0.0028243721881262766 0 0.017103333924253384 0.0012189332066727912 0 0.017397537401937033 0.002358133281037067 0 0.016681483073004346 0.0020948363673471823 0 0.016681483073004346 0.0020948363673471823 0 0.016125883492394685 0.0020623297120012361 0 0.016285934916371606 0.0025711452203887432 0 0.016374939537718135 0.001519317277479344 0 0.016681483073004346 0.0020948363673471823 0 0.016125883492394685 0.0020623297120012361 0 0.016285934916371606 0.0025711452203887432 0 0.015486532063813235 0.0023263085783302231 0 0.015962590962007195 0.0028325392459104771 0 0.016125883492394685 0.0020623297120012361 0 0.016285934916371606 0.0025711452203887432 0 0.015486532063813235 0.0023263085783302231 0 0.016681483073004346 0.0020948363673471823 0 0.016285934916371606 0.0025711452203887432 0 0.016733931597916824 0.0028243721881262766 0 0.004555668005261808 0.00061911691524017939 0 0.0047934591844398166 0.00078770568217369425 0 0.0048070604025870038 0.0010576157459621955 0 0.0099499447092049748 0.0013770217916485958 0 0.0084961813744070785 0.0021086145334911319 0 0.004555668005261808 0.00061911691524017939 0 0.0048242762372088408 0.00057770969870554235 0 0.0047934591844398166 0.00078770568217369425 0 0.015734108488455606 0.0015818869577116713 0 0.016125883492394685 0.0020623297120012361 0 0.015486532063813235 0.0023263085783302231 0 0.0099499447092049748 0.0013770217916485958 0 0.011540068590886869 0.0018139851516305952 0 0.004555668005261808 0.00061911691524017939 0 0.0046957626000013143 0.00032967338834437429 0 0.0045744247761986051 0.00035938739691074214 0 0.004555668005261808 0.00061911691524017939 0 0.0045744247761986051 0.00035938739691074214 0 0.0045134592161108185 0.00028921757488303661 0 0.004555668005261808 0.00061911691524017939 0 0.0046957626000013143 0.00032967338834437429 0 0.0048242762372088408 0.00057770969870554235 0 0.0046957626000013143 0.00032967338834437429 0 0.0047325197757592018 0.00011840991245643057 0 0.0048368825228124693 0.00023096682188108336 0 0.0046957626000013143 0.00032967338834437429 0 0.0045808240158744162 0.00025771325395524232 0 0.0046147066689096097 0.00014940830039573985 0 0.0046957626000013143 0.00032967338834437429 0 0.0046147066689096097 0.00014940830039573985 0 0.0047325197757592018 0.00011840991245643057 0 0.015486532063813235 0.0023263085783302231 0 0.015962590962007195 0.0028325392459104771 0 0.016103987444602518 0.003082666138269624 0 0.004555668005261808 0.00061911691524017939 0 0.0045134592161108185 0.00028921757488303661 0 0.004410469861506101 0.00020904932907209867 0 0.0045808240158744162 0.00025771325395524232 0 0.0045161481756404694 0.00016555556664901524 0 0.0046147066689096097 0.00014940830039573985 0 0.0046957626000013143 0.00032967338834437429 0 0.0045808240158744162 0.00025771325395524232 0 0.0045744247761986051 0.00035938739691074214 0 0.0045808240158744162 0.00025771325395524232 0 0.0045744247761986051 0.00035938739691074214 0 0.0045134592161108185 0.00028921757488303661 0 0.0045808240158744162 0.00025771325395524232 0 0.0045134592161108185 0.00028921757488303661 0 0.0045161481756404694 0.00016555556664901524 0 0.0045134592161108185 0.00028921757488303661 0 0.0045161481756404694 0.00016555556664901524 0 0.0044631641342754644 0.0001739598987636453 0 0.0045161481756404694 0.00016555556664901524 0 0.004496775153957586 0.00010363353434865781 0 0.0044631641342754644 0.0001739598987636453 0 0.0045161481756404694 0.00016555556664901524 0 0.004496775153957586 0.00010363353434865781 0 0.0045561996886387289 7.1491146503480365e-05 0 0.0045561996886387289 7.1491146503480365e-05 0 0.00449886242985649 2.8654629563100972e-05 0 0.0045618097675870157 -2.0834717912752691e-05 0 0.004496775153957586 0.00010363353434865781 0 0.0045561996886387289 7.1491146503480365e-05 0 0.00449886242985649 2.8654629563100972e-05 0 0.0045561996886387289 7.1491146503480365e-05 0 0.0046431264252970025 3.6828064414642919e-06 0 0.0045618097675870157 -2.0834717912752691e-05 0 0.0045561996886387289 7.1491146503480365e-05 0 0.0046147066689096097 0.00014940830039573985 0 0.0046431264252970025 3.6828064414642919e-06 0 0.0045161481756404694 0.00016555556664901524 0 0.0045561996886387289 7.1491146503480365e-05 0 0.0046147066689096097 0.00014940830039573985 0 0.0046147066689096097 0.00014940830039573985 0 0.0046431264252970025 3.6828064414642919e-06 0 0.0047325197757592018 0.00011840991245643057 0 0.0046431264252970025 3.6828064414642919e-06 0 0.0047325197757592018 0.00011840991245643057 0 0.0047652763304139459 -4.0914591594075704e-05 0 0.016927512628235549 0.0033322903299128495 0 0.016733931597916824 0.0028243721881262766 0 0.016506403701069483 0.0032119961866366818 0 0.016389951519373176 0.0029505055760044368 0 0.016327126993808207 0.0030954520734471527 0 0.016506403701069483 0.0032119961866366818 0 0.016733931597916824 0.0028243721881262766 0 0.016389951519373176 0.0029505055760044368 0 0.016506403701069483 0.0032119961866366818 0 0.016285934916371606 0.0025711452203887432 0 0.016733931597916824 0.0028243721881262766 0 0.016389951519373176 0.0029505055760044368 0 0.016285934916371606 0.0025711452203887432 0 0.016389951519373176 0.0029505055760044368 0 0.01618091446694615 0.0028924827207754819 0 0.016285934916371606 0.0025711452203887432 0 0.01618091446694615 0.0028924827207754819 0 0.015962590962007195 0.0028325392459104771 0 0.016389951519373176 0.0029505055760044368 0 0.01618091446694615 0.0028924827207754819 0 0.01623846163055986 0.0030371651074049262 0 0.013029352763694529 0.0030863728198510429 0 0.011540068590886869 0.0018139851516305952 0 0.01618091446694615 0.0028924827207754819 0 0.015962590962007195 0.0028325392459104771 0 0.016118112844291033 0.0030853361700605994 0 0.0045134592161108185 0.00028921757488303661 0 0.004410469861506101 0.00020904932907209867 0 0.0044631641342754644 0.0001739598987636453 0 0.016118112844291033 0.0030853361700605994 0 0.016327126993808207 0.0030954520734471527 0 0.016506403701069483 0.0032119961866366818 0 0.016389951519373176 0.0029505055760044368 0 0.01623846163055986 0.0030371651074049262 0 0.016327126993808207 0.0030954520734471527 0 0.01618091446694615 0.0028924827207754819 0 0.016118112844291033 0.0030853361700605994 0 0.01623846163055986 0.0030371651074049262 0 0.016118112844291033 0.0030853361700605994 0 0.01623846163055986 0.0030371651074049262 0 0.016327126993808207 0.0030954520734471527 0 0.004410469861506101 0.00020904932907209867 0 0.0043667351798568092 -0.00010072852797958897 0 0.004441008392096232 -1.3712835466672902e-05 0 0.011540068590886869 0.0018139851516305952 0 0.010443548726127004 0.0018095637654721561 0 0.004410469861506101 0.00020904932907209867 0 0.0044571226701711018 9.7004926563712361e-05 0 0.004441008392096232 -1.3712835466672902e-05 0 0.004410469861506101 0.00020904932907209867 0 0.0044631641342754644 0.0001739598987636453 0 0.0044571226701711018 9.7004926563712361e-05 0 0.004496775153957586 0.00010363353434865781 0 0.0044631641342754644 0.0001739598987636453 0 0.0044571226701711018 9.7004926563712361e-05 0 0.0044571226701711018 9.7004926563712361e-05 0 0.00449886242985649 2.8654629563100972e-05 0 0.004441008392096232 -1.3712835466672902e-05 0 0.004496775153957586 0.00010363353434865781 0 0.0044571226701711018 9.7004926563712361e-05 0 0.00449886242985649 2.8654629563100972e-05 0 0.016118112844291033 0.0030853361700605994 0 0.016506403701069483 0.0032119961866366818 0 0.01655800895515536 0.003843235967364501 0 0.016927512628235549 0.0033322903299128495 0 0.016506403701069483 0.0032119961866366818 0 0.01655800895515536 0.003843235967364501 0 0.010443548726127004 0.0018095637654721561 0 0.011540071809943184 0.0013303368740280412 0 0.0043667351798568092 -0.00010072852797958897 0 0.0044037782160141082 -0.00026295894908641573 0 0.004269346538130726 -0.00038108346221246215 0 0.0043667351798568092 -0.00010072852797958897 0 0.004441008392096232 -1.3712835466672902e-05 0 0.0044822014805379314 -0.00016380803017326952 0 0.004441008392096232 -1.3712835466672902e-05 0 0.004511149882126253 -6.1200140700575292e-05 0 0.0044822014805379314 -0.00016380803017326952 0 0.00449886242985649 2.8654629563100972e-05 0 0.004441008392096232 -1.3712835466672902e-05 0 0.004511149882126253 -6.1200140700575292e-05 0 0.0044822014805379314 -0.00016380803017326952 0 0.0045970237355604082 -0.00027933366181261398 0 0.0045065884740231122 -0.00034226144452991094 0 0.0044822014805379314 -0.00016380803017326952 0 0.0044037782160141082 -0.00026295894908641573 0 0.0045065884740231122 -0.00034226144452991094 0 0.0043667351798568092 -0.00010072852797958897 0 0.0044822014805379314 -0.00016380803017326952 0 0.0044037782160141082 -0.00026295894908641573 0 0.0046968454365203527 -0.00011998145871543847 0 0.0047349400577201333 -0.00022864647674045413 0 0.0048075886249839706 -0.00016392822962369981 0 0.0046431264252970025 3.6828064414642919e-06 0 0.0047652763304139459 -4.0914591594075704e-05 0 0.0046968454365203527 -0.00011998145871543847 0 0.0047652763304139459 -4.0914591594075704e-05 0 0.0046968454365203527 -0.00011998145871543847 0 0.0048075886249839706 -0.00016392822962369981 0 0.0046431264252970025 3.6828064414642919e-06 0 0.0046968454365203527 -0.00011998145871543847 0 0.0045940722805720277 -0.0001236827618009271 0 0.0046968454365203527 -0.00011998145871543847 0 0.0045940722805720277 -0.0001236827618009271 0 0.0046615105987181148 -0.00022349332434243478 0 0.004511149882126253 -6.1200140700575292e-05 0 0.0044822014805379314 -0.00016380803017326952 0 0.0045940722805720277 -0.0001236827618009271 0 0.0046431264252970025 3.6828064414642919e-06 0 0.0045940722805720277 -0.0001236827618009271 0 0.0045618097675870157 -2.0834717912752691e-05 0 0.00449886242985649 2.8654629563100972e-05 0 0.004511149882126253 -6.1200140700575292e-05 0 0.0045618097675870157 -2.0834717912752691e-05 0 0.004511149882126253 -6.1200140700575292e-05 0 0.0045940722805720277 -0.0001236827618009271 0 0.0045618097675870157 -2.0834717912752691e-05 0 0.0044822014805379314 -0.00016380803017326952 0 0.0045940722805720277 -0.0001236827618009271 0 0.0045970237355604082 -0.00027933366181261398 0 0.0045940722805720277 -0.0001236827618009271 0 0.0045970237355604082 -0.00027933366181261398 0 0.0046615105987181148 -0.00022349332434243478 0 0.0045970237355604082 -0.00027933366181261398 0 0.0046615105987181148 -0.00022349332434243478 0 0.0047087047882103791 -0.00035492353871883505 0 0.0046615105987181148 -0.00022349332434243478 0 0.0047349400577201333 -0.00022864647674045413 0 0.0047087047882103791 -0.00035492353871883505 0 0.0046968454365203527 -0.00011998145871543847 0 0.0046615105987181148 -0.00022349332434243478 0 0.0047349400577201333 -0.00022864647674045413 0 0.0047349400577201333 -0.00022864647674045413 0 0.0047087047882103791 -0.00035492353871883505 0 0.0048050009216178032 -0.0002736263104802986 0 0.0047087047882103791 -0.00035492353871883505 0 0.0046992190366211802 -0.0005032191513183377 0 0.0047557912029730651 -0.00044659555313432756 0 0.0047087047882103791 -0.00035492353871883505 0 0.0046279079280521235 -0.00041586073362037787 0 0.0046992190366211802 -0.0005032191513183377 0 0.0045970237355604082 -0.00027933366181261398 0 0.0046279079280521235 -0.00041586073362037787 0 0.0045065884740231122 -0.00034226144452991094 0 0.0045970237355604082 -0.00027933366181261398 0 0.0047087047882103791 -0.00035492353871883505 0 0.0046279079280521235 -0.00041586073362037787 0 0.0046279079280521235 -0.00041586073362037787 0 0.0045065884740231122 -0.00034226144452991094 0 0.0046221502788216292 -0.00057873158232956703 0 0.0046279079280521235 -0.00041586073362037787 0 0.0046992190366211802 -0.0005032191513183377 0 0.0046221502788216292 -0.00057873158232956703 0 0.0047206933191620898 -0.00061240321768622058 0 0.0046992190366211802 -0.0005032191513183377 0 0.0047636482726601112 -0.00053461209641674889 0 0.0046992190366211802 -0.0005032191513183377 0 0.0047636482726601112 -0.00053461209641674889 0 0.0047557912029730651 -0.00044659555313432756 0 0.0047206933191620898 -0.00061240321768622058 0 0.0046992190366211802 -0.0005032191513183377 0 0.0046221502788216292 -0.00057873158232956703 0 0.0043967231648533393 -0.00037281764094131386 0 0.0046221502788216292 -0.00057873158232956703 0 0.004269346538130726 -0.00038108346221246215 0 0.0047410693492943162 -0.00053247705670255395 0 0.0047286355742159041 -0.00060061920862459377 0 0.0048388416394736511 -0.00068178855176127568 0 0.0025086820716432416 -0.00018688258794575768 0 0.011540071809943184 0.0013303368740280412 0 0.0046221502788216292 -0.00057873158232956703 0 0.0047286355742159041 -0.00060061920862459377 0 0.0048388416394736511 -0.00068178855176127568 0 0.0044037782160141082 -0.00026295894908641573 0 0.0043967231648533393 -0.00037281764094131386 0 0.004269346538130726 -0.00038108346221246215 0 0.0044037782160141082 -0.00026295894908641573 0 0.0043967231648533393 -0.00037281764094131386 0 0.0045065884740231122 -0.00034226144452991094 0 0.0043967231648533393 -0.00037281764094131386 0 0.0045065884740231122 -0.00034226144452991094 0 0.0046221502788216292 -0.00057873158232956703 0 0.005743826011029649 -0.00022976637492399011 0 0.011540071809943184 0.0013303368740280412 0 0.013666141229023791 -0.00020625934749004228 0 0.014712865051028871 0.00028001579009219891 0 0.014973784883651498 -0.00089814732213063994 0 0.015602100256723681 -9.892703791796488e-05 0 0.014712865051028871 0.00028001579009219891 0 0.014973784883651498 -0.00089814732213063994 0 0.011540071809943184 0.0013303368740280412 0 0.017323669998504349 0.0016882312463462085 0 0.011540071809943184 0.0013303368740280412 0 0.017145900631118812 0.0047232924496585877 0 0.01655800895515536 0.003843235967364501 0 0.016914020856950679 0.0045638718612973778 0 0.017132460840768735 0.0037392626415407647 0 0.016929593233484926 0.0048154952270502835 0 0.01841812319789057 0.004064692551954162 0 0.017132460840768735 0.0037392626415407647 0 0.017544385477814471 0.0033453950064775192 0 0.01841812319789057 0.004064692551954162 0 0.017132460840768735 0.0037392626415407647 0 0.016927512628235549 0.0033322903299128495 0 0.01655800895515536 0.003843235967364501 0 0.017132460840768735 0.0037392626415407647 0 0.0053140029789757286 -0.00046045433969505822 0 0.0054698483121325067 -0.00010835590814694732 0 0.0060940252309392429 0.00031435429615058597 0 0.0044333968496445206 -0.0001787511875022233 0 0.0049315683107983054 0.00023490130628248929 0 0.0047726070660929947 0.00064967024602096118 0 0.0049459859441083262 -0.00027032970389077637 0 0.0054077084782058549 0.00049358109295152331 0 0.0047071103346217604 -0.00013470307830521809 0 0.0044333968496445206 -0.0001787511875022233 0 0.0049315683107983054 0.00023490130628248929 0 0.0047071103346217604 -0.00013470307830521809 0 0.0045703394977503484 -0.0002182139870882261 0 0.0046421450472506889 -0.00034014487836709571 0 0.0047071103346217604 -0.00013470307830521809 0 0.0045703394977503484 -0.0002182139870882261 0 0.0044333968496445206 -0.0001787511875022233 0 0.0045703394977503484 -0.0002182139870882261 0 0.0044333968496445206 -0.0001787511875022233 0 0.0046421450472506889 -0.00034014487836709571 0 0.0052278736014718758 -0.0004762425907890392 0 0.0052794506585450048 -0.00040680642203362062 0 0.0053140029789757286 -0.00046045433969505822 0 0.0052278736014718758 -0.0004762425907890392 0 0.0052794506585450048 -0.00040680642203362062 0 0.0051708373620816643 -0.00047543343490325418 0 0.0052794506585450048 -0.00040680642203362062 0 0.0051708373620816643 -0.00047543343490325418 0 0.005188389826456803 -0.0003667932373948364 0 0.0052794506585450048 -0.00040680642203362062 0 0.005322968621161276 -0.00031519145053115013 0 0.005188389826456803 -0.0003667932373948364 0 0.0052794506585450048 -0.00040680642203362062 0 0.0053140029789757286 -0.00046045433969505822 0 0.005322968621161276 -0.00031519145053115013 0 0.0053140029789757286 -0.00046045433969505822 0 0.005322968621161276 -0.00031519145053115013 0 0.0054698483121325067 -0.00010835590814694732 0 0.005322968621161276 -0.00031519145053115013 0 0.0054698483121325067 -0.00010835590814694732 0 0.0052716003074644953 -0.00023216311287006306 0 0.0049315683107983054 0.00023490130628248929 0 0.0051762353058611059 8.642150578978983e-06 0 0.0053661173801607164 0.00030705249742844423 0 0.0049315683107983054 0.00023490130628248929 0 0.0051762353058611059 8.642150578978983e-06 0 0.0049106153431388976 -0.00017535264822078053 0 0.0051762353058611059 8.642150578978983e-06 0 0.0049106153431388976 -0.00017535264822078053 0 0.0051496951421121685 -0.00034350153520171662 0 0.0047071103346217604 -0.00013470307830521809 0 0.0049315683107983054 0.00023490130628248929 0 0.0049106153431388976 -0.00017535264822078053 0 0.0047071103346217604 -0.00013470307830521809 0 0.0049106153431388976 -0.00017535264822078053 0 0.0046421450472506889 -0.00034014487836709571 0 0.0049101506534064655 -0.00042158692898366869 0 0.0047153233448460228 -0.00058313129497855718 0 0.0046421450472506889 -0.00034014487836709571 0 0.0049106153431388976 -0.00017535264822078053 0 0.0049101506534064655 -0.00042158692898366869 0 0.0046421450472506889 -0.00034014487836709571 0 0.0051496951421121685 -0.00034350153520171662 0 0.0049868857440591458 -0.00064888901185557386 0 0.005272051078604457 -0.00055091672896755302 0 0.0049106153431388976 -0.00017535264822078053 0 0.0049101506534064655 -0.00042158692898366869 0 0.0051496951421121685 -0.00034350153520171662 0 0.0049101506534064655 -0.00042158692898366869 0 0.0051496951421121685 -0.00034350153520171662 0 0.0049868857440591458 -0.00064888901185557386 0 0.0047631022109799557 -0.0010996324034377111 0 0.0049868857440591458 -0.00064888901185557386 0 0.0047153233448460228 -0.00058313129497855718 0 0.0049101506534064655 -0.00042158692898366869 0 0.0049868857440591458 -0.00064888901185557386 0 0.0047153233448460228 -0.00058313129497855718 0 0.0046386449711648169 -0.00081215316215075693 0 0.0053140029789757286 -0.00046045433969505822 0 0.0051432364702856366 -0.00054561504619224182 0 0.0047631022109799557 -0.0010996324034377111 0 0.0044333968496445206 -0.0001787511875022233 0 0.0047153233448460228 -0.00058313129497855718 0 0.0046693677066612267 -0.00092912009502380954 0 0.0049459859441083262 -0.00027032970389077637 0 0.0046386449711648169 -0.00081215316215075693 0 0.0051432364702856366 -0.00054561504619224182 0 0.0049603262945003748 -0.00064552764970371294 0 0.0044333968496445206 -0.0001787511875022233 0 0.0047153233448460228 -0.00058313129497855718 0 0.0046421450472506889 -0.00034014487836709571 0 0.0051708373620816643 -0.00047543343490325418 0 0.0051432364702856366 -0.00054561504619224182 0 0.0050752838532102445 -0.00054931746613344587 0 0.0052278736014718758 -0.0004762425907890392 0 0.0053140029789757286 -0.00046045433969505822 0 0.0051432364702856366 -0.00054561504619224182 0 0.0052278736014718758 -0.0004762425907890392 0 0.0051708373620816643 -0.00047543343490325418 0 0.0051432364702856366 -0.00054561504619224182 0 0.0051432364702856366 -0.00054561504619224182 0 0.0050752838532102445 -0.00054931746613344587 0 0.0049603262945003748 -0.00064552764970371294 0 0.0050752838532102445 -0.00054931746613344587 0 0.0049166167588845927 -0.00066633322751930523 0 0.0049603262945003748 -0.00064552764970371294 0 0.0049166167588845927 -0.00066633322751930523 0 0.0049797884285818304 -0.00057578224306264341 0 0.0048803053337669634 -0.00063968876132243491 0 0.0050752838532102445 -0.00054931746613344587 0 0.0049166167588845927 -0.00066633322751930523 0 0.0049797884285818304 -0.00057578224306264341 0 0.0049797884285818304 -0.00057578224306264341 0 0.0048803053337669634 -0.00063968876132243491 0 0.0049204398500927145 -0.0005669085981465416 0 0.0048803053337669634 -0.00063968876132243491 0 0.004853667407691691 -0.00059766901573243424 0 0.0049204398500927145 -0.0005669085981465416 0 0.004853667407691691 -0.00059766901573243424 0 0.0049204398500927145 -0.0005669085981465416 0 0.0049022236428419696 -0.00050569835054831516 0 0.0049797884285818304 -0.00057578224306264341 0 0.0049204398500927145 -0.0005669085981465416 0 0.0049809411676270685 -0.00049223888269120451 0 0.0049204398500927145 -0.0005669085981465416 0 0.0049809411676270685 -0.00049223888269120451 0 0.0049022236428419696 -0.00050569835054831516 0 0.0049809411676270685 -0.00049223888269120451 0 0.0049022236428419696 -0.00050569835054831516 0 0.004961028001427093 -0.00039461050394353723 0 0.0049809411676270685 -0.00049223888269120451 0 0.0050543412690269426 -0.00039016823030750612 0 0.004961028001427093 -0.00039461050394353723 0 0.0049809411676270685 -0.00049223888269120451 0 0.0050756842022337241 -0.00048035421040109623 0 0.0050543412690269426 -0.00039016823030750612 0 0.0051708373620816643 -0.00047543343490325418 0 0.0050752838532102445 -0.00054931746613344587 0 0.0050756842022337241 -0.00048035421040109623 0 0.0050752838532102445 -0.00054931746613344587 0 0.0049797884285818304 -0.00057578224306264341 0 0.0050756842022337241 -0.00048035421040109623 0 0.0049797884285818304 -0.00057578224306264341 0 0.0049809411676270685 -0.00049223888269120451 0 0.0050756842022337241 -0.00048035421040109623 0 0.0047836644490404003 -0.00061890854328527196 0 0.0047636482726601112 -0.00053461209641674889 0 0.0048335000667584097 -0.00052115713864109357 0 0.0047636482726601112 -0.00053461209641674889 0 0.0048335000667584097 -0.00052115713864109357 0 0.0048039980268459355 -0.00046296643008232364 0 0.0047836644490404003 -0.00061890854328527196 0 0.004853667407691691 -0.00059766901573243424 0 0.0048335000667584097 -0.00052115713864109357 0 0.004853667407691691 -0.00059766901573243424 0 0.0049022236428419696 -0.00050569835054831516 0 0.0048335000667584097 -0.00052115713864109357 0 0.0049022236428419696 -0.00050569835054831516 0 0.0048335000667584097 -0.00052115713864109357 0 0.0048700308497635078 -0.0004163024557019257 0 0.0049022236428419696 -0.00050569835054831516 0 0.0048700308497635078 -0.0004163024557019257 0 0.004961028001427093 -0.00039461050394353723 0 0.0048335000667584097 -0.00052115713864109357 0 0.0048700308497635078 -0.0004163024557019257 0 0.0048039980268459355 -0.00046296643008232364 0 0.0048700308497635078 -0.0004163024557019257 0 0.0048039980268459355 -0.00046296643008232364 0 0.0048013390815645762 -0.00037807650860601031 0 0.0047087047882103791 -0.00035492353871883505 0 0.0048013390815645762 -0.00037807650860601031 0 0.0047557912029730651 -0.00044659555313432756 0 0.0048039980268459355 -0.00046296643008232364 0 0.0048013390815645762 -0.00037807650860601031 0 0.0047557912029730651 -0.00044659555313432756 0 0.0047636482726601112 -0.00053461209641674889 0 0.0048039980268459355 -0.00046296643008232364 0 0.0047557912029730651 -0.00044659555313432756 0 0.0047349400577201333 -0.00022864647674045413 0 0.0048050009216178032 -0.0002736263104802986 0 0.0048075886249839706 -0.00016392822962369981 0 0.0047087047882103791 -0.00035492353871883505 0 0.0048013390815645762 -0.00037807650860601031 0 0.0048050009216178032 -0.0002736263104802986 0 0.0048700308497635078 -0.0004163024557019257 0 0.0048013390815645762 -0.00037807650860601031 0 0.004857543443768624 -0.00031822545161850377 0 0.0048013390815645762 -0.00037807650860601031 0 0.0048050009216178032 -0.0002736263104802986 0 0.004857543443768624 -0.00031822545161850377 0 0.0048050009216178032 -0.0002736263104802986 0 0.0048603906061597119 -0.0002311044387601816 0 0.0048075886249839706 -0.00016392822962369981 0 0.0048050009216178032 -0.0002736263104802986 0 0.004857543443768624 -0.00031822545161850377 0 0.0048603906061597119 -0.0002311044387601816 0 0.004857543443768624 -0.00031822545161850377 0 0.0049149381358612361 -0.00024701709185668956 0 0.0049162168501057819 -0.00033466699490251254 0 0.004857543443768624 -0.00031822545161850377 0 0.0048603906061597119 -0.0002311044387601816 0 0.0049149381358612361 -0.00024701709185668956 0 0.0048700308497635078 -0.0004163024557019257 0 0.004857543443768624 -0.00031822545161850377 0 0.0049162168501057819 -0.00033466699490251254 0 0.0049162168501057819 -0.00033466699490251254 0 0.0049772909013089247 -0.00027495386236009531 0 0.004961028001427093 -0.00039461050394353723 0 0.0048700308497635078 -0.0004163024557019257 0 0.0049162168501057819 -0.00033466699490251254 0 0.004961028001427093 -0.00039461050394353723 0 0.0049149381358612361 -0.00024701709185668956 0 0.0049162168501057819 -0.00033466699490251254 0 0.0049772909013089247 -0.00027495386236009531 0 0.0049149381358612361 -0.00024701709185668956 0 0.0049772909013089247 -0.00027495386236009531 0 0.0049866395098738898 -0.00014748901135899252 0 0.0049772909013089247 -0.00027495386236009531 0 0.0049866395098738898 -0.00014748901135899252 0 0.0050701700916860794 -0.00018987518709123337 0 0.0049866395098738898 -0.00014748901135899252 0 0.005075267767448953 -4.877931356698597e-05 0 0.0049710919787598904 1.1123137717741543e-05 0 0.0049009221881179009 -0.00014635701088697305 0 0.0048583237860140866 -5.9279093216357057e-05 0 0.0049710919787598904 1.1123137717741543e-05 0 0.0049866395098738898 -0.00014748901135899252 0 0.0049009221881179009 -0.00014635701088697305 0 0.0049710919787598904 1.1123137717741543e-05 0 0.0048603906061597119 -0.0002311044387601816 0 0.0049149381358612361 -0.00024701709185668956 0 0.0049009221881179009 -0.00014635701088697305 0 0.0049149381358612361 -0.00024701709185668956 0 0.0049866395098738898 -0.00014748901135899252 0 0.0049009221881179009 -0.00014635701088697305 0 0.0048603906061597119 -0.0002311044387601816 0 0.0049009221881179009 -0.00014635701088697305 0 0.0048075886249839706 -0.00016392822962369981 0 0.0049009221881179009 -0.00014635701088697305 0 0.0048583237860140866 -5.9279093216357057e-05 0 0.0048075886249839706 -0.00016392822962369981 0 0.0047652763304139459 -4.0914591594075704e-05 0 0.0048583237860140866 -5.9279093216357057e-05 0 0.0048075886249839706 -0.00016392822962369981 0 0.005188389826456803 -0.0003667932373948364 0 0.0050543412690269426 -0.00039016823030750612 0 0.0051425256334473096 -0.00026065029641493748 0 0.005188389826456803 -0.0003667932373948364 0 0.0051425256334473096 -0.00026065029641493748 0 0.0052716003074644953 -0.00023216311287006306 0 0.005322968621161276 -0.00031519145053115013 0 0.005188389826456803 -0.0003667932373948364 0 0.0052716003074644953 -0.00023216311287006306 0 0.0051708373620816643 -0.00047543343490325418 0 0.0050756842022337241 -0.00048035421040109623 0 0.005188389826456803 -0.0003667932373948364 0 0.0050756842022337241 -0.00048035421040109623 0 0.005188389826456803 -0.0003667932373948364 0 0.0050543412690269426 -0.00039016823030750612 0 0.0050543412690269426 -0.00039016823030750612 0 0.004961028001427093 -0.00039461050394353723 0 0.0050388498099668355 -0.00030558017449398834 0 0.0049772909013089247 -0.00027495386236009531 0 0.004961028001427093 -0.00039461050394353723 0 0.0050388498099668355 -0.00030558017449398834 0 0.0049772909013089247 -0.00027495386236009531 0 0.0050388498099668355 -0.00030558017449398834 0 0.0050701700916860794 -0.00018987518709123337 0 0.0050543412690269426 -0.00039016823030750612 0 0.0050388498099668355 -0.00030558017449398834 0 0.0051425256334473096 -0.00026065029641493748 0 0.0050388498099668355 -0.00030558017449398834 0 0.0050701700916860794 -0.00018987518709123337 0 0.0051425256334473096 -0.00026065029641493748 0 0.0050701700916860794 -0.00018987518709123337 0 0.005075267767448953 -4.877931356698597e-05 0 0.0052437191928674789 -7.6765993821179812e-05 0 0.0050701700916860794 -0.00018987518709123337 0 0.0052437191928674789 -7.6765993821179812e-05 0 0.0051425256334473096 -0.00026065029641493748 0 0.0049866395098738898 -0.00014748901135899252 0 0.0050701700916860794 -0.00018987518709123337 0 0.005075267767448953 -4.877931356698597e-05 0 0.0054698483121325067 -0.00010835590814694732 0 0.0052437191928674789 -7.6765993821179812e-05 0 0.0052716003074644953 -0.00023216311287006306 0 0.0052437191928674789 -7.6765993821179812e-05 0 0.0051425256334473096 -0.00026065029641493748 0 0.0052716003074644953 -0.00023216311287006306 0 0.0052437191928674789 -7.6765993821179812e-05 0 0.0051737898204035123 0.00012983683405299367 0 0.0055219847026343402 0.0002321136144770865 0 0.0054698483121325067 -0.00010835590814694732 0 0.0052437191928674789 -7.6765993821179812e-05 0 0.0055219847026343402 0.0002321136144770865 0 0.005075267767448953 -4.877931356698597e-05 0 0.0052437191928674789 -7.6765993821179812e-05 0 0.0051737898204035123 0.00012983683405299367 0 0.0051737898204035123 0.00012983683405299367 0 0.0050063644162248993 0.0002547406462533844 0 0.0052975628962186588 0.00045299847590018013 0 0.0051737898204035123 0.00012983683405299367 0 0.0055219847026343402 0.0002321136144770865 0 0.0052975628962186588 0.00045299847590018013 0 0.0047325197757592018 0.00011840991245643057 0 0.0048485562901156125 6.2960310650360017e-05 0 0.0048368825228124693 0.00023096682188108336 0 0.0047652763304139459 -4.0914591594075704e-05 0 0.0048583237860140866 -5.9279093216357057e-05 0 0.0048485562901156125 6.2960310650360017e-05 0 0.0047325197757592018 0.00011840991245643057 0 0.0047652763304139459 -4.0914591594075704e-05 0 0.0048485562901156125 6.2960310650360017e-05 0 0.0048583237860140866 -5.9279093216357057e-05 0 0.0048485562901156125 6.2960310650360017e-05 0 0.0049710919787598904 1.1123137717741543e-05 0 0.0048485562901156125 6.2960310650360017e-05 0 0.0049710919787598904 1.1123137717741543e-05 0 0.0050063644162248993 0.0002547406462533844 0 0.0051737898204035123 0.00012983683405299367 0 0.0049710919787598904 1.1123137717741543e-05 0 0.0050063644162248993 0.0002547406462533844 0 0.005075267767448953 -4.877931356698597e-05 0 0.0051737898204035123 0.00012983683405299367 0 0.0049710919787598904 1.1123137717741543e-05 0 0.0050063644162248993 0.0002547406462533844 0 0.0049119638726774929 0.00039863407604034745 0 0.0050607370912026323 0.00056666903560610683 0 0.0050063644162248993 0.0002547406462533844 0 0.0050607370912026323 0.00056666903560610683 0 0.0052975628962186588 0.00045299847590018013 0 0.0046957626000013143 0.00032967338834437429 0 0.0049119638726774929 0.00039863407604034745 0 0.0048368825228124693 0.00023096682188108336 0 0.0050063644162248993 0.0002547406462533844 0 0.0049119638726774929 0.00039863407604034745 0 0.0048368825228124693 0.00023096682188108336 0 0.0048485562901156125 6.2960310650360017e-05 0 0.0050063644162248993 0.0002547406462533844 0 0.0048368825228124693 0.00023096682188108336 0 0.0049119638726774929 0.00039863407604034745 0 0.0048242762372088408 0.00057770969870554235 0 0.0050607370912026323 0.00056666903560610683 0 0.0046957626000013143 0.00032967338834437429 0 0.0049119638726774929 0.00039863407604034745 0 0.0048242762372088408 0.00057770969870554235 0 0.0050607370912026323 0.00056666903560610683 0 0.005003364129468355 0.00089376433827596899 0 0.0053700838382669761 0.0008856239856218388 0 0.0048242762372088408 0.00057770969870554235 0 0.0050607370912026323 0.00056666903560610683 0 0.005003364129468355 0.00089376433827596899 0 0.0048242762372088408 0.00057770969870554235 0 0.005003364129468355 0.00089376433827596899 0 0.0047934591844398166 0.00078770568217369425 0 0.0052975628962186588 0.00045299847590018013 0 0.0053700838382669761 0.0008856239856218388 0 0.0057547284339523616 0.00074367643176444253 0 0.0055219847026343402 0.0002321136144770865 0 0.0052975628962186588 0.00045299847590018013 0 0.0057547284339523616 0.00074367643176444253 0 0.0050607370912026323 0.00056666903560610683 0 0.0052975628962186588 0.00045299847590018013 0 0.0053700838382669761 0.0008856239856218388 0 0.0053700838382669761 0.0008856239856218388 0 0.0057547284339523616 0.00074367643176444253 0 0.0058161296172565356 0.0012749106611004805 0 0.0054077084782058549 0.00049358109295152331 0 0.0058116089941619561 0.0013747762311177017 0 0.0057547284339523616 0.00074367643176444253 0 0.0060940252309392429 0.00031435429615058597 0 0.0065149308300323869 0.0013305337220109951 0 0.0055219847026343402 0.0002321136144770865 0 0.0057547284339523616 0.00074367643176444253 0 0.0060940252309392429 0.00031435429615058597 0 0.0054698483121325067 -0.00010835590814694732 0 0.0055219847026343402 0.0002321136144770865 0 0.0060940252309392429 0.00031435429615058597 0 0.0049315683107983054 0.00023490130628248929 0 0.0052110940342889349 0.00057025887870691423 0 0.0053661173801607164 0.00030705249742844423 0 0.0049315683107983054 0.00023490130628248929 0 0.0047726070660929947 0.00064967024602096118 0 0.0052110940342889349 0.00057025887870691423 0 0.0052110940342889349 0.00057025887870691423 0 0.0051239946252852114 0.0014278333128069727 0 0.0056610754901280239 0.00086649379930808454 0 0.0047726070660929947 0.00064967024602096118 0 0.0052110940342889349 0.00057025887870691423 0 0.0051239946252852114 0.0014278333128069727 0 0.0065149308300323869 0.0013305337220109951 0 0.0061435083230615773 0.0019830494600990528 0 0.0058161296172565356 0.0012749106611004805 0 0.0057547284339523616 0.00074367643176444253 0 0.0065149308300323869 0.0013305337220109951 0 0.0058161296172565356 0.0012749106611004805 0 0.0061435083230615773 0.0019830494600990528 0 0.0065974852869519728 0.0022552478857097054 0 0.0063960251985210681 0.0023392722606176749 0 0.0065149308300323869 0.0013305337220109951 0 0.0061435083230615773 0.0019830494600990528 0 0.0065974852869519728 0.0022552478857097054 0 0.0058116089941619561 0.0013747762311177017 0 0.0060542061092016368 0.0021207070545255125 0 0.0051239946252852114 0.0014278333128069727 0 0.0055465072906620482 0.0020928257431296962 0 0.0057042838086983167 0.0017978021869910227 0 0.0046964566384700606 0.0012087115921717349 0 0.0053751474646568506 0.0014050391713888383 0 0.0054219071493555445 0.0020212043672055533 0 0.0084961813744070785 0.0021086145334911319 0 0.0065297114835609436 0.0033560204940330175 0 0.005003364129468355 0.00089376433827596899 0 0.0046964566384700606 0.0012087115921717349 0 0.0053751474646568506 0.0014050391713888383 0 0.005003364129468355 0.00089376433827596899 0 0.0047934591844398166 0.00078770568217369425 0 0.0048070604025870038 0.0010576157459621955 0 0.0056123612321292305 0.002025935303046184 0 0.0084961813744070785 0.0021086145334911319 0 0.005003364129468355 0.00089376433827596899 0 0.0053700838382669761 0.0008856239856218388 0 0.0053751474646568506 0.0014050391713888383 0 0.0061435083230615773 0.0019830494600990528 0 0.0053751474646568506 0.0014050391713888383 0 0.0058161296172565356 0.0012749106611004805 0 0.0053700838382669761 0.0008856239856218388 0 0.0053751474646568506 0.0014050391713888383 0 0.0058161296172565356 0.0012749106611004805 0 0.0061435083230615773 0.0019830494600990528 0 0.0054219071493555445 0.0020212043672055533 0 0.0065404666311593401 0.0025980191421600585 0 0.0061435083230615773 0.0019830494600990528 0 0.0053751474646568506 0.0014050391713888383 0 0.0054219071493555445 0.0020212043672055533 0 0.0091886399440397025 0.0047103306978371227 0 0.0091507609223484762 0.006067552506225548 0 0.0078926636759186521 0.0044069718891060336 0 0.0091886399440397025 0.0047103306978371227 0 0.0078926636759186521 0.0044069718891060336 0 0.0089497442457313857 0.0034842356308210031 0 0.0098705880362149785 0.0021852061946534278 0 0.0089497442457313857 0.0034842356308210031 0 0.0079993079181527038 0.0023455747708130601 0 0.0078926636759186521 0.0044069718891060336 0 0.0089497442457313857 0.0034842356308210031 0 0.0079993079181527038 0.0023455747708130601 0 0.0078926636759186521 0.0044069718891060336 0 0.0065404666311593401 0.0025980191421600585 0 0.0079993079181527038 0.0023455747708130601 0 0.0065297114835609436 0.0033560204940330175 0 0.0065114517509629226 0.0025898031061705098 0 0.0065404666311593401 0.0025980191421600585 0 0.0072493344363049137 0.0019187832225383988 0 0.0079993079181527038 0.0023455747708130601 0 0.0072493344363049137 0.0019187832225383988 0 0.0079993079181527038 0.0023455747708130601 0 0.0077374878450828435 0.0012851730862221244 0 0.0065404666311593401 0.0025980191421600585 0 0.0067288447744267531 0.0022012822624023509 0 0.0072493344363049137 0.0019187832225383988 0 0.0067288447744267531 0.0022012822624023509 0 0.0072493344363049137 0.0019187832225383988 0 0.0069900661382089006 0.0014609583439960697 0 0.0098705880362149785 0.0021852061946534278 0 0.0079993079181527038 0.0023455747708130601 0 0.0077374878450828435 0.0012851730862221244 0 0.015895168908865547 0.0019936240510128656 0 0.013414077237196837 0.0010025859799786332 0 0.0065974852869519728 0.0022552478857097054 0 0.0063880900543311419 0.0023370968255148495 0 0.0061055014235297878 0.0022882561355020985 0 0.0055465072906620482 0.0020928257431296962 0 0.0061055014235297878 0.0022882561355020985 0 0.0059056700225518554 0.0022471744844787585 0 0.0060542061092016368 0.0021207070545255125 0 0.006094807865313346 0.0022359593749300614 0 0.0065974852869519728 0.0022552478857097054 0 0.0063880900543311419 0.0023370968255148495 0 0.0063960251985210681 0.0023392722606176749 0 0.0061435083230615773 0.0019830494600990528 0 0.0065404666311593401 0.0025980191421600585 0 0.0063960251985210681 0.0023392722606176749 0 0.0065404666311593401 0.0025980191421600585 0 0.0063960251985210681 0.0023392722606176749 0 0.0064384732590956418 0.0023456294041066562 0 0.0063880900543311419 0.0023370968255148495 0 0.0063960251985210681 0.0023392722606176749 0 0.0064384732590956418 0.0023456294041066562 0 0.0063880900543311419 0.0023370968255148495 0 0.0064384732590956418 0.0023456294041066562 0 0.0063256842869153168 0.002247313180593014 0 0.0065404666311593401 0.0025980191421600585 0 0.0067288447744267531 0.0022012822624023509 0 0.0064384732590956418 0.0023456294041066562 0 0.006822810510551911 0.0022247796683272591 0 0.0064048944747214023 0.00158552073083402 0 0.0067288447744267531 0.0022012822624023509 0 0.0064384732590956418 0.0023456294041066562 0 0.0064352334644518245 0.0020868127400737214 0 0.0067288447744267531 0.0022012822624023509 0 0.0069900661382089006 0.0014609583439960697 0 0.0066563644322546857 0.001551026929717878 0 0.0064384732590956418 0.0023456294041066562 0 0.0063256842869153168 0.002247313180593014 0 0.0064352334644518245 0.0020868127400737214 0 0.0063256842869153168 0.002247313180593014 0 0.0062380893916643473 0.0021097680081755186 0 0.0064352334644518245 0.0020868127400737214 0 0.0063256842869153168 0.002247313180593014 0 0.0061055014235297878 0.0022882561355020985 0 0.0062380893916643473 0.0021097680081755186 0 0.0061055014235297878 0.0022882561355020985 0 0.0062380893916643473 0.0021097680081755186 0 0.0059364135815947322 0.0023254161035630178 0 0.0063880900543311419 0.0023370968255148495 0 0.0063256842869153168 0.002247313180593014 0 0.0061055014235297878 0.0022882561355020985 0 0.0091772255314612108 0.0015534216120846101 0 0.006546168325459005 0.0021142374384977474 0 0.0062380893916643473 0.0021097680081755186 0 0.0062484197789680479 0.0019118568325420099 0 0.0059364135815947322 0.0023254161035630178 0 0.0062380893916643473 0.0021097680081755186 0 0.0062484197789680479 0.0019118568325420099 0 0.0064352334644518245 0.0020868127400737214 0 0.01194248477317955 0.0022963921378899303 0 0.011026970053096012 0.0013174299054196344 0 0.013723816975878081 0.00050126586649582006 0 0.0064396318343912648 0.0011824840255683622 0 0.0066199983581463895 0.00120201120841779 0 0.0066130485336895013 0.0010064279429440092 0 0.0091772255314612108 0.0015534216120846101 0 0.015092895328747434 0.00058511394016008841 0 0.0091772255314612108 0.0015534216120846101 0 0.013574041865817933 0.0019754509567079283 0 0.0082998028482428234 0.0013663108677313669 0 0.0082316634864008625 0.0012870498666036265 0 0.0080048747272649674 0.0014632885358786228 0 0.0069900661382089006 0.0014609583439960697 0 0.0067528612657093666 0.0012530910076532021 0 0.0067436506665458883 0.00095862526134137687 0 0.0069900661382089006 0.0014609583439960697 0 0.0066563644322546857 0.001551026929717878 0 0.0067528612657093666 0.0012530910076532021 0 0.0091772255314612108 0.0015534216120846101 0 0.0064048944747214023 0.00158552073083402 0 0.0066563644322546857 0.001551026929717878 0 0.0066199983581463895 0.00120201120841779 0 0.0067528612657093666 0.0012530910076532021 0 0.0066816884611206016 0.0011047734264461814 0 0.0067528612657093666 0.0012530910076532021 0 0.0067436506665458883 0.00095862526134137687 0 0.0064396318343912648 0.0011824840255683622 0 0.0066563644322546857 0.001551026929717878 0 0.0066199983581463895 0.00120201120841779 0 0.0066199983581463895 0.00120201120841779 0 0.0066816884611206016 0.0011047734264461814 0 0.0066130485336895013 0.0010064279429440092 0 0.0066199983581463895 0.00120201120841779 0 0.0066816884611206016 0.0011047734264461814 0 0.0067528612657093666 0.0012530910076532021 0 0.021622251591054607 -0.00011901717578104641 0 0.021296157974223559 -6.0870018887502149e-05 0 0.021750362368212942 -0.00050534976797876846 0 0.021451804953010804 4.1848188378346989e-05 0 0.021512392825978156 7.7753037982561146e-05 0 0.021622251591054607 -0.00011901717578104641 0 0.018077399982856353 -6.7540926597338836e-05 0 0.01632608876383046 -0.00038047970985400086 0 0.0066816884611206016 0.0011047734264461814 0 0.0067436506665458883 0.00095862526134137687 0 0.0066130485336895013 0.0010064279429440092 0 0.01632608876383046 -0.00038047970985400086 0 0.015092895328747434 0.00058511394016008841 0 0.016925651102823125 -0.00057640591396075245 0 0.017519862062311906 -0.00019899243151588771 0 0.016136403081507662 0.00022140036111500147 0 0.018077399982856353 -6.7540926597338836e-05 0 0.021474643681369966 0.00042182729299261097 0 0.021599716264910265 0.00030839827051953162 0 0.021649994813100371 0.00026525322291602647 0 0.021723474803723723 0.00036322261633744263 0 0.018077399982856353 -6.7540926597338836e-05 0 0.015092895328747434 0.00058511394016008841 0 0.021453708313664076 4.3831958933218802e-05 0 0.021622251591054607 -0.00011901717578104641 0 0.021296157974223559 -6.0870018887502149e-05 0 0.018077399982856353 -6.7540926597338836e-05 0 0.020431474467370481 -0.00092842645246007309 0 0.021835240813093872 0.00022385287832026222 0 0.021989172242825601 0.00045956549912917836 0 0.022070717991047289 0.00044251973024489114 0 0.021835240813093872 0.00022385287832026222 0 0.021649994813100371 0.00026525322291602647 0 0.021989172242825601 0.00045956549912917836 0 0.013574041865817933 0.0019754509567079283 0 0.015092895328747434 0.00058511394016008841 0 0.021649994813100371 0.00026525322291602647 0 0.021723474803723723 0.00036322261633744263 0 0.021989172242825601 0.00045956549912917836 0 0.021474643681369966 0.00042182729299261097 0 0.022035957772206231 0.00055469327344387094 0 0.021989172242825601 0.00045956549912917836 0 0.022050298041316824 0.00044787214241879966 0 0.022144109026047566 0.00047135110050797527 0 0.022050298041316824 0.00044787214241879966 0 0.022112143599850833 0.00040840344664265179 0 0.022067080684967513 0.00042330978497122926 0 0.022050298041316824 0.00044787214241879966 0 0.022144109026047566 0.00047135110050797527 0 0.022112143599850833 0.00040840344664265179 0 0.022144109026047566 0.00047135110050797527 0 0.022229639123348782 0.00041924097062697103 0 0.022112143599850833 0.00040840344664265179 0 0.022123951017086748 0.00058861425018538933 0 0.021989172242825601 0.00045956549912917836 0 0.022144109026047566 0.00047135110050797527 0 0.021474643681369966 0.00042182729299261097 0 0.022077135426648898 -4.5592150873498956e-05 0 0.022123951017086748 0.00058861425018538933 0 0.022144109026047566 0.00047135110050797527 0 0.02230898540949551 0.00049474142578312364 0 0.022144109026047566 0.00047135110050797527 0 0.02230898540949551 0.00049474142578312364 0 0.022229639123348782 0.00041924097062697103 0 0.022229639123348782 0.00041924097062697103 0 0.022244175413757221 0.00028206761600956155 0 0.022112143599850833 0.00040840344664265179 0 0.02230898540949551 0.00049474142578312364 0 0.022229639123348782 0.00041924097062697103 0 0.022356094931238798 0.00036139140141021076 0 0.022356094931238798 0.00036139140141021076 0 0.022244175413757221 0.00028206761600956155 0 0.022449765184685878 0.00024380761618391554 0 0.022229639123348782 0.00041924097062697103 0 0.022356094931238798 0.00036139140141021076 0 0.022244175413757221 0.00028206761600956155 0 0.022244175413757221 0.00028206761600956155 0 0.022112143599850833 0.00040840344664265179 0 0.022029406789657795 0.00039566594817457533 0 0.022112143599850833 0.00040840344664265179 0 0.022067080684967513 0.00042330978497122926 0 0.022029406789657795 0.00039566594817457533 0 0.022269614442993024 -0.00044677307528330213 0 0.022369520819379582 -0.00046116823629517004 0 0.022464712354234039 -0.0005970623769610213 0 0.022369520819379582 -0.00046116823629517004 0 0.022495137323914338 -0.00048343538386928033 0 0.022464712354234039 -0.0005970623769610213 0 0.022236700758298866 -0.00077008716476634957 0 0.022125348365865091 -0.00084702822315459929 0 0.022409910677419338 -0.0011280446790480432 0 0.022239781714162719 -0.00063604904121191449 0 0.02268601300894733 -0.00055681016658144084 0 0.022269614442993024 -0.00044677307528330213 0 0.022308017475892793 -0.00041044365584729816 0 0.022369520819379582 -0.00046116823629517004 0 0.022340357398019935 -0.0003969233564079274 0 0.022369520819379582 -0.00046116823629517004 0 0.022495137323914338 -0.00048343538386928033 0 0.022308017475892793 -0.00041044365584729816 0 0.022340357398019935 -0.0003969233564079274 0 0.022369520819379582 -0.00046116823629517004 0 0.021750362368212942 -0.00050534976797876846 0 0.022125348365865091 -0.00084702822315459929 0 0.022029663960943524 -0.00059868872090599863 0 0.02230898540949551 0.00049474142578312364 0 0.022356094931238798 0.00036139140141021076 0 0.022570523575445124 0.00035199727611552394 0 0.022077135426648898 -4.5592150873498956e-05 0 0.022328730109963887 -0.00023502910525921103 0 0.022356094931238798 0.00036139140141021076 0 0.022570523575445124 0.00035199727611552394 0 0.022449765184685878 0.00024380761618391554 0 0.022236700758298866 -0.00077008716476634957 0 0.022125348365865091 -0.00084702822315459929 0 0.022029663960943524 -0.00059868872090599863 0 0.022269614442993024 -0.00044677307528330213 0 0.022050414835049981 -0.00030670862248316521 0 0.022253401236893532 -0.00034443517456543614 0 0.022239781714162719 -0.00063604904121191449 0 0.02206897258987979 -0.00030512945523378357 0 0.022236700758298866 -0.00077008716476634957 0 0.022029663960943524 -0.00059868872090599863 0 0.022050414835049981 -0.00030670862248316521 0 0.021750362368212942 -0.00050534976797876846 0 0.022029663960943524 -0.00059868872090599863 0 0.022050414835049981 -0.00030670862248316521 0 0.021622251591054607 -0.00011901717578104641 0 0.021750362368212942 -0.00050534976797876846 0 0.022050414835049981 -0.00030670862248316521 0 0.022050414835049981 -0.00030670862248316521 0 0.022253401236893532 -0.00034443517456543614 0 0.022229684087949942 -0.00022350998856182674 0 0.022340357398019935 -0.0003969233564079274 0 0.022253401236893532 -0.00034443517456543614 0 0.022257795363082478 -0.00037395931276188105 0 0.022253401236893532 -0.00034443517456543614 0 0.022229684087949942 -0.00022350998856182674 0 0.022257795363082478 -0.00037395931276188105 0 0.022246197511469945 -0.00037857291902449424 0 0.021823410900156402 -0.00033092166894015725 0 0.022269614442993024 -0.00044677307528330213 0 0.022308017475892793 -0.00041044365584729816 0 0.022253401236893532 -0.00034443517456543614 0 0.022308017475892793 -0.00041044365584729816 0 0.022340357398019935 -0.0003969233564079274 0 0.022253401236893532 -0.00034443517456543614 0 0.021512392825978156 7.7753037982561146e-05 0 0.021622251591054607 -0.00011901717578104641 0 0.022229684087949942 -0.00022350998856182674 0 0.018752888334073722 -0.00013969836066881255 0 0.020606827731913867 -0.0004502412274176408 0 0.020443064962759536 0.00081585654540522825 0 0.01632608876383046 -0.00038047970985400086 0 0.022246197511469945 -0.00037857291902449424 0 0.021622251591054607 -0.00011901717578104641 0 0.022050414835049981 -0.00030670862248316521 0 0.022229684087949942 -0.00022350998856182674 0 0.0069900661382089006 0.0014609583439960697 0 0.0067436506665458883 0.00095862526134137687 0 0.0077374878450828435 0.0012851730862221244 0 0.01632608876383046 -0.00038047970985400086 0 0.013414077237196837 0.0010025859799786332 0 0.0072493344363049137 0.0019187832225383988 0 0.0069900661382089006 0.0014609583439960697 0 0.0077374878450828435 0.0012851730862221244 0 0.020606827731913867 -0.0004502412274176408 0 0.020443064962759536 0.00081585654540522825 0 0.021775180310863413 0.00044232321828858534 0 0.021735254225180339 0.0013137215689597282 0 0.020443064962759536 0.00081585654540522825 0 0.021775180310863413 0.00044232321828858534 0 0.021735254225180339 0.0013137215689597282 0 0.021775180310863413 0.00044232321828858534 0 0.022593616238984073 0.00081105476006436872 0 0.021775180310863413 0.00044232321828858534 0 0.022593616238984073 0.00081105476006436872 0 0.022492522011055206 0.00016065112688399348 0 0.022492522011055206 0.00016065112688399348 0 0.022883425064600438 -0.00024664790414901316 0 0.022257795363082478 -0.00037395931276188105 0 0.021775180310863413 0.00044232321828858534 0 0.022492522011055206 0.00016065112688399348 0 0.022257795363082478 -0.00037395931276188105 0 0.020606827731913867 -0.0004502412274176408 0 0.021775180310863413 0.00044232321828858534 0 0.022257795363082478 -0.00037395931276188105 0 0.023183947931109592 0.0010985735977325425 0 0.023227790376757641 0.00062834345889418628 0 0.023634291030043851 0.00052811781709670783 0 0.023273118746868431 0.00036776661613513846 0 0.023227790376757641 0.00062834345889418628 0 0.023577298356728314 0.00048097225288457182 0 0.023273118746868431 0.00036776661613513846 0 0.023227790376757641 0.00062834345889418628 0 0.022945049156803225 0.00032044620587726614 0 0.022593616238984073 0.00081105476006436872 0 0.023227790376757641 0.00062834345889418628 0 0.022945049156803225 0.00032044620587726614 0 0.022593616238984073 0.00081105476006436872 0 0.022492522011055206 0.00016065112688399348 0 0.022945049156803225 0.00032044620587726614 0 0.022945049156803225 0.00032044620587726614 0 0.023329356940629788 4.7234914007343785e-05 0 0.022883425064600438 -0.00024664790414901316 0 0.022492522011055206 0.00016065112688399348 0 0.022945049156803225 0.00032044620587726614 0 0.022883425064600438 -0.00024664790414901316 0 0.023273118746868431 0.00036776661613513846 0 0.023329356940629788 4.7234914007343785e-05 0 0.023577298356728314 0.00048097225288457182 0 0.023273118746868431 0.00036776661613513846 0 0.022945049156803225 0.00032044620587726614 0 0.023329356940629788 4.7234914007343785e-05 0 0.023329356940629788 4.7234914007343785e-05 0 0.022883425064600438 -0.00024664790414901316 0 0.023349967646077101 -0.00046927532832608481 0 0.022883425064600438 -0.00024664790414901316 0 0.022973765476710466 -0.00049320213949902343 0 0.023349967646077101 -0.00046927532832608481 0 0.022883425064600438 -0.00024664790414901316 0 0.022973765476710466 -0.00049320213949902343 0 0.022766441023326197 -0.00048440071835280293 0 0.022973765476710466 -0.00049320213949902343 0 0.022766441023326197 -0.00048440071835280293 0 0.022998224484400254 -0.00060210692367219248 0 0.022973765476710466 -0.00049320213949902343 0 0.02307249095796152 -0.0006289982581012078 0 0.022998224484400254 -0.00060210692367219248 0 0.023277195464935119 -0.00070504067560441723 0 0.023359821879953557 -0.00062698667826868975 0 0.023261304528326095 -0.00064265358614442258 0 0.022973765476710466 -0.00049320213949902343 0 0.023349967646077101 -0.00046927532832608481 0 0.02307249095796152 -0.0006289982581012078 0 0.023357322710768284 -0.00055057008689385855 0 0.023206017189157598 -0.00058507415016789861 0 0.022340357398019935 -0.0003969233564079274 0 0.022257795363082478 -0.00037395931276188105 0 0.022500413484695544 -0.0004463952364856982 0 0.022883425064600438 -0.00024664790414901316 0 0.022257795363082478 -0.00037395931276188105 0 0.022766441023326197 -0.00048440071835280293 0 0.022257795363082478 -0.00037395931276188105 0 0.022766441023326197 -0.00048440071835280293 0 0.022500413484695544 -0.0004463952364856982 0 0.022766441023326197 -0.00048440071835280293 0 0.022500413484695544 -0.0004463952364856982 0 0.022711896651046563 -0.00052402416909110938 0 0.022766441023326197 -0.00048440071835280293 0 0.022711896651046563 -0.00052402416909110938 0 0.022925081970985708 -0.00056551096071605898 0 0.022500413484695544 -0.0004463952364856982 0 0.022495137323914338 -0.00048343538386928033 0 0.022711896651046563 -0.00052402416909110938 0 0.022340357398019935 -0.0003969233564079274 0 0.022500413484695544 -0.0004463952364856982 0 0.022495137323914338 -0.00048343538386928033 0 0.022495137323914338 -0.00048343538386928033 0 0.02269430512800448 -0.00058341960347620169 0 0.022464712354234039 -0.0005970623769610213 0 0.022954354917806289 -0.00068693885201883092 0 0.02268601300894733 -0.00055681016658144084 0 0.02269430512800448 -0.00058341960347620169 0 0.022736885195899021 -0.00069907975981485764 0 0.022464712354234039 -0.0005970623769610213 0 0.02269430512800448 -0.00058341960347620169 0 0.022921065715498134 -0.00060372281661305539 0 0.022833051089677286 -0.00063446059357372001 0 0.02269430512800448 -0.00058341960347620169 0 0.022711896651046563 -0.00052402416909110938 0 0.022921065715498134 -0.00060372281661305539 0 0.022495137323914338 -0.00048343538386928033 0 0.02269430512800448 -0.00058341960347620169 0 0.022711896651046563 -0.00052402416909110938 0 0.022711896651046563 -0.00052402416909110938 0 0.022925081970985708 -0.00056551096071605898 0 0.022921065715498134 -0.00060372281661305539 0 0.022766441023326197 -0.00048440071835280293 0 0.022925081970985708 -0.00056551096071605898 0 0.022998224484400254 -0.00060210692367219248 0 0.022925081970985708 -0.00056551096071605898 0 0.022921065715498134 -0.00060372281661305539 0 0.023143555202389979 -0.00057793895509099995 0 0.022921065715498134 -0.00060372281661305539 0 0.022962198504255699 -0.00065706014058265034 0 0.023136416895156466 -0.00064595292891209848 0 0.022921065715498134 -0.00060372281661305539 0 0.023136416895156466 -0.00064595292891209848 0 0.023143555202389979 -0.00057793895509099995 0 0.023136416895156466 -0.00064595292891209848 0 0.023446188128027623 -0.000679944637887474 0 0.023272931935106406 -0.00067280582011610443 0 0.023136416895156466 -0.00064595292891209848 0 0.023136961257243367 -0.00068661451854769339 0 0.023272931935106406 -0.00067280582011610443 0 0.022962198504255699 -0.00065706014058265034 0 0.023136416895156466 -0.00064595292891209848 0 0.023136961257243367 -0.00068661451854769339 0 0.023150210906904098 -0.00068947128472293087 0 0.023148926960407799 -0.00068515149869210936 0 0.023136961257243367 -0.00068661451854769339 0 0.022962198504255699 -0.00065706014058265034 0 0.022736885195899021 -0.00069907975981485764 0 0.023136961257243367 -0.00068661451854769339 0 0.022954354917806289 -0.00068693885201883092 0 0.023063175369810406 -0.00068659850401800123 0 0.023150210906904098 -0.00068947128472293087 0 0.023148926960407799 -0.00068515149869210936 0 0.023125511716425871 -0.00067044328630758978 0 0.022962198504255699 -0.00065706014058265034 0 0.022736885195899021 -0.00069907975981485764 0 0.022833051089677286 -0.00063446059357372001 0 0.02269430512800448 -0.00058341960347620169 0 0.022736885195899021 -0.00069907975981485764 0 0.022833051089677286 -0.00063446059357372001 0 0.022921065715498134 -0.00060372281661305539 0 0.022962198504255699 -0.00065706014058265034 0 0.022833051089677286 -0.00063446059357372001 0 0.023536310152579402 -0.0005703776688099825 0 0.023430062507172982 -0.00044919735550980641 0 0.023563959558116101 -0.00051675931803573511 0 0.023206017189157598 -0.00058507415016789861 0 0.023535143462226245 -0.00055326853237881149 0 0.023536310152579402 -0.0005703776688099825 0 0.023430062507172982 -0.00044919735550980641 0 0.023442761506242141 -0.00060434293390925669 0 0.023206017189157598 -0.00058507415016789861 0 0.023126896768243688 -0.00057747800598502072 0 0.023430062507172982 -0.00044919735550980641 0 0.023143555202389979 -0.00057793895509099995 0 0.023442761506242141 -0.00060434293390925669 0 0.023206017189157598 -0.00058507415016789861 0 0.023007094591971821 -0.00060878635568464563 0 0.022904211195693951 -0.00059153581573760151 0 0.022998224484400254 -0.00060210692367219248 0 0.023143555202389979 -0.00057793895509099995 0 0.022925081970985708 -0.00056551096071605898 0 0.022998224484400254 -0.00060210692367219248 0 0.023143555202389979 -0.00057793895509099995 0 0.023136416895156466 -0.00064595292891209848 0 0.023143555202389979 -0.00057793895509099995 0 0.023446188128027623 -0.000679944637887474 0 0.023143555202389979 -0.00057793895509099995 0 0.023442761506242141 -0.00060434293390925669 0 0.023446188128027623 -0.000679944637887474 0 0.023601684629759808 -0.00066116441537989053 0 0.023442761506242141 -0.00060434293390925669 0 0.023446188128027623 -0.000679944637887474 0 0.023536310152579402 -0.0005703776688099825 0 0.023601684629759808 -0.00066116441537989053 0 0.023442761506242141 -0.00060434293390925669 0 0.023601684629759808 -0.00066116441537989053 0 0.023654784204336109 -0.00069412922813471872 0 0.023654698067150894 -0.00065630414741379311 0 0.023601684629759808 -0.00066116441537989053 0 0.023654784204336109 -0.00069412922813471872 0 0.023446188128027623 -0.000679944637887474 0 0.023654784204336109 -0.00069412922813471872 0 0.023446188128027623 -0.000679944637887474 0 0.023780423184878802 -0.00070284699864257621 0 0.023446188128027623 -0.000679944637887474 0 0.023780423184878802 -0.00070284699864257621 0 0.023407330005611873 -0.00068217555300706346 0 0.023654784204336109 -0.00069412922813471872 0 0.023780423184878802 -0.00070284699864257621 0 0.023769715643976386 -0.00061697168361574443 0 0.023654784204336109 -0.00069412922813471872 0 0.023769715643976386 -0.00061697168361574443 0 0.023654698067150894 -0.00065630414741379311 0 0.0231773424471882 -0.00065647673966402341 0 0.022799903804988343 -0.00067862242133553995 0 0.02294469400177811 -0.00050247259812063029 0 0.023034952184056889 -0.0002305101911859895 0 0.0231773424471882 -0.00065647673966402341 0 0.02294469400177811 -0.00050247259812063029 0 0.023150210906904098 -0.00068947128472293087 0 0.0231773424471882 -0.00065647673966402341 0 0.023136961257243367 -0.00068661451854769339 0 0.023096589969463451 -0.00043346749584335914 0 0.023170058243847533 -0.00064060072636275452 0 0.023136961257243367 -0.00068661451854769339 0 0.023272931935106406 -0.00067280582011610443 0 0.023254265096633052 -0.0006747088310721796 0 0.023272931935106406 -0.00067280582011610443 0 0.023407330005611873 -0.00068217555300706346 0 0.023254265096633052 -0.0006747088310721796 0 0.023446188128027623 -0.000679944637887474 0 0.023272931935106406 -0.00067280582011610443 0 0.023407330005611873 -0.00068217555300706346 0 0.023407330005611873 -0.00068217555300706346 0 0.023254265096633052 -0.0006747088310721796 0 0.023355823920699903 -0.00070634007650494394 0 0.0231773424471882 -0.00065647673966402341 0 0.023254265096633052 -0.0006747088310721796 0 0.023355823920699903 -0.00070634007650494394 0 0.0231773424471882 -0.00065647673966402341 0 0.023136961257243367 -0.00068661451854769339 0 0.023254265096633052 -0.0006747088310721796 0 0.023780423184878802 -0.00070284699864257621 0 0.024334251371309176 -0.0005576826186942936 0 0.024100890583732205 -0.00046607550326669772 0 0.0231773424471882 -0.00065647673966402341 0 0.023355823920699903 -0.00070634007650494394 0 0.023206902086178385 -0.00082013060325858726 0 0.023780423184878802 -0.00070284699864257621 0 0.023355823920699903 -0.00070634007650494394 0 0.023206902086178385 -0.00082013060325858726 0 0.023758379177069154 -0.0007008725803409481 0 0.023755078841254062 -0.00066982824938479691 0 0.023780423184878802 -0.00070284699864257621 0 0.023407330005611873 -0.00068217555300706346 0 0.023355823920699903 -0.00070634007650494394 0 0.024334251371309176 -0.0005576826186942936 0 0.024401203593006432 -0.00040151413179525885 0 0.024430119255496697 -0.00031699328229217819 0 0.023755078841254062 -0.00066982824938479691 0 0.023599176263186847 -0.00049831469557519014 0 0.0231773424471882 -0.00065647673966402341 0 0.023206902086178385 -0.00082013060325858726 0 0.022799903804988343 -0.00067862242133553995 0 0.024334251371309176 -0.0005576826186942936 0 0.024401203593006432 -0.00040151413179525885 0 0.02431599092588076 -0.00040654751471551803 0 0.024401203593006432 -0.00040151413179525885 0 0.024430119255496697 -0.00031699328229217819 0 0.024435910674663563 -0.00031407252979076929 0 0.024430119255496697 -0.00031699328229217819 0 0.02439722786887108 -0.00023793384809380313 0 0.024435910674663563 -0.00031407252979076929 0 0.022799903804988343 -0.00067862242133553995 0 0.02294469400177811 -0.00050247259812063029 0 0.022614826534725671 -0.0004059177999772768 0 0.02294469400177811 -0.00050247259812063029 0 0.022614826534725671 -0.0004059177999772768 0 0.022832672271480291 -0.00028558140119495858 0 0.023034952184056889 -0.0002305101911859895 0 0.02294469400177811 -0.00050247259812063029 0 0.022832672271480291 -0.00028558140119495858 0 0.022614826534725671 -0.0004059177999772768 0 0.022410648003537099 -0.00056477224791925832 0 0.022275674903464 -0.00024837475178507402 0 0.022799903804988343 -0.00067862242133553995 0 0.022614826534725671 -0.0004059177999772768 0 0.022410648003537099 -0.00056477224791925832 0 0.024430119255496697 -0.00031699328229217819 0 0.02439722786887108 -0.00023793384809380313 0 0.024353781137293105 -0.00016632863487323662 0 0.023599176263186847 -0.00049831469557519014 0 0.023417172835966255 -0.00044117858787948828 0 0.024353781137293105 -0.00016632863487323662 0 0.024319409892850401 -0.00016707446892445818 0 0.024271623050264868 -0.00012579793338533173 0 0.02439722786887108 -0.00023793384809380313 0 0.024353781137293105 -0.00016632863487323662 0 0.024319409892850401 -0.00016707446892445818 0 0.023417172835966255 -0.00044117858787948828 0 0.023017249458953042 0.00041152167619541426 0 0.023017249458953042 0.00041152167619541426 0 0.024116785448742892 0.00015199314201636219 0 0.023797666835712491 0.0011109375683415975 0 0.023930406042336819 0.00050458119453755451 0 0.023483350800604472 0.00058114843318730783 0 0.024319409892850401 -0.00016707446892445818 0 0.024271623050264868 -0.00012579793338533173 0 0.02428376074558973 -0.00015468526611647727 0 0.022025552317748234 -0.00049300555927996471 0 0.022275674903464 -0.00024837475178507402 0 0.021974623058039048 -8.1353635448878635e-05 0 0.023017249458953042 0.00041152167619541426 0 0.021925613600840433 0.00031666862493818295 0 0.021983816158458826 0.0011094031017171726 0 0.022054013445521801 0.0007224246935669614 0 0.022220216493074103 0.00090026502390487117 0 0.022410648003537099 -0.00056477224791925832 0 0.022025552317748234 -0.00049300555927996471 0 0.022275674903464 -0.00024837475178507402 0 0.022275674903464 -0.00024837475178507402 0 0.022195090566727218 7.7916961810665052e-05 0 0.022429145614199883 -6.8952400742170979e-06 0 0.022275674903464 -0.00024837475178507402 0 0.021974623058039048 -8.1353635448878635e-05 0 0.022195090566727218 7.7916961810665052e-05 0 0.022244175413757221 0.00028206761600956155 0 0.022195090566727218 7.7916961810665052e-05 0 0.022029406789657795 0.00039566594817457533 0 0.021925613600840433 0.00031666862493818295 0 0.022042670371610715 0.00037366972960541442 0 0.021974623058039048 -8.1353635448878635e-05 0 0.022195090566727218 7.7916961810665052e-05 0 0.022029406789657795 0.00039566594817457533 0 0.022244175413757221 0.00028206761600956155 0 0.022449765184685878 0.00024380761618391554 0 0.022429145614199883 -6.8952400742170979e-06 0 0.022244175413757221 0.00028206761600956155 0 0.022195090566727218 7.7916961810665052e-05 0 0.022429145614199883 -6.8952400742170979e-06 0 0.022449765184685878 0.00024380761618391554 0 0.022597048511875963 0.0001202511447521355 0 0.022429145614199883 -6.8952400742170979e-06 0 0.022597048511875963 0.0001202511447521355 0 0.022696581521219603 -0.00010523204851037356 0 0.022429145614199883 -6.8952400742170979e-06 0 0.022570523575445124 0.00035199727611552394 0 0.022449765184685878 0.00024380761618391554 0 0.022597048511875963 0.0001202511447521355 0 0.022570523575445124 0.00035199727611552394 0 0.022597048511875963 0.0001202511447521355 0 0.022858634596930126 0.00010603826654318876 0 0.022328730109963887 -0.00023502910525921103 0 0.02268601300894733 -0.00055681016658144084 0 0.022597048511875963 0.0001202511447521355 0 0.022858634596930126 0.00010603826654318876 0 0.022696581521219603 -0.00010523204851037356 0 0.022858634596930126 0.00010603826654318876 0 0.022696581521219603 -0.00010523204851037356 0 0.022855254132497557 -0.00012732631201603186 0 0.023096589969463451 -0.00043346749584335914 0 0.02268601300894733 -0.00055681016658144084 0 0.023034952184056889 -0.0002305101911859895 0 0.022858634596930126 0.00010603826654318876 0 0.022855254132497557 -0.00012732631201603186 0 0.022614826534725671 -0.0004059177999772768 0 0.022696581521219603 -0.00010523204851037356 0 0.022832672271480291 -0.00028558140119495858 0 0.023034952184056889 -0.0002305101911859895 0 0.022855254132497557 -0.00012732631201603186 0 0.022832672271480291 -0.00028558140119495858 0 0.022696581521219603 -0.00010523204851037356 0 0.022855254132497557 -0.00012732631201603186 0 0.022832672271480291 -0.00028558140119495858 0 0.022614826534725671 -0.0004059177999772768 0 0.022696581521219603 -0.00010523204851037356 0 0.022429145614199883 -6.8952400742170979e-06 0 0.022614826534725671 -0.0004059177999772768 0 0.022275674903464 -0.00024837475178507402 0 0.022429145614199883 -6.8952400742170979e-06 0 0.020995241828706667 -0.0011906870699708409 0 0.021191922947950186 -0.0010962895450587963 0 0.021192612549875343 -0.0013032035519958995 0 0.020792475302467608 -0.00099914299621768838 0 0.020995241828706667 -0.0011906870699708409 0 0.021023218736093585 -0.0009686402676894806 0 0.020995241828706667 -0.0011906870699708409 0 0.021191922947950186 -0.0010962895450587963 0 0.021023218736093585 -0.0009686402676894806 0 0.021191922947950186 -0.0010962895450587963 0 0.021520056585986196 -0.0012001687520165564 0 0.021192612549875343 -0.0013032035519958995 0 0.021520056585986196 -0.0012001687520165564 0 0.021192612549875343 -0.0013032035519958995 0 0.021373215323162751 -0.0013853070866292939 0 0.021112078045602861 -0.0013931967105391626 0 0.021192612549875343 -0.0013032035519958995 0 0.021373215323162751 -0.0013853070866292939 0 0.021112078045602861 -0.0013931967105391626 0 0.021192612549875343 -0.0013032035519958995 0 0.020998293361766788 -0.0013695734000445455 0 0.020995241828706667 -0.0011906870699708409 0 0.021192612549875343 -0.0013032035519958995 0 0.020998293361766788 -0.0013695734000445455 0 0.020948753880545342 -0.0013640511543624011 0 0.020998293361766788 -0.0013695734000445455 0 0.020916968942799322 -0.0013395179907743752 0 0.020948753880545342 -0.0013640511543624011 0 0.020737233435250173 -0.0010758211440349715 0 0.020916968942799322 -0.0013395179907743752 0 0.020684364740866611 -0.0010322821506517743 0 0.020738990247576979 -0.0010790411937917123 0 0.02071559240279551 -0.0011301872684344747 0 0.020916968942799322 -0.0013395179907743752 0 0.020865371641785067 -0.0013220162045703943 0 0.020916968942799322 -0.0013395179907743752 0 0.021111213783375406 -0.0014330830111475793 0 0.020865371641785067 -0.0013220162045703943 0 0.02071559240279551 -0.0011301872684344747 0 0.020737233435250173 -0.0010758211440349715 0 0.020916968942799322 -0.0013395179907743752 0 0.021112078045602861 -0.0013931967105391626 0 0.020998293361766788 -0.0013695734000445455 0 0.020916968942799322 -0.0013395179907743752 0 0.021112078045602861 -0.0013931967105391626 0 0.020916968942799322 -0.0013395179907743752 0 0.021111213783375406 -0.0014330830111475793 0 0.021111213783375406 -0.0014330830111475793 0 0.021024512588860584 -0.0014334726911101462 0 0.021454782202872381 -0.0015033507412573223 0 0.021111213783375406 -0.0014330830111475793 0 0.020865371641785067 -0.0013220162045703943 0 0.021024512588860584 -0.0014334726911101462 0 0.020635908663211491 -0.0012646349575056899 0 0.020865371641785067 -0.0013220162045703943 0 0.021024512588860584 -0.0014334726911101462 0 0.020635908663211491 -0.0012646349575056899 0 0.021024512588860584 -0.0014334726911101462 0 0.020626696654211178 -0.001392636993345955 0 0.021024512588860584 -0.0014334726911101462 0 0.021454782202872381 -0.0015033507412573223 0 0.020626696654211178 -0.001392636993345955 0 0.021387807040344022 -0.0014801443771757365 0 0.02116227375248653 -0.0014424750710426339 0 0.021454782202872381 -0.0015033507412573223 0 0.02197422574923133 -0.0014469697938903209 0 0.021718154775507512 -0.001480157041134291 0 0.021454782202872381 -0.0015033507412573223 0 0.021373215323162751 -0.0013853070866292939 0 0.021743192987776706 -0.0013064808854987237 0 0.021111213783375406 -0.0014330830111475793 0 0.021454782202872381 -0.0015033507412573223 0 0.021373215323162751 -0.0013853070866292939 0 0.021112078045602861 -0.0013931967105391626 0 0.021111213783375406 -0.0014330830111475793 0 0.021373215323162751 -0.0013853070866292939 0 0.021520056585986196 -0.0012001687520165564 0 0.021373215323162751 -0.0013853070866292939 0 0.021743192987776706 -0.0013064808854987237 0 0.021520056585986196 -0.0012001687520165564 0 0.021743192987776706 -0.0013064808854987237 0 0.021844801951018181 -0.0010466839089926568 0 0.021454782202872381 -0.0015033507412573223 0 0.021743192987776706 -0.0013064808854987237 0 0.02197422574923133 -0.0014469697938903209 0 0.021743192987776706 -0.0013064808854987237 0 0.02197422574923133 -0.0014469697938903209 0 0.022188288476388991 -0.0010976642537268116 0 0.022044815313546625 -0.0014644889712578102 0 0.022153903014579888 -0.0015391365722405468 0 0.02197422574923133 -0.0014469697938903209 0 0.022829743582140623 -0.0014891600317817324 0 0.022715844738814089 -0.0010451256818061101 0 0.02197422574923133 -0.0014469697938903209 0 0.021674444985122557 -0.0015517106356653352 0 0.021667055651123274 -0.0014847777580370754 0 0.021674444985122557 -0.0015517106356653352 0 0.021667055651123274 -0.0014847777580370754 0 0.02164542237845371 -0.0015096874089614903 0 0.021667055651123274 -0.0014847777580370754 0 0.021641981587344882 -0.0015078667805171061 0 0.02164542237845371 -0.0015096874089614903 0 0.021641981587344882 -0.0015078667805171061 0 0.021609261706409991 -0.0015313930006275644 0 0.021633218631554475 -0.0015225760101928835 0 0.021641981587344882 -0.0015078667805171061 0 0.021633218631554475 -0.0015225760101928835 0 0.02164542237845371 -0.0015096874089614903 0 0.021667055651123274 -0.0014847777580370754 0 0.021609261706409991 -0.0015313930006275644 0 0.021627168820968434 -0.0015758102612862079 0 0.021667055651123274 -0.0014847777580370754 0 0.021641981587344882 -0.0015078667805171061 0 0.021609261706409991 -0.0015313930006275644 0 0.021454782202872381 -0.0015033507412573223 0 0.021718154775507512 -0.001480157041134291 0 0.021627168820968434 -0.0015758102612862079 0 0.02197422574923133 -0.0014469697938903209 0 0.021667055651123274 -0.0014847777580370754 0 0.021718154775507512 -0.001480157041134291 0 0.021667055651123274 -0.0014847777580370754 0 0.021718154775507512 -0.001480157041134291 0 0.021627168820968434 -0.0015758102612862079 0 0.021454782202872381 -0.0015033507412573223 0 0.021627168820968434 -0.0015758102612862079 0 0.021685175774724591 -0.0015894283611869702 0 0.021627168820968434 -0.0015758102612862079 0 0.021685175774724591 -0.0015894283611869702 0 0.021331848718419096 -0.0016565359580907064 0 0.021513236499426706 -0.00070129222946780799 0 0.021685175774724591 -0.0015894283611869702 0 0.021331848718419096 -0.0016565359580907064 0 0.020555256520100665 -0.00098085741959417529 0 0.021331848718419096 -0.0016565359580907064 0 0.02047214457971467 -0.0015597826731026676 0 0.021049933593279294 -0.0019867077429537739 0 0.021760120685988482 -0.0011940576961559798 0 0.021627168820968434 -0.0015758102612862079 0 0.021331848718419096 -0.0016565359580907064 0 0.021541848177256174 -0.0015658674670738467 0 0.021331848718419096 -0.0016565359580907064 0 0.021541848177256174 -0.0015658674670738467 0 0.021689796459077808 -0.0015761539947067424 0 0.021609261706409991 -0.0015313930006275644 0 0.021627168820968434 -0.0015758102612862079 0 0.021541848177256174 -0.0015658674670738467 0 0.021609261706409991 -0.0015313930006275644 0 0.021541848177256174 -0.0015658674670738467 0 0.021633218631554475 -0.0015225760101928835 0 0.021541848177256174 -0.0015658674670738467 0 0.021633218631554475 -0.0015225760101928835 0 0.021689796459077808 -0.0015761539947067424 0 0.023979516972270687 0.00014465315651356509 0 0.023763354662542834 0.00028749871950221423 0 0.023634291030043851 0.00052811781709670783 0 0.023979516972270687 0.00014465315651356509 0 0.023763354662542834 0.00028749871950221423 0 0.023696038767304244 -0.00012357103821267689 0 0.021633218631554475 -0.0015225760101928835 0 0.021640041891362483 -0.0015252745501806728 0 0.021655959740262902 -0.0015071073141346653 0 0.021760120685988482 -0.0011940576961559798 0 0.021534269597643388 -0.00053588589671427049 0 0.021331848718419096 -0.0016565359580907064 0 0.020486797156495703 -0.0025294404220791889 0 0.020263229852983979 -0.0020093823736486182 0 0.021768020024198802 -0.0013569484129002452 0 0.021760120685988482 -0.0011940576961559798 0 0.021760120685988482 -0.0011940576961559798 0 0.023187853955567356 -0.00062629423695370189 0 0.020486797156495703 -0.0025294404220791889 0 0.020263229852983979 -0.0020093823736486182 0 0.019441701990129033 -0.0016668064829565086 0 0.021331848718419096 -0.0016565359580907064 0 0.020263229852983979 -0.0020093823736486182 0 0.02047214457971467 -0.0015597826731026676 0 0.020263229852983979 -0.0020093823736486182 0 0.019929244593094024 -0.0017221124924059069 0 0.02047214457971467 -0.0015597826731026676 0 0.020263229852983979 -0.0020093823736486182 0 0.019929244593094024 -0.0017221124924059069 0 0.019441701990129033 -0.0016668064829565086 0 0.019929244593094024 -0.0017221124924059069 0 0.020037734586505131 -0.0013826929324873916 0 0.02047214457971467 -0.0015597826731026676 0 0.019929244593094024 -0.0017221124924059069 0 0.020037734586505131 -0.0013826929324873916 0 0.019767698246738654 -0.0015334190030474623 0 0.020037734586505131 -0.0013826929324873916 0 0.019668107300460508 -0.0013587210571681363 0 0.019767698246738654 -0.0015334190030474623 0 0.020555256520100665 -0.00098085741959417529 0 0.020037734586505131 -0.0013826929324873916 0 0.02047214457971467 -0.0015597826731026676 0 0.023227790376757641 0.00062834345889418628 0 0.023634291030043851 0.00052811781709670783 0 0.023577298356728314 0.00048097225288457182 0 0.01932343962274417 -0.0011090345076666891 0 0.019668107300460508 -0.0013587210571681363 0 0.019441701990129033 -0.0016668064829565086 0 0.019929244593094024 -0.0017221124924059069 0 0.019767698246738654 -0.0015334190030474623 0 0.019441701990129033 -0.0016668064829565086 0 0.019668107300460508 -0.0013587210571681363 0 0.019767698246738654 -0.0015334190030474623 0 0.019441701990129033 -0.0016668064829565086 0 0.023763354662542834 0.00028749871950221423 0 0.023634291030043851 0.00052811781709670783 0 0.023679009840722923 0.00036980778200068918 0 0.023634291030043851 0.00052811781709670783 0 0.023679009840722923 0.00036980778200068918 0 0.023577298356728314 0.00048097225288457182 0 0.023329356940629788 4.7234914007343785e-05 0 0.023577298356728314 0.00048097225288457182 0 0.023703400727157042 -0.00018883056427048976 0 0.023679009840722923 0.00036980778200068918 0 0.023577298356728314 0.00048097225288457182 0 0.023696038767304244 -0.00012357103821267689 0 0.023763354662542834 0.00028749871950221423 0 0.023679009840722923 0.00036980778200068918 0 0.023696038767304244 -0.00012357103821267689 0 0.023706077396612242 0.0006342715905413766 0 0.023187853955567356 -0.00062629423695370189 0 0.023329356940629788 4.7234914007343785e-05 0 0.023349967646077101 -0.00046927532832608481 0 0.023703400727157042 -0.00018883056427048976 0 0.023357322710768284 -0.00055057008689385855 0 0.023187853955567356 -0.00062629423695370189 0 0.021633218631554475 -0.0015225760101928835 0 0.021655959740262902 -0.0015071073141346653 0 0.02164542237845371 -0.0015096874089614903 0 0.022153903014579888 -0.0015391365722405468 0 0.022875936277081173 -0.001032870002726928 0 0.021655959740262902 -0.0015071073141346653 0 0.02164542237845371 -0.0015096874089614903 0 0.021647101520573944 -0.0015249179396328134 0 0.021674444985122557 -0.0015517106356653352 0 0.02164542237845371 -0.0015096874089614903 0 0.021647101520573944 -0.0015249179396328134 0 0.022829743582140623 -0.0014891600317817324 0 0.023287113137910206 -0.0014013076096820488 0 0.023012023984200398 -0.0012025454369777896 0 0.023187853955567356 -0.00062629423695370189 0 0.022875936277081173 -0.001032870002726928 0 0.022875936277081173 -0.001032870002726928 0 0.023535143462226245 -0.00055326853237881149 0 0.023277195464935119 -0.00070504067560441723 0 0.023193237264474847 -0.00078174362116038463 0 0.023219619101977864 -0.00069290766146279045 0 0.023160209341646421 -0.00065938929603536693 0 0.023261304528326095 -0.00064265358614442258 0 0.023219619101977864 -0.00069290766146279045 0 0.023193237264474847 -0.00078174362116038463 0 0.023160209341646421 -0.00065938929603536693 0 0.023219619101977864 -0.00069290766146279045 0 0.023277195464935119 -0.00070504067560441723 0 0.023261304528326095 -0.00064265358614442258 0 0.023219619101977864 -0.00069290766146279045 0 0.023629873277587372 -0.00054028432469546727 0 0.023563959558116101 -0.00051675931803573511 0 0.023590601883899484 -0.00059848311555453927 0 0.023536310152579402 -0.0005703776688099825 0 0.023563959558116101 -0.00051675931803573511 0 0.023590601883899484 -0.00059848311555453927 0 0.023287113137910206 -0.0014013076096820488 0 0.023189590080858628 -0.00090005328613972004 0 0.023012023984200398 -0.0012025454369777896 0 0.023629873277587372 -0.00054028432469546727 0 0.023590601883899484 -0.00059848311555453927 0 0.023598509386142944 -0.00068359852457764033 0 0.022875936277081173 -0.001032870002726928 0 0.023481414550657064 -0.00077715593814883853 0 0.023536310152579402 -0.0005703776688099825 0 0.023601684629759808 -0.00066116441537989053 0 0.023590601883899484 -0.00059848311555453927 0 0.023601684629759808 -0.00066116441537989053 0 0.023590601883899484 -0.00059848311555453927 0 0.023598509386142944 -0.00068359852457764033 0 0.023601684629759808 -0.00066116441537989053 0 0.023598509386142944 -0.00068359852457764033 0 0.023654698067150894 -0.00065630414741379311 0 0.023769715643976386 -0.00061697168361574443 0 0.023654698067150894 -0.00065630414741379311 0 0.023804488523788726 -0.00049393523985635389 0 0.023654698067150894 -0.00065630414741379311 0 0.023414883421436581 -0.00062789646163495083 0 0.023611382306694153 -0.00049007475505670874 0 0.023598509386142944 -0.00068359852457764033 0 0.023654698067150894 -0.00065630414741379311 0 0.023414883421436581 -0.00062789646163495083 0 0.023481414550657064 -0.00077715593814883853 0 0.023376597332128358 -0.00061218490099263162 0 0.023189590080858628 -0.00090005328613972004 0 0.023003578793049942 -0.00081415552014699882 0 0.023414883421436581 -0.00062789646163495083 0 0.023003578793049942 -0.00081415552014699882 0 0.023414883421436581 -0.00062789646163495083 0 0.022992470886790715 -0.00068391111185402826 0 0.023414883421436581 -0.00062789646163495083 0 0.022992470886790715 -0.00068391111185402826 0 0.023349085476738821 -0.00052033789761530853 0 0.022992470886790715 -0.00068391111185402826 0 0.023045395963314133 -0.00055961194395299596 0 0.023349085476738821 -0.00052033789761530853 0 0.023003578793049942 -0.00081415552014699882 0 0.022992470886790715 -0.00068391111185402826 0 0.022580002746845084 -0.0008515943417281781 0 0.023003578793049942 -0.00081415552014699882 0 0.022715844738814089 -0.0010451256818061101 0 0.022580002746845084 -0.0008515943417281781 0 0.022715844738814089 -0.0010451256818061101 0 0.022188288476388991 -0.0010976642537268116 0 0.022580002746845084 -0.0008515943417281781 0 0.023189590080858628 -0.00090005328613972004 0 0.023003578793049942 -0.00081415552014699882 0 0.022715844738814089 -0.0010451256818061101 0 0.023189590080858628 -0.00090005328613972004 0 0.023012023984200398 -0.0012025454369777896 0 0.022715844738814089 -0.0010451256818061101 0 0.022829743582140623 -0.0014891600317817324 0 0.023012023984200398 -0.0012025454369777896 0 0.022715844738814089 -0.0010451256818061101 0 0.02197422574923133 -0.0014469697938903209 0 0.022715844738814089 -0.0010451256818061101 0 0.022188288476388991 -0.0010976642537268116 0 0.022188288476388991 -0.0010976642537268116 0 0.021844801951018181 -0.0010466839089926568 0 0.02219795147544314 -0.00094952847892849728 0 0.021743192987776706 -0.0013064808854987237 0 0.022188288476388991 -0.0010976642537268116 0 0.021844801951018181 -0.0010466839089926568 0 0.021844801951018181 -0.0010466839089926568 0 0.02219795147544314 -0.00094952847892849728 0 0.02208835680013424 -0.00092373451965616538 0 0.02219795147544314 -0.00094952847892849728 0 0.022383598244660522 -0.00081311447780656133 0 0.02208835680013424 -0.00092373451965616538 0 0.022188288476388991 -0.0010976642537268116 0 0.02219795147544314 -0.00094952847892849728 0 0.022580002746845084 -0.0008515943417281781 0 0.02219795147544314 -0.00094952847892849728 0 0.022580002746845084 -0.0008515943417281781 0 0.022383598244660522 -0.00081311447780656133 0 0.022580002746845084 -0.0008515943417281781 0 0.022703721910964713 -0.00070751987764975884 0 0.022383598244660522 -0.00081311447780656133 0 0.022992470886790715 -0.00068391111185402826 0 0.022580002746845084 -0.0008515943417281781 0 0.022703721910964713 -0.00070751987764975884 0 0.022703721910964713 -0.00070751987764975884 0 0.022765173450268471 -0.00060312083650565127 0 0.023045395963314133 -0.00055961194395299596 0 0.022992470886790715 -0.00068391111185402826 0 0.022703721910964713 -0.00070751987764975884 0 0.023045395963314133 -0.00055961194395299596 0 0.022523940623041645 -0.00072055266338814439 0 0.022578373216967863 -0.00063887728600425385 0 0.022765173450268471 -0.00060312083650565127 0 0.022703721910964713 -0.00070751987764975884 0 0.022523940623041645 -0.00072055266338814439 0 0.022765173450268471 -0.00060312083650565127 0 0.022523940623041645 -0.00072055266338814439 0 0.022383598244660522 -0.00081311447780656133 0 0.022407505514035957 -0.00075127769156587689 0 0.022703721910964713 -0.00070751987764975884 0 0.022523940623041645 -0.00072055266338814439 0 0.022383598244660522 -0.00081311447780656133 0 0.022136884411412192 -0.00066764287845054817 0 0.022126440214160607 -0.00091673423565360405 0 0.022383598244660522 -0.00081311447780656133 0 0.022407505514035957 -0.00075127769156587689 0 0.02208835680013424 -0.00092373451965616538 0 0.021890558395654066 -0.00053998182910205527 0 0.021692545345901145 -0.00081147237009714568 0 0.02208835680013424 -0.00092373451965616538 0 0.022407505514035957 -0.00075127769156587689 0 0.022449342830366481 -0.00056881562488055157 0 0.02253039440289455 -0.00059621327478571822 0 0.022407505514035957 -0.00075127769156587689 0 0.022578373216967863 -0.00063887728600425385 0 0.02253039440289455 -0.00059621327478571822 0 0.022523940623041645 -0.00072055266338814439 0 0.022407505514035957 -0.00075127769156587689 0 0.022578373216967863 -0.00063887728600425385 0 0.022136884411412192 -0.00066764287845054817 0 0.022060013602363468 -0.00043043634731834419 0 0.021890558395654066 -0.00053998182910205527 0 0.021668870919184475 -0.00043585632842576421 0 0.021660843161247129 -0.00025066064113631867 0 0.021520073405682003 -0.00030596366220538913 0 0.021668870919184475 -0.00043585632842576421 0 0.021660843161247129 -0.00025066064113631867 0 0.021890558395654066 -0.00053998182910205527 0 0.021668870919184475 -0.00043585632842576421 0 0.021692545345901145 -0.00081147237009714568 0 0.021482117105924486 -0.00051138368376471631 0 0.021668870919184475 -0.00043585632842576421 0 0.021692545345901145 -0.00081147237009714568 0 0.021426689082089872 -0.00035181493264478035 0 0.021699354248926384 -0.0006913073924537127 0 0.021464822905617624 -0.00079511665569739092 0 0.021638346116036669 -0.0005310417452609865 0 0.021884932095630246 -0.00088625158826537219 0 0.021699354248926384 -0.0006913073924537127 0 0.021624836029824217 -0.00092815953402012555 0 0.021692545345901145 -0.00081147237009714568 0 0.02208835680013424 -0.00092373451965616538 0 0.021931939146378122 -0.0010510565331000616 0 0.021844801951018181 -0.0010466839089926568 0 0.02208835680013424 -0.00092373451965616538 0 0.021931939146378122 -0.0010510565331000616 0 0.021840987618657555 -0.0010388889862599424 0 0.021624836029824217 -0.00092815953402012555 0 0.021520056585986196 -0.0012001687520165564 0 0.021844801951018181 -0.0010466839089926568 0 0.021396635492637841 -0.00092425844600061596 0 0.021461843333794525 -0.0011061496437919228 0 0.021624836029824217 -0.00092815953402012555 0 0.021191922947950186 -0.0010962895450587963 0 0.021520056585986196 -0.0012001687520165564 0 0.021273964225466693 -0.00081112279399144264 0 0.020895855358716145 -0.00070530764418250949 0 0.021273964225466693 -0.00081112279399144264 0 0.021023218736093585 -0.0009686402676894806 0 0.021165488864359681 -0.00074254670294700384 0 0.021624836029824217 -0.00092815953402012555 0 0.021191922947950186 -0.0010962895450587963 0 0.021273964225466693 -0.00081112279399144264 0 0.021023218736093585 -0.0009686402676894806 0 0.022253730872377413 -8.2386839788234999e-05 0 0.022471376736222938 -5.157980800099035e-05 0 0.022417079427527666 -0.00012877498361716134 0 0.022148532870145864 -0.00031508990628825175 0 0.023012344877670083 -0.0002522470198982767 0 0.022965153644384666 -0.00070440470275057252 0 0.023509497324608289 -0.00062815489851415047 0 0.023256054693791276 -0.00025743548569346118 0 0.023509497324608289 -0.00062815489851415047 0 0.023770413076597347 -0.00024842009215794372 0 0.023256054693791276 -0.00025743548569346118 0 0.023012344877670083 -0.0002522470198982767 0 0.022680475349373057 -0.00026209382786583754 0 0.023386620082028874 -0.00032733539921318822 0 0.023770516788800395 -0.00027307104215297236 0 0.023614003966437487 2.7214180459862742e-06 0 0.023012344877670083 -0.0002522470198982767 0 0.023682263184416723 -0.00013500577404594331 0 0.022472589618860204 -4.6623031190932281e-05 0 0.022657379219580758 -2.0214274316666733e-05 0 0.022517404338865434 -0.00014085386506838821 0 0.023012344877670083 -0.0002522470198982767 0 0.023460680570514966 5.7607579499011134e-05 0 0.02267398769476274 -0.00020071037852567339 0 0.022995725426426868 -0.00026183282174986844 0 0.022909225238602057 -1.8965182374432297e-05 0 0.023460680570514966 5.7607579499011134e-05 0 0.022575167791212596 -0.00023612267696162214 0 0.022780195816146299 0.00030146949671333421 0 0.02267398769476274 -0.00020071037852567339 0 0.022909225238602057 -1.8965182374432297e-05 0 0.022657379219580758 -2.0214274316666733e-05 0 0.022517404338865434 -0.00014085386506838821 0 0.022589273234768784 -0.00025742250296969762 0 0.022517404338865434 -0.00014085386506838821 0 0.022589273234768784 -0.00025742250296969762 0 0.022469476609126994 -0.00024587122443552707 0 0.022469476609126994 -0.00024587122443552707 0 0.022417079427527666 -0.00012877498361716134 0 0.022355044964780083 -0.00032736901765220635 0 0.022253730872377413 -8.2386839788234999e-05 0 0.022417079427527666 -0.00012877498361716134 0 0.022355044964780083 -0.00032736901765220635 0 0.022517404338865434 -0.00014085386506838821 0 0.022469476609126994 -0.00024587122443552707 0 0.022417079427527666 -0.00012877498361716134 0 0.022472589618860204 -4.6623031190932281e-05 0 0.022517404338865434 -0.00014085386506838821 0 0.022417079427527666 -0.00012877498361716134 0 0.021896936651076095 -0.00022323433761725278 0 0.022060013602363468 -0.00043043634731834419 0 0.022355044964780083 -0.00032736901765220635 0 0.022474767789101943 -0.00037600933498184517 0 0.022449342830366481 -0.00056881562488055157 0 0.022469476609126994 -0.00024587122443552707 0 0.022355044964780083 -0.00032736901765220635 0 0.022474767789101943 -0.00037600933498184517 0 0.022474767789101943 -0.00037600933498184517 0 0.022449342830366481 -0.00056881562488055157 0 0.022521368538979038 -0.00048442951858994299 0 0.021533306391929127 -0.00023223314211571133 0 0.021501088851032382 -0.00019436793464264686 0 0.021660843161247129 -0.00025066064113631867 0 0.021533306391929127 -0.00023223314211571133 0 0.021520073405682003 -0.00030596366220538913 0 0.021660843161247129 -0.00025066064113631867 0 0.022578373216967863 -0.00063887728600425385 0 0.02253039440289455 -0.00059621327478571822 0 0.02272951766247578 -0.00048296678693115651 0 0.022449342830366481 -0.00056881562488055157 0 0.02253039440289455 -0.00059621327478571822 0 0.022521368538979038 -0.00048442951858994299 0 0.02253039440289455 -0.00059621327478571822 0 0.022521368538979038 -0.00048442951858994299 0 0.02272951766247578 -0.00048296678693115651 0 0.02267398769476274 -0.00020071037852567339 0 0.02272951766247578 -0.00048296678693115651 0 0.022995725426426868 -0.00026183282174986844 0 0.022575167791212596 -0.00023612267696162214 0 0.022544759804052981 -0.00046616965528546348 0 0.022589273234768784 -0.00025742250296969762 0 0.022474767789101943 -0.00037600933498184517 0 0.022521368538979038 -0.00048442951858994299 0 0.02267398769476274 -0.00020071037852567339 0 0.022521368538979038 -0.00048442951858994299 0 0.02272951766247578 -0.00048296678693115651 0 0.022589273234768784 -0.00025742250296969762 0 0.022469476609126994 -0.00024587122443552707 0 0.022474767789101943 -0.00037600933498184517 0 0.02272951766247578 -0.00048296678693115651 0 0.022995725426426868 -0.00026183282174986844 0 0.02303688051536561 -0.00043720418931801906 0 0.022995725426426868 -0.00026183282174986844 0 0.02303688051536561 -0.00043720418931801906 0 0.023348525327001265 -0.00021424141491580755 0 0.02272951766247578 -0.00048296678693115651 0 0.022765173450268471 -0.00060312083650565127 0 0.02303688051536561 -0.00043720418931801906 0 0.022578373216967863 -0.00063887728600425385 0 0.02272951766247578 -0.00048296678693115651 0 0.022765173450268471 -0.00060312083650565127 0 0.022765173450268471 -0.00060312083650565127 0 0.02303688051536561 -0.00043720418931801906 0 0.023045395963314133 -0.00055961194395299596 0 0.02303688051536561 -0.00043720418931801906 0 0.023045395963314133 -0.00055961194395299596 0 0.023407375161891775 -0.00036137662368908508 0 0.02303688051536561 -0.00043720418931801906 0 0.023348525327001265 -0.00021424141491580755 0 0.023407375161891775 -0.00036137662368908508 0 0.023348525327001265 -0.00021424141491580755 0 0.023715319724910686 -0.00010765888930907178 0 0.023407375161891775 -0.00036137662368908508 0 0.02364425370578712 -1.508656829611385e-05 0 0.023348525327001265 -0.00021424141491580755 0 0.023715319724910686 -0.00010765888930907178 0 0.02364425370578712 -1.508656829611385e-05 0 0.023348525327001265 -0.00021424141491580755 0 0.023262304972375646 -4.3654925482827099e-05 0 0.022995725426426868 -0.00026183282174986844 0 0.023348525327001265 -0.00021424141491580755 0 0.023262304972375646 -4.3654925482827099e-05 0 0.022780195816146299 0.00030146949671333421 0 0.022909225238602057 -1.8965182374432297e-05 0 0.023262304972375646 -4.3654925482827099e-05 0 0.022995725426426868 -0.00026183282174986844 0 0.022909225238602057 -1.8965182374432297e-05 0 0.023262304972375646 -4.3654925482827099e-05 0 0.022780195816146299 0.00030146949671333421 0 0.023262304972375646 -4.3654925482827099e-05 0 0.023893805847900029 0.0002247404172149874 0 0.024653306737279536 0.0003975565032610295 0 0.023893805847900029 0.0002247404172149874 0 0.024235197752885698 6.9441911144193448e-05 0 0.023460680570514966 5.7607579499011134e-05 0 0.023991908544585664 0.00033195533714750993 0 0.02364425370578712 -1.508656829611385e-05 0 0.023893805847900029 0.0002247404172149874 0 0.023908122038453238 5.8824400991581897e-05 0 0.02364425370578712 -1.508656829611385e-05 0 0.023262304972375646 -4.3654925482827099e-05 0 0.023893805847900029 0.0002247404172149874 0 0.023908122038453238 5.8824400991581897e-05 0 0.024055362177071445 -1.0283781487415929e-05 0 0.024152257615844372 0.00010312850433934654 0 0.023893805847900029 0.0002247404172149874 0 0.023908122038453238 5.8824400991581897e-05 0 0.024152257615844372 0.00010312850433934654 0 0.024055362177071445 -1.0283781487415929e-05 0 0.024317478994009985 3.4741474776081166e-05 0 0.024152257615844372 0.00010312850433934654 0 0.023774965377129722 -0.00026943810621908327 0 0.024127889290303899 -5.9863828940688097e-05 0 0.024055362177071445 -1.0283781487415929e-05 0 0.0239917795990124 -0.00023136046383738921 0 0.024317478994009985 3.4741474776081166e-05 0 0.024055362177071445 -1.0283781487415929e-05 0 0.023715319724910686 -0.00010765888930907178 0 0.0239917795990124 -0.00023136046383738921 0 0.023908122038453238 5.8824400991581897e-05 0 0.024055362177071445 -1.0283781487415929e-05 0 0.023715319724910686 -0.00010765888930907178 0 0.02364425370578712 -1.508656829611385e-05 0 0.023908122038453238 5.8824400991581897e-05 0 0.023715319724910686 -0.00010765888930907178 0 0.023407375161891775 -0.00036137662368908508 0 0.023349085476738821 -0.00052033789761530853 0 0.0239917795990124 -0.00023136046383738921 0 0.023715319724910686 -0.00010765888930907178 0 0.023407375161891775 -0.00036137662368908508 0 0.0239917795990124 -0.00023136046383738921 0 0.023045395963314133 -0.00055961194395299596 0 0.023407375161891775 -0.00036137662368908508 0 0.023349085476738821 -0.00052033789761530853 0 0.023349085476738821 -0.00052033789761530853 0 0.023584703907335389 -0.00032294120674489278 0 0.023611382306694153 -0.00049007475505670874 0 0.023414883421436581 -0.00062789646163495083 0 0.023349085476738821 -0.00052033789761530853 0 0.023611382306694153 -0.00049007475505670874 0 0.023414998727081873 -0.00050682002723144047 0 0.023774965377129722 -0.00026943810621908327 0 0.023584703907335389 -0.00032294120674489278 0 0.023611382306694153 -0.00049007475505670874 0 0.023948939284111084 -0.00030862156056916316 0 0.023654698067150894 -0.00065630414741379311 0 0.023611382306694153 -0.00049007475505670874 0 0.023804488523788726 -0.00049393523985635389 0 0.023611382306694153 -0.00049007475505670874 0 0.023804488523788726 -0.00049393523985635389 0 0.023948939284111084 -0.00030862156056916316 0 0.023948939284111084 -0.00030862156056916316 0 0.023926829180803064 -0.00012700919960943551 0 0.024250061703391314 -0.00014125078628963916 0 0.023584703907335389 -0.00032294120674489278 0 0.023948939284111084 -0.00030862156056916316 0 0.023926829180803064 -0.00012700919960943551 0 0.023926829180803064 -0.00012700919960943551 0 0.024428153334743411 2.421562346254177e-05 0 0.024250061703391314 -0.00014125078628963916 0 0.024317478994009985 3.4741474776081166e-05 0 0.024428153334743411 2.421562346254177e-05 0 0.024398622604719186 7.0540983699048215e-05 0 0.024127889290303899 -5.9863828940688097e-05 0 0.024377322430693973 2.2732227982575755e-05 0 0.024428153334743411 2.421562346254177e-05 0 0.024667012580616581 3.7809647774164234e-05 0 0.024398622604719186 7.0540983699048215e-05 0 0.024428153334743411 2.421562346254177e-05 0 0.024767064814119197 1.4245120575869332e-05 0 0.024667012580616581 3.7809647774164234e-05 0 0.024428153334743411 2.421562346254177e-05 0 0.024767064814119197 1.4245120575869332e-05 0 0.024659492888963273 -1.5557268667899499e-05 0 0.024767064814119197 1.4245120575869332e-05 0 0.024999667878194593 2.7926244646202468e-08 0 0.024667012580616581 3.7809647774164234e-05 0 0.024767064814119197 1.4245120575869332e-05 0 0.024999667878194593 2.7926244646202468e-08 0 0.024999745691629941 3.8631749397257095e-09 0 0.024999667878194593 2.7926244646202468e-08 0 0.024667012580616581 3.7809647774164234e-05 0 0.024999777828436914 -3.3737341857271075e-09 0 0.024667012580616581 3.7809647774164234e-05 0 0.024999777828436914 -3.3737341857271075e-09 0 0.024712015440866882 3.688210974385119e-05 0 0.024999777828436914 -3.3737341857271075e-09 0 0.024712015440866882 3.688210974385119e-05 0 0.02499916533289882 1.9152154266407769e-07 0 0.024667012580616581 3.7809647774164234e-05 0 0.024712015440866882 3.688210974385119e-05 0 0.024409597502955467 5.8751882180945041e-05 0 0.024712015440866882 3.688210974385119e-05 0 0.024409597502955467 5.8751882180945041e-05 0 0.024512927211827577 3.5179669977935662e-05 0 0.024667012580616581 3.7809647774164234e-05 0 0.024409597502955467 5.8751882180945041e-05 0 0.024398622604719186 7.0540983699048215e-05 0 0.024317478994009985 3.4741474776081166e-05 0 0.024398622604719186 7.0540983699048215e-05 0 0.024152257615844372 0.00010312850433934654 0 0.024409597502955467 5.8751882180945041e-05 0 0.024398622604719186 7.0540983699048215e-05 0 0.024152257615844372 0.00010312850433934654 0 0.023893805847900029 0.0002247404172149874 0 0.024152257615844372 0.00010312850433934654 0 0.024169681047485573 8.7310856230769706e-05 0 0.024409597502955467 5.8751882180945041e-05 0 0.024152257615844372 0.00010312850433934654 0 0.024169681047485573 8.7310856230769706e-05 0 0.024169681047485573 8.7310856230769706e-05 0 0.024235197752885698 6.9441911144193448e-05 0 0.024353695381855642 2.8831700853429405e-05 0 0.023893805847900029 0.0002247404172149874 0 0.024169681047485573 8.7310856230769706e-05 0 0.024235197752885698 6.9441911144193448e-05 0 0.024653306737279536 0.0003975565032610295 0 0.024235197752885698 6.9441911144193448e-05 0 0.024521980455777963 -0.00015046008117160472 0 0.024235197752885698 6.9441911144193448e-05 0 0.024320478591271049 3.5909926340887404e-05 0 0.024353695381855642 2.8831700853429405e-05 0 0.024307151439135099 4.0323153488489984e-05 0 0.024406074924181308 0.00011261902552956604 0 0.024406074924181308 0.00011261902552956604 0 0.024369184661860544 0.00012235923607049326 0 0.024235197752885698 6.9441911144193448e-05 0 0.02435321135973759 4.6398294139061183e-05 0 0.024320478591271049 3.5909926340887404e-05 0 0.024320478591271049 3.5909926340887404e-05 0 0.024346066394776992 2.9849919590637008e-05 0 0.024353695381855642 2.8831700853429405e-05 0 0.024991883233678659 3.7668206865376431e-06 0 0.024991498560793312 3.9836292619255906e-06 0 0.024996415201912901 6.4856015383194528e-07 0 0.024346066394776992 2.9849919590637008e-05 0 0.024353695381855642 2.8831700853429405e-05 0 0.024539131941287026 5.0418904683224863e-05 0 0.02435321135973759 4.6398294139061183e-05 0 0.024320478591271049 3.5909926340887404e-05 0 0.024346066394776992 2.9849919590637008e-05 0 0.024406074924181308 0.00011261902552956604 0 0.024599494192346718 6.2862232630320967e-05 0 0.024484380165125885 9.4638385040730851e-05 0 0.024485923628871427 9.7745036949497004e-05 0 0.02448346664390565 9.535109266416317e-05 0 0.024599494192346718 6.2862232630320967e-05 0 0.024369184661860544 0.00012235923607049326 0 0.024991883233678659 3.7668206865376431e-06 0 0.024995092430063769 1.8929161565657169e-06 0 0.024993596974166411 3.3647889923338363e-06 0 0.024991883233678659 3.7668206865376431e-06 0 0.024991470665833706 4.2345229042126603e-06 0 0.024993596974166411 3.3647889923338363e-06 0 0.024609197713044175 6.371119769865145e-05 0 0.024599494192346718 6.2862232630320967e-05 0 0.024409597502955467 5.8751882180945041e-05 0 0.024353695381855642 2.8831700853429405e-05 0 0.024512927211827577 3.5179669977935662e-05 0 0.024409597502955467 5.8751882180945041e-05 0 0.024169681047485573 8.7310856230769706e-05 0 0.024353695381855642 2.8831700853429405e-05 0 0.024712015440866882 3.688210974385119e-05 0 0.024539131941287026 5.0418904683224863e-05 0 0.024512927211827577 3.5179669977935662e-05 0 0.024353695381855642 2.8831700853429405e-05 0 0.024539131941287026 5.0418904683224863e-05 0 0.024512927211827577 3.5179669977935662e-05 0 0.024774685861196532 -2.2312468522834012e-06 0 0.024999863592527954 -2.8834218518927058e-08 0 0.024712015440866882 3.688210974385119e-05 0 0.024539131941287026 5.0418904683224863e-05 0 0.02499916533289882 1.9152154266407769e-07 0 0.024996415201912901 6.4856015383194528e-07 0 0.024999998849579954 -3.3700947640582157e-10 0 0.02499999491140922 8.2322556152941521e-10 0 0.024996415201912901 6.4856015383194528e-07 0 0.02499999491140922 8.2322556152941521e-10 0 0.024997661691407116 5.7320217860649384e-07 0 0.024599494192346718 6.2862232630320967e-05 0 0.024774685861196532 -2.2312468522834012e-06 0 0.024991883233678659 3.7668206865376431e-06 0 0.024996415201912901 6.4856015383194528e-07 0 0.024995092430063769 1.8929161565657169e-06 0 0.024996415201912901 6.4856015383194528e-07 0 0.024995092430063769 1.8929161565657169e-06 0 0.024997661691407116 5.7320217860649384e-07 0 0.024995092430063769 1.8929161565657169e-06 0 0.024996016940166906 1.9852403318874563e-06 0 0.024993596974166411 3.3647889923338363e-06 0 0.024996016940166906 1.9852403318874563e-06 0 0.024997661691407116 5.7320217860649384e-07 0 0.024998943931002916 1.1322236203159389e-06 0 0.025026973504378852 -1.1398716462027877e-05 0 0.024544887867577539 0.0001271697529345877 0 0.024996016940166906 1.9852403318874563e-06 0 0.024998943931002916 1.1322236203159389e-06 0 0.0249936304435306 5.4631766923383695e-06 0 0.024995092430063769 1.8929161565657169e-06 0 0.024996016940166906 1.9852403318874563e-06 0 0.024997661691407116 5.7320217860649384e-07 0 0.02499999491140922 8.2322556152941521e-10 0 0.024999997332795655 -2.6302694578748779e-10 0 0.024997661691407116 5.7320217860649384e-07 0 0.024999997332795655 -2.6302694578748779e-10 0 0.024997661691407116 5.7320217860649384e-07 0 0.024998943931002916 1.1322236203159389e-06 0 0.025000001648801513 4.2215178272340656e-10 0 0.024999997332795655 -2.6302694578748779e-10 0 0.024998943931002916 1.1322236203159389e-06 0 0.024999941489752289 6.2135176542968392e-08 0 0.025026973504378852 -1.1398716462027877e-05 0 0.025003316917987524 1.5936167187263614e-05 0 0.024951057836306006 3.2982382129090635e-05 0 0.024954189415343005 6.3211936144253508e-05 0 0.024951057836306006 3.2982382129090635e-05 0 0.024942963265547135 5.4097290895614265e-05 0 0.024878740252711518 0.00011865747373701064 0 0.024951057836306006 3.2982382129090635e-05 0 0.024942963265547135 5.4097290895614265e-05 0 0.024954189415343005 6.3211936144253508e-05 0 0.024591506923939955 0.00020560767051356203 0 0.024444306036059581 0.00016074975448698985 0 0.023148811518382849 0.00022119631435691859 0 0.023423823588046497 0.00058146614782238453 0 0.023446594480461984 0.00028323130260613573 0 0.023335912871954856 0.00018739568415958592 0 0.024444306036059581 0.00016074975448698985 0 0.023115217730912116 0.00022128771609987663 0 0.023446594480461984 0.00028323130260613573 0 0.023447202076696025 2.922363505838169e-05 0 0.023335912871954856 0.00018739568415958592 0 0.023348604837381076 0.00024307167450971238 0 0.023446594480461984 0.00028323130260613573 0 0.023719264946054225 0.00012403727678021877 0 0.023447202076696025 2.922363505838169e-05 0 0.024942963265547135 5.4097290895614265e-05 0 0.024954935089171168 7.1349734783209521e-05 0 0.024878740252711518 0.00011865747373701064 0 0.023423823588046497 0.00058146614782238453 0 0.023446594480461984 0.00028323130260613573 0 0.023823866459569194 0.00028174377307060242 0 0.024444306036059581 0.00016074975448698985 0 0.024544887867577539 0.0001271697529345877 0 0.024996016940166906 1.9852403318874563e-06 0 0.024993596974166411 3.3647889923338363e-06 0 0.0249936304435306 5.4631766923383695e-06 0 0.024991470665833706 4.2345229042126603e-06 0 0.024993596974166411 3.3647889923338363e-06 0 0.0249936304435306 5.4631766923383695e-06 0 0.024991470665833706 4.2345229042126603e-06 0 0.024990563702549578 6.9667811835567022e-06 0 0.0249936304435306 5.4631766923383695e-06 0 0.024026847924557528 0.00012832691471541789 0 0.023719264946054225 0.00012403727678021877 0 0.023823866459569194 0.00028174377307060242 0 0.024369184661860544 0.00012235923607049326 0 0.024544887867577539 0.0001271697529345877 0 0.023446594480461984 0.00028323130260613573 0 0.023719264946054225 0.00012403727678021877 0 0.023823866459569194 0.00028174377307060242 0 0.023770516788800395 -0.00027307104215297236 0 0.023910404029300031 0.0002788310728827511 0 0.023614003966437487 2.7214180459862742e-06 0 0.023460680570514966 5.7607579499011134e-05 0 0.024406074924181308 0.00011261902552956604 0 0.023719264946054225 0.00012403727678021877 0 0.023770413076597347 -0.00024842009215794372 0 0.023447202076696025 2.922363505838169e-05 0 0.024026847924557528 0.00012832691471541789 0 0.023719264946054225 0.00012403727678021877 0 0.023770413076597347 -0.00024842009215794372 0 0.023910404029300031 0.0002788310728827511 0 0.023841546505302291 0.00033171348166764688 0 0.023614003966437487 2.7214180459862742e-06 0 0.024369184661860544 0.00012235923607049326 0 0.023682263184416723 -0.00013500577404594331 0 0.023770413076597347 -0.00024842009215794372 0 0.023256054693791276 -0.00025743548569346118 0 0.023447202076696025 2.922363505838169e-05 0 0.023115217730912116 0.00022128771609987663 0 0.023256054693791276 -0.00025743548569346118 0 0.023447202076696025 2.922363505838169e-05 0 0.024486722266133031 -0.00027914448374109237 0 0.02450257880292547 -0.00032595036768435468 0 0.024517688422327981 -0.00025916918424025165 0 0.024486722266133031 -0.00027914448374109237 0 0.02450257880292547 -0.00032595036768435468 0 0.024431880555329018 -0.00025540486704095198 0 0.024486722266133031 -0.00027914448374109237 0 0.024472905935169723 -0.00026394503773835158 0 0.024517688422327981 -0.00025916918424025165 0 0.024472905935169723 -0.00026394503773835158 0 0.024517688422327981 -0.00025916918424025165 0 0.024497048371093923 -0.00021747537879384179 0 0.024517688422327981 -0.00025916918424025165 0 0.024545267319871802 -0.00020529306024649974 0 0.024566329226467898 -0.00024611843768780026 0 0.024517688422327981 -0.00025916918424025165 0 0.024545267319871802 -0.00020529306024649974 0 0.024497048371093923 -0.00021747537879384179 0 0.02450257880292547 -0.00032595036768435468 0 0.024517688422327981 -0.00025916918424025165 0 0.024566329226467898 -0.00024611843768780026 0 0.02450257880292547 -0.00032595036768435468 0 0.024566329226467898 -0.00024611843768780026 0 0.024591703476882963 -0.00029263732604564333 0 0.02450257880292547 -0.00032595036768435468 0 0.024591703476882963 -0.00029263732604564333 0 0.024392043744839519 -0.00042356941403847684 0 0.024591703476882963 -0.00029263732604564333 0 0.024392043744839519 -0.00042356941403847684 0 0.024829618256477962 -0.00027738497102137023 0 0.024396693051264851 -0.00043793463892785275 0 0.02428950969959565 -0.00065720885452239051 0 0.024392043744839519 -0.00042356941403847684 0 0.023707924529461171 -0.0011267890379479722 0 0.023754279246194571 -0.00072189488493788572 0 0.024392043744839519 -0.00042356941403847684 0 0.023754279246194571 -0.00072189488493788572 0 0.023659260480315639 -0.00041022156631046218 0 0.024392043744839519 -0.00042356941403847684 0 0.023846561299552742 -0.00015273603037053806 0 0.023659260480315639 -0.00041022156631046218 0 0.02450257880292547 -0.00032595036768435468 0 0.024392043744839519 -0.00042356941403847684 0 0.024431880555329018 -0.00025540486704095198 0 0.024431880555329018 -0.00025540486704095198 0 0.02418770028045264 -6.8855393995283871e-05 0 0.02433071771867899 -0.00016190318824065269 0 0.024392043744839519 -0.00042356941403847684 0 0.024431880555329018 -0.00025540486704095198 0 0.02418770028045264 -6.8855393995283871e-05 0 0.024392043744839519 -0.00042356941403847684 0 0.023846561299552742 -0.00015273603037053806 0 0.02418770028045264 -6.8855393995283871e-05 0 0.023846561299552742 -0.00015273603037053806 0 0.02418770028045264 -6.8855393995283871e-05 0 0.023679394045201013 0.0002318913971865397 0 0.02418770028045264 -6.8855393995283871e-05 0 0.02428376074558973 -0.00015468526611647727 0 0.02433071771867899 -0.00016190318824065269 0 0.024172031225180354 -5.9020659303973355e-05 0 0.024116785448742892 0.00015199314201636219 0 0.02418770028045264 -6.8855393995283871e-05 0 0.023930406042336819 0.00050458119453755451 0 0.023679394045201013 0.0002318913971865397 0 0.023930406042336819 0.00050458119453755451 0 0.023679394045201013 0.0002318913971865397 0 0.023483350800604472 0.00058114843318730783 0 0.02439722786887108 -0.00023793384809380313 0 0.024319409892850401 -0.00016707446892445818 0 0.02433071771867899 -0.00016190318824065269 0 0.024319409892850401 -0.00016707446892445818 0 0.02428376074558973 -0.00015468526611647727 0 0.02433071771867899 -0.00016190318824065269 0 0.02439722786887108 -0.00023793384809380313 0 0.024440016494042729 -0.00025874459701705828 0 0.024435910674663563 -0.00031407252979076929 0 0.02439722786887108 -0.00023793384809380313 0 0.02433071771867899 -0.00016190318824065269 0 0.024440016494042729 -0.00025874459701705828 0 0.024486722266133031 -0.00027914448374109237 0 0.024431880555329018 -0.00025540486704095198 0 0.024440016494042729 -0.00025874459701705828 0 0.024431880555329018 -0.00025540486704095198 0 0.02433071771867899 -0.00016190318824065269 0 0.024440016494042729 -0.00025874459701705828 0 0.024486722266133031 -0.00027914448374109237 0 0.024472905935169723 -0.00026394503773835158 0 0.024456252541645532 -0.00029338452134486408 0 0.024486722266133031 -0.00027914448374109237 0 0.024440016494042729 -0.00025874459701705828 0 0.024456252541645532 -0.00029338452134486408 0 0.024456252541645532 -0.00029338452134486408 0 0.024435910674663563 -0.00031407252979076929 0 0.024409851510975553 -0.0003456012063747277 0 0.024440016494042729 -0.00025874459701705828 0 0.024456252541645532 -0.00029338452134486408 0 0.024435910674663563 -0.00031407252979076929 0 0.024401203593006432 -0.00040151413179525885 0 0.024435910674663563 -0.00031407252979076929 0 0.024409851510975553 -0.0003456012063747277 0 0.024401203593006432 -0.00040151413179525885 0 0.024409851510975553 -0.0003456012063747277 0 0.02431599092588076 -0.00040654751471551803 0 0.024409851510975553 -0.0003456012063747277 0 0.02431599092588076 -0.00040654751471551803 0 0.024401394261341417 -0.00030793882780959253 0 0.024334251371309176 -0.0005576826186942936 0 0.02431599092588076 -0.00040654751471551803 0 0.024100890583732205 -0.00046607550326669772 0 0.02431599092588076 -0.00040654751471551803 0 0.024100890583732205 -0.00046607550326669772 0 0.0242615312246184 -0.00034141513808763835 0 0.02431599092588076 -0.00040654751471551803 0 0.0242615312246184 -0.00034141513808763835 0 0.024401394261341417 -0.00030793882780959253 0 0.0242615312246184 -0.00034141513808763835 0 0.02429349869627451 -0.00025792618481052686 0 0.024405086837690732 -0.00025387138383857781 0 0.0242615312246184 -0.00034141513808763835 0 0.024401394261341417 -0.00030793882780959253 0 0.024405086837690732 -0.00025387138383857781 0 0.024472905935169723 -0.00026394503773835158 0 0.024401394261341417 -0.00030793882780959253 0 0.024405086837690732 -0.00025387138383857781 0 0.024472905935169723 -0.00026394503773835158 0 0.024456252541645532 -0.00029338452134486408 0 0.024401394261341417 -0.00030793882780959253 0 0.024456252541645532 -0.00029338452134486408 0 0.024409851510975553 -0.0003456012063747277 0 0.024401394261341417 -0.00030793882780959253 0 0.023769715643976386 -0.00061697168361574443 0 0.023804488523788726 -0.00049393523985635389 0 0.02401112865003141 -0.00041715899275781817 0 0.023780423184878802 -0.00070284699864257621 0 0.024100890583732205 -0.00046607550326669772 0 0.02401112865003141 -0.00041715899275781817 0 0.023780423184878802 -0.00070284699864257621 0 0.023769715643976386 -0.00061697168361574443 0 0.02401112865003141 -0.00041715899275781817 0 0.024100890583732205 -0.00046607550326669772 0 0.0242615312246184 -0.00034141513808763835 0 0.02401112865003141 -0.00041715899275781817 0 0.02401112865003141 -0.00041715899275781817 0 0.024192061029431538 -0.00024237441605666539 0 0.02429349869627451 -0.00025792618481052686 0 0.0242615312246184 -0.00034141513808763835 0 0.02401112865003141 -0.00041715899275781817 0 0.02429349869627451 -0.00025792618481052686 0 0.023948939284111084 -0.00030862156056916316 0 0.02401112865003141 -0.00041715899275781817 0 0.024192061029431538 -0.00024237441605666539 0 0.023804488523788726 -0.00049393523985635389 0 0.023948939284111084 -0.00030862156056916316 0 0.02401112865003141 -0.00041715899275781817 0 0.023948939284111084 -0.00030862156056916316 0 0.024192061029431538 -0.00024237441605666539 0 0.024250061703391314 -0.00014125078628963916 0 0.024192061029431538 -0.00024237441605666539 0 0.02429349869627451 -0.00025792618481052686 0 0.024397679817141388 -0.00016462723705160898 0 0.024397679817141388 -0.00016462723705160898 0 0.024250061703391314 -0.00014125078628963916 0 0.024460662563884541 -9.7533959627142929e-05 0 0.024192061029431538 -0.00024237441605666539 0 0.024397679817141388 -0.00016462723705160898 0 0.024250061703391314 -0.00014125078628963916 0 0.024405086837690732 -0.00025387138383857781 0 0.024463586720484671 -0.00018651618873716575 0 0.024497048371093923 -0.00021747537879384179 0 0.024472905935169723 -0.00026394503773835158 0 0.024405086837690732 -0.00025387138383857781 0 0.024497048371093923 -0.00021747537879384179 0 0.02429349869627451 -0.00025792618481052686 0 0.024397679817141388 -0.00016462723705160898 0 0.024463586720484671 -0.00018651618873716575 0 0.02429349869627451 -0.00025792618481052686 0 0.024405086837690732 -0.00025387138383857781 0 0.024463586720484671 -0.00018651618873716575 0 0.024397679817141388 -0.00016462723705160898 0 0.024463586720484671 -0.00018651618873716575 0 0.024637644044519676 -0.00012270282413927671 0 0.024463586720484671 -0.00018651618873716575 0 0.024497048371093923 -0.00021747537879384179 0 0.024552891146675557 -0.00016911020431560674 0 0.024545267319871802 -0.00020529306024649974 0 0.024497048371093923 -0.00021747537879384179 0 0.024552891146675557 -0.00016911020431560674 0 0.024552891146675557 -0.00016911020431560674 0 0.024637644044519676 -0.00012270282413927671 0 0.0245753095506328 -0.00018043934502259604 0 0.024545267319871802 -0.00020529306024649974 0 0.024552891146675557 -0.00016911020431560674 0 0.0245753095506328 -0.00018043934502259604 0 0.024463586720484671 -0.00018651618873716575 0 0.024552891146675557 -0.00016911020431560674 0 0.024637644044519676 -0.00012270282413927671 0 0.024637644044519676 -0.00012270282413927671 0 0.024911911634669957 -5.2336487259550669e-05 0 0.024789130688928268 -1.8595462293052262e-05 0 0.024637644044519676 -0.00012270282413927671 0 0.024610589358734468 -6.9942310996036095e-05 0 0.024789130688928268 -1.8595462293052262e-05 0 0.024637644044519676 -0.00012270282413927671 0 0.024591786125411758 -0.00015020942237757275 0 0.0245753095506328 -0.00018043934502259604 0 0.024660638534405688 -0.00012242914822569031 0 0.024750622798349428 -9.220787490064334e-05 0 0.024428153334743411 2.421562346254177e-05 0 0.024460662563884541 -9.7533959627142929e-05 0 0.024659492888963273 -1.5557268667899499e-05 0 0.024428153334743411 2.421562346254177e-05 0 0.024250061703391314 -0.00014125078628963916 0 0.024460662563884541 -9.7533959627142929e-05 0 0.024397679817141388 -0.00016462723705160898 0 0.024637644044519676 -0.00012270282413927671 0 0.024460662563884541 -9.7533959627142929e-05 0 0.024637644044519676 -0.00012270282413927671 0 0.024460662563884541 -9.7533959627142929e-05 0 0.024610589358734468 -6.9942310996036095e-05 0 0.024460662563884541 -9.7533959627142929e-05 0 0.024610589358734468 -6.9942310996036095e-05 0 0.024659492888963273 -1.5557268667899499e-05 0 0.024610589358734468 -6.9942310996036095e-05 0 0.024659492888963273 -1.5557268667899499e-05 0 0.024789130688928268 -1.8595462293052262e-05 0 0.024767064814119197 1.4245120575869332e-05 0 0.024659492888963273 -1.5557268667899499e-05 0 0.024851451632806998 1.8352722964132948e-06 0 0.024659492888963273 -1.5557268667899499e-05 0 0.024851451632806998 1.8352722964132948e-06 0 0.024789130688928268 -1.8595462293052262e-05 0 0.024851451632806998 1.8352722964132948e-06 0 0.024999745691629941 3.8631749397257095e-09 0 0.024999814874769911 3.0319180989715574e-08 0 0.024767064814119197 1.4245120575869332e-05 0 0.024851451632806998 1.8352722964132948e-06 0 0.024999745691629941 3.8631749397257095e-09 0 0.024911911634669957 -5.2336487259550669e-05 0 0.024940054706451303 3.038875714342976e-07 0 0.024995058243886665 -8.4408123586312698e-06 0 0.024911911634669957 -5.2336487259550669e-05 0 0.024789130688928268 -1.8595462293052262e-05 0 0.024940054706451303 3.038875714342976e-07 0 0.024789130688928268 -1.8595462293052262e-05 0 0.024999814874769911 3.0319180989715574e-08 0 0.024940054706451303 3.038875714342976e-07 0 0.024851451632806998 1.8352722964132948e-06 0 0.024789130688928268 -1.8595462293052262e-05 0 0.024999814874769911 3.0319180989715574e-08 0 0.024999814874769911 3.0319180989715574e-08 0 0.024940054706451303 3.038875714342976e-07 0 0.024999958220969756 1.1655792570380324e-08 0 0.024999958220969756 1.1655792570380324e-08 0 0.025000022072968701 -9.7300412808064303e-09 0 0.024995058243886665 -8.4408123586312698e-06 0 0.024940054706451303 3.038875714342976e-07 0 0.024999958220969756 1.1655792570380324e-08 0 0.024995058243886665 -8.4408123586312698e-06 0 0.024999421628204892 8.7718656249781336e-08 0 0.024799615521538792 -8.9201663931389401e-05 0 0.024699349409746118 -5.5512921172021894e-05 0 0.024999925605917819 -1.6908850293138292e-08 0 0.024848233177285458 -4.2456683913375966e-05 0 0.024799615521538792 -8.9201663931389401e-05 0 0.024699349409746118 -5.5512921172021894e-05 0 0.024661172434490487 -0.00014269621005519193 0 0.024750622798349428 -9.220787490064334e-05 0 0.024848233177285458 -4.2456683913375966e-05 0 0.024591786125411758 -0.00015020942237757275 0 0.024699349409746118 -5.5512921172021894e-05 0 0.024661172434490487 -0.00014269621005519193 0 0.024661172434490487 -0.00014269621005519193 0 0.024657878583606452 -0.00019896029300036673 0 0.0245753095506328 -0.00018043934502259604 0 0.024591786125411758 -0.00015020942237757275 0 0.024661172434490487 -0.00014269621005519193 0 0.0245753095506328 -0.00018043934502259604 0 0.024799615521538792 -8.9201663931389401e-05 0 0.024661172434490487 -0.00014269621005519193 0 0.024657878583606452 -0.00019896029300036673 0 0.024566329226467898 -0.00024611843768780026 0 0.024591703476882963 -0.00029263732604564333 0 0.024657878583606452 -0.00019896029300036673 0 0.024566329226467898 -0.00024611843768780026 0 0.024657878583606452 -0.00019896029300036673 0 0.0245753095506328 -0.00018043934502259604 0 0.024545267319871802 -0.00020529306024649974 0 0.024566329226467898 -0.00024611843768780026 0 0.0245753095506328 -0.00018043934502259604 0 0.024591703476882963 -0.00029263732604564333 0 0.024751250229961667 -0.00019934846374923581 0 0.024829618256477962 -0.00027738497102137023 0 0.024751250229961667 -0.00019934846374923581 0 0.024863858421251384 -0.00014102141969112014 0 0.024829618256477962 -0.00027738497102137023 0 0.024591703476882963 -0.00029263732604564333 0 0.024657878583606452 -0.00019896029300036673 0 0.024751250229961667 -0.00019934846374923581 0 0.024799615521538792 -8.9201663931389401e-05 0 0.024657878583606452 -0.00019896029300036673 0 0.024826076226875094 -0.0001124516216494817 0 0.024657878583606452 -0.00019896029300036673 0 0.024751250229961667 -0.00019934846374923581 0 0.024826076226875094 -0.0001124516216494817 0 0.024751250229961667 -0.00019934846374923581 0 0.024826076226875094 -0.0001124516216494817 0 0.024863858421251384 -0.00014102141969112014 0 0.024826076226875094 -0.0001124516216494817 0 0.024911801973080436 -3.9425623779388544e-05 0 0.024941520623104434 -4.4088247706397449e-05 0 0.024826076226875094 -0.0001124516216494817 0 0.024863858421251384 -0.00014102141969112014 0 0.024941520623104434 -4.4088247706397449e-05 0 0.024799615521538792 -8.9201663931389401e-05 0 0.024826076226875094 -0.0001124516216494817 0 0.024911801973080436 -3.9425623779388544e-05 0 0.024999421628204892 8.7718656249781336e-08 0 0.024911801973080436 -3.9425623779388544e-05 0 0.024999975078646514 -5.3108181464123851e-08 0 0.024999421628204892 8.7718656249781336e-08 0 0.024799615521538792 -8.9201663931389401e-05 0 0.024911801973080436 -3.9425623779388544e-05 0 0.024911801973080436 -3.9425623779388544e-05 0 0.024999975078646514 -5.3108181464123851e-08 0 0.024941520623104434 -4.4088247706397449e-05 0 0.024999975078646514 -5.3108181464123851e-08 0 0.024999972199687675 -2.2163215344085762e-09 0 0.024941520623104434 -4.4088247706397449e-05 0 0.024999972199687675 -2.2163215344085762e-09 0 0.024984501868035556 -4.7190349309963544e-05 0 0.024941520623104434 -4.4088247706397449e-05 0 0.025000189899229884 -1.915116075973035e-05 0 0.024984501868035556 -4.7190349309963544e-05 0 0.025022603600958513 -2.872264847407402e-05 0 0.024999972199687675 -2.2163215344085762e-09 0 0.025000189899229884 -1.915116075973035e-05 0 0.024984501868035556 -4.7190349309963544e-05 0 0.024999972199687675 -2.2163215344085762e-09 0 0.025000189899229884 -1.915116075973035e-05 0 0.025001710603108344 -2.3384766366462282e-06 0 0.024984501868035556 -4.7190349309963544e-05 0 0.025022603600958513 -2.872264847407402e-05 0 0.024982183955198842 -0.00011856408274000003 0 0.024419816677440066 -0.00041369269491413704 0 0.024108683082330724 -0.00084760226666510854 0 0.024984501868035556 -4.7190349309963544e-05 0 0.024941520623104434 -4.4088247706397449e-05 0 0.024982183955198842 -0.00011856408274000003 0 0.024999863583801976 -2.1521044964868779e-07 0 0.024937170900792543 -0.00017700418323810552 0 0.025000251493608468 -8.7580015931715362e-10 0 0.024999730058000848 -1.7814637798279807e-08 0 0.02499331601316496 -0.00015870741242779573 0 0.024999324944944987 -1.4862844733212096e-07 0 0.024672425940900373 -0.00030835205880187707 0 0.024847875806558242 -0.0001313476888156191 0 0.024999730058000848 -1.7814637798279807e-08 0 0.024918688886512348 -8.1783282646935207e-05 0 0.02499331601316496 -0.00015870741242779573 0 0.024999972199687675 -2.2163215344085762e-09 0 0.025000035869285474 -1.5838402429430896e-08 0 0.025001710603108344 -2.3384766366462282e-06 0 0.025000249501994226 3.7751544728673813e-07 0 0.024419816677440066 -0.00041369269491413704 0 0.025000035869285474 -1.5838402429430896e-08 0 0.025001710603108344 -2.3384766366462282e-06 0 0.024998757154100739 -5.6647937565235944e-06 0 0.024793332557180726 3.7694111741394948e-06 0 0.024419816677440066 -0.00041369269491413704 0 0.025000189899229884 -1.915116075973035e-05 0 0.025001710603108344 -2.3384766366462282e-06 0 0.025022603600958513 -2.872264847407402e-05 0 0.024419816677440066 -0.00041369269491413704 0 0.02403259854631009 -0.00092204578028287686 0 0.023190271427707652 -0.0015939754768071952 0 0.023149159454699 -0.0014256365648112701 0 0.0233723361980086 -0.0013878250390829633 0 0.024918688886512348 -8.1783282646935207e-05 0 0.02499331601316496 -0.00015870741242779573 0 0.02491618688802949 -0.00021835259038811174 0 0.024672425940900373 -0.00030835205880187707 0 0.024641096666621107 -0.00031883262300770913 0 0.024847875806558242 -0.0001313476888156191 0 0.024672425940900373 -0.00030835205880187707 0 0.024627089449087564 -0.00040282646697955887 0 0.024641096666621107 -0.00031883262300770913 0 0.024672425940900373 -0.00030835205880187707 0 0.024627089449087564 -0.00040282646697955887 0 0.024816386140961346 -0.00032256213641093228 0 0.024937170900792543 -0.00017700418323810552 0 0.024154699734500389 -0.00057589672454973293 0 0.02403259854631009 -0.00092204578028287686 0 0.024154699734500389 -0.00057589672454973293 0 0.02499331601316496 -0.00015870741242779573 0 0.02491618688802949 -0.00021835259038811174 0 0.024931865176806477 -0.00039004090019367229 0 0.023149159454699 -0.0014256365648112701 0 0.023084590498017789 -0.0012101798505459304 0 0.0233723361980086 -0.0013878250390829633 0 0.024154699734500389 -0.00057589672454973293 0 0.022962206762095982 -0.0009782167980543874 0 0.024154699734500389 -0.00057589672454973293 0 0.023225177645871092 -0.00071028959309740356 0 0.023084590498017789 -0.0012101798505459304 0 0.023271592046343877 -0.0011247096660192963 0 0.023115479001563972 -0.00095668914372941687 0 0.024816386140961346 -0.00032256213641093228 0 0.024686247377951137 -0.00021205331586813926 0 0.024896018460180656 6.9347025957247824e-05 0 0.024627089449087564 -0.00040282646697955887 0 0.024816386140961346 -0.00032256213641093228 0 0.024686247377951137 -0.00021205331586813926 0 0.024863858421251384 -0.00014102141969112014 0 0.024982183955198842 -0.00011856408274000003 0 0.024829618256477962 -0.00027738497102137023 0 0.024863858421251384 -0.00014102141969112014 0 0.024941520623104434 -4.4088247706397449e-05 0 0.024982183955198842 -0.00011856408274000003 0 0.023084590498017789 -0.0012101798505459304 0 0.0233723361980086 -0.0013878250390829633 0 0.023271592046343877 -0.0011247096660192963 0 0.0233723361980086 -0.0013878250390829633 0 0.023271592046343877 -0.0011247096660192963 0 0.023707924529461171 -0.0011267890379479722 0 0.024108683082330724 -0.00084760226666510854 0 0.02428950969959565 -0.00065720885452239051 0 0.023271592046343877 -0.0011247096660192963 0 0.023707924529461171 -0.0011267890379479722 0 0.023356322413545214 -0.00090253273855832674 0 0.023707924529461171 -0.0011267890379479722 0 0.023754279246194571 -0.00072189488493788572 0 0.023356322413545214 -0.00090253273855832674 0 0.023659260480315639 -0.00041022156631046218 0 0.023125237068145107 -0.00050310455227431578 0 0.023356322413545214 -0.00090253273855832674 0 0.023754279246194571 -0.00072189488493788572 0 0.023659260480315639 -0.00041022156631046218 0 0.023356322413545214 -0.00090253273855832674 0 0.023659260480315639 -0.00041022156631046218 0 0.023125237068145107 -0.00050310455227431578 0 0.02310274579441382 -0.00015029326315819016 0 0.023125237068145107 -0.00050310455227431578 0 0.022739098460126648 -0.00034501255165738927 0 0.02310274579441382 -0.00015029326315819016 0 0.023125237068145107 -0.00050310455227431578 0 0.022809445444918846 -0.00064646927420986509 0 0.022739098460126648 -0.00034501255165738927 0 0.023271548628753046 -0.00091745044789999942 0 0.022962206762095982 -0.0009782167980543874 0 0.023356322413545214 -0.00090253273855832674 0 0.022579279052462972 -0.00099160455469591408 0 0.022608662992072488 -0.00086150497210223727 0 0.023356322413545214 -0.00090253273855832674 0 0.022608662992072488 -0.00086150497210223727 0 0.022809445444918846 -0.00064646927420986509 0 0.023271592046343877 -0.0011247096660192963 0 0.023356322413545214 -0.00090253273855832674 0 0.023115479001563972 -0.00095668914372941687 0 0.023125237068145107 -0.00050310455227431578 0 0.023356322413545214 -0.00090253273855832674 0 0.022809445444918846 -0.00064646927420986509 0 0.023539180917635138 -0.00057817551284230725 0 0.023471746099705364 -0.00084014802484749698 0 0.023572757347840884 -0.00083404626403738317 0 0.022256151867478525 -0.0010436500032750687 0 0.022382202781798297 -0.00077178772071340423 0 0.022139378889664822 -0.00027243563776699624 0 0.023225177645871092 -0.00071028959309740356 0 0.022148641425049662 -0.00038780757866010897 0 0.022962206762095982 -0.0009782167980543874 0 0.023225177645871092 -0.00071028959309740356 0 0.022579275376737956 -0.0010104627351881625 0 0.022256151867478525 -0.0010436500032750687 0 0.022382202781798297 -0.00077178772071340423 0 0.022382202781798297 -0.00077178772071340423 0 0.022560098741431597 -0.00070246833331273715 0 0.022608662992072488 -0.00086150497210223727 0 0.022560098741431597 -0.00070246833331273715 0 0.022608662992072488 -0.00086150497210223727 0 0.022809445444918846 -0.00064646927420986509 0 0.022579275376737956 -0.0010104627351881625 0 0.022382202781798297 -0.00077178772071340423 0 0.022608662992072488 -0.00086150497210223727 0 0.022962206762095982 -0.0009782167980543874 0 0.022919832625058863 -0.00097394425677418744 0 0.023225177645871092 -0.00071028959309740356 0 0.022848758870542767 -0.00029761317407179334 0 0.024686247377951137 -0.00021205331586813926 0 0.024896018460180656 6.9347025957247824e-05 0 0.024480488394495122 0.00025818370082341324 0 0.022183282421115752 -0.00093957991417097076 0 0.021674621746782415 -0.00068845683101050861 0 0.021157600325016193 -0.00094211696902535931 0 0.022183282421115752 -0.00093957991417097076 0 0.021904604619113421 -0.00058577914741538462 0 0.022074203334055065 -0.00031542198304459335 0 0.022183282421115752 -0.00093957991417097076 0 0.021904604619113421 -0.00058577914741538462 0 0.021674621746782415 -0.00068845683101050861 0 0.021674621746782415 -0.00068845683101050861 0 0.02125306702057406 -0.00050466512366478377 0 0.021157600325016193 -0.00094211696902535931 0 0.022074203334055065 -0.00031542198304459335 0 0.022139378889664822 -0.00027243563776699624 0 0.022233798341998581 0.00015865339672183911 0 0.022183282421115752 -0.00093957991417097076 0 0.022074203334055065 -0.00031542198304459335 0 0.022139378889664822 -0.00027243563776699624 0 0.021660102648125047 -0.00037913770086237192 0 0.021304950872931248 -0.0001247715225021918 0 0.02125306702057406 -0.00050466512366478377 0 0.021674621746782415 -0.00068845683101050861 0 0.021660102648125047 -0.00037913770086237192 0 0.02125306702057406 -0.00050466512366478377 0 0.021660102648125047 -0.00037913770086237192 0 0.02168583196919081 -0.00014249466277729952 0 0.021304950872931248 -0.0001247715225021918 0 0.021660102648125047 -0.00037913770086237192 0 0.022074203334055065 -0.00031542198304459335 0 0.02168583196919081 -0.00014249466277729952 0 0.021904604619113421 -0.00058577914741538462 0 0.021660102648125047 -0.00037913770086237192 0 0.022074203334055065 -0.00031542198304459335 0 0.021904604619113421 -0.00058577914741538462 0 0.021674621746782415 -0.00068845683101050861 0 0.021660102648125047 -0.00037913770086237192 0 0.022074203334055065 -0.00031542198304459335 0 0.02168583196919081 -0.00014249466277729952 0 0.021724596080787341 0.00025798370978022178 0 0.02168583196919081 -0.00014249466277729952 0 0.021724596080787341 0.00025798370978022178 0 0.021304950872931248 -0.0001247715225021918 0 0.022560098741431597 -0.00070246833331273715 0 0.022809445444918846 -0.00064646927420986509 0 0.02248924981600842 -0.00052491571058444603 0 0.022809445444918846 -0.00064646927420986509 0 0.02248924981600842 -0.00052491571058444603 0 0.022739098460126648 -0.00034501255165738927 0 0.02248924981600842 -0.00052491571058444603 0 0.02235599112651613 -0.00043069252747785414 0 0.022402760520332229 -0.00020062107895767978 0 0.022382202781798297 -0.00077178772071340423 0 0.022560098741431597 -0.00070246833331273715 0 0.02248924981600842 -0.00052491571058444603 0 0.022382202781798297 -0.00077178772071340423 0 0.02248924981600842 -0.00052491571058444603 0 0.02235599112651613 -0.00043069252747785414 0 0.022382202781798297 -0.00077178772071340423 0 0.022139378889664822 -0.00027243563776699624 0 0.02235599112651613 -0.00043069252747785414 0 0.022139378889664822 -0.00027243563776699624 0 0.02235599112651613 -0.00043069252747785414 0 0.022402760520332229 -0.00020062107895767978 0 0.02248924981600842 -0.00052491571058444603 0 0.022402760520332229 -0.00020062107895767978 0 0.022739098460126648 -0.00034501255165738927 0 0.022402760520332229 -0.00020062107895767978 0 0.022739098460126648 -0.00034501255165738927 0 0.022659535211961738 3.9656413209916276e-05 0 0.022139378889664822 -0.00027243563776699624 0 0.022402760520332229 -0.00020062107895767978 0 0.022233798341998581 0.00015865339672183911 0 0.022402760520332229 -0.00020062107895767978 0 0.022659535211961738 3.9656413209916276e-05 0 0.022233798341998581 0.00015865339672183911 0 0.022659535211961738 3.9656413209916276e-05 0 0.022233798341998581 0.00015865339672183911 0 0.022600339297081423 0.00036361595336403547 0 0.022659535211961738 3.9656413209916276e-05 0 0.022600339297081423 0.00036361595336403547 0 0.022985423957749551 0.00026199296413519091 0 0.022078866180311393 -0.00027047561342052147 0 0.022150665286451481 0.0004903744516588386 0 0.022074203334055065 -0.00031542198304459335 0 0.021724596080787341 0.00025798370978022178 0 0.021924148635924481 0.00082197056454917064 0 0.021724596080787341 0.00025798370978022178 0 0.021924148635924481 0.00082197056454917064 0 0.021142645354508743 0.00098270586842470688 0 0.022150665286451481 0.0004903744516588386 0 0.020595795727155124 0.0010974429469560187 0 0.021924148635924481 0.00082197056454917064 0 0.021142645354508743 0.00098270586842470688 0 0.021837871386729511 0.0018629698082497769 0 0.022233798341998581 0.00015865339672183911 0 0.022600339297081423 0.00036361595336403547 0 0.022202982397440684 0.00069754204177393424 0 0.022600339297081423 0.00036361595336403547 0 0.022924529551691233 0.00067169551438305464 0 0.022202982397440684 0.00069754204177393424 0 0.022600339297081423 0.00036361595336403547 0 0.022985423957749551 0.00026199296413519091 0 0.022924529551691233 0.00067169551438305464 0 0.022985423957749551 0.00026199296413519091 0 0.023295528955399804 0.00038219361748206398 0 0.022924529551691233 0.00067169551438305464 0 0.022985423957749551 0.00026199296413519091 0 0.023295528955399804 0.00038219361748206398 0 0.023421048956345784 5.3213480135759527e-05 0 0.023295528955399804 0.00038219361748206398 0 0.022924529551691233 0.00067169551438305464 0 0.023483350800604472 0.00058114843318730783 0 0.023679394045201013 0.0002318913971865397 0 0.023295528955399804 0.00038219361748206398 0 0.023483350800604472 0.00058114843318730783 0 0.023679394045201013 0.0002318913971865397 0 0.023295528955399804 0.00038219361748206398 0 0.023421048956345784 5.3213480135759527e-05 0 0.023846561299552742 -0.00015273603037053806 0 0.023659260480315639 -0.00041022156631046218 0 0.023421048956345784 5.3213480135759527e-05 0 0.023659260480315639 -0.00041022156631046218 0 0.023421048956345784 5.3213480135759527e-05 0 0.02310274579441382 -0.00015029326315819016 0 0.023846561299552742 -0.00015273603037053806 0 0.023679394045201013 0.0002318913971865397 0 0.023421048956345784 5.3213480135759527e-05 0 0.022739098460126648 -0.00034501255165738927 0 0.022659535211961738 3.9656413209916276e-05 0 0.02310274579441382 -0.00015029326315819016 0 0.022659535211961738 3.9656413209916276e-05 0 0.022985423957749551 0.00026199296413519091 0 0.02310274579441382 -0.00015029326315819016 0 0.022985423957749551 0.00026199296413519091 0 0.023421048956345784 5.3213480135759527e-05 0 0.02310274579441382 -0.00015029326315819016 0 0.019221828879215998 0.00033541607235564264 0 0.01998459063966318 0.00082264113084574639 0 0.019916601786725566 6.8585714231336734e-05 0 0.019221828879215998 0.00033541607235564264 0 0.018620495161127966 0.00081917338705620509 0 0.01998459063966318 0.00082264113084574639 0 0.016475407342245316 -0.0010557879108458812 0 0.016699603666607846 0.00050131143311114433 0 0.018620495161127966 0.00081917338705620509 0 0.017817042617105976 -0.0002072368954127575 0 0.018561936811688103 0.00073151297282239602 0 0.019221828879215998 0.00033541607235564264 0 0.018910080927211862 0.00030038575946439108 0 0.018620495161127966 0.00081917338705620509 0 0.016639857851258731 0.0020013277762965568 0 0.017921839563226891 0.0021650066868426428 0 0.016699603666607846 0.00050131143311114433 0 0.016602112383033104 0.0019440873722813997 0 0.018620495161127966 0.00081917338705620509 0 0.016602112383033104 0.0019440873722813997 0 0.019413762050529318 0.0019330980889494401 0 0.018620495161127966 0.00081917338705620509 0 0.019413762050529318 0.0019330980889494401 0 0.018620495161127966 0.00081917338705620509 0 0.01998459063966318 0.00082264113084574639 0 0.019413762050529318 0.0019330980889494401 0 0.01998459063966318 0.00082264113084574639 0 0.020674777840145576 0.001852273447176392 0 0.021142645354508743 0.00098270586842470688 0 0.01998459063966318 0.00082264113084574639 0 0.020674777840145576 0.001852273447176392 0 0.021142645354508743 0.00098270586842470688 0 0.021837871386729511 0.0018629698082497769 0 0.020674777840145576 0.001852273447176392 0 0.021724596080787341 0.00025798370978022178 0 0.021142645354508743 0.00098270586842470688 0 0.020700540322921825 0.00025425181991602861 0 0.021142645354508743 0.00098270586842470688 0 0.020700540322921825 0.00025425181991602861 0 0.01998459063966318 0.00082264113084574639 0 0.020700540322921825 0.00025425181991602861 0 0.01998459063966318 0.00082264113084574639 0 0.019916601786725566 6.8585714231336734e-05 0 0.020700540322921825 0.00025425181991602861 0 0.019916601786725566 6.8585714231336734e-05 0 0.020644059196167928 -0.00036804655411774352 0 0.019916601786725566 6.8585714231336734e-05 0 0.020644059196167928 -0.00036804655411774352 0 0.019900644294609957 -0.00033164527332576386 0 0.021724596080787341 0.00025798370978022178 0 0.020700540322921825 0.00025425181991602861 0 0.021304950872931248 -0.0001247715225021918 0 0.020700540322921825 0.00025425181991602861 0 0.021304950872931248 -0.0001247715225021918 0 0.020644059196167928 -0.00036804655411774352 0 0.021304950872931248 -0.0001247715225021918 0 0.020644059196167928 -0.00036804655411774352 0 0.02125306702057406 -0.00050466512366478377 0 0.020644059196167928 -0.00036804655411774352 0 0.021157600325016193 -0.00094211696902535931 0 0.020187327022372841 -0.00068559946701130024 0 0.022848758870542767 -0.00029761317407179334 0 0.021463527924329477 -0.00015625612434581255 0 0.020644059196167928 -0.00036804655411774352 0 0.02125306702057406 -0.00050466512366478377 0 0.021157600325016193 -0.00094211696902535931 0 0.020644059196167928 -0.00036804655411774352 0 0.020187327022372841 -0.00068559946701130024 0 0.019900644294609957 -0.00033164527332576386 0 0.021463527924329477 -0.00015625612434581255 0 0.020096476257706084 -0.00026588063657118202 0 0.020187327022372841 -0.00068559946701130024 0 0.019900644294609957 -0.00033164527332576386 0 0.019870526229027866 -0.00032375903601550505 0 0.019900644294609957 -0.00033164527332576386 0 0.019870526229027866 -0.00032375903601550505 0 0.019301882632614908 -4.3782057851850055e-05 0 0.019916601786725566 6.8585714231336734e-05 0 0.019900644294609957 -0.00033164527332576386 0 0.019301882632614908 -4.3782057851850055e-05 0 0.019221828879215998 0.00033541607235564264 0 0.019916601786725566 6.8585714231336734e-05 0 0.019301882632614908 -4.3782057851850055e-05 0 0.019221828879215998 0.00033541607235564264 0 0.018910080927211862 0.00030038575946439108 0 0.019301882632614908 -4.3782057851850055e-05 0 0.018910080927211862 0.00030038575946439108 0 0.019301882632614908 -4.3782057851850055e-05 0 0.018479206423410374 -0.00017208111438935154 0 0.019870526229027866 -0.00032375903601550505 0 0.019097592572220577 -0.00035433984438689662 0 0.018799654206544014 -0.00096095709289745527 0 0.019301882632614908 -4.3782057851850055e-05 0 0.019097592572220577 -0.00035433984438689662 0 0.018479206423410374 -0.00017208111438935154 0 0.019870526229027866 -0.00032375903601550505 0 0.019301882632614908 -4.3782057851850055e-05 0 0.019097592572220577 -0.00035433984438689662 0 0.019870526229027866 -0.00032375903601550505 0 0.020619369523997028 -0.0013457553518105123 0 0.018799654206544014 -0.00096095709289745527 0 0.024876280721274641 -0.00039718040903796909 0 0.024891653052592097 -0.00025310877840958477 0 0.024927407242399054 -0.0001897178815679167 0 0.022697054020929856 -0.00081493714540073752 0 0.022134723594711289 -0.00053450540623674152 0 0.022769537208481839 0.00050935888325505277 0 0.019870526229027866 -0.00032375903601550505 0 0.020619369523997028 -0.0013457553518105123 0 0.024876280721274641 -0.00039718040903796909 0 0.024891653052592097 -0.00025310877840958477 0 0.024678360126985346 -0.00033575675713747618 0 0.024937026962421685 -0.00017090618406379781 0 0.024927407242399054 -0.0001897178815679167 0 0.024922489729478893 -0.00015416584419367297 0 0.024891653052592097 -0.00025310877840958477 0 0.024937026962421685 -0.00017090618406379781 0 0.024927407242399054 -0.0001897178815679167 0 0.024686247377951137 -0.00021205331586813926 0 0.024480488394495122 0.00025818370082341324 0 0.024245576079092283 -0.00067029047695369999 0 0.024480488394495122 0.00025818370082341324 0 0.022769537208481839 0.00050935888325505277 0 0.024245576079092283 -0.00067029047695369999 0 0.024627089449087564 -0.00040282646697955887 0 0.024686247377951137 -0.00021205331586813926 0 0.024245576079092283 -0.00067029047695369999 0 0.024876280721274641 -0.00039718040903796909 0 0.024245576079092283 -0.00067029047695369999 0 0.024678360126985346 -0.00033575675713747618 0 0.022697054020929856 -0.00081493714540073752 0 0.024092405135980662 -0.00073018626635464534 0 0.022769537208481839 0.00050935888325505277 0 0.020619369523997028 -0.0013457553518105123 0 0.024245576079092283 -0.00067029047695369999 0 0.024678360126985346 -0.00033575675713747618 0 0.024641096666621107 -0.00031883262300770913 0 0.024823158502798488 -0.00017419703287203578 0 0.024891653052592097 -0.00025310877840958477 0 0.024678360126985346 -0.00033575675713747618 0 0.024823158502798488 -0.00017419703287203578 0 0.024627089449087564 -0.00040282646697955887 0 0.024245576079092283 -0.00067029047695369999 0 0.024641096666621107 -0.00031883262300770913 0 0.024245576079092283 -0.00067029047695369999 0 0.024678360126985346 -0.00033575675713747618 0 0.024641096666621107 -0.00031883262300770913 0 0.024641096666621107 -0.00031883262300770913 0 0.024823158502798488 -0.00017419703287203578 0 0.024847875806558242 -0.0001313476888156191 0 0.024823158502798488 -0.00017419703287203578 0 0.024999873714591378 -6.3757383257568432e-08 0 0.024938121992490455 -9.6628709804659843e-05 0 0.024823158502798488 -0.00017419703287203578 0 0.024999873714591378 -6.3757383257568432e-08 0 0.024847875806558242 -0.0001313476888156191 0 0.024999324944944987 -1.4862844733212096e-07 0 0.024999873714591378 -6.3757383257568432e-08 0 0.024847875806558242 -0.0001313476888156191 0 0.024937026962421685 -0.00017090618406379781 0 0.024967912330616002 -7.6087473251764022e-05 0 0.024938121992490455 -9.6628709804659843e-05 0 0.024891653052592097 -0.00025310877840958477 0 0.024937026962421685 -0.00017090618406379781 0 0.024938121992490455 -9.6628709804659843e-05 0 0.024891653052592097 -0.00025310877840958477 0 0.024823158502798488 -0.00017419703287203578 0 0.024938121992490455 -9.6628709804659843e-05 0 0.024999873714591378 -6.3757383257568432e-08 0 0.024938121992490455 -9.6628709804659843e-05 0 0.024999924081595879 -5.8650761966908862e-08 0 0.024967912330616002 -7.6087473251764022e-05 0 0.024999924081595879 -5.8650761966908862e-08 0 0.024999960153995623 -7.0335676780428832e-08 0 0.024967912330616002 -7.6087473251764022e-05 0 0.024938121992490455 -9.6628709804659843e-05 0 0.024999924081595879 -5.8650761966908862e-08 0 0.024967912330616002 -7.6087473251764022e-05 0 0.024999960153995623 -7.0335676780428832e-08 0 0.024940499901907078 -6.3374701570715293e-05 0 0.024937026962421685 -0.00017090618406379781 0 0.024967912330616002 -7.6087473251764022e-05 0 0.024931678705542748 -0.00011454625579284487 0 0.024967912330616002 -7.6087473251764022e-05 0 0.024931678705542748 -0.00011454625579284487 0 0.024940499901907078 -6.3374701570715293e-05 0 0.024931678705542748 -0.00011454625579284487 0 0.024940499901907078 -6.3374701570715293e-05 0 0.024845279162410128 -0.00010983540855208171 0 0.024999960153995623 -7.0335676780428832e-08 0 0.024940499901907078 -6.3374701570715293e-05 0 0.024999882453589008 -4.2557148518872315e-08 0 0.024940499901907078 -6.3374701570715293e-05 0 0.024929547851373999 -3.4927516526790042e-05 0 0.024999882453589008 -4.2557148518872315e-08 0 0.024929547851373999 -3.4927516526790042e-05 0 0.024999882453589008 -4.2557148518872315e-08 0 0.024999915412070566 -2.7336419170490645e-08 0 0.024929547851373999 -3.4927516526790042e-05 0 0.024999915412070566 -2.7336419170490645e-08 0 0.024874208777235413 -3.6407064237832778e-05 0 0.024999867644598911 4.7208391576453017e-09 0 0.025504835900773314 0.00048774515553888276 0 0.024929547851373999 -3.4927516526790042e-05 0 0.024874208777235413 -3.6407064237832778e-05 0 0.024841885505945478 -7.3620339007714306e-05 0 0.024940499901907078 -6.3374701570715293e-05 0 0.024929547851373999 -3.4927516526790042e-05 0 0.024841885505945478 -7.3620339007714306e-05 0 0.024940499901907078 -6.3374701570715293e-05 0 0.024841885505945478 -7.3620339007714306e-05 0 0.024845279162410128 -0.00010983540855208171 0 0.024841885505945478 -7.3620339007714306e-05 0 0.024624039578172118 -9.965030089598121e-05 0 0.024845279162410128 -0.00010983540855208171 0 0.024841885505945478 -7.3620339007714306e-05 0 0.024778756288713136 -7.5593908418166515e-05 0 0.024624039578172118 -9.965030089598121e-05 0 0.024736337251221055 -8.4630192179026891e-05 0 0.024624039578172118 -9.965030089598121e-05 0 0.024845279162410128 -0.00010983540855208171 0 0.024874208777235413 -3.6407064237832778e-05 0 0.024841885505945478 -7.3620339007714306e-05 0 0.024778756288713136 -7.5593908418166515e-05 0 0.024874208777235413 -3.6407064237832778e-05 0 0.024778756288713136 -7.5593908418166515e-05 0 0.024817725752846308 -0.00016321054659900193 0 0.025504835900773314 0.00048774515553888276 0 0.022544812629029427 0.00036960665609635387 0 0.024778756288713136 -7.5593908418166515e-05 0 0.024817725752846308 -0.00016321054659900193 0 0.024624039578172118 -9.965030089598121e-05 0 0.019337889302582834 0.00019963764669307267 0 0.018965489460495869 -0.0010403413091748161 0 0.023461196819738173 0.00011478321070423844 0 0.024624039578172118 -9.965030089598121e-05 0 0.024421817764565309 0.00027708609714700806 0 0.013299740028984142 -0.0022926919462842405 0 0.013979390420571745 -0.0023905714927309838 0 0.013688684453959083 -0.0021571565627866813 0 0.022544812629029427 0.00036960665609635387 0 0.025155777518581907 -0.00028855696229967845 0 0.023435347396653646 0.00038887506632584548 0 0.023461196819738173 0.00011478321070423844 0 0.024421817764565309 0.00027708609714700806 0 0.019337889302582834 0.00019963764669307267 0 0.022544812629029427 0.00036960665609635387 0 0.024736337251221055 -8.4630192179026891e-05 0 0.024421817764565309 0.00027708609714700806 0 0.024764036067189191 0.0001496641835841969 0 0.018965489460495869 -0.0010403413091748161 0 0.020149155231138024 -0.0010794402117753705 0 0.024736337251221055 -8.4630192179026891e-05 0 0.024624039578172118 -9.965030089598121e-05 0 0.024421817764565309 0.00027708609714700806 0 0.024547444319567721 0.00097800657307983685 0 0.020149155231138024 -0.0010794402117753705 0 0.024811083138715415 -5.5293437521571294e-05 0 0.024820542407647861 -0.0001012018576430716 0 0.024883417672061241 -0.00013008339185665587 0 0.024736337251221055 -8.4630192179026891e-05 0 0.024811083138715415 -5.5293437521571294e-05 0 0.024820542407647861 -0.0001012018576430716 0 0.020149155231138024 -0.0010794402117753705 0 0.022134723594711289 -0.00053450540623674152 0 0.024811083138715415 -5.5293437521571294e-05 0 0.024927407242399054 -0.0001897178815679167 0 0.024883417672061241 -0.00013008339185665587 0 0.024927407242399054 -0.0001897178815679167 0 0.024922489729478893 -0.00015416584419367297 0 0.024883417672061241 -0.00013008339185665587 0 0.024931678705542748 -0.00011454625579284487 0 0.024922489729478893 -0.00015416584419367297 0 0.024883417672061241 -0.00013008339185665587 0 0.024937026962421685 -0.00017090618406379781 0 0.024931678705542748 -0.00011454625579284487 0 0.024922489729478893 -0.00015416584419367297 0 0.024931678705542748 -0.00011454625579284487 0 0.024845279162410128 -0.00010983540855208171 0 0.024883417672061241 -0.00013008339185665587 0 0.024736337251221055 -8.4630192179026891e-05 0 0.024820542407647861 -0.0001012018576430716 0 0.024845279162410128 -0.00010983540855208171 0 0.024820542407647861 -0.0001012018576430716 0 0.024845279162410128 -0.00010983540855208171 0 0.024883417672061241 -0.00013008339185665587 0 0.023271874535571311 0.00099034191956411436 0 0.023936378090022234 0.00066320284892442663 0 0.023927112463095854 0.0010822333549523129 0 0.023271874535571311 0.00099034191956411436 0 0.023431851374718541 0.00019802870162193278 0 0.023936378090022234 0.00066320284892442663 0 0.025095296597869011 0.00023833251133231054 0 0.025000925604635991 7.533114468525166e-07 0 0.024997439231692717 -1.9310358222441991e-06 0 0.024246789117953183 0.00023815195769752605 0 0.024863705443989619 -2.3344228137857096e-06 0 0.025095296597869011 0.00023833251133231054 0 0.025000925604635991 7.533114468525166e-07 0 0.024930322384364462 -1.9212184833018924e-05 0 0.025000925604635991 7.533114468525166e-07 0 0.024930322384364462 -1.9212184833018924e-05 0 0.024998939934054432 -1.4726314696118325e-07 0 0.023431851374718541 0.00019802870162193278 0 0.024506372904220464 0.00044474763114733291 0 0.024930322384364462 -1.9212184833018924e-05 0 0.023431851374718541 0.00019802870162193278 0 0.024506372904220464 0.00044474763114733291 0 0.023936378090022234 0.00066320284892442663 0 0.024506372904220464 0.00044474763114733291 0 0.023936378090022234 0.00066320284892442663 0 0.02433991348384984 0.00088249460288150605 0 0.023936378090022234 0.00066320284892442663 0 0.02433991348384984 0.00088249460288150605 0 0.023927112463095854 0.0010822333549523129 0 0.024506372904220464 0.00044474763114733291 0 0.02433991348384984 0.00088249460288150605 0 0.024691633210925469 0.00078508457779698964 0 0.024691633210925469 0.00078508457779698964 0 0.024987747451649871 0.00092131450191044529 0 0.024947603489761574 0.00030464698393064746 0 0.02433991348384984 0.00088249460288150605 0 0.024691633210925469 0.00078508457779698964 0 0.02450947148911797 0.0011270271201238807 0 0.024506372904220464 0.00044474763114733291 0 0.024691633210925469 0.00078508457779698964 0 0.024947603489761574 0.00030464698393064746 0 0.024506372904220464 0.00044474763114733291 0 0.024930322384364462 -1.9212184833018924e-05 0 0.024947603489761574 0.00030464698393064746 0 0.024930322384364462 -1.9212184833018924e-05 0 0.024998939934054432 -1.4726314696118325e-07 0 0.024947603489761574 0.00030464698393064746 0 0.025001426051346028 2.599268577279235e-07 0 0.02546857624762295 0.000753597848310689 0 0.024947603489761574 0.00030464698393064746 0 0.025001426051346028 2.599268577279235e-07 0 0.024998939934054432 -1.4726314696118325e-07 0 0.024947603489761574 0.00030464698393064746 0 0.02546857624762295 0.000753597848310689 0 0.024987747451649871 0.00092131450191044529 0 0.024947603489761574 0.00030464698393064746 0 0.02546857624762295 0.000753597848310689 0 0.024987747451649871 0.00092131450191044529 0 0.024917316755003919 0.0016434014629390728 0 0.02546857624762295 0.000753597848310689 0 0.025557756034320252 0.0018815724475779215 0 0.024917316755003919 0.0016434014629390728 0 0.025557756034320252 0.0018815724475779215 0 0.024917316755003919 0.0016434014629390728 0 0.024893051557277838 0.0021801978596721733 0 0.018851967467234082 0.00056021998921976473 0 0.018896243925960027 0.00051389293804086445 0 0.019013592361616923 0.00050886574632789689 0 0.022544812629029427 0.00036960665609635387 0 0.022286566997990441 0.001276022125855838 0 0.019337889302582834 0.00019963764669307267 0 0.019007468832263091 0.00030293733791152117 0 0.018852889279870333 0.0005194992131918667 0 0.018851967467234082 0.00056021998921976473 0 0.018896243925960027 0.00051389293804086445 0 0.024917316755003919 0.0016434014629390728 0 0.024371536480325556 0.0020790932946628967 0 0.024196532636229805 0.0025882615265157534 0 0.026000681461656624 0.0016870154931258772 0 0.020403433420170508 0.0015074482985008503 0 0.024917316755003919 0.0016434014629390728 0 0.024012706039771157 0.0024473435477373258 0 0.024893051557277838 0.0021801978596721733 0 0.024917316755003919 0.0016434014629390728 0 0.023912084213818765 0.0024063393425146629 0 0.024012706039771157 0.0024473435477373258 0 0.024917316755003919 0.0016434014629390728 0 0.024543939860958201 0.0016689458100447553 0 0.024371536480325556 0.0020790932946628967 0 0.024543939860958201 0.0016689458100447553 0 0.024723813262653677 0.0012690091389085695 0 0.024430842049112177 0.0014831697201892222 0 0.024987747451649871 0.00092131450191044529 0 0.024917316755003919 0.0016434014629390728 0 0.024723813262653677 0.0012690091389085695 0 0.024917316755003919 0.0016434014629390728 0 0.024543939860958201 0.0016689458100447553 0 0.024723813262653677 0.0012690091389085695 0 0.024691633210925469 0.00078508457779698964 0 0.024987747451649871 0.00092131450191044529 0 0.024723813262653677 0.0012690091389085695 0 0.024723813262653677 0.0012690091389085695 0 0.02450947148911797 0.0011270271201238807 0 0.024430842049112177 0.0014831697201892222 0 0.024691633210925469 0.00078508457779698964 0 0.024723813262653677 0.0012690091389085695 0 0.02450947148911797 0.0011270271201238807 0 0.02450947148911797 0.0011270271201238807 0 0.024278969856600229 0.0012699820354001256 0 0.024430842049112177 0.0014831697201892222 0 0.02433991348384984 0.00088249460288150605 0 0.02450947148911797 0.0011270271201238807 0 0.024278969856600229 0.0012699820354001256 0 0.024278969856600229 0.0012699820354001256 0 0.023927112463095854 0.0010822333549523129 0 0.023953189109596037 0.0013963741780756197 0 0.02433991348384984 0.00088249460288150605 0 0.024278969856600229 0.0012699820354001256 0 0.023927112463095854 0.0010822333549523129 0 0.023927112463095854 0.0010822333549523129 0 0.023953189109596037 0.0013963741780756197 0 0.02363412477363503 0.0013985966254296447 0 0.024278969856600229 0.0012699820354001256 0 0.023953189109596037 0.0013963741780756197 0 0.02413253443483929 0.0016274376992611774 0 0.023953189109596037 0.0013963741780756197 0 0.023837938073700261 0.0017308348209066106 0 0.02363412477363503 0.0013985966254296447 0 0.023953189109596037 0.0013963741780756197 0 0.023837938073700261 0.0017308348209066106 0 0.02413253443483929 0.0016274376992611774 0 0.024278969856600229 0.0012699820354001256 0 0.02413253443483929 0.0016274376992611774 0 0.024430842049112177 0.0014831697201892222 0 0.02413253443483929 0.0016274376992611774 0 0.024430842049112177 0.0014831697201892222 0 0.024257869194202704 0.0018853278931497237 0 0.024543939860958201 0.0016689458100447553 0 0.024257869194202704 0.0018853278931497237 0 0.024371536480325556 0.0020790932946628967 0 0.024543939860958201 0.0016689458100447553 0 0.024430842049112177 0.0014831697201892222 0 0.024257869194202704 0.0018853278931497237 0 0.02413253443483929 0.0016274376992611774 0 0.024257869194202704 0.0018853278931497237 0 0.023981035919993454 0.0019784735458002914 0 0.024257869194202704 0.0018853278931497237 0 0.024070585594971782 0.002176996027596175 0 0.023981035919993454 0.0019784735458002914 0 0.024371536480325556 0.0020790932946628967 0 0.024135974630669275 0.0023439878085823353 0 0.024196532636229805 0.0025882615265157534 0 0.024257869194202704 0.0018853278931497237 0 0.024371536480325556 0.0020790932946628967 0 0.024070585594971782 0.002176996027596175 0 0.024371536480325556 0.0020790932946628967 0 0.024135974630669275 0.0023439878085823353 0 0.024070585594971782 0.002176996027596175 0 0.023887947440213424 0.0023388833998742756 0 0.023864552417396726 0.0021614427447952775 0 0.023638839640989298 0.0022705475369889684 0 0.024135974630669275 0.0023439878085823353 0 0.023887947440213424 0.0023388833998742756 0 0.024070585594971782 0.002176996027596175 0 0.023887947440213424 0.0023388833998742756 0 0.024070585594971782 0.002176996027596175 0 0.023864552417396726 0.0021614427447952775 0 0.024070585594971782 0.002176996027596175 0 0.023864552417396726 0.0021614427447952775 0 0.023981035919993454 0.0019784735458002914 0 0.023864552417396726 0.0021614427447952775 0 0.023981035919993454 0.0019784735458002914 0 0.023719584747300487 0.0020315599640279079 0 0.023837938073700261 0.0017308348209066106 0 0.023981035919993454 0.0019784735458002914 0 0.023719584747300487 0.0020315599640279079 0 0.023837938073700261 0.0017308348209066106 0 0.02413253443483929 0.0016274376992611774 0 0.023981035919993454 0.0019784735458002914 0 0.023837938073700261 0.0017308348209066106 0 0.023719584747300487 0.0020315599640279079 0 0.023499596335323936 0.0017836405311709423 0 0.023457014854903823 0.0024221289437712287 0 0.023352578104852889 0.0021324044963316148 0 0.022368467792962601 0.0023039176901445539 0 0.023719584747300487 0.0020315599640279079 0 0.023352578104852889 0.0021324044963316148 0 0.023499596335323936 0.0017836405311709423 0 0.023887947440213424 0.0023388833998742756 0 0.023455623287152665 0.0023599430966956612 0 0.023638839640989298 0.0022705475369889684 0 0.023719584747300487 0.0020315599640279079 0 0.023638839640989298 0.0022705475369889684 0 0.023352578104852889 0.0021324044963316148 0 0.023864552417396726 0.0021614427447952775 0 0.023719584747300487 0.0020315599640279079 0 0.023638839640989298 0.0022705475369889684 0 0.023457014854903823 0.0024221289437712287 0 0.023638839640989298 0.0022705475369889684 0 0.023352578104852889 0.0021324044963316148 0 0.019935508996788236 0.001598169444757432 0 0.021540353167033951 0.0012279268374092405 0 0.023352578104852889 0.0021324044963316148 0 0.023238816474583802 0.0018967019417490362 0 0.023499596335323936 0.0017836405311709423 0 0.023238816474583802 0.0018967019417490362 0 0.023177616150392676 0.0014665285027430541 0 0.023499596335323936 0.0017836405311709423 0 0.023837938073700261 0.0017308348209066106 0 0.023499596335323936 0.0017836405311709423 0 0.02363412477363503 0.0013985966254296447 0 0.023177616150392676 0.0014665285027430541 0 0.023499596335323936 0.0017836405311709423 0 0.02363412477363503 0.0013985966254296447 0 0.023271874535571311 0.00099034191956411436 0 0.023927112463095854 0.0010822333549523129 0 0.02363412477363503 0.0013985966254296447 0 0.023271874535571311 0.00099034191956411436 0 0.023177616150392676 0.0014665285027430541 0 0.02363412477363503 0.0013985966254296447 0 0.013894696378798522 0.0024631763723492548 0 0.014203868788160682 0.0022128654948188517 0 0.01379729781100595 0.0023664412655545523 0 0.01250218936842872 0.0028054212284844889 0 0.012716530767224543 0.0026508478128409378 0 0.012967505732144944 0.0022039890701435836 0 0.012753470461109813 0.0027530713333227107 0 0.016419098483357153 0.0023494798778958916 0 0.01250218936842872 0.0028054212284844889 0 0.012602956282597765 0.00281737890962415 0 0.012532052073647418 0.0027807251794835256 0 0.01250218936842872 0.0028054212284844889 0 0.012602956282597765 0.00281737890962415 0 0.012716530767224543 0.0026508478128409378 0 0.012456748261698593 0.0021473632477072516 0 0.012424756294949414 0.0021196319462159652 0 0.012602956282597765 0.00281737890962415 0 0.012717512255511423 0.0027175791096041208 0 0.012674333418323523 0.0028273394542796893 0 0.012602956282597765 0.00281737890962415 0 0.012717512255511423 0.0027175791096041208 0 0.012716530767224543 0.0026508478128409378 0 0.016556140596156295 0.00054487707259930833 0 0.017703210154220533 0.0012746945197370761 0 0.015601496058007397 0.0019488674578244524 0 0.016419098483357153 0.0023494798778958916 0 0.014613422623588775 0.0020839951052553686 0 0.016556140596156295 0.00054487707259930833 0 0.017908362995422603 0.0010859241018305052 0 0.017703210154220533 0.0012746945197370761 0 0.012716530767224543 0.0026508478128409378 0 0.012967505732144944 0.0022039890701435836 0 0.012903211770715966 0.0024885441143968393 0 0.023887947440213424 0.0023388833998742756 0 0.023455623287152665 0.0023599430966956612 0 0.024196532636229805 0.0025882615265157534 0 0.019935508996788236 0.001598169444757432 0 0.020403433420170508 0.0015074482985008503 0 0.024135974630669275 0.0023439878085823353 0 0.023887947440213424 0.0023388833998742756 0 0.024196532636229805 0.0025882615265157534 0 0.016419098483357153 0.0023494798778958916 0 0.018871490716750299 0.0012326536111022547 0 0.018906032839752139 0.00087451497883136108 0 0.017871608764617703 0.0018484447072049266 0 0.019739675749768013 0.0012039815594674342 0 0.020403433420170508 0.0015074482985008503 0 0.018871490716750299 0.0012326536111022547 0 0.020403433420170508 0.0015074482985008503 0 0.016419098483357153 0.0023494798778958916 0 0.012967505732144944 0.0022039890701435836 0 0.013115565439645979 0.0023865569223373807 0 0.012903211770715966 0.0024885441143968393 0 0.012967505732144944 0.0022039890701435836 0 0.013139682039536331 0.0021482828852229393 0 0.013115565439645979 0.0023865569223373807 0 0.013183404789974743 0.0025879968181357908 0 0.012903211770715966 0.0024885441143968393 0 0.012997700096568121 0.0026920679332365477 0 0.013115565439645979 0.0023865569223373807 0 0.013183404789974743 0.0025879968181357908 0 0.012903211770715966 0.0024885441143968393 0 0.012734637058925505 0.0028441311133815652 0 0.012997700096568121 0.0026920679332365477 0 0.013481191408559953 0.0028806438604569197 0 0.012424756294949414 0.0021196319462159652 0 0.01263959064628682 0.0019627856504823285 0 0.012716530767224543 0.0026508478128409378 0 0.012903211770715966 0.0024885441143968393 0 0.012836045682971968 0.0026443836578662117 0 0.012717512255511423 0.0027175791096041208 0 0.012716530767224543 0.0026508478128409378 0 0.012836045682971968 0.0026443836578662117 0 0.012717512255511423 0.0027175791096041208 0 0.012836045682971968 0.0026443836578662117 0 0.012823034145748433 0.0027249286116816118 0 0.012836045682971968 0.0026443836578662117 0 0.012823034145748433 0.0027249286116816118 0 0.012997700096568121 0.0026920679332365477 0 0.012903211770715966 0.0024885441143968393 0 0.012836045682971968 0.0026443836578662117 0 0.012997700096568121 0.0026920679332365477 0 0.012823034145748433 0.0027249286116816118 0 0.012734637058925505 0.0028441311133815652 0 0.012997700096568121 0.0026920679332365477 0 0.012478311981229425 0.0024004586334108262 0 0.012424756294949414 0.0021196319462159652 0 0.012717512255511423 0.0027175791096041208 0 0.012823034145748433 0.0027249286116816118 0 0.012734637058925505 0.0028441311133815652 0 0.013183404789974743 0.0025879968181357908 0 0.012997700096568121 0.0026920679332365477 0 0.013481191408559953 0.0028806438604569197 0 0.013183404789974743 0.0025879968181357908 0 0.013481191408559953 0.0028806438604569197 0 0.013682888909217907 0.0023546540573286534 0 0.013115565439645979 0.0023865569223373807 0 0.013183404789974743 0.0025879968181357908 0 0.013682888909217907 0.0023546540573286534 0 0.013481191408559953 0.0028806438604569197 0 0.013682888909217907 0.0023546540573286534 0 0.013856453138240191 0.0026829524067646417 0 0.019195984977776838 0.00045658674982773705 0 0.019013592361616923 0.00050886574632789689 0 0.019006657435868431 0.00036836830157271981 0 0.013139682039536331 0.0021482828852229393 0 0.013115565439645979 0.0023865569223373807 0 0.013682888909217907 0.0023546540573286534 0 0.018871490716750299 0.0012326536111022547 0 0.022286566997990441 0.001276022125855838 0 0.018871490716750299 0.0012326536111022547 0 0.016180181706981794 0.0013636701234813731 0 0.018825616194306623 0.00052057728346197052 0 0.018891623583980024 0.00041699215284149205 0 0.018795954103203283 0.0002779325457933595 0 0.019006657435868431 0.00036836830157271981 0 0.018951357493503612 0.00045290433414811539 0 0.018891623583980024 0.00041699215284149205 0 0.019006657435868431 0.00036836830157271981 0 0.018891623583980024 0.00041699215284149205 0 0.018795954103203283 0.0002779325457933595 0 0.018896243925960027 0.00051389293804086445 0 0.019013592361616923 0.00050886574632789689 0 0.018951357493503612 0.00045290433414811539 0 0.019013592361616923 0.00050886574632789689 0 0.019006657435868431 0.00036836830157271981 0 0.018951357493503612 0.00045290433414811539 0 0.018825616194306623 0.00052057728346197052 0 0.018896243925960027 0.00051389293804086445 0 0.018891623583980024 0.00041699215284149205 0 0.018896243925960027 0.00051389293804086445 0 0.018951357493503612 0.00045290433414811539 0 0.018891623583980024 0.00041699215284149205 0 0.013481191408559953 0.0028806438604569197 0 0.013856453138240191 0.0026829524067646417 0 0.014169772756491417 0.0029108677226309071 0 0.016180181706981794 0.0013636701234813731 0 0.015365398424992741 -0.00021287387716493135 0 0.013682888909217907 0.0023546540573286534 0 0.013856453138240191 0.0026829524067646417 0 0.014182969443455215 0.0025414422989607989 0 0.013856453138240191 0.0026829524067646417 0 0.014182969443455215 0.0025414422989607989 0 0.014169772756491417 0.0029108677226309071 0 0.011736681351462793 0.00084574310256946641 0 0.011740495280743526 0.00083421900897576943 0 0.011734717448713806 0.00084219238093549904 0 0.011740495280743526 0.00083421900897576943 0 0.011734717448713806 0.00084219238093549904 0 0.011744873794297731 0.00078113683198089041 0 0.01263959064628682 0.0019627856504823285 0 0.012636525845605141 0.00055809319741062687 0 0.011726391582695082 0.00085669870354737772 0 0.011744873794297731 0.00078113683198089041 0 0.011708387569148963 0.00091488863542902449 0 0.011740495280743526 0.00083421900897576943 0 0.011726391582695082 0.00085669870354737772 0 0.011744873794297731 0.00078113683198089041 0 0.011726391582695082 0.00085669870354737772 0 0.011705156930842339 0.00090486492061653224 0 0.011708387569148963 0.00091488863542902449 0 0.011726391582695082 0.00085669870354737772 0 0.011713237686187082 0.00086485765405728491 0 0.011705156930842339 0.00090486492061653224 0 0.011736681351462793 0.00084574310256946641 0 0.011740495280743526 0.00083421900897576943 0 0.011726391582695082 0.00085669870354737772 0 0.011736681351462793 0.00084574310256946641 0 0.011726391582695082 0.00085669870354737772 0 0.011713237686187082 0.00086485765405728491 0 0.012424756294949414 0.0021196319462159652 0 0.012002704467391443 0.0016785608105198073 0 0.011703910025197455 0.00085430426437824386 0 0.011736681351462793 0.00084574310256946641 0 0.011713237686187082 0.00086485765405728491 0 0.011703910025197455 0.00085430426437824386 0 0.011713237686187082 0.00086485765405728491 0 0.0116914807144 0.00089266674481137303 0 0.011713237686187082 0.00086485765405728491 0 0.0116914807144 0.00089266674481137303 0 0.011705156930842339 0.00090486492061653224 0 0.012372372396847887 0.0026379064048261082 0 0.012532052073647418 0.0027807251794835256 0 0.012539936752179395 0.0025000793214940264 0 0.012587562178335909 0.0028197924568396132 0 0.012372372396847887 0.0026379064048261082 0 0.012532052073647418 0.0027807251794835256 0 0.012602956282597765 0.00281737890962415 0 0.012587562178335909 0.0028197924568396132 0 0.012532052073647418 0.0027807251794835256 0 0.014359436555735407 -0.001447889234597703 0 0.015214710051986878 -0.0019260237442375702 0 0.015077505381941945 -0.00085511833294163887 0 0.014359436555735407 -0.001447889234597703 0 0.0140248573952756 -0.00064256833280665966 0 0.015077505381941945 -0.00085511833294163887 0 0.017817042617105976 -0.0002072368954127575 0 0.016305193881045048 -0.0013831794693558966 0 0.016475407342245316 -0.0010557879108458812 0 0.015214710051986878 -0.0019260237442375702 0 0.015077505381941945 -0.00085511833294163887 0 0.017956485971991645 -0.00083854086241552195 0 0.018799654206544014 -0.00096095709289745527 0 0.018479206423410374 -0.00017208111438935154 0 0.019097592572220577 -0.00035433984438689662 0 0.018799654206544014 -0.00096095709289745527 0 0.018479206423410374 -0.00017208111438935154 0 0.020149155231138024 -0.0010794402117753705 0 0.016305193881045048 -0.0013831794693558966 0 0.014359436555735407 -0.001447889234597703 0 0.015214710051986878 -0.0019260237442375702 0 0.014326870342926559 -0.0020428841974256444 0 0.014630732684235988 -0.0025070079870826208 0 0.015214710051986878 -0.0019260237442375702 0 0.014326870342926559 -0.0020428841974256444 0 0.013979390420571745 -0.0023905714927309838 0 0.014630732684235988 -0.0025070079870826208 0 0.014326870342926559 -0.0020428841974256444 0 0.013979390420571745 -0.0023905714927309838 0 0.013924863763675223 -0.0020202005136670535 0 0.013688684453959083 -0.0021571565627866813 0 0.013979390420571745 -0.0023905714927309838 0 0.014326870342926559 -0.0020428841974256444 0 0.013924863763675223 -0.0020202005136670535 0 0.013924863763675223 -0.0020202005136670535 0 0.014010953708188672 -0.0016879288377360227 0 0.013775023573307371 -0.0017685615111280059 0 0.014359436555735407 -0.001447889234597703 0 0.014326870342926559 -0.0020428841974256444 0 0.014010953708188672 -0.0016879288377360227 0 0.014326870342926559 -0.0020428841974256444 0 0.013924863763675223 -0.0020202005136670535 0 0.014010953708188672 -0.0016879288377360227 0 0.013299740028984142 -0.0022926919462842405 0 0.013473193754704025 -0.0018976396240651659 0 0.013217048466975455 -0.0014594871243455943 0 0.019337889302582834 0.00019963764669307267 0 0.015365398424992741 -0.00021287387716493135 0 0.013299740028984142 -0.0022926919462842405 0 0.013688684453959083 -0.0021571565627866813 0 0.013473193754704025 -0.0018976396240651659 0 0.013688684453959083 -0.0021571565627866813 0 0.013665884440677564 -0.0019394965546663773 0 0.013473193754704025 -0.0018976396240651659 0 0.013924863763675223 -0.0020202005136670535 0 0.013688684453959083 -0.0021571565627866813 0 0.013665884440677564 -0.0019394965546663773 0 0.013924863763675223 -0.0020202005136670535 0 0.013775023573307371 -0.0017685615111280059 0 0.013665884440677564 -0.0019394965546663773 0 0.013775023573307371 -0.0017685615111280059 0 0.013665884440677564 -0.0019394965546663773 0 0.013507315537492121 -0.0016509570933445363 0 0.013665884440677564 -0.0019394965546663773 0 0.013507315537492121 -0.0016509570933445363 0 0.013473193754704025 -0.0018976396240651659 0 0.013507315537492121 -0.0016509570933445363 0 0.013473193754704025 -0.0018976396240651659 0 0.013217048466975455 -0.0014594871243455943 0 0.015365398424992741 -0.00021287387716493135 0 0.01423529958717264 -0.00073269534206499146 0 0.013507315537492121 -0.0016509570933445363 0 0.013217048466975455 -0.0014594871243455943 0 0.013367067441017467 -0.0013942322247326264 0 0.013367067441017467 -0.0013942322247326264 0 0.013541553008683038 -0.0014439033758737974 0 0.013579608407734147 -0.0012320009562749893 0 0.013507315537492121 -0.0016509570933445363 0 0.013541553008683038 -0.0014439033758737974 0 0.013708070988154178 -0.0015030800611843065 0 0.013507315537492121 -0.0016509570933445363 0 0.013367067441017467 -0.0013942322247326264 0 0.013541553008683038 -0.0014439033758737974 0 0.013775023573307371 -0.0017685615111280059 0 0.013507315537492121 -0.0016509570933445363 0 0.013708070988154178 -0.0015030800611843065 0 0.013541553008683038 -0.0014439033758737974 0 0.013708070988154178 -0.0015030800611843065 0 0.013579608407734147 -0.0012320009562749893 0 0.015365398424992741 -0.00021287387716493135 0 0.012636525845605141 0.00055809319741062687 0 0.013231689808682792 -0.0014465613050359627 0 0.013367067441017467 -0.0013942322247326264 0 0.013216372421149527 -0.0010117139791881921 0 0.013367067441017467 -0.0013942322247326264 0 0.013579608407734147 -0.0012320009562749893 0 0.013216372421149527 -0.0010117139791881921 0 0.014359436555735407 -0.001447889234597703 0 0.014010953708188672 -0.0016879288377360227 0 0.013884859082108625 -0.0012308719133432946 0 0.014010953708188672 -0.0016879288377360227 0 0.013708070988154178 -0.0015030800611843065 0 0.013884859082108625 -0.0012308719133432946 0 0.014010953708188672 -0.0016879288377360227 0 0.013775023573307371 -0.0017685615111280059 0 0.013708070988154178 -0.0015030800611843065 0 0.013579608407734147 -0.0012320009562749893 0 0.013884859082108625 -0.0012308719133432946 0 0.01372136064893857 -0.0009419912144961591 0 0.013708070988154178 -0.0015030800611843065 0 0.013579608407734147 -0.0012320009562749893 0 0.013884859082108625 -0.0012308719133432946 0 0.014359436555735407 -0.001447889234597703 0 0.013884859082108625 -0.0012308719133432946 0 0.0140248573952756 -0.00064256833280665966 0 0.013884859082108625 -0.0012308719133432946 0 0.01372136064893857 -0.0009419912144961591 0 0.0140248573952756 -0.00064256833280665966 0 0.013116148603713896 -0.00071224760963925504 0 0.01397263612418867 -0.00064548582951361839 0 0.012527038079524431 -0.00052925303184442785 0 0.012811104949376914 0.00036894567249156349 0 0.0140248573952756 -0.00064256833280665966 0 0.012527038079524431 -0.00052925303184442785 0 0.012142017697394959 6.7524392062234917e-05 0 0.012811104949376914 0.00036894567249156349 0 0.01161464137564009 -0.00051677862078872378 0 0.012142017697394959 6.7524392062234917e-05 0 0.011744873794297731 0.00078113683198089041 0 0.013579608407734147 -0.0012320009562749893 0 0.01372136064893857 -0.0009419912144961591 0 0.013216372421149527 -0.0010117139791881921 0 0.013116148603713896 -0.00071224760963925504 0 0.012636525845605141 0.00055809319741062687 0 0.012636525845605141 0.00055809319741062687 0 0.011593096754412053 0.00057442012769143389 0 0.012527038079524431 -0.00052925303184442785 0 0.01161464137564009 -0.00051677862078872378 0 0.012142017697394959 6.7524392062234917e-05 0 0.012142017697394959 6.7524392062234917e-05 0 0.011744873794297731 0.00078113683198089041 0 0.012811104949376914 0.00036894567249156349 0 0.012811104949376914 0.00036894567249156349 0 0.014173774649017184 0.00028872235720221973 0 0.012556255865527733 0.0013388093765611757 0 0.011744873794297731 0.00078113683198089041 0 0.012811104949376914 0.00036894567249156349 0 0.012556255865527733 0.0013388093765611757 0 0.014971120596754662 0.001313407288967698 0 0.014173774649017184 0.00028872235720221973 0 0.012556255865527733 0.0013388093765611757 0 0.014971120596754662 0.001313407288967698 0 0.014173774649017184 0.00028872235720221973 0 0.01535228611710926 0.00033636517458360298 0 0.012811104949376914 0.00036894567249156349 0 0.014173774649017184 0.00028872235720221973 0 0.0140248573952756 -0.00064256833280665966 0 0.014173774649017184 0.00028872235720221973 0 0.0140248573952756 -0.00064256833280665966 0 0.015077505381941945 -0.00085511833294163887 0 0.014173774649017184 0.00028872235720221973 0 0.015077505381941945 -0.00085511833294163887 0 0.01535228611710926 0.00033636517458360298 0 0.016475407342245316 -0.0010557879108458812 0 0.015077505381941945 -0.00085511833294163887 0 0.01535228611710926 0.00033636517458360298 0 0.016475407342245316 -0.0010557879108458812 0 0.016699603666607846 0.00050131143311114433 0 0.01535228611710926 0.00033636517458360298 0 0.016699603666607846 0.00050131143311114433 0 0.016602112383033104 0.0019440873722813997 0 0.01535228611710926 0.00033636517458360298 0 0.016602112383033104 0.0019440873722813997 0 0.014971120596754662 0.001313407288967698 0 0.01535228611710926 0.00033636517458360298 0 0.016602112383033104 0.0019440873722813997 0 0.014971120596754662 0.001313407288967698 0 0.015626566424630329 0.0027075821450464649 0 0.011499314038783816 0.0011857055994813951 0 0.011342054935271743 0.00088662549579061325 0 0.011121159824891813 0.00088930836835849443 0 0.011499314038783816 0.0011857055994813951 0 0.011840744485589574 0.00097553443134712893 0 0.011342054935271743 0.00088662549579061325 0 0.014971120596754662 0.001313407288967698 0 0.015626566424630329 0.0027075821450464649 0 0.012556255865527733 0.0013388093765611757 0 0.013524420095764657 0.0018780531821808017 0 0.01258668165479779 0.0013818630399437027 0 0.011499314038783816 0.0011857055994813951 0 0.011840744485589574 0.00097553443134712893 0 0.012556255865527733 0.0013388093765611757 0 0.012556255865527733 0.0013388093765611757 0 0.011893557546059516 0.0010376436896446602 0 0.011792721516493689 0.0010249274910201014 0 0.011744873794297731 0.00078113683198089041 0 0.012556255865527733 0.0013388093765611757 0 0.011792721516493689 0.0010249274910201014 0 0.011840744485589574 0.00097553443134712893 0 0.012556255865527733 0.0013388093765611757 0 0.011893557546059516 0.0010376436896446602 0 0.011840744485589574 0.00097553443134712893 0 0.011893557546059516 0.0010376436896446602 0 0.011664389660558222 0.000850855561883889 0 0.011893557546059516 0.0010376436896446602 0 0.011664389660558222 0.000850855561883889 0 0.01165018877013051 0.00083016594788767092 0 0.011893557546059516 0.0010376436896446602 0 0.01165018877013051 0.00083016594788767092 0 0.011709500427319998 0.00091154378649849373 0 0.01165018877013051 0.00083016594788767092 0 0.011550396448322097 0.00074172143684993436 0 0.011709500427319998 0.00091154378649849373 0 0.01165018877013051 0.00083016594788767092 0 0.011550396448322097 0.00074172143684993436 0 0.011436918089324937 0.00063676769650392712 0 0.01165018877013051 0.00083016594788767092 0 0.011479456711206001 0.00069795375175436857 0 0.011436918089324937 0.00063676769650392712 0 0.011664389660558222 0.000850855561883889 0 0.01165018877013051 0.00083016594788767092 0 0.011479456711206001 0.00069795375175436857 0 0.011479456711206001 0.00069795375175436857 0 0.011318838727301196 0.00064473620965848418 0 0.011334885537580927 0.00059715977249198053 0 0.011479456711206001 0.00069795375175436857 0 0.011318838727301196 0.00064473620965848418 0 0.0114697942152723 0.00077221299423126967 0 0.011664389660558222 0.000850855561883889 0 0.011479456711206001 0.00069795375175436857 0 0.0114697942152723 0.00077221299423126967 0 0.011318838727301196 0.00064473620965848418 0 0.0114697942152723 0.00077221299423126967 0 0.01115886596105701 0.00068671759586111836 0 0.011318838727301196 0.00064473620965848418 0 0.011184573910555003 0.00060365548800728305 0 0.01115886596105701 0.00068671759586111836 0 0.011342054935271743 0.00088662549579061325 0 0.0114697942152723 0.00077221299423126967 0 0.01115886596105701 0.00068671759586111836 0 0.011840744485589574 0.00097553443134712893 0 0.011342054935271743 0.00088662549579061325 0 0.0114697942152723 0.00077221299423126967 0 0.011840744485589574 0.00097553443134712893 0 0.011664389660558222 0.000850855561883889 0 0.0114697942152723 0.00077221299423126967 0 0.011663352827606832 0.001739520322106576 0 0.012004929124641718 0.0016671976565029506 0 0.012619934553903879 0.0020901286326818905 0 0.011663352827606832 0.001739520322106576 0 0.012004929124641718 0.0016671976565029506 0 0.011646096097001991 0.0012365654101615673 0 0.012083143295678089 0.0020444991950268059 0 0.012454147494052208 0.0024299445835628706 0 0.012424089853195259 0.0022380798252724637 0 0.012295077734025776 0.0023140893639981026 0 0.012539936752179395 0.0025000793214940264 0 0.012372372396847887 0.0026379064048261082 0 0.012295077734025776 0.0023140893639981026 0 0.012539936752179395 0.0025000793214940264 0 0.011705156930842339 0.00090486492061653224 0 0.011708383893802996 0.00094810771034363321 0 0.011707250125428342 0.00094233647434461816 0 0.0116914807144 0.00089266674481137303 0 0.011705156930842339 0.00090486492061653224 0 0.011708383893802996 0.00094810771034363321 0 0.012002704467391443 0.0016785608105198073 0 0.012040912126598776 0.0017018978211058625 0 0.011708383893802996 0.00094810771034363321 0 0.011706753965824405 0.00093620829556714401 0 0.011746867434347285 0.00088612732736644462 0 0.011708383893802996 0.00094810771034363321 0 0.011706753965824405 0.00093620829556714401 0 0.011707250125428342 0.00094233647434461816 0 0.012424089853195259 0.0022380798252724637 0 0.012295077734025776 0.0023140893639981026 0 0.012243044144177173 0.001920136132092818 0 0.012040912126598776 0.0017018978211058625 0 0.011706000326314152 0.0011234494216489602 0 0.011706753965824405 0.00093620829556714401 0 0.011720037131205027 0.00096444495021422475 0 0.011709409358658308 0.00095570239714070835 0 0.011706753965824405 0.00093620829556714401 0 0.011720037131205027 0.00096444495021422475 0 0.011707250125428342 0.00094233647434461816 0 0.011705156930842339 0.00090486492061653224 0 0.011707250125428342 0.00094233647434461816 0 0.011708387569148963 0.00091488863542902449 0 0.011720037131205027 0.00096444495021422475 0 0.011707250125428342 0.00094233647434461816 0 0.011708387569148963 0.00091488863542902449 0 0.011744873794297731 0.00078113683198089041 0 0.011708387569148963 0.00091488863542902449 0 0.011792721516493689 0.0010249274910201014 0 0.011720037131205027 0.00096444495021422475 0 0.011708387569148963 0.00091488863542902449 0 0.011792721516493689 0.0010249274910201014 0 0.011720037131205027 0.00096444495021422475 0 0.011792721516493689 0.0010249274910201014 0 0.011709409358658308 0.00095570239714070835 0 0.011893557546059516 0.0010376436896446602 0 0.011709409358658308 0.00095570239714070835 0 0.011709500427319998 0.00091154378649849373 0 0.011893557546059516 0.0010376436896446602 0 0.011792721516493689 0.0010249274910201014 0 0.011709409358658308 0.00095570239714070835 0 0.011709409358658308 0.00095570239714070835 0 0.011709500427319998 0.00091154378649849373 0 0.011669761906673397 0.00089327611186765102 0 0.011669761906673397 0.00089327611186765102 0 0.011609009479760835 0.00080923055712219297 0 0.011673277543513516 0.00087523649378823181 0 0.011709500427319998 0.00091154378649849373 0 0.011669761906673397 0.00089327611186765102 0 0.011609009479760835 0.00080923055712219297 0 0.011550396448322097 0.00074172143684993436 0 0.011609009479760835 0.00080923055712219297 0 0.011481437315951271 0.00065185361934312256 0 0.011550396448322097 0.00074172143684993436 0 0.011709500427319998 0.00091154378649849373 0 0.011609009479760835 0.00080923055712219297 0 0.011609009479760835 0.00080923055712219297 0 0.011591703470873986 0.0007521900806519258 0 0.011481437315951271 0.00065185361934312256 0 0.011609009479760835 0.00080923055712219297 0 0.011591703470873986 0.0007521900806519258 0 0.011673277543513516 0.00087523649378823181 0 0.011591703470873986 0.0007521900806519258 0 0.011705012932704002 0.00078101614692368149 0 0.011520850419567316 0.00062787601010796327 0 0.011583178783789496 0.0006839128395096963 0 0.011553720808240084 0.00065770425411421812 0 0.011591703470873986 0.0007521900806519258 0 0.011673277543513516 0.00087523649378823181 0 0.011705012932704002 0.00078101614692368149 0 0.011706753965824405 0.00093620829556714401 0 0.011709409358658308 0.00095570239714070835 0 0.011673277543513516 0.00087523649378823181 0 0.011709409358658308 0.00095570239714070835 0 0.011669761906673397 0.00089327611186765102 0 0.011673277543513516 0.00087523649378823181 0 0.011673277543513516 0.00087523649378823181 0 0.011746867434347285 0.00088612732736644462 0 0.011705012932704002 0.00078101614692368149 0 0.011706753965824405 0.00093620829556714401 0 0.011673277543513516 0.00087523649378823181 0 0.011746867434347285 0.00088612732736644462 0 0.011706000326314152 0.0011234494216489602 0 0.011315155583198327 0.00046295060755616364 0 0.011196808650059363 0.001021603712718725 0 0.011375474594412462 0.00066086600550515294 0 0.011194065696185064 0.00042335522287224934 0 0.011706000326314152 0.0011234494216489602 0 0.011583178783789496 0.0006839128395096963 0 0.011565897741887739 0.00071452208569665798 0 0.011533921664475004 0.00066439951093901623 0 0.011546946111855411 0.00060904899930977691 0 0.011196808650059363 0.001021603712718725 0 0.011375474594412462 0.00066086600550515294 0 0.011623924477790457 0.00088644496067292479 0 0.011375474594412462 0.00066086600550515294 0 0.011623924477790457 0.00088644496067292479 0 0.011521270713315447 0.00059644453207837117 0 0.011196808650059363 0.001021603712718725 0 0.011623924477790457 0.00088644496067292479 0 0.011646096097001991 0.0012365654101615673 0 0.012083143295678089 0.0020444991950268059 0 0.011706000326314152 0.0011234494216489602 0 0.011663352827606832 0.001739520322106576 0 0.011196808650059363 0.001021603712718725 0 0.011646096097001991 0.0012365654101615673 0 0.011308544955878465 0.00031538608918127458 0 0.011297184327739764 0.00034055629529233702 0 0.011268457548752499 0.00025006073798224636 0 0.011308544955878465 0.00031538608918127458 0 0.011353528165159167 0.00046719162919713227 0 0.011194065696185064 0.00042335522287224934 0 0.011308544955878465 0.00031538608918127458 0 0.011353528165159167 0.00046719162919713227 0 0.011434913407717151 0.00037602697995133921 0 0.011375474594412462 0.00066086600550515294 0 0.011353528165159167 0.00046719162919713227 0 0.011521270713315447 0.00059644453207837117 0 0.011375474594412462 0.00066086600550515294 0 0.011353528165159167 0.00046719162919713227 0 0.011194065696185064 0.00042335522287224934 0 0.011533921664475004 0.00066439951093901623 0 0.011546946111855411 0.00060904899930977691 0 0.011520850419567316 0.00062787601010796327 0 0.011546946111855411 0.00060904899930977691 0 0.011425006104347895 0.00052805243146861224 0 0.011520850419567316 0.00062787601010796327 0 0.011546946111855411 0.00060904899930977691 0 0.011425006104347895 0.00052805243146861224 0 0.011297184327739764 0.00034055629529233702 0 0.011315155583198327 0.00046295060755616364 0 0.011324123775142915 0.00039187040324955452 0 0.011308544955878465 0.00031538608918127458 0 0.011194065696185064 0.00042335522287224934 0 0.011297184327739764 0.00034055629529233702 0 0.011338004468869357 0.00047573743808340159 0 0.011425006104347895 0.00052805243146861224 0 0.011297184327739764 0.00034055629529233702 0 0.011338004468869357 0.00047573743808340159 0 0.011425006104347895 0.00052805243146861224 0 0.011431530462843965 0.00056973654730765606 0 0.011591703470873986 0.0007521900806519258 0 0.011520850419567316 0.00062787601010796327 0 0.011481437315951271 0.00065185361934312256 0 0.011520850419567316 0.00062787601010796327 0 0.011431530462843965 0.00056973654730765606 0 0.011481437315951271 0.00065185361934312256 0 0.011425006104347895 0.00052805243146861224 0 0.011520850419567316 0.00062787601010796327 0 0.011431530462843965 0.00056973654730765606 0 0.011431530462843965 0.00056973654730765606 0 0.011481437315951271 0.00065185361934312256 0 0.011356022419885483 0.00053565107940423704 0 0.011550396448322097 0.00074172143684993436 0 0.011481437315951271 0.00065185361934312256 0 0.011424698504330481 0.00061164647334941054 0 0.011481437315951271 0.00065185361934312256 0 0.011356022419885483 0.00053565107940423704 0 0.011424698504330481 0.00061164647334941054 0 0.011338004468869357 0.00047573743808340159 0 0.011356022419885483 0.00053565107940423704 0 0.01124494841386736 0.00045264348379973511 0 0.011338004468869357 0.00047573743808340159 0 0.011431530462843965 0.00056973654730765606 0 0.011356022419885483 0.00053565107940423704 0 0.011213867633333929 0.00040057737945163759 0 0.01124494841386736 0.00045264348379973511 0 0.011113750566857327 0.00039237539363613224 0 0.011338004468869357 0.00047573743808340159 0 0.011213867633333929 0.00040057737945163759 0 0.01124494841386736 0.00045264348379973511 0 0.011213867633333929 0.00040057737945163759 0 0.011072754893931759 0.00036010946753746453 0 0.011113750566857327 0.00039237539363613224 0 0.011072754893931759 0.00036010946753746453 0 0.011171913314133468 0.00033853618055891885 0 0.010989059270520879 0.00032356200430946127 0 0.011213867633333929 0.00040057737945163759 0 0.011171913314133468 0.00033853618055891885 0 0.011297184327739764 0.00034055629529233702 0 0.011213867633333929 0.00040057737945163759 0 0.011072754893931759 0.00036010946753746453 0 0.011171913314133468 0.00033853618055891885 0 0.011338004468869357 0.00047573743808340159 0 0.011213867633333929 0.00040057737945163759 0 0.011297184327739764 0.00034055629529233702 0 0.011171913314133468 0.00033853618055891885 0 0.011297184327739764 0.00034055629529233702 0 0.011224804269746256 0.00030089712423787037 0 0.011297184327739764 0.00034055629529233702 0 0.011224804269746256 0.00030089712423787037 0 0.011217991095570583 0.00026258347387022262 0 0.011224804269746256 0.00030089712423787037 0 0.011169187070077122 0.00027076176651907961 0 0.011217991095570583 0.00026258347387022262 0 0.011169187070077122 0.00027076176651907961 0 0.011217991095570583 0.00026258347387022262 0 0.011096580378437283 0.00024762938428864981 0 0.011297184327739764 0.00034055629529233702 0 0.011217991095570583 0.00026258347387022262 0 0.011268457548752499 0.00025006073798224636 0 0.011262445441791715 0.00052196962082276673 0 0.011231576784417125 0.00047365723686519667 0 0.011179350435723726 0.0004546288629104041 0 0.011262445441791715 0.00052196962082276673 0 0.011219349699730966 0.00053798718041004777 0 0.011179350435723726 0.0004546288629104041 0 0.011219349699730966 0.00053798718041004777 0 0.011179350435723726 0.0004546288629104041 0 0.011134508649208208 0.00046942438245599989 0 0.011219349699730966 0.00053798718041004777 0 0.011134508649208208 0.00046942438245599989 0 0.011131521600362364 0.00054172449478578411 0 0.011318838727301196 0.00064473620965848418 0 0.011219349699730966 0.00053798718041004777 0 0.011184573910555003 0.00060365548800728305 0 0.011318838727301196 0.00064473620965848418 0 0.011219349699730966 0.00053798718041004777 0 0.011334885537580927 0.00059715977249198053 0 0.011219349699730966 0.00053798718041004777 0 0.011131521600362364 0.00054172449478578411 0 0.011184573910555003 0.00060365548800728305 0 0.011479456711206001 0.00069795375175436857 0 0.011334885537580927 0.00059715977249198053 0 0.011342232898013603 0.0005689842597242532 0 0.011262445441791715 0.00052196962082276673 0 0.011219349699730966 0.00053798718041004777 0 0.011334885537580927 0.00059715977249198053 0 0.011262445441791715 0.00052196962082276673 0 0.011334885537580927 0.00059715977249198053 0 0.011342232898013603 0.0005689842597242532 0 0.011479456711206001 0.00069795375175436857 0 0.011342232898013603 0.0005689842597242532 0 0.011436918089324937 0.00063676769650392712 0 0.011342232898013603 0.0005689842597242532 0 0.011436918089324937 0.00063676769650392712 0 0.011335019298068225 0.00054215789438405426 0 0.011550396448322097 0.00074172143684993436 0 0.011436918089324937 0.00063676769650392712 0 0.011424698504330481 0.00061164647334941054 0 0.011436918089324937 0.00063676769650392712 0 0.011424698504330481 0.00061164647334941054 0 0.011335019298068225 0.00054215789438405426 0 0.011356022419885483 0.00053565107940423704 0 0.011424698504330481 0.00061164647334941054 0 0.011335019298068225 0.00054215789438405426 0 0.011356022419885483 0.00053565107940423704 0 0.011335019298068225 0.00054215789438405426 0 0.011231734127187807 0.00046123111531497929 0 0.011356022419885483 0.00053565107940423704 0 0.01124494841386736 0.00045264348379973511 0 0.011231734127187807 0.00046123111531497929 0 0.011335019298068225 0.00054215789438405426 0 0.011231576784417125 0.00047365723686519667 0 0.011231734127187807 0.00046123111531497929 0 0.011262445441791715 0.00052196962082276673 0 0.011342232898013603 0.0005689842597242532 0 0.011231576784417125 0.00047365723686519667 0 0.011342232898013603 0.0005689842597242532 0 0.011335019298068225 0.00054215789438405426 0 0.011231576784417125 0.00047365723686519667 0 0.011231576784417125 0.00047365723686519667 0 0.011146533117703404 0.00040817422951175983 0 0.011147851282534248 0.00041257318368023547 0 0.011231576784417125 0.00047365723686519667 0 0.011146533117703404 0.00040817422951175983 0 0.011231734127187807 0.00046123111531497929 0 0.011146533117703404 0.00040817422951175983 0 0.011231734127187807 0.00046123111531497929 0 0.011113750566857327 0.00039237539363613224 0 0.01124494841386736 0.00045264348379973511 0 0.011231734127187807 0.00046123111531497929 0 0.011113750566857327 0.00039237539363613224 0 0.011113750566857327 0.00039237539363613224 0 0.011050904010389254 0.00035847870906778595 0 0.010936386060557997 0.00032257119241237251 0 0.011072754893931759 0.00036010946753746453 0 0.011113750566857327 0.00039237539363613224 0 0.010936386060557997 0.00032257119241237251 0 0.011146533117703404 0.00040817422951175983 0 0.011113750566857327 0.00039237539363613224 0 0.011050904010389254 0.00035847870906778595 0 0.011146533117703404 0.00040817422951175983 0 0.011050904010389254 0.00035847870906778595 0 0.011083675965893757 0.00036411647669218621 0 0.011050904010389254 0.00035847870906778595 0 0.011083675965893757 0.00036411647669218621 0 0.010963975108561886 0.00033429417131657731 0 0.011083675965893757 0.00036411647669218621 0 0.011123918124430617 0.00039827237206123856 0 0.011090129161756347 0.00037029717599460963 0 0.011083675965893757 0.00036411647669218621 0 0.011147851282534248 0.00041257318368023547 0 0.011123918124430617 0.00039827237206123856 0 0.011146533117703404 0.00040817422951175983 0 0.011083675965893757 0.00036411647669218621 0 0.011147851282534248 0.00041257318368023547 0 0.011231576784417125 0.00047365723686519667 0 0.011179350435723726 0.0004546288629104041 0 0.011147851282534248 0.00041257318368023547 0 0.011179350435723726 0.0004546288629104041 0 0.011147851282534248 0.00041257318368023547 0 0.011123918124430617 0.00039827237206123856 0 0.011179350435723726 0.0004546288629104041 0 0.011134508649208208 0.00046942438245599989 0 0.011123918124430617 0.00039827237206123856 0 0.011123918124430617 0.00039827237206123856 0 0.011103358069756517 0.00038017787157911307 0 0.011090129161756347 0.00037029717599460963 0 0.011123918124430617 0.00039827237206123856 0 0.011103358069756517 0.00038017787157911307 0 0.011093963698697454 0.00039230880733465189 0 0.011103358069756517 0.00038017787157911307 0 0.011093963698697454 0.00039230880733465189 0 0.011104648883796579 0.00037593226967882115 0 0.011123918124430617 0.00039827237206123856 0 0.011093963698697454 0.00039230880733465189 0 0.011086124562139251 0.00043218222108936972 0 0.01029520688667648 0.0010841720857962638 0 0.010598944979688942 0.00076905216495133026 0 0.011093963698697454 0.00039230880733465189 0 0.011046341199405313 0.00039228972047626956 0 0.011104648883796579 0.00037593226967882115 0 0.011093963698697454 0.00039230880733465189 0 0.011046341199405313 0.00039228972047626956 0 0.011086124562139251 0.00043218222108936972 0 0.0098133501116228379 0.0013951018541031135 0 0.010499473049709758 0.0010848654940830364 0 0.010250874864014431 0.0013831021480505358 0 0.0098133501116228379 0.0013951018541031135 0 0.010250874864014431 0.0013831021480505358 0 0.0099551889137520656 0.0015705854380121801 0 0.010982658539385001 0.00046688111230059302 0 0.011086124562139251 0.00043218222108936972 0 0.011067330253464467 0.00050262905100951192 0 0.01029520688667648 0.0010841720857962638 0 0.0103432549648382 0.0011977770567603563 0 0.010277742282982944 0.0012775897090443261 0 0.010401097802936313 0.0010491818966286916 0 0.010499473049709758 0.0010848654940830364 0 0.01029520688667648 0.0010841720857962638 0 0.010760873712975582 0.0007045751268986726 0 0.011046341199405313 0.00039228972047626956 0 0.010982658539385001 0.00046688111230059302 0 0.011086124562139251 0.00043218222108936972 0 0.011134508649208208 0.00046942438245599989 0 0.011086124562139251 0.00043218222108936972 0 0.011067330253464467 0.00050262905100951192 0 0.011134508649208208 0.00046942438245599989 0 0.011123918124430617 0.00039827237206123856 0 0.011086124562139251 0.00043218222108936972 0 0.011134508649208208 0.00046942438245599989 0 0.011131521600362364 0.00054172449478578411 0 0.011067330253464467 0.00050262905100951192 0 0.011131521600362364 0.00054172449478578411 0 0.011067330253464467 0.00050262905100951192 0 0.011057135654126067 0.00057790097232865651 0 0.010982658539385001 0.00046688111230059302 0 0.011067330253464467 0.00050262905100951192 0 0.01100524040750183 0.00058174841725351601 0 0.01100524040750183 0.00058174841725351601 0 0.011057135654126067 0.00057790097232865651 0 0.010990271068374408 0.00063791942514938784 0 0.011067330253464467 0.00050262905100951192 0 0.01100524040750183 0.00058174841725351601 0 0.011057135654126067 0.00057790097232865651 0 0.011057135654126067 0.00057790097232865651 0 0.010990271068374408 0.00063791942514938784 0 0.011092207760197651 0.0006207872004539472 0 0.010990271068374408 0.00063791942514938784 0 0.011092207760197651 0.0006207872004539472 0 0.0110222882740223 0.0006137293792052832 0 0.011131521600362364 0.00054172449478578411 0 0.011057135654126067 0.00057790097232865651 0 0.011092207760197651 0.0006207872004539472 0 0.011131521600362364 0.00054172449478578411 0 0.011092207760197651 0.0006207872004539472 0 0.011184573910555003 0.00060365548800728305 0 0.011153563054033476 0.00069490424135681787 0 0.010886929763884907 0.00070361318524434803 0 0.011164751685370599 0.00088752415277323297 0 0.011153563054033476 0.00069490424135681787 0 0.011529107331260492 0.00086318657935111618 0 0.011448959804180084 0.00059854949624084473 0 0.011153563054033476 0.00069490424135681787 0 0.011164751685370599 0.00088752415277323297 0 0.011529107331260492 0.00086318657935111618 0 0.011153563054033476 0.00069490424135681787 0 0.011169727558515728 0.00055318675565580507 0 0.011448959804180084 0.00059854949624084473 0 0.011153563054033476 0.00069490424135681787 0 0.011169727558515728 0.00055318675565580507 0 0.011017281730177029 0.00061457669530936838 0 0.010990271068374408 0.00063791942514938784 0 0.011017281730177029 0.00061457669530936838 0 0.0110222882740223 0.0006137293792052832 0 0.010990271068374408 0.00063791942514938784 0 0.011017281730177029 0.00061457669530936838 0 0.010886929763884907 0.00070361318524434803 0 0.011153563054033476 0.00069490424135681787 0 0.011017281730177029 0.00061457669530936838 0 0.010886929763884907 0.00070361318524434803 0 0.010982658539385001 0.00046688111230059302 0 0.01100524040750183 0.00058174841725351601 0 0.010886929763884907 0.00070361318524434803 0 0.010401097802936313 0.0010491818966286916 0 0.010886929763884907 0.00070361318524434803 0 0.010766216152688695 0.00098230534444376382 0 0.010760873712975582 0.0007045751268986726 0 0.010822652045091257 0.00073760223900924877 0 0.010886929763884907 0.00070361318524434803 0 0.010766216152688695 0.00098230534444376382 0 0.011164751685370599 0.00088752415277323297 0 0.01100524040750183 0.00058174841725351601 0 0.010990271068374408 0.00063791942514938784 0 0.010886929763884907 0.00070361318524434803 0 0.011164751685370599 0.00088752415277323297 0 0.011396480374135601 0.0016049047381559885 0 0.01161703845750613 0.0013036984264303598 0 0.010766216152688695 0.00098230534444376382 0 0.011164751685370599 0.00088752415277323297 0 0.010691834508030063 0.0012059372612422501 0 0.011164751685370599 0.00088752415277323297 0 0.01161703845750613 0.0013036984264303598 0 0.011529107331260492 0.00086318657935111618 0 0.011108021057177063 0.00088091205246702733 0 0.01098595680133658 0.001545515023146152 0 0.011164751685370599 0.00088752415277323297 0 0.011080754154826579 0.0018561722574658064 0 0.011396480374135601 0.0016049047381559885 0 0.011080754154826579 0.0018561722574658064 0 0.011396480374135601 0.0016049047381559885 0 0.011383535111330362 0.0021218382674403589 0 0.010691834508030063 0.0012059372612422501 0 0.010499473049709758 0.0010848654940830364 0 0.010250874864014431 0.0013831021480505358 0 0.010766216152688695 0.00098230534444376382 0 0.010691834508030063 0.0012059372612422501 0 0.010499473049709758 0.0010848654940830364 0 0.010401097802936313 0.0010491818966286916 0 0.010766216152688695 0.00098230534444376382 0 0.010499473049709758 0.0010848654940830364 0 0.010691834508030063 0.0012059372612422501 0 0.010250874864014431 0.0013831021480505358 0 0.010368029152109291 0.0017222167037733121 0 0.011080754154826579 0.0018561722574658064 0 0.011383535111330362 0.0021218382674403589 0 0.010959707820394359 0.0027175812303159522 0 0.01098595680133658 0.001545515023146152 0 0.0099766399186232441 0.0020161804992523476 0 0.011748918116540535 0.0021453462637344911 0 0.011993357759733815 0.0024099486226193067 0 0.011475453245168585 0.0025678479525055725 0 0.011383535111330362 0.0021218382674403589 0 0.011748918116540535 0.0021453462637344911 0 0.011475453245168585 0.0025678479525055725 0 0.011383535111330362 0.0021218382674403589 0 0.011748918116540535 0.0021453462637344911 0 0.011685172680789255 0.0017850022109971509 0 0.011748918116540535 0.0021453462637344911 0 0.012007206380221411 0.0018807073861045827 0 0.011685172680789255 0.0017850022109971509 0 0.011748918116540535 0.0021453462637344911 0 0.012112078675146028 0.0021616002999836205 0 0.012007206380221411 0.0018807073861045827 0 0.011748918116540535 0.0021453462637344911 0 0.012112078675146028 0.0021616002999836205 0 0.011993357759733815 0.0024099486226193067 0 0.01107234448661543 0.0017998127681605411 0 0.0098448188940584123 0.0020883579931024825 0 0.0097239848636826269 0.0018144469264276737 0 0.0098448188940584123 0.0020883579931024825 0 0.012112078675146028 0.0021616002999836205 0 0.012865064720054636 0.002149189615534659 0 0.011988615614036508 0.0024065188821375226 0 0.012112078675146028 0.0021616002999836205 0 0.01237681745701749 0.001927994080823194 0 0.012865064720054636 0.002149189615534659 0 0.012112078675146028 0.0021616002999836205 0 0.01237681745701749 0.001927994080823194 0 0.012007206380221411 0.0018807073861045827 0 0.012007206380221411 0.0018807073861045827 0 0.012291944780463717 0.0016823461186204508 0 0.012016229427833293 0.0015739155160198045 0 0.01237681745701749 0.001927994080823194 0 0.012007206380221411 0.0018807073861045827 0 0.012291944780463717 0.0016823461186204508 0 0.01237681745701749 0.001927994080823194 0 0.012291944780463717 0.0016823461186204508 0 0.012618012489237851 0.0017762833089299556 0 0.012291944780463717 0.0016823461186204508 0 0.012332997769199152 0.001381798689228394 0 0.012593824486511552 0.0014220748208548406 0 0.012332997769199152 0.001381798689228394 0 0.012016229427833293 0.0015739155160198045 0 0.012107461236339727 0.0012287717318951352 0 0.012291944780463717 0.0016823461186204508 0 0.012332997769199152 0.001381798689228394 0 0.012016229427833293 0.0015739155160198045 0 0.012016229427833293 0.0015739155160198045 0 0.011685172680789255 0.0017850022109971509 0 0.01161703845750613 0.0013036984264303598 0 0.011396480374135601 0.0016049047381559885 0 0.011383535111330362 0.0021218382674403589 0 0.011685172680789255 0.0017850022109971509 0 0.011396480374135601 0.0016049047381559885 0 0.011685172680789255 0.0017850022109971509 0 0.01161703845750613 0.0013036984264303598 0 0.012007206380221411 0.0018807073861045827 0 0.012016229427833293 0.0015739155160198045 0 0.011685172680789255 0.0017850022109971509 0 0.013574041865817933 0.0019754509567079283 0 0.0097239848636826269 0.0018144469264276737 0 0.0080048747272649674 0.0014632885358786228 0 0.0076763084632317314 0.001473843247259108 0 0.0078214065623370185 0.0017235545829962042 0 0.01380776250438933 0.0018845361901931091 0 0.012865064720054636 0.002149189615534659 0 0.013227630521926343 0.0017311233247683867 0 0.0082998028482428234 0.0013663108677313669 0 0.0080048747272649674 0.0014632885358786228 0 0.0078214065623370185 0.0017235545829962042 0 0.0082316634864008625 0.0012870498666036265 0 0.0080048747272649674 0.0014632885358786228 0 0.0076763084632317314 0.001473843247259108 0 0.01237681745701749 0.001927994080823194 0 0.012865064720054636 0.002149189615534659 0 0.012618012489237851 0.0017762833089299556 0 0.012865064720054636 0.002149189615534659 0 0.012618012489237851 0.0017762833089299556 0 0.012906928986618072 0.0016069247653208835 0 0.012291944780463717 0.0016823461186204508 0 0.012618012489237851 0.0017762833089299556 0 0.012593824486511552 0.0014220748208548406 0 0.012618012489237851 0.0017762833089299556 0 0.012593824486511552 0.0014220748208548406 0 0.012906928986618072 0.0016069247653208835 0 0.012593824486511552 0.0014220748208548406 0 0.012906928986618072 0.0016069247653208835 0 0.012746351849363999 0.0012199591063836838 0 0.012906928986618072 0.0016069247653208835 0 0.01328218041729024 0.0013015779961363129 0 0.012746351849363999 0.0012199591063836838 0 0.012865064720054636 0.002149189615534659 0 0.012906928986618072 0.0016069247653208835 0 0.013227630521926343 0.0017311233247683867 0 0.01380776250438933 0.0018845361901931091 0 0.013227630521926343 0.0017311233247683867 0 0.01328218041729024 0.0013015779961363129 0 0.013574041865817933 0.0019754509567079283 0 0.018225775023497037 0.0010025839625389422 0 0.012906928986618072 0.0016069247653208835 0 0.013227630521926343 0.0017311233247683867 0 0.01328218041729024 0.0013015779961363129 0 0.022070717991047289 0.00044251973024489114 0 0.022178309389826782 0.00040074887439403003 0 0.022067080684967513 0.00042330978497122926 0 0.022050298041316824 0.00044787214241879966 0 0.022070717991047289 0.00044251973024489114 0 0.022067080684967513 0.00042330978497122926 0 0.021989172242825601 0.00045956549912917836 0 0.022050298041316824 0.00044787214241879966 0 0.022070717991047289 0.00044251973024489114 0 0.01328218041729024 0.0013015779961363129 0 0.012746351849363999 0.0012199591063836838 0 0.012563019912438243 0.00071379643599632882 0 0.018225775023497037 0.0010025839625389422 0 0.017284298551341358 0.00048907620041668495 0 0.012593824486511552 0.0014220748208548406 0 0.012746351849363999 0.0012199591063836838 0 0.012497034219293409 0.0010663717609449535 0 0.012563019912438243 0.00071379643599632882 0 0.012497034219293409 0.0010663717609449535 0 0.01256980752126082 0.00084591198138057086 0 0.012746351849363999 0.0012199591063836838 0 0.012563019912438243 0.00071379643599632882 0 0.012497034219293409 0.0010663717609449535 0 0.022178309389826782 0.00040074887439403003 0 0.022386744344703707 0.00058758198879614262 0 0.022251281033739887 0.00053695435581769689 0 0.012563019912438243 0.00071379643599632882 0 0.01256980752126082 0.00084591198138057086 0 0.012838400291055967 0.00073135252814968263 0 0.022178309389826782 0.00040074887439403003 0 0.022141831408555822 0.00045241888762757247 0 0.022251281033739887 0.00053695435581769689 0 0.022178309389826782 0.00040074887439403003 0 0.022141831408555822 0.00045241888762757247 0 0.022067080684967513 0.00042330978497122926 0 0.022141831408555822 0.00045241888762757247 0 0.022067080684967513 0.00042330978497122926 0 0.022029406789657795 0.00039566594817457533 0 0.011884905862859381 0.0010230070565732459 0 0.01161703845750613 0.0013036984264303598 0 0.011529107331260492 0.00086318657935111618 0 0.011884905862859381 0.0010230070565732459 0 0.01161703845750613 0.0013036984264303598 0 0.012107461236339727 0.0012287717318951352 0 0.012016229427833293 0.0015739155160198045 0 0.01161703845750613 0.0013036984264303598 0 0.012107461236339727 0.0012287717318951352 0 0.012332997769199152 0.001381798689228394 0 0.012593824486511552 0.0014220748208548406 0 0.012497034219293409 0.0010663717609449535 0 0.012332997769199152 0.001381798689228394 0 0.012107461236339727 0.0012287717318951352 0 0.012497034219293409 0.0010663717609449535 0 0.012497034219293409 0.0010663717609449535 0 0.012269408031902289 0.00097618105280507326 0 0.01256980752126082 0.00084591198138057086 0 0.012107461236339727 0.0012287717318951352 0 0.012497034219293409 0.0010663717609449535 0 0.012269408031902289 0.00097618105280507326 0 0.011884905862859381 0.0010230070565732459 0 0.012107461236339727 0.0012287717318951352 0 0.012269408031902289 0.00097618105280507326 0 0.012269408031902289 0.00097618105280507326 0 0.01235454404724665 0.00081988027194527526 0 0.01256980752126082 0.00084591198138057086 0 0.012269408031902289 0.00097618105280507326 0 0.01235454404724665 0.00081988027194527526 0 0.011933430167081694 0.00079340647360474166 0 0.012563019912438243 0.00071379643599632882 0 0.012838400291055967 0.00073135252814968263 0 0.013147645634053313 0.00084837077306169895 0 0.017284298551341358 0.00048907620041668495 0 0.017995483083672454 0.00077049007581882678 0 0.01235454404724665 0.00081988027194527526 0 0.01256980752126082 0.00084591198138057086 0 0.012838400291055967 0.00073135252814968263 0 0.01235454404724665 0.00081988027194527526 0 0.01208988094239041 0.00064677850347242345 0 0.011933430167081694 0.00079340647360474166 0 0.01235454404724665 0.00081988027194527526 0 0.012838400291055967 0.00073135252814968263 0 0.01208988094239041 0.00064677850347242345 0 0.01208988094239041 0.00064677850347242345 0 0.011933430167081694 0.00079340647360474166 0 0.011725329611089822 0.00056779788379008049 0 0.011884905862859381 0.0010230070565732459 0 0.011933430167081694 0.00079340647360474166 0 0.011529107331260492 0.00086318657935111618 0 0.011884905862859381 0.0010230070565732459 0 0.012269408031902289 0.00097618105280507326 0 0.011933430167081694 0.00079340647360474166 0 0.011933430167081694 0.00079340647360474166 0 0.011529107331260492 0.00086318657935111618 0 0.011448959804180084 0.00059854949624084473 0 0.011933430167081694 0.00079340647360474166 0 0.011725329611089822 0.00056779788379008049 0 0.011448959804180084 0.00059854949624084473 0 0.011725329611089822 0.00056779788379008049 0 0.011448959804180084 0.00059854949624084473 0 0.011476993526853947 0.00046603177929528027 0 0.011725329611089822 0.00056779788379008049 0 0.011476993526853947 0.00046603177929528027 0 0.011462983930682326 0.00024914260695586745 0 0.017995483083672454 0.00077049007581882678 0 0.016546095149208823 0.0016281592202361144 0 0.012838400291055967 0.00073135252814968263 0 0.01208988094239041 0.00064677850347242345 0 0.011462983930682326 0.00024914260695586745 0 0.014322026821182086 0.0010813497419550244 0 0.013147645634053313 0.00084837077306169895 0 0.014315757832073409 0.0016163426857902061 0 0.014322026821182086 0.0010813497419550244 0 0.014580242745704127 0.00087635292735475175 0 0.013147645634053313 0.00084837077306169895 0 0.011476993526853947 0.00046603177929528027 0 0.011462983930682326 0.00024914260695586745 0 0.011320310938708776 0.00044655938240054809 0 0.014322026821182086 0.0010813497419550244 0 0.014580242745704127 0.00087635292735475175 0 0.014982181915144279 0.0014009553599391999 0 0.01538039890576528 0.0013092586114404872 0 0.016546095149208823 0.0016281592202361144 0 0.01208988094239041 0.00064677850347242345 0 0.011725329611089822 0.00056779788379008049 0 0.011462983930682326 0.00024914260695586745 0 0.012838400291055967 0.00073135252814968263 0 0.014580242745704127 0.00087635292735475175 0 0.013147645634053313 0.00084837077306169895 0 0.022386744344703707 0.00058758198879614262 0 0.02239543856734006 0.00074597605235650181 0 0.022435557531527504 0.00078658139259072193 0 0.012893538843803315 0.00070531414069954388 0 0.013041774295976588 0.00062494062059987774 0 0.022386744344703707 0.00058758198879614262 0 0.02239543856734006 0.00074597605235650181 0 0.022334537986403013 0.00067551649683209047 0 0.02239543856734006 0.00074597605235650181 0 0.022397501179671368 0.00083091644831667145 0 0.022435557531527504 0.00078658139259072193 0 0.02239543856734006 0.00074597605235650181 0 0.02240131248067509 0.00082460627731643346 0 0.022334537986403013 0.00067551649683209047 0 0.02239543856734006 0.00074597605235650181 0 0.02240131248067509 0.00082460627731643346 0 0.022397501179671368 0.00083091644831667145 0 0.022397501179671368 0.00083091644831667145 0 0.022435557531527504 0.00078658139259072193 0 0.022343444358228211 0.00085674228513213542 0 0.016546095149208823 0.0016281592202361144 0 0.01909220520159377 0.0016533320876124149 0 0.014322026821182086 0.0010813497419550244 0 0.014399733737861438 0.0015826439586646378 0 0.014982181915144279 0.0014009553599391999 0 0.022054013445521801 0.0007224246935669614 0 0.022029406789657795 0.00039566594817457533 0 0.022224252751578064 0.00058448246047838718 0 0.022141831408555822 0.00045241888762757247 0 0.022029406789657795 0.00039566594817457533 0 0.022224252751578064 0.00058448246047838718 0 0.022224252751578064 0.00058448246047838718 0 0.022251281033739887 0.00053695435581769689 0 0.022334537986403013 0.00067551649683209047 0 0.022141831408555822 0.00045241888762757247 0 0.022224252751578064 0.00058448246047838718 0 0.022251281033739887 0.00053695435581769689 0 0.022386744344703707 0.00058758198879614262 0 0.022251281033739887 0.00053695435581769689 0 0.022334537986403013 0.00067551649683209047 0 0.022224252751578064 0.00058448246047838718 0 0.022334537986403013 0.00067551649683209047 0 0.022315877361013724 0.00078729707839857057 0 0.02240131248067509 0.00082460627731643346 0 0.022334537986403013 0.00067551649683209047 0 0.022315877361013724 0.00078729707839857057 0 0.022054013445521801 0.0007224246935669614 0 0.022224252751578064 0.00058448246047838718 0 0.022315877361013724 0.00078729707839857057 0 0.022054013445521801 0.0007224246935669614 0 0.022315877361013724 0.00078729707839857057 0 0.022220216493074103 0.00090026502390487117 0 0.021983816158458826 0.0011094031017171726 0 0.022220216493074103 0.00090026502390487117 0 0.022555766478153879 0.0010182059112845364 0 0.022315877361013724 0.00078729707839857057 0 0.022220216493074103 0.00090026502390487117 0 0.022555766478153879 0.0010182059112845364 0 0.023017249458953042 0.00041152167619541426 0 0.022520405011360628 0.0012049778266402598 0 0.02240131248067509 0.00082460627731643346 0 0.022555766478153879 0.0010182059112845364 0 0.022405138141932818 0.00088506273915355503 0 0.02240131248067509 0.00082460627731643346 0 0.022315877361013724 0.00078729707839857057 0 0.022555766478153879 0.0010182059112845364 0 0.022555766478153879 0.0010182059112845364 0 0.022464319907731029 0.00062551288712963846 0 0.022405138141932818 0.00088506273915355503 0 0.022555766478153879 0.0010182059112845364 0 0.022464319907731029 0.00062551288712963846 0 0.023483350800604472 0.00058114843318730783 0 0.023088002789892269 0.00060715527635272256 0 0.023272859007632457 0.00060352523501674591 0 0.023797666835712491 0.0011109375683415975 0 0.022555766478153879 0.0010182059112845364 0 0.023483350800604472 0.00058114843318730783 0 0.015750710209387436 0.0022758156055619682 0 0.015739054059023344 0.0023354493226551525 0 0.015780712933709296 0.002321657725305998 0 0.022397501179671368 0.00083091644831667145 0 0.022343444358228211 0.00085674228513213542 0 0.022405138141932818 0.00088506273915355503 0 0.02240131248067509 0.00082460627731643346 0 0.022397501179671368 0.00083091644831667145 0 0.022405138141932818 0.00088506273915355503 0 0.023088002789892269 0.00060715527635272256 0 0.020595795727155124 0.0010974429469560187 0 0.022464319907731029 0.00062551288712963846 0 0.022405138141932818 0.00088506273915355503 0 0.022279056043267256 0.00070149743285293723 0 0.022343444358228211 0.00085674228513213542 0 0.022405138141932818 0.00088506273915355503 0 0.022279056043267256 0.00070149743285293723 0 0.01909220520159377 0.0016533320876124149 0 0.020595795727155124 0.0010974429469560187 0 0.015739054059023344 0.0023354493226551525 0 0.015718107349371568 0.0024796210644591507 0 0.015782179955812149 0.0024104976156960095 0 0.015718107349371568 0.0024796210644591507 0 0.015782179955812149 0.0024104976156960095 0 0.015915928868813094 0.002555053951856763 0 0.020595795727155124 0.0010974429469560187 0 0.017930991973859663 0.0022892103842231514 0 0.015782179955812149 0.0024104976156960095 0 0.015915928868813094 0.002555053951856763 0 0.015780712933709296 0.002321657725305998 0 0.015739054059023344 0.0023354493226551525 0 0.015782179955812149 0.0024104976156960095 0 0.015780712933709296 0.002321657725305998 0 0.015780712933709296 0.002321657725305998 0 0.016268566958725101 0.0023326518751600237 0 0.016072689489642827 0.0017069090512617836 0 0.015915928868813094 0.002555053951856763 0 0.015780712933709296 0.002321657725305998 0 0.016268566958725101 0.0023326518751600237 0 0.016423143010770396 0.0024742738931268849 0 0.015915928868813094 0.002555053951856763 0 0.016268566958725101 0.0023326518751600237 0 0.017921839563226891 0.0021650066868426428 0 0.017930991973859663 0.0022892103842231514 0 0.016423143010770396 0.0024742738931268849 0 0.016268566958725101 0.0023326518751600237 0 0.016573393562849367 0.0022898892237934298 0 0.016602112383033104 0.0019440873722813997 0 0.016423143010770396 0.0024742738931268849 0 0.016573393562849367 0.0022898892237934298 0 0.016602112383033104 0.0019440873722813997 0 0.015626566424630329 0.0027075821450464649 0 0.016573393562849367 0.0022898892237934298 0 0.013524420095764657 0.0018780531821808017 0 0.013802036226128649 0.0016210970725622498 0 0.015626566424630329 0.0027075821450464649 0 0.016573393562849367 0.0022898892237934298 0 0.016534754473204159 0.0023443452878468135 0 0.016268566958725101 0.0023326518751600237 0 0.016573393562849367 0.0022898892237934298 0 0.016534754473204159 0.0023443452878468135 0 0.016268566958725101 0.0023326518751600237 0 0.016534754473204159 0.0023443452878468135 0 0.016072689489642827 0.0017069090512617836 0 0.013802036226128649 0.0016210970725622498 0 0.013549474105664172 0.0011318759049585298 0 0.011121159824891813 0.00088930836835849443 0 0.011068475484173392 0.00068275014013738247 0 0.011023262861546148 0.00056960285022973818 0 0.011121159824891813 0.00088930836835849443 0 0.011068475484173392 0.00068275014013738247 0 0.01115886596105701 0.00068671759586111836 0 0.011342054935271743 0.00088662549579061325 0 0.011121159824891813 0.00088930836835849443 0 0.01115886596105701 0.00068671759586111836 0 0.011092207760197651 0.0006207872004539472 0 0.011184573910555003 0.00060365548800728305 0 0.01115886596105701 0.00068671759586111836 0 0.011068475484173392 0.00068275014013738247 0 0.0110222882740223 0.0006137293792052832 0 0.011023262861546148 0.00056960285022973818 0 0.011092207760197651 0.0006207872004539472 0 0.01115886596105701 0.00068671759586111836 0 0.0110222882740223 0.0006137293792052832 0 0.011068475484173392 0.00068275014013738247 0 0.01115886596105701 0.00068671759586111836 0 0.0110222882740223 0.0006137293792052832 0 0.011017281730177029 0.00061457669530936838 0 0.0110222882740223 0.0006137293792052832 0 0.011111199426314441 0.00051349537212269961 0 0.0110222882740223 0.0006137293792052832 0 0.011111199426314441 0.00051349537212269961 0 0.011023262861546148 0.00056960285022973818 0 0.011169727558515728 0.00055318675565580507 0 0.011017281730177029 0.00061457669530936838 0 0.011111199426314441 0.00051349537212269961 0 0.013041774295976588 0.00062494062059987774 0 0.013549474105664172 0.0011318759049585298 0 0.011462983930682326 0.00024914260695586745 0 0.011111199426314441 0.00051349537212269961 0 0.011023262861546148 0.00056960285022973818 0 0.011462983930682326 0.00024914260695586745 0 0.011111199426314441 0.00051349537212269961 0 0.011320310938708776 0.00044655938240054809 0 0.011169727558515728 0.00055318675565580507 0 0.011111199426314441 0.00051349537212269961 0 0.011320310938708776 0.00044655938240054809 0 0.011169727558515728 0.00055318675565580507 0 0.011448959804180084 0.00059854949624084473 0 0.011320310938708776 0.00044655938240054809 0 0.011448959804180084 0.00059854949624084473 0 0.011476993526853947 0.00046603177929528027 0 0.011320310938708776 0.00044655938240054809 0 0.014580242745704127 0.00087635292735475175 0 0.014982181915144279 0.0014009553599391999 0 0.016072689489642827 0.0017069090512617836 0 0.015369463686065512 0.0017800257025019485 0 0.014982181915144279 0.0014009553599391999 0 0.016072689489642827 0.0017069090512617836 0 0.014399733737861438 0.0015826439586646378 0 0.015369463686065512 0.0017800257025019485 0 0.014982181915144279 0.0014009553599391999 0 0.016546095149208823 0.0016281592202361144 0 0.015224235676486841 0.0022851782912445525 0 0.015780712933709296 0.002321657725305998 0 0.015369463686065512 0.0017800257025019485 0 0.016072689489642827 0.0017069090512617836 0 0.014399733737861438 0.0015826439586646378 0 0.015780712933709296 0.002321657725305998 0 0.015369463686065512 0.0017800257025019485 0 0.023284985363471209 0.00094740753400911616 0 0.022451787822675651 0.001075610032100958 0 0.022856623778038876 0.00071013908134143699 0 0.023284985363471209 0.00094740753400911616 0 0.023673402430244957 0.00054760345401438904 0 0.022856623778038876 0.00071013908134143699 0 0.021019166068615668 0.00036403474004733131 0 0.020056448482417395 0.00046085593478551048 0 0.019791574395051196 4.8900690734216273e-07 0 0.019948420960540818 1.7734524527979539e-05 0 0.021069881662393496 1.3641373850109301e-06 0 0.018725998758228724 -0.00022667841450170061 0 0.017639893131416066 0.00013071082624774389 0 0.017998713051435595 0.0006372793542491357 0 0.019790731303455357 9.963598040597499e-07 0 0.020056448482417395 0.00046085593478551048 0 0.020056448482417395 0.00046085593478551048 0 0.018121355418330619 0.00024815266968552884 0 0.019789746158085878 3.8181104007994836e-08 0 0.018672644716362614 -3.0304804705634822e-08 0 0.018709641731501244 -8.6582595889743222e-07 0 0.019789746158085878 3.8181104007994836e-08 0 0.019777702058492771 3.0301944902335345e-06 0 0.018709641731501244 -8.6582595889743222e-07 0 0.017639893131416066 0.00013071082624774389 0 0.017998713051435595 0.0006372793542491357 0 0.017798769933607819 0.00084103911143597798 0 0.017998713051435595 0.0006372793542491357 0 0.017827344846698866 0.00076705558704487234 0 0.017798769933607819 0.00084103911143597798 0 0.017998713051435595 0.0006372793542491357 0 0.018184782207062707 0.0009972366074856773 0 0.017827344846698866 0.00076705558704487234 0 0.017998713051435595 0.0006372793542491357 0 0.01897507084548326 0.00063062611010647951 0 0.018184782207062707 0.0009972366074856773 0 0.018725998758228724 -0.00022667841450170061 0 0.017998713051435595 0.0006372793542491357 0 0.01897507084548326 0.00063062611010647951 0 0.01897507084548326 0.00063062611010647951 0 0.020614875156711697 0.0013851858114515662 0 0.020076214687871508 0.00039283747518779069 0 0.019090640602025553 0.001216011480219176 0 0.01840210975077692 0.0010531955492135011 0 0.01897507084548326 0.00063062611010647951 0 0.020614875156711697 0.0013851858114515662 0 0.018184782207062707 0.0009972366074856773 0 0.017825050588573723 0.0011011253250800097 0 0.01747714444840831 0.0012266904347136417 0 0.017530949849894336 0.0010309388630463598 0 0.019090640602025553 0.001216011480219176 0 0.020949885930181825 0.00097565330190850291 0 0.020614875156711697 0.0013851858114515662 0 0.021445487728535408 0.00073867300326146252 0 0.023080017533830852 0.00086305876470374693 0 0.020614875156711697 0.0013851858114515662 0 0.021445487728535408 0.00073867300326146252 0 0.020076214687871508 0.00039283747518779069 0 0.022483631358063298 5.6466262796165198e-05 0 0.023792436274385643 -2.1675822215531979e-05 0 0.021445487728535408 0.00073867300326146252 0 0.02096646882721279 -0.0005036728739319273 0 0.023990974528642326 1.3559319608131935e-06 0 0.021445487728535408 0.00073867300326146252 0 0.02096646882721279 -0.0005036728739319273 0 0.020076214687871508 0.00039283747518779069 0 0.023284985363471209 0.00094740753400911616 0 0.024059205082396628 0.00052680787648640018 0 0.023673402430244957 0.00054760345401438904 0 0.021019166068615668 0.00036403474004733131 0 0.022483631358063298 5.6466262796165198e-05 0 0.018725998758228724 -0.00022667841450170061 0 0.02096646882721279 -0.0005036728739319273 0 0.020076214687871508 0.00039283747518779069 0 0.018725998758228724 -0.00022667841450170061 0 0.01897507084548326 0.00063062611010647951 0 0.020076214687871508 0.00039283747518779069 0 0.023673402430244957 0.00054760345401438904 0 0.023863681036200391 0.00018482047008018187 0 0.023056177499038783 0.0002475670020646762 0 0.024059205082396628 0.00052680787648640018 0 0.023673402430244957 0.00054760345401438904 0 0.023863681036200391 0.00018482047008018187 0 0.024059205082396628 0.00052680787648640018 0 0.024187641563293127 0.00021915355948209505 0 0.023863681036200391 0.00018482047008018187 0 0.024059205082396628 0.00052680787648640018 0 0.024187641563293127 0.00021915355948209505 0 0.023990974528642326 1.3559319608131935e-06 0 0.024187641563293127 0.00021915355948209505 0 0.024298593656293957 8.2100479251117039e-05 0 0.023863681036200391 0.00018482047008018187 0 0.024298593656293957 8.2100479251117039e-05 0 0.023863681036200391 0.00018482047008018187 0 0.024436799072311912 -2.1055387722655361e-05 0 0.023880418643388645 0.00021402338960996393 0 0.02380259802806441 -4.7213245153446565e-05 0 0.023863681036200391 0.00018482047008018187 0 0.023056177499038783 0.0002475670020646762 0 0.023151595375806251 -0.00021359239810527219 0 0.023056177499038783 0.0002475670020646762 0 0.022381570833608748 -5.1027245290457757e-05 0 0.023151595375806251 -0.00021359239810527219 0 0.019791574395051196 4.8900690734216273e-07 0 0.021069881662393496 1.3641373850109301e-06 0 0.022796696321218137 -5.7349122299215417e-07 0 0.023673402430244957 0.00054760345401438904 0 0.023056177499038783 0.0002475670020646762 0 0.022856623778038876 0.00071013908134143699 0 0.022451787822675651 0.001075610032100958 0 0.022856623778038876 0.00071013908134143699 0 0.022548803348920479 0.00039342582137838646 0 0.020056448482417395 0.00046085593478551048 0 0.021913537342585679 0.00011657456331787856 0 0.023056177499038783 0.0002475670020646762 0 0.022856623778038876 0.00071013908134143699 0 0.022548803348920479 0.00039342582137838646 0 0.023056177499038783 0.0002475670020646762 0 0.022548803348920479 0.00039342582137838646 0 0.022381570833608748 -5.1027245290457757e-05 0 0.021913537342585679 0.00011657456331787856 0 0.022247493975213601 -0.00012523879336669911 0 0.022381570833608748 -5.1027245290457757e-05 0 0.0228618229206272 -4.9054665814407943e-05 0 0.022773278546677767 -0.00013847553949849776 0 0.022381570833608748 -5.1027245290457757e-05 0 0.022796696321218137 -5.7349122299215417e-07 0 0.0228618229206272 -4.9054665814407943e-05 0 0.021069881662393496 1.3641373850109301e-06 0 0.022381570833608748 -5.1027245290457757e-05 0 0.022796696321218137 -5.7349122299215417e-07 0 0.022381570833608748 -5.1027245290457757e-05 0 0.022824687586131466 -0.00019407591829062601 0 0.022773278546677767 -0.00013847553949849776 0 0.022381570833608748 -5.1027245290457757e-05 0 0.022824687586131466 -0.00019407591829062601 0 0.023151595375806251 -0.00021359239810527219 0 0.023766218186186659 -0.00012758897134275527 0 0.02380259802806441 -4.7213245153446565e-05 0 0.022824687586131466 -0.00019407591829062601 0 0.022831634383149474 -0.00021602717835271434 0 0.023151595375806251 -0.00021359239810527219 0 0.022824687586131466 -0.00019407591829062601 0 0.022831634383149474 -0.00021602717835271434 0 0.022812261396217257 -0.0001578051552117579 0 0.022796696321218137 -5.7349122299215417e-07 0 0.0228618229206272 -4.9054665814407943e-05 0 0.023848718606998429 -3.0049397066017661e-06 0 0.023031022918278285 -0.00011351796902879105 0 0.023328927254327749 -0.00015314780139949135 0 0.0228618229206272 -4.9054665814407943e-05 0 0.022812261396217257 -0.0001578051552117579 0 0.02280142647457354 -0.00021205624917146126 0 0.0228618229206272 -4.9054665814407943e-05 0 0.022773278546677767 -0.00013847553949849776 0 0.022812261396217257 -0.0001578051552117579 0 0.022824687586131466 -0.00019407591829062601 0 0.022773278546677767 -0.00013847553949849776 0 0.022812261396217257 -0.0001578051552117579 0 0.022831634383149474 -0.00021602717835271434 0 0.022812261396217257 -0.0001578051552117579 0 0.02280142647457354 -0.00021205624917146126 0 0.023328927254327749 -0.00015314780139949135 0 0.024226069328411426 -8.8055099506586086e-05 0 0.022796696321218137 -5.7349122299215417e-07 0 0.023848718606998429 -3.0049397066017661e-06 0 0.024999830555233978 8.7871067298156826e-08 0 0.022831634383149474 -0.00021602717835271434 0 0.02280142647457354 -0.00021205624917146126 0 0.022822979257847591 -0.00023767132906557151 0 0.024753800531160802 -2.7077840204379814e-05 0 0.024944066034305854 -6.1723683090620271e-06 0 0.024859810364735689 -5.4812323462168671e-06 0 0.023766218186186659 -0.00012758897134275527 0 0.024226069328411426 -8.8055099506586086e-05 0 0.02499980777733464 2.1438803958609492e-08 0 0.024944066034305854 -6.1723683090620271e-06 0 0.024859810364735689 -5.4812323462168671e-06 0 0.024999505414263164 -1.5072087644744366e-07 0 0.024226069328411426 -8.8055099506586086e-05 0 0.023848718606998429 -3.0049397066017661e-06 0 0.024999830555233978 8.7871067298156826e-08 0 0.02459189877652954 -3.8485503674117215e-06 0 0.024999164555056786 -4.7797459427341223e-08 0 0.024999830555233978 8.7871067298156826e-08 0 0.02459189877652954 -3.8485503674117215e-06 0 0.024999995726903458 -1.6962146272794886e-10 0 0.024999999868327547 -4.3416101225398288e-10 0 0.024995888726665805 -1.2869445907312923e-06 0 0.02499951109220399 1.1021565636229444e-07 0 0.024226069328411426 -8.8055099506586086e-05 0 0.024999724215581477 -6.6511550060089775e-09 0 0.024830961746106727 -1.7890166848104089e-05 0 0.02499976839483093 -3.2544774783959974e-08 0 0.02499980777733464 2.1438803958609492e-08 0 0.024999724215581477 -6.6511550060089775e-09 0 0.024859810364735689 -5.4812323462168671e-06 0 0.024999724215581477 -6.6511550060089775e-09 0 0.024859810364735689 -5.4812323462168671e-06 0 0.024830961746106727 -1.7890166848104089e-05 0 0.024753800531160802 -2.7077840204379814e-05 0 0.024859810364735689 -5.4812323462168671e-06 0 0.0246559446134423 -2.6026236898793809e-05 0 0.024859810364735689 -5.4812323462168671e-06 0 0.024830961746106727 -1.7890166848104089e-05 0 0.0246559446134423 -2.6026236898793809e-05 0 0.024830961746106727 -1.7890166848104089e-05 0 0.024659022452522116 -2.8817870510764474e-05 0 0.024796542523879153 -2.8077779304220794e-05 0 0.024830961746106727 -1.7890166848104089e-05 0 0.024659022452522116 -2.8817870510764474e-05 0 0.0246559446134423 -2.6026236898793809e-05 0 0.024659022452522116 -2.8817870510764474e-05 0 0.0246559446134423 -2.6026236898793809e-05 0 0.024436799072311912 -2.1055387722655361e-05 0 0.024659022452522116 -2.8817870510764474e-05 0 0.024436799072311912 -2.1055387722655361e-05 0 0.024639953840214276 -2.3914517523417385e-05 0 0.024753800531160802 -2.7077840204379814e-05 0 0.0246559446134423 -2.6026236898793809e-05 0 0.024402374398083595 -8.4541953497133062e-06 0 0.023863681036200391 0.00018482047008018187 0 0.024402374398083595 -8.4541953497133062e-06 0 0.024436799072311912 -2.1055387722655361e-05 0 0.0246559446134423 -2.6026236898793809e-05 0 0.024402374398083595 -8.4541953497133062e-06 0 0.024436799072311912 -2.1055387722655361e-05 0 0.024298593656293957 8.2100479251117039e-05 0 0.024436799072311912 -2.1055387722655361e-05 0 0.024469191364014358 2.2146912092569198e-05 0 0.024436799072311912 -2.1055387722655361e-05 0 0.024469191364014358 2.2146912092569198e-05 0 0.024639953840214276 -2.3914517523417385e-05 0 0.024469191364014358 2.2146912092569198e-05 0 0.024644337277414562 -3.8970378347768604e-07 0 0.024639953840214276 -2.3914517523417385e-05 0 0.024469191364014358 2.2146912092569198e-05 0 0.024644337277414562 -3.8970378347768604e-07 0 0.024515990799909761 3.4663728838743999e-05 0 0.024644337277414562 -3.8970378347768604e-07 0 0.024611135441296339 4.713496013618517e-05 0 0.024515990799909761 3.4663728838743999e-05 0 0.024644337277414562 -3.8970378347768604e-07 0 0.024771961190038144 -2.7817080550676184e-05 0 0.024769129353011319 -1.1302110931717537e-05 0 0.024644337277414562 -3.8970378347768604e-07 0 0.024771961190038144 -2.7817080550676184e-05 0 0.024639953840214276 -2.3914517523417385e-05 0 0.024659022452522116 -2.8817870510764474e-05 0 0.024639953840214276 -2.3914517523417385e-05 0 0.024796542523879153 -2.8077779304220794e-05 0 0.024771961190038144 -2.7817080550676184e-05 0 0.024639953840214276 -2.3914517523417385e-05 0 0.024796542523879153 -2.8077779304220794e-05 0 0.024771961190038144 -2.7817080550676184e-05 0 0.024891178072067269 -2.3491658166488286e-05 0 0.024879824773094264 -2.5379182253640655e-05 0 0.024771961190038144 -2.7817080550676184e-05 0 0.024796542523879153 -2.8077779304220794e-05 0 0.024891178072067269 -2.3491658166488286e-05 0 0.024891178072067269 -2.3491658166488286e-05 0 0.02499976839483093 -3.2544774783959974e-08 0 0.02499984260178114 -3.8951417086992355e-08 0 0.024796542523879153 -2.8077779304220794e-05 0 0.024891178072067269 -2.3491658166488286e-05 0 0.02499976839483093 -3.2544774783959974e-08 0 0.024830961746106727 -1.7890166848104089e-05 0 0.024796542523879153 -2.8077779304220794e-05 0 0.02499976839483093 -3.2544774783959974e-08 0 0.02499984260178114 -3.8951417086992355e-08 0 0.024930605233555767 -2.1070596132603628e-05 0 0.024999908240881615 -8.9395353073864731e-09 0 0.02499984260178114 -3.8951417086992355e-08 0 0.024879824773094264 -2.5379182253640655e-05 0 0.024930605233555767 -2.1070596132603628e-05 0 0.024891178072067269 -2.3491658166488286e-05 0 0.02499984260178114 -3.8951417086992355e-08 0 0.024879824773094264 -2.5379182253640655e-05 0 0.024879824773094264 -2.5379182253640655e-05 0 0.024930605233555767 -2.1070596132603628e-05 0 0.024864113324849915 -1.7755820459345112e-05 0 0.024930605233555767 -2.1070596132603628e-05 0 0.024864113324849915 -1.7755820459345112e-05 0 0.024880634181621654 -2.5894431127092959e-06 0 0.024864113324849915 -1.7755820459345112e-05 0 0.024812867582859 4.8239154018353227e-06 0 0.024880634181621654 -2.5894431127092959e-06 0 0.024771961190038144 -2.7817080550676184e-05 0 0.024879824773094264 -2.5379182253640655e-05 0 0.024769129353011319 -1.1302110931717537e-05 0 0.024879824773094264 -2.5379182253640655e-05 0 0.024864113324849915 -1.7755820459345112e-05 0 0.024769129353011319 -1.1302110931717537e-05 0 0.024864113324849915 -1.7755820459345112e-05 0 0.024812867582859 4.8239154018353227e-06 0 0.024769129353011319 -1.1302110931717537e-05 0 0.024644337277414562 -3.8970378347768604e-07 0 0.024711605857294518 3.6449416275244807e-05 0 0.024611135441296339 4.713496013618517e-05 0 0.024812867582859 4.8239154018353227e-06 0 0.024769129353011319 -1.1302110931717537e-05 0 0.024711605857294518 3.6449416275244807e-05 0 0.024644337277414562 -3.8970378347768604e-07 0 0.024769129353011319 -1.1302110931717537e-05 0 0.024711605857294518 3.6449416275244807e-05 0 0.024711605857294518 3.6449416275244807e-05 0 0.024839005356798807 5.2317430573552704e-05 0 0.024753191114298325 0.00014111973246033819 0 0.024812867582859 4.8239154018353227e-06 0 0.024711605857294518 3.6449416275244807e-05 0 0.024839005356798807 5.2317430573552704e-05 0 0.024812867582859 4.8239154018353227e-06 0 0.024839005356798807 5.2317430573552704e-05 0 0.024880634181621654 -2.5894431127092959e-06 0 0.024753191114298325 0.00014111973246033819 0 0.024773273249838836 0.00022232286425072359 0 0.024909147323977938 0.00012791559822481049 0 0.024678819434595767 6.4170030303415583e-05 0 0.024731600726864873 0.00016558744624924312 0 0.024597507381630773 0.00011063646778828477 0 0.020477216145083136 0.00090044058811502041 0 0.020514714455306476 0.00097315963577999378 0 0.020778383840500632 0.00079029500676389456 0 0.018156939738616627 0.00091336919426377805 0 0.020748448437114729 0.0004680156826103058 0 0.024695229241791197 0.00024659140697714605 0 0.022124561516527235 0.00061265729087189922 0 0.022124561516527235 0.00061265729087189922 0 0.020748448437114729 0.0004680156826103058 0 0.018156939738616627 0.00091336919426377805 0 0.022124561516527235 0.00061265729087189922 0 0.024597507381630773 0.00011063646778828477 0 0.024397964750942198 0.00011165792592936654 0 0.024633428669228782 0.00028041789644079088 0 0.024731600726864873 0.00016558744624924312 0 0.024597507381630773 0.00011063646778828477 0 0.024633428669228782 0.00028041789644079088 0 0.024597507381630773 0.00011063646778828477 0 0.024611135441296339 4.713496013618517e-05 0 0.024488489485655934 7.8189758763429819e-05 0 0.024678819434595767 6.4170030303415583e-05 0 0.024597507381630773 0.00011063646778828477 0 0.024611135441296339 4.713496013618517e-05 0 0.024711605857294518 3.6449416275244807e-05 0 0.024678819434595767 6.4170030303415583e-05 0 0.024611135441296339 4.713496013618517e-05 0 0.024684650837867517 1.3833321441623174e-05 0 0.024695229241791197 0.00024659140697714605 0 0.024611135441296339 4.713496013618517e-05 0 0.024515990799909761 3.4663728838743999e-05 0 0.024488489485655934 7.8189758763429819e-05 0 0.024515990799909761 3.4663728838743999e-05 0 0.024488489485655934 7.8189758763429819e-05 0 0.024303282519035855 9.6813935030601553e-05 0 0.024298593656293957 8.2100479251117039e-05 0 0.024469191364014358 2.2146912092569198e-05 0 0.024303282519035855 9.6813935030601553e-05 0 0.024469191364014358 2.2146912092569198e-05 0 0.024515990799909761 3.4663728838743999e-05 0 0.024303282519035855 9.6813935030601553e-05 0 0.024187641563293127 0.00021915355948209505 0 0.024298593656293957 8.2100479251117039e-05 0 0.024303282519035855 9.6813935030601553e-05 0 0.024187641563293127 0.00021915355948209505 0 0.024303282519035855 9.6813935030601553e-05 0 0.023990974528642326 1.3559319608131935e-06 0 0.024303282519035855 9.6813935030601553e-05 0 0.023990974528642326 1.3559319608131935e-06 0 0.024397964750942198 0.00011165792592936654 0 0.024597507381630773 0.00011063646778828477 0 0.024488489485655934 7.8189758763429819e-05 0 0.024397964750942198 0.00011165792592936654 0 0.024488489485655934 7.8189758763429819e-05 0 0.024303282519035855 9.6813935030601553e-05 0 0.024397964750942198 0.00011165792592936654 0 0.019995358727198674 0.0007227160743369269 0 0.019978944395045471 0.00079620890325995432 0 0.020190071185961559 0.0006343318739234511 0 0.022546992080459828 0.00047886349001144575 0 0.020949885930181825 0.00097565330190850291 0 0.019995358727198674 0.0007227160743369269 0 0.019978944395045471 0.00079620890325995432 0 0.01983120856699826 0.00081222376326177674 0 0.024397964750942198 0.00011165792592936654 0 0.024455205865977141 0.00045653779115362034 0 0.024633428669228782 0.00028041789644079088 0 0.023990974528642326 1.3559319608131935e-06 0 0.024397964750942198 0.00011165792592936654 0 0.024455205865977141 0.00045653779115362034 0 0.016092318648562396 0.00083087302736152839 0 0.020949885930181825 0.00097565330190850291 0 0.022446375624095599 0.00081390904392649409 0 0.020949885930181825 0.00097565330190850291 0 0.023990974528642326 1.3559319608131935e-06 0 0.024455205865977141 0.00045653779115362034 0 0.023558193043894362 0.0010426306259700203 0 0.021445487728535408 0.00073867300326146252 0 0.023990974528642326 1.3559319608131935e-06 0 0.023558193043894362 0.0010426306259700203 0 0.016092318648562396 0.00083087302736152839 0 0.014520609499980594 0.00094575079813869519 0 0.017240196333091411 0.0012192037969188561 0 0.01747714444840831 0.0012266904347136417 0 0.017530949849894336 0.0010309388630463598 0 0.011976986874405526 0.00050654138011540779 0 0.01197742711532862 0.00072258308065681939 0 0.011980280336852788 0.00070776776649103524 0 0.011976986874405526 0.00050654138011540779 0 0.012105875414500585 0.00066904446789658361 0 0.011980280336852788 0.00070776776649103524 0 0.011976986874405526 0.00050654138011540779 0 0.012105875414500585 0.00066904446789658361 0 0.012201721791804582 0.00029620514843401217 0 0.012105875414500585 0.00066904446789658361 0 0.012534997574250733 0.00042402641316237853 0 0.012539763816344295 0.00085781876873965602 0 0.012534997574250733 0.00042402641316237853 0 0.012201721791804582 0.00029620514843401217 0 0.013028665228785017 -1.3096152542871224e-05 0 0.012105875414500585 0.00066904446789658361 0 0.012534997574250733 0.00042402641316237853 0 0.012201721791804582 0.00029620514843401217 0 0.016555252800148631 0.00052057745120874239 0 0.016680781763548355 0.00034369408185280911 0 0.016242291446066506 0.00033928296999286245 0 0.018156939738616627 0.00091336919426377805 0 0.014569159524841252 0.00068365943128941291 0 0.0164398614737583 0.0007093073806212131 0 0.016555252800148631 0.00052057745120874239 0 0.016774121033074949 0.00057624334839572117 0 0.0164398614737583 0.0007093073806212131 0 0.016555252800148631 0.00052057745120874239 0 0.016242291446066506 0.00033928296999286245 0 0.01418381715568319 0.00025551167665904785 0 0.014569159524841252 0.00068365943128941291 0 0.022546992080459828 0.00047886349001144575 0 0.020748448437114729 0.0004680156826103058 0 0.017083553738122689 0.00035532613269918513 0 0.016774121033074949 0.00057624334839572117 0 0.016680781763548355 0.00034369408185280911 0 0.016555252800148631 0.00052057745120874239 0 0.016774121033074949 0.00057624334839572117 0 0.016680781763548355 0.00034369408185280911 0 0.016092318648562396 0.00083087302736152839 0 0.020748448437114729 0.0004680156826103058 0 0.016092318648562396 0.00083087302736152839 0 0.01418381715568319 0.00025551167665904785 0 0.014865079122521146 0.0016979647496360786 0 0.014741136177235903 0.0017086838154931016 0 0.01482138103830088 0.0017763147917746959 0 0.014865079122521146 0.0016979647496360786 0 0.0147604098886108 0.0016409038513044559 0 0.014741136177235903 0.0017086838154931016 0 0.014865079122521146 0.0016979647496360786 0 0.015057944725774224 0.0017844150987100888 0 0.015095614895417194 0.0016417514646843267 0 0.014865079122521146 0.0016979647496360786 0 0.014919571974258651 0.001796364784459751 0 0.015057944725774224 0.0017844150987100888 0 0.014865079122521146 0.0016979647496360786 0 0.015095614895417194 0.0016417514646843267 0 0.014905401098978061 0.0015299519601634003 0 0.014865079122521146 0.0016979647496360786 0 0.014751079511680889 0.0015493491084237992 0 0.0147604098886108 0.0016409038513044559 0 0.014865079122521146 0.0016979647496360786 0 0.014751079511680889 0.0015493491084237992 0 0.014905401098978061 0.0015299519601634003 0 0.014629552911034124 0.0015327682050492941 0 0.014704120470668132 0.0016082174412071616 0 0.014668738240091874 0.0016881020449600449 0 0.014751079511680889 0.0015493491084237992 0 0.0147604098886108 0.0016409038513044559 0 0.014704120470668132 0.0016082174412071616 0 0.014569159524841252 0.00068365943128941291 0 0.014717990851963811 0.0011598493272237927 0 0.014704120470668132 0.0016082174412071616 0 0.014668738240091874 0.0016881020449600449 0 0.014741136177235903 0.0017086838154931016 0 0.0147604098886108 0.0016409038513044559 0 0.014704120470668132 0.0016082174412071616 0 0.014741136177235903 0.0017086838154931016 0 0.014741136177235903 0.0017086838154931016 0 0.014727038790856784 0.0017796639158216749 0 0.01482138103830088 0.0017763147917746959 0 0.012534997574250733 0.00042402641316237853 0 0.013028665228785017 -1.3096152542871224e-05 0 0.013637494410241308 0.00060143726632709809 0 0.014699786384712553 0.0017048786778916009 0 0.014741136177235903 0.0017086838154931016 0 0.014727038790856784 0.0017796639158216749 0 0.012534997574250733 0.00042402641316237853 0 0.013637494410241308 0.00060143726632709809 0 0.012539763816344295 0.00085781876873965602 0 0.014569159524841252 0.00068365943128941291 0 0.014192061838590495 0.0012124834929411186 0 0.014727038790856784 0.0017796639158216749 0 0.01482138103830088 0.0017763147917746959 0 0.014827411841794447 0.0017944168362181057 0 0.014865079122521146 0.0016979647496360786 0 0.01482138103830088 0.0017763147917746959 0 0.014919571974258651 0.001796364784459751 0 0.01482138103830088 0.0017763147917746959 0 0.014919571974258651 0.001796364784459751 0 0.014827411841794447 0.0017944168362181057 0 0.014919571974258651 0.001796364784459751 0 0.014827411841794447 0.0017944168362181057 0 0.015011953069865488 0.001841314130879597 0 0.014827411841794447 0.0017944168362181057 0 0.015011953069865488 0.001841314130879597 0 0.015019918786076284 0.0018772259452257023 0 0.015011953069865488 0.001841314130879597 0 0.015219109757114303 0.0018966317393433563 0 0.015019918786076284 0.0018772259452257023 0 0.015011953069865488 0.001841314130879597 0 0.015219109757114303 0.0018966317393433563 0 0.015057944725774224 0.0017844150987100888 0 0.014919571974258651 0.001796364784459751 0 0.015011953069865488 0.001841314130879597 0 0.015057944725774224 0.0017844150987100888 0 0.015202080030077746 0.0019027077579087724 0 0.015219109757114303 0.0018966317393433563 0 0.015019918786076284 0.0018772259452257023 0 0.015202080030077746 0.0019027077579087724 0 0.015219109757114303 0.0018966317393433563 0 0.015534942225857393 0.0020291692800630421 0 0.015219109757114303 0.0018966317393433563 0 0.015534942225857393 0.0020291692800630421 0 0.01534090628609338 0.0018063835868142248 0 0.015534942225857393 0.0020291692800630421 0 0.015651851446599366 0.0017332278397964307 0 0.01534090628609338 0.0018063835868142248 0 0.015651851446599366 0.0017332278397964307 0 0.01534090628609338 0.0018063835868142248 0 0.015413753868725471 0.0015132557071637289 0 0.015534942225857393 0.0020291692800630421 0 0.015651851446599366 0.0017332278397964307 0 0.016086221568497917 0.0016990383618923214 0 0.015057944725774224 0.0017844150987100888 0 0.01534090628609338 0.0018063835868142248 0 0.015095614895417194 0.0016417514646843267 0 0.015219109757114303 0.0018966317393433563 0 0.015057944725774224 0.0017844150987100888 0 0.01534090628609338 0.0018063835868142248 0 0.01534090628609338 0.0018063835868142248 0 0.015095614895417194 0.0016417514646843267 0 0.015413753868725471 0.0015132557071637289 0 0.015113282014978512 0.0013774902690673076 0 0.015413753868725471 0.0015132557071637289 0 0.015476514985778246 0.00076594418583760123 0 0.015095614895417194 0.0016417514646843267 0 0.015113282014978512 0.0013774902690673076 0 0.015413753868725471 0.0015132557071637289 0 0.015413753868725471 0.0015132557071637289 0 0.015891099940194685 0.0014188907012792258 0 0.015476514985778246 0.00076594418583760123 0 0.015891099940194685 0.0014188907012792258 0 0.015476514985778246 0.00076594418583760123 0 0.016652526765664279 0.0010570834539494012 0 0.016086221568497917 0.0016990383618923214 0 0.015891099940194685 0.0014188907012792258 0 0.016464590938402992 0.0013856124090544275 0 0.015651851446599366 0.0017332278397964307 0 0.016086221568497917 0.0016990383618923214 0 0.015891099940194685 0.0014188907012792258 0 0.015651851446599366 0.0017332278397964307 0 0.015413753868725471 0.0015132557071637289 0 0.015891099940194685 0.0014188907012792258 0 0.015891099940194685 0.0014188907012792258 0 0.016652526765664279 0.0010570834539494012 0 0.016464590938402992 0.0013856124090544275 0 0.017167343670239608 0.0004541402504009341 0 0.017562255735835308 0.00057112019573225424 0 0.015476514985778246 0.00076594418583760123 0 0.01762943312503194 0.00058367457136146797 0 0.016652526765664279 0.0010570834539494012 0 0.018847377428798565 0.0001718460211217164 0 0.018449745554926435 0.00081172276196368113 0 0.01762943312503194 0.00058367457136146797 0 0.018847377428798565 0.0001718460211217164 0 0.019477675989852151 0.00024745388493018329 0 0.019181864321644364 0.00080038478501602529 0 0.018847377428798565 0.0001718460211217164 0 0.019477675989852151 0.00024745388493018329 0 0.019928626326449022 -0.00021681877203569573 0 0.019477675989852151 0.00024745388493018329 0 0.01994955067308881 0.00024775374338389792 0 0.019181864321644364 0.00080038478501602529 0 0.022462182343717739 0.00015779579530949512 0 0.022032708177449043 0.00045621699937376507 0 0.017167343670239608 0.0004541402504009341 0 0.017392092855125062 0.0008092982690818594 0 0.019477675989852151 0.00024745388493018329 0 0.01994955067308881 0.00024775374338389792 0 0.019928626326449022 -0.00021681877203569573 0 0.022462182343717739 0.00015779579530949512 0 0.017392092855125062 0.0008092982690818594 0 0.015113282014978512 0.0013774902690673076 0 0.015476514985778246 0.00076594418583760123 0 0.014656389010968291 0.0012630841317459037 0 0.015113282014978512 0.0013774902690673076 0 0.014656389010968291 0.0012630841317459037 0 0.014905401098978061 0.0015299519601634003 0 0.014751079511680889 0.0015493491084237992 0 0.014656389010968291 0.0012630841317459037 0 0.014905401098978061 0.0015299519601634003 0 0.015527666911239715 0.0015719964415895483 0 0.017392092855125062 0.0008092982690818594 0 0.015095614895417194 0.0016417514646843267 0 0.015113282014978512 0.0013774902690673076 0 0.014905401098978061 0.0015299519601634003 0 0.019816362064281091 0.00074387609691022104 0 0.01977676451086173 0.00065225762847031653 0 0.020281597799062915 0.00056711135450646555 0 0.014751079511680889 0.0015493491084237992 0 0.014704120470668132 0.0016082174412071616 0 0.014773792222384686 0.0014677911356442259 0 0.018156939738616627 0.00091336919426377805 0 0.017392092855125062 0.0008092982690818594 0 0.01977676451086173 0.00065225762847031653 0 0.02028922450693834 0.0002928732143474143 0 0.020281597799062915 0.00056711135450646555 0 0.014629552911034124 0.0015327682050492941 0 0.014704120470668132 0.0016082174412071616 0 0.014773792222384686 0.0014677911356442259 0 0.024839005356798807 5.2317430573552704e-05 0 0.024753191114298325 0.00014111973246033819 0 0.024909147323977938 0.00012791559822481049 0 0.022124561516527235 0.00061265729087189922 0 0.022462182343717739 0.00015779579530949512 0 0.024839005356798807 5.2317430573552704e-05 0 0.024918127441785967 2.7754415142653986e-05 0 0.024880634181621654 -2.5894431127092959e-06 0 0.024839005356798807 5.2317430573552704e-05 0 0.024909147323977938 0.00012791559822481049 0 0.024918127441785967 2.7754415142653986e-05 0 0.024881132996143102 8.4780205749161521e-05 0 0.024932765554302991 5.9125582603874331e-05 0 0.024923708313158384 0.00010264605234853402 0 0.022462182343717739 0.00015779579530949512 0 0.025021536761836518 6.0396149535591208e-05 0 0.024852684759555287 0.00014952230558240465 0 0.024881132996143102 8.4780205749161521e-05 0 0.024923708313158384 0.00010264605234853402 0 0.024932765554302991 5.9125582603874331e-05 0 0.024923121761344064 3.4470945450249313e-05 0 0.024963709081776135 2.8175203482329443e-05 0 0.024881132996143102 8.4780205749161521e-05 0 0.024932765554302991 5.9125582603874331e-05 0 0.024923121761344064 3.4470945450249313e-05 0 0.025021536761836518 6.0396149535591208e-05 0 0.024923643274984704 1.1407258474967954e-05 0 0.024918127441785967 2.7754415142653986e-05 0 0.024880634181621654 -2.5894431127092959e-06 0 0.024930018424517027 -1.5134411936124837e-05 0 0.024923643274984704 1.1407258474967954e-05 0 0.024960781127222484 -2.7096265769173207e-06 0 0.024930605233555767 -2.1070596132603628e-05 0 0.024930018424517027 -1.5134411936124837e-05 0 0.024972873448184992 -3.9591862522644816e-06 0 0.024930605233555767 -2.1070596132603628e-05 0 0.024880634181621654 -2.5894431127092959e-06 0 0.024930018424517027 -1.5134411936124837e-05 0 0.024923121761344064 3.4470945450249313e-05 0 0.024972495808210034 8.6305546880251755e-06 0 0.024963709081776135 2.8175203482329443e-05 0 0.024923121761344064 3.4470945450249313e-05 0 0.024972495808210034 8.6305546880251755e-06 0 0.024972873448184992 -3.9591862522644816e-06 0 0.024972495808210034 8.6305546880251755e-06 0 0.024972873448184992 -3.9591862522644816e-06 0 0.024999942903684739 1.4523536002848785e-09 0 0.024999908240881615 -8.9395353073864731e-09 0 0.024972873448184992 -3.9591862522644816e-06 0 0.024999942903684739 1.4523536002848785e-09 0 0.024930605233555767 -2.1070596132603628e-05 0 0.024999908240881615 -8.9395353073864731e-09 0 0.024972873448184992 -3.9591862522644816e-06 0 0.024999976456672734 1.2489582789024302e-08 0 0.02498397223198395 9.4844695273333317e-06 0 0.024981647179876786 2.0434036984884157e-05 0 0.024999976456672734 1.2489582789024302e-08 0 0.024999942903684739 1.4523536002848785e-09 0 0.02498397223198395 9.4844695273333317e-06 0 0.024972495808210034 8.6305546880251755e-06 0 0.024999942903684739 1.4523536002848785e-09 0 0.02498397223198395 9.4844695273333317e-06 0 0.02498397223198395 9.4844695273333317e-06 0 0.024963709081776135 2.8175203482329443e-05 0 0.024981647179876786 2.0434036984884157e-05 0 0.024972495808210034 8.6305546880251755e-06 0 0.02498397223198395 9.4844695273333317e-06 0 0.024963709081776135 2.8175203482329443e-05 0 0.024963709081776135 2.8175203482329443e-05 0 0.024981647179876786 2.0434036984884157e-05 0 0.024960847679970959 6.1139578108993753e-05 0 0.024932765554302991 5.9125582603874331e-05 0 0.024960847679970959 6.1139578108993753e-05 0 0.024923708313158384 0.00010264605234853402 0 0.024932765554302991 5.9125582603874331e-05 0 0.024963709081776135 2.8175203482329443e-05 0 0.024960847679970959 6.1139578108993753e-05 0 0.018847377428798565 0.0001718460211217164 0 0.019181864321644364 0.00080038478501602529 0 0.018449745554926435 0.00081172276196368113 0 0.021658814881385869 0.00066159228101406154 0 0.022032708177449043 0.00045621699937376507 0 0.018300077709607478 0.0012856727811343504 0 0.019181864321644364 0.00080038478501602529 0 0.018449745554926435 0.00081172276196368113 0 0.018300077709607478 0.0012856727811343504 0 0.018449745554926435 0.00081172276196368113 0 0.01823089374454483 0.0010627289524836423 0 0.018449745554926435 0.00081172276196368113 0 0.01762943312503194 0.00058367457136146797 0 0.01823089374454483 0.0010627289524836423 0 0.01762943312503194 0.00058367457136146797 0 0.018036439955489696 0.00089491058507030336 0 0.01823089374454483 0.0010627289524836423 0 0.017759708077226367 0.00077470743220598045 0 0.017777467426957367 0.00083253026638458556 0 0.017764826036822414 0.00085276051098360703 0 0.017759708077226367 0.00077470743220598045 0 0.017764826036822414 0.00085276051098360703 0 0.017662729384675151 0.00079956886494347824 0 0.01762943312503194 0.00058367457136146797 0 0.018036439955489696 0.00089491058507030336 0 0.017759708077226367 0.00077470743220598045 0 0.01762943312503194 0.00058367457136146797 0 0.017759708077226367 0.00077470743220598045 0 0.017662729384675151 0.00079956886494347824 0 0.018036439955489696 0.00089491058507030336 0 0.017759708077226367 0.00077470743220598045 0 0.017680246392857316 0.0009207633408895359 0 0.017759708077226367 0.00077470743220598045 0 0.017680246392857316 0.0009207633408895359 0 0.017777467426957367 0.00083253026638458556 0 0.020831329910362413 0.0022003139893009191 0 0.019741769971880402 0.0015751883088550274 0 0.021954578019399724 0.00068106687937876851 0 0.019996311107431688 0.0015793803865566676 0 0.022759403985991158 0.00079389884710802838 0 0.020831329910362413 0.0022003139893009191 0 0.019741769971880402 0.0015751883088550274 0 0.018750001916456822 0.0012261751503315366 0 0.018036439955489696 0.00089491058507030336 0 0.017680246392857316 0.0009207633408895359 0 0.018750001916456822 0.0012261751503315366 0 0.01923667499537705 0.0014925197202625136 0 0.018790997123263594 0.0012821744543338657 0 0.021658814881385869 0.00066159228101406154 0 0.022087548350402171 0.00046917768012227071 0 0.018300077709607478 0.0012856727811343504 0 0.018750001916456822 0.0012261751503315366 0 0.019120311761898687 0.00083408309601026452 0 0.018300077709607478 0.0012856727811343504 0 0.01823089374454483 0.0010627289524836423 0 0.018750001916456822 0.0012261751503315366 0 0.018036439955489696 0.00089491058507030336 0 0.01823089374454483 0.0010627289524836423 0 0.018750001916456822 0.0012261751503315366 0 0.019741769971880402 0.0015751883088550274 0 0.018750001916456822 0.0012261751503315366 0 0.019120311761898687 0.00083408309601026452 0 0.024981647179876786 2.0434036984884157e-05 0 0.024960847679970959 6.1139578108993753e-05 0 0.024980769210421347 3.148626582465881e-05 0 0.024981647179876786 2.0434036984884157e-05 0 0.024980769210421347 3.148626582465881e-05 0 0.024991639826970204 1.1086828398252964e-05 0 0.019120311761898687 0.00083408309601026452 0 0.021298693816413077 0.00081637069899141333 0 0.022545861235174595 -0.000174516752496632 0 0.019741769971880402 0.0015751883088550274 0 0.021298693816413077 0.00081637069899141333 0 0.023718584411077857 0.00096774335699896877 0 0.022087548350402171 0.00046917768012227071 0 0.023679410974487371 7.0163324614970332e-07 0 0.024980769210421347 3.148626582465881e-05 0 0.024991639826970204 1.1086828398252964e-05 0 0.024995994318444674 8.4846807219548265e-06 0 0.019741769971880402 0.0015751883088550274 0 0.019120311761898687 0.00083408309601026452 0 0.021298693816413077 0.00081637069899141333 0 0.024999987673977604 1.0843556586988302e-08 0 0.024991639826970204 1.1086828398252964e-05 0 0.024995994318444674 8.4846807219548265e-06 0 0.024999976456672734 1.2489582789024302e-08 0 0.024981647179876786 2.0434036984884157e-05 0 0.024991639826970204 1.1086828398252964e-05 0 0.024999976456672734 1.2489582789024302e-08 0 0.024999987673977604 1.0843556586988302e-08 0 0.024991639826970204 1.1086828398252964e-05 0 0.025095296597869011 0.00023833251133231054 0 0.024997439231692717 -1.9310358222441991e-06 0 0.023718584411077857 0.00096774335699896877 0 0.024997439231692717 -1.9310358222441991e-06 0 0.022545861235174595 -0.000174516752496632 0 0.023718584411077857 0.00096774335699896877 0 0.024999987673977604 1.0843556586988302e-08 0 0.02500000282322121 -1.6150685558963424e-09 0 0.024995994318444674 8.4846807219548265e-06 0 0.024999472067683999 -2.8888569847517576e-08 0 0.023679410974487371 7.0163324614970332e-07 0 0.021298693816413077 0.00081637069899141333 0 0.022545861235174595 -0.000174516752496632 0 0.023718584411077857 0.00096774335699896877 0 0.024246789117953183 0.00023815195769752605 0 0.022759403985991158 0.00079389884710802838 0 0.023271874535571311 0.00099034191956411436 0 0.021954578019399724 0.00068106687937876851 0 0.022549448100949668 0.0014045262051846791 0 0.023271874535571311 0.00099034191956411436 0 0.023431851374718541 0.00019802870162193278 0 0.021954578019399724 0.00068106687937876851 0 0.023271874535571311 0.00099034191956411436 0 0.023177616150392676 0.0014665285027430541 0 0.022549448100949668 0.0014045262051846791 0 0.022549448100949668 0.0014045262051846791 0 0.021945699687670555 0.0016696897113990835 0 0.022368467792962601 0.0023039176901445539 0 0.023238816474583802 0.0018967019417490362 0 0.023177616150392676 0.0014665285027430541 0 0.022368467792962601 0.0023039176901445539 0 0.023177616150392676 0.0014665285027430541 0 0.022549448100949668 0.0014045262051846791 0 0.022368467792962601 0.0023039176901445539 0 0.021954578019399724 0.00068106687937876851 0 0.022549448100949668 0.0014045262051846791 0 0.021945699687670555 0.0016696897113990835 0 0.020831329910362413 0.0022003139893009191 0 0.021945699687670555 0.0016696897113990835 0 0.022368467792962601 0.0023039176901445539 0 0.020831329910362413 0.0022003139893009191 0 0.021954578019399724 0.00068106687937876851 0 0.021945699687670555 0.0016696897113990835 0 0.017680246392857316 0.0009207633408895359 0 0.017777467426957367 0.00083253026638458556 0 0.01793136371909957 0.00077976694901309791 0 0.01923667499537705 0.0014925197202625136 0 0.020289654763218576 0.0016008822834445012 0 0.017777467426957367 0.00083253026638458556 0 0.01793136371909957 0.00077976694901309791 0 0.017873269247540177 0.0008856671274090381 0 0.017777467426957367 0.00083253026638458556 0 0.017873269247540177 0.0008856671274090381 0 0.017764826036822414 0.00085276051098360703 0 0.018195413072273837 0.00087095723375480306 0 0.01793136371909957 0.00077976694901309791 0 0.01798643560334217 0.00088064492597742818 0 0.019935508996788236 0.001598169444757432 0 0.020289654763218576 0.0016008822834445012 0 0.023352578104852889 0.0021324044963316148 0 0.023238816474583802 0.0018967019417490362 0 0.022368467792962601 0.0023039176901445539 0 0.01793136371909957 0.00077976694901309791 0 0.01798643560334217 0.00088064492597742818 0 0.017873269247540177 0.0008856671274090381 0 0.018195413072273837 0.00087095723375480306 0 0.01798643560334217 0.00088064492597742818 0 0.017954670691311729 0.00098580250450920484 0 0.019935508996788236 0.001598169444757432 0 0.016013264308317302 0.0012570080960851223 0 0.016556140596156295 0.00054487707259930833 0 0.014909625110125651 0.0014870563902631463 0 0.015601496058007397 0.0019488674578244524 0 0.01798643560334217 0.00088064492597742818 0 0.017954670691311729 0.00098580250450920484 0 0.017873269247540177 0.0008856671274090381 0 0.014909625110125651 0.0014870563902631463 0 0.015601496058007397 0.0019488674578244524 0 0.013684596031010096 0.0024788673535575865 0 0.013894696378798522 0.0024631763723492548 0 0.01379729781100595 0.0023664412655545523 0 0.013729213382717211 0.0024577282826958287 0 0.01379729781100595 0.0023664412655545523 0 0.013729213382717211 0.0024577282826958287 0 0.013684596031010096 0.0024788673535575865 0 0.014613422623588775 0.0020839951052553686 0 0.013775268666571335 0.0024784531429367157 0 0.014909625110125651 0.0014870563902631463 0 0.013684596031010096 0.0024788673535575865 0 0.013503775274780283 0.0023516412097502265 0 0.016013264308317302 0.0012570080960851223 0 0.015693972907609259 0.0017993632401794245 0 0.013684596031010096 0.0024788673535575865 0 0.0135993038522402 0.0025139875038304926 0 0.013676698603439123 0.0024866002775922238 0 0.013729213382717211 0.0024577282826958287 0 0.013684596031010096 0.0024788673535575865 0 0.013676698603439123 0.0024866002775922238 0 0.017848593061997889 0.0010215466409000901 0 0.017784971313252546 0.0012594682709146422 0 0.01776512662118104 0.0011010494267543844 0 0.017848593061997889 0.0010215466409000901 0 0.017707681016392425 0.00099066581991163333 0 0.01776512662118104 0.0011010494267543844 0 0.017848593061997889 0.0010215466409000901 0 0.017764826036822414 0.00085276051098360703 0 0.017707681016392425 0.00099066581991163333 0 0.017954670691311729 0.00098580250450920484 0 0.017848593061997889 0.0010215466409000901 0 0.017784971313252546 0.0012594682709146422 0 0.017954670691311729 0.00098580250450920484 0 0.017848593061997889 0.0010215466409000901 0 0.017873269247540177 0.0008856671274090381 0 0.017848593061997889 0.0010215466409000901 0 0.017873269247540177 0.0008856671274090381 0 0.017764826036822414 0.00085276051098360703 0 0.017764826036822414 0.00085276051098360703 0 0.017662729384675151 0.00079956886494347824 0 0.017707681016392425 0.00099066581991163333 0 0.01762943312503194 0.00058367457136146797 0 0.017662729384675151 0.00079956886494347824 0 0.017404941767474261 0.00099575134509574214 0 0.017662729384675151 0.00079956886494347824 0 0.017707681016392425 0.00099066581991163333 0 0.017404941767474261 0.00099575134509574214 0 0.017707681016392425 0.00099066581991163333 0 0.017404941767474261 0.00099575134509574214 0 0.017577263280349701 0.0011322949304287231 0 0.017707681016392425 0.00099066581991163333 0 0.017707551168065199 0.0011192774241264691 0 0.017577263280349701 0.0011322949304287231 0 0.017707681016392425 0.00099066581991163333 0 0.017707551168065199 0.0011192774241264691 0 0.01776512662118104 0.0011010494267543844 0 0.01762943312503194 0.00058367457136146797 0 0.017404941767474261 0.00099575134509574214 0 0.016652526765664279 0.0010570834539494012 0 0.016652526765664279 0.0010570834539494012 0 0.016945898487336304 0.0012580225021860598 0 0.016464590938402992 0.0013856124090544275 0 0.017404941767474261 0.00099575134509574214 0 0.016652526765664279 0.0010570834539494012 0 0.016945898487336304 0.0012580225021860598 0 0.017404941767474261 0.00099575134509574214 0 0.016945898487336304 0.0012580225021860598 0 0.017255602204818143 0.0013460409614379405 0 0.016775413500559638 0.0015573704607654624 0 0.017255602204818143 0.0013460409614379405 0 0.016879379856984931 0.001918357974308556 0 0.016945898487336304 0.0012580225021860598 0 0.016775413500559638 0.0015573704607654624 0 0.017255602204818143 0.0013460409614379405 0 0.016086221568497917 0.0016990383618923214 0 0.016775413500559638 0.0015573704607654624 0 0.016464590938402992 0.0013856124090544275 0 0.016945898487336304 0.0012580225021860598 0 0.016775413500559638 0.0015573704607654624 0 0.016464590938402992 0.0013856124090544275 0 0.015693972907609259 0.0017993632401794245 0 0.015439162381268504 0.0022064655729258946 0 0.017784971313252546 0.0012594682709146422 0 0.017255602204818143 0.0013460409614379405 0 0.016879379856984931 0.001918357974308556 0 0.013503775274780283 0.0023516412097502265 0 0.013552205803926624 0.002523582887308657 0 0.013572237551261941 0.0025778103563268602 0 0.017784971313252546 0.0012594682709146422 0 0.017707551168065199 0.0011192774241264691 0 0.01776512662118104 0.0011010494267543844 0 0.017784971313252546 0.0012594682709146422 0 0.017707551168065199 0.0011192774241264691 0 0.017577263280349701 0.0011322949304287231 0 0.017404941767474261 0.00099575134509574214 0 0.017255602204818143 0.0013460409614379405 0 0.017577263280349701 0.0011322949304287231 0 0.017784971313252546 0.0012594682709146422 0 0.017255602204818143 0.0013460409614379405 0 0.017577263280349701 0.0011322949304287231 0 0.013684596031010096 0.0024788673535575865 0 0.013503775274780283 0.0023516412097502265 0 0.013558084527341292 0.0024900266139095788 0 0.013684596031010096 0.0024788673535575865 0 0.0135993038522402 0.0025139875038304926 0 0.013558084527341292 0.0024900266139095788 0 0.013503775274780283 0.0023516412097502265 0 0.013558084527341292 0.0024900266139095788 0 0.013552205803926624 0.002523582887308657 0 0.0135993038522402 0.0025139875038304926 0 0.013558084527341292 0.0024900266139095788 0 0.013555189889256809 0.0025279822348106508 0 0.013552205803926624 0.002523582887308657 0 0.013555189889256809 0.0025279822348106508 0 0.013565650905671203 0.0025398946384222599 0 0.013558084527341292 0.0024900266139095788 0 0.013552205803926624 0.002523582887308657 0 0.013555189889256809 0.0025279822348106508 0 0.013555189889256809 0.0025279822348106508 0 0.013565650905671203 0.0025398946384222599 0 0.013542962936750292 0.0025376477364858381 0 0.0135993038522402 0.0025139875038304926 0 0.013555189889256809 0.0025279822348106508 0 0.013542962936750292 0.0025376477364858381 0 0.015202080030077746 0.0019027077579087724 0 0.015534942225857393 0.0020291692800630421 0 0.015265082411952289 0.0021191404024407151 0 0.015534942225857393 0.0020291692800630421 0 0.016086221568497917 0.0016990383618923214 0 0.016705058948770543 0.0019260479068301483 0 0.016086221568497917 0.0016990383618923214 0 0.016775413500559638 0.0015573704607654624 0 0.016705058948770543 0.0019260479068301483 0 0.015809950965150196 0.0019603424552063018 0 0.015439162381268504 0.0022064655729258946 0 0.015933764903581456 0.0018094618662225117 0 0.015439162381268504 0.0022064655729258946 0 0.013552205803926624 0.002523582887308657 0 0.013565650905671203 0.0025398946384222599 0 0.013572237551261941 0.0025778103563268602 0 0.015439162381268504 0.0022064655729258946 0 0.014194465546086412 0.0021446493983830407 0 0.013565650905671203 0.0025398946384222599 0 0.013572237551261941 0.0025778103563268602 0 0.013717539755173652 0.0024148177109173364 0 0.015202080030077746 0.0019027077579087724 0 0.015265082411952289 0.0021191404024407151 0 0.014968728107663885 0.0018841330939746391 0 0.013557437261630289 0.0025166460764800597 0 0.013421842856899737 0.0025085691860486626 0 0.013717539755173652 0.0024148177109173364 0 0.013565650905671203 0.0025398946384222599 0 0.013557437261630289 0.0025166460764800597 0 0.013717539755173652 0.0024148177109173364 0 0.013542962936750292 0.0025376477364858381 0 0.013557437261630289 0.0025166460764800597 0 0.013421842856899737 0.0025085691860486626 0 0.013565650905671203 0.0025398946384222599 0 0.013542962936750292 0.0025376477364858381 0 0.013557437261630289 0.0025166460764800597 0 0.013542962936750292 0.0025376477364858381 0 0.013421842856899737 0.0025085691860486626 0 0.013698266004233503 0.0025547561748810337 0 0.013394051520233468 0.002533173796954316 0 0.013337887673027904 0.0026246019496272304 0 0.013421842856899737 0.0025085691860486626 0 0.01277449032125409 0.0028427375717596966 0 0.012977610417805523 0.0023909425799028329 0 0.012532052073647418 0.0027807251794835256 0 0.01277449032125409 0.0028427375717596966 0 0.012539936752179395 0.0025000793214940264 0 0.01277449032125409 0.0028427375717596966 0 0.012539936752179395 0.0025000793214940264 0 0.012977610417805523 0.0023909425799028329 0 0.013894696378798522 0.0024631763723492548 0 0.013729213382717211 0.0024577282826958287 0 0.013698266004233503 0.0025547561748810337 0 0.012753470461109813 0.0027530713333227107 0 0.013337887673027904 0.0026246019496272304 0 0.01250218936842872 0.0028054212284844889 0 0.012532052073647418 0.0027807251794835256 0 0.01277449032125409 0.0028427375717596966 0 0.013542962936750292 0.0025376477364858381 0 0.013698266004233503 0.0025547561748810337 0 0.013627553664909626 0.0025218159795952644 0 0.013729213382717211 0.0024577282826958287 0 0.013698266004233503 0.0025547561748810337 0 0.013676698603439123 0.0024866002775922238 0 0.013698266004233503 0.0025547561748810337 0 0.013676698603439123 0.0024866002775922238 0 0.013627553664909626 0.0025218159795952644 0 0.0135993038522402 0.0025139875038304926 0 0.013676698603439123 0.0024866002775922238 0 0.013627553664909626 0.0025218159795952644 0 0.0135993038522402 0.0025139875038304926 0 0.013542962936750292 0.0025376477364858381 0 0.013627553664909626 0.0025218159795952644 0 0.013213549614926526 0.0018274310239357863 0 0.012728500177997657 0.0017360363215020559 0 0.01294760402148535 0.0013825335019559547 0 0.012004929124641718 0.0016671976565029506 0 0.012728500177997657 0.0017360363215020559 0 0.01294760402148535 0.0013825335019559547 0 0.013213549614926526 0.0018274310239357863 0 0.012728500177997657 0.0017360363215020559 0 0.012619934553903879 0.0020901286326818905 0 0.012004929124641718 0.0016671976565029506 0 0.012728500177997657 0.0017360363215020559 0 0.012619934553903879 0.0020901286326818905 0 0.012619934553903879 0.0020901286326818905 0 0.012539936752179395 0.0025000793214940264 0 0.012977610417805523 0.0023909425799028329 0 0.011663352827606832 0.001739520322106576 0 0.012619934553903879 0.0020901286326818905 0 0.012539936752179395 0.0025000793214940264 0 0.013421842856899737 0.0025085691860486626 0 0.012977610417805523 0.0023909425799028329 0 0.013450594964568598 0.0021837083067481307 0 0.013213549614926526 0.0018274310239357863 0 0.012619934553903879 0.0020901286326818905 0 0.012977610417805523 0.0023909425799028329 0 0.013213549614926526 0.0018274310239357863 0 0.012977610417805523 0.0023909425799028329 0 0.013450594964568598 0.0021837083067481307 0 0.013421842856899737 0.0025085691860486626 0 0.013450594964568598 0.0021837083067481307 0 0.013717539755173652 0.0024148177109173364 0 0.013450594964568598 0.0021837083067481307 0 0.013717539755173652 0.0024148177109173364 0 0.013759579102761254 0.0017563622653594538 0 0.015202080030077746 0.0019027077579087724 0 0.014968728107663885 0.0018841330939746391 0 0.014932660389993149 0.0018879927803106193 0 0.014968728107663885 0.0018841330939746391 0 0.014932660389993149 0.0018879927803106193 0 0.014545495743080502 0.0018749491706178494 0 0.014194465546086412 0.0021446493983830407 0 0.014164433246072951 0.0017756656089589588 0 0.014932660389993149 0.0018879927803106193 0 0.014545495743080502 0.0018749491706178494 0 0.014852218175822312 0.0018759907147186236 0 0.013213549614926526 0.0018274310239357863 0 0.013450594964568598 0.0021837083067481307 0 0.013759579102761254 0.0017563622653594538 0 0.014164433246072951 0.0017756656089589588 0 0.013955400580930612 0.0012977036059990173 0 0.013213549614926526 0.0018274310239357863 0 0.013759579102761254 0.0017563622653594538 0 0.013485184029689474 0.001499415584828972 0 0.013759579102761254 0.0017563622653594538 0 0.013485184029689474 0.001499415584828972 0 0.01393849863150017 0.0013080692309420329 0 0.014545495743080502 0.0018749491706178494 0 0.014419073850625453 0.0014915303785391157 0 0.014709821654403741 0.0017470807069791515 0 0.014545495743080502 0.0018749491706178494 0 0.014419073850625453 0.0014915303785391157 0 0.01393849863150017 0.0013080692309420329 0 0.014419073850625453 0.0014915303785391157 0 0.01393849863150017 0.0013080692309420329 0 0.014010755511746006 0.00087976996811550711 0 0.013485184029689474 0.001499415584828972 0 0.01393849863150017 0.0013080692309420329 0 0.013507139570028101 0.0012272049155253402 0 0.011918163082837059 0.00072439708378984377 0 0.011883454400453597 0.0010303188649447212 0 0.011727218709702114 0.00075001610455989649 0 0.011918163082837059 0.00072439708378984377 0 0.011727218709702114 0.00075001610455989649 0 0.01166960063682135 0.00051742143674920202 0 0.01284236234224983 0.00095579904674631246 0 0.012358485658797975 0.0012699801299262186 0 0.013213549614926526 0.0018274310239357863 0 0.013485184029689474 0.001499415584828972 0 0.01294760402148535 0.0013825335019559547 0 0.013485184029689474 0.001499415584828972 0 0.013507139570028101 0.0012272049155253402 0 0.01294760402148535 0.0013825335019559547 0 0.012004929124641718 0.0016671976565029506 0 0.011646096097001991 0.0012365654101615673 0 0.011883454400453597 0.0010303188649447212 0 0.012001169542130954 0.0016672416229384392 0 0.012358485658797975 0.0012699801299262186 0 0.011623924477790457 0.00088644496067292479 0 0.011646096097001991 0.0012365654101615673 0 0.011883454400453597 0.0010303188649447212 0 0.011623924477790457 0.00088644496067292479 0 0.011883454400453597 0.0010303188649447212 0 0.011727218709702114 0.00075001610455989649 0 0.011727218709702114 0.00075001610455989649 0 0.011521270713315447 0.00059644453207837117 0 0.01166960063682135 0.00051742143674920202 0 0.011623924477790457 0.00088644496067292479 0 0.011727218709702114 0.00075001610455989649 0 0.011521270713315447 0.00059644453207837117 0 0.011434913407717151 0.00037602697995133921 0 0.01166960063682135 0.00051742143674920202 0 0.011391661756413485 0.00015558393982942771 0 0.011353528165159167 0.00046719162919713227 0 0.011521270713315447 0.00059644453207837117 0 0.011434913407717151 0.00037602697995133921 0 0.011521270713315447 0.00059644453207837117 0 0.011434913407717151 0.00037602697995133921 0 0.01166960063682135 0.00051742143674920202 0 0.01166960063682135 0.00051742143674920202 0 0.011898447864849736 0.00028425692042131911 0 0.011391661756413485 0.00015558393982942771 0 0.011918163082837059 0.00072439708378984377 0 0.011920334634113983 0.00048427775005159166 0 0.01166960063682135 0.00051742143674920202 0 0.011920334634113983 0.00048427775005159166 0 0.01166960063682135 0.00051742143674920202 0 0.011898447864849736 0.00028425692042131911 0 0.011391661756413485 0.00015558393982942771 0 0.011057555526231996 0.0001154539192995916 0 0.011068040816593972 0.00019874706983588392 0 0.011022445845440119 -7.1869837664208613e-05 0 0.011391661756413485 0.00015558393982942771 0 0.011057555526231996 0.0001154539192995916 0 0.011367597761538034 8.6622904321889072e-05 0 0.011432453417587819 0.00014407154912244918 0 0.011308544955878465 0.00031538608918127458 0 0.011434913407717151 0.00037602697995133921 0 0.011391661756413485 0.00015558393982942771 0 0.011308544955878465 0.00031538608918127458 0 0.011268457548752499 0.00025006073798224636 0 0.011391661756413485 0.00015558393982942771 0 0.011268457548752499 0.00025006073798224636 0 0.011391661756413485 0.00015558393982942771 0 0.011184980416512691 0.0002210703671227326 0 0.011217991095570583 0.00026258347387022262 0 0.011268457548752499 0.00025006073798224636 0 0.011184980416512691 0.0002210703671227326 0 0.011391661756413485 0.00015558393982942771 0 0.011184980416512691 0.0002210703671227326 0 0.011068040816593972 0.00019874706983588392 0 0.011057555526231996 0.0001154539192995916 0 0.011068040816593972 0.00019874706983588392 0 0.010898477169430194 0.00015186201433492336 0 0.011068040816593972 0.00019874706983588392 0 0.010949472964648529 0.00021392118231847396 0 0.010831296460799776 0.00019833863951893447 0 0.011184980416512691 0.0002210703671227326 0 0.011068040816593972 0.00019874706983588392 0 0.011025485923767186 0.00022657472261167832 0 0.011068040816593972 0.00019874706983588392 0 0.011025485923767186 0.00022657472261167832 0 0.010949472964648529 0.00021392118231847396 0 0.010898839867615195 0.00023044634924454375 0 0.010823167774741323 0.00021841022796404276 0 0.010797134434927629 0.0002323781063022161 0 0.010949472964648529 0.00021392118231847396 0 0.010898839867615195 0.00023044634924454375 0 0.010823167774741323 0.00021841022796404276 0 0.011025485923767186 0.00022657472261167832 0 0.010949472964648529 0.00021392118231847396 0 0.010898839867615195 0.00023044634924454375 0 0.011025485923767186 0.00022657472261167832 0 0.010898839867615195 0.00023044634924454375 0 0.010952444522581003 0.00024511959203683744 0 0.011025485923767186 0.00022657472261167832 0 0.011096580378437283 0.00024762938428864981 0 0.010952444522581003 0.00024511959203683744 0 0.011184980416512691 0.0002210703671227326 0 0.011025485923767186 0.00022657472261167832 0 0.011096580378437283 0.00024762938428864981 0 0.011217991095570583 0.00026258347387022262 0 0.011184980416512691 0.0002210703671227326 0 0.011096580378437283 0.00024762938428864981 0 0.010646494628572138 0.00019340084717972322 0 0.010731032068324133 0.00020707670803959819 0 0.010724104336980091 0.00018661982335871897 0 0.010646494628572138 0.00019340084717972322 0 0.010724104336980091 0.00018661982335871897 0 0.010639244293293536 0.00018391844260410241 0 0.010646494628572138 0.00019340084717972322 0 0.010639244293293536 0.00018391844260410241 0 0.010611619299957038 0.00017579813729317904 0 0.010646494628572138 0.00019340084717972322 0 0.010611619299957038 0.00017579813729317904 0 0.010570567625305109 0.00017796769801271616 0 0.010646494628572138 0.00019340084717972322 0 0.010731032068324133 0.00020707670803959819 0 0.010617527667868734 0.00020867754666949111 0 0.010731032068324133 0.00020707670803959819 0 0.010823167774741323 0.00021841022796404276 0 0.010730481505084714 0.00022026412184619878 0 0.010731032068324133 0.00020707670803959819 0 0.010823167774741323 0.00021841022796404276 0 0.010831296460799776 0.00019833863951893447 0 0.010949472964648529 0.00021392118231847396 0 0.010823167774741323 0.00021841022796404276 0 0.010831296460799776 0.00019833863951893447 0 0.010731032068324133 0.00020707670803959819 0 0.010831296460799776 0.00019833863951893447 0 0.010724104336980091 0.00018661982335871897 0 0.010831296460799776 0.00019833863951893447 0 0.010898477169430194 0.00015186201433492336 0 0.010724104336980091 0.00018661982335871897 0 0.011068040816593972 0.00019874706983588392 0 0.010831296460799776 0.00019833863951893447 0 0.010898477169430194 0.00015186201433492336 0 0.010898477169430194 0.00015186201433492336 0 0.01072088868532761 0.00013765859610934364 0 0.010862398768099489 3.5577766570397405e-05 0 0.010898477169430194 0.00015186201433492336 0 0.01072088868532761 0.00013765859610934364 0 0.010724104336980091 0.00018661982335871897 0 0.01072088868532761 0.00013765859610934364 0 0.010724104336980091 0.00018661982335871897 0 0.010639244293293536 0.00018391844260410241 0 0.01072088868532761 0.00013765859610934364 0 0.010639244293293536 0.00018391844260410241 0 0.010624823694386127 0.0001926347915742168 0 0.010544397296783692 0.00029862245180562754 0 0.010650146282887983 0.00015516197968192143 0 0.01072088868532761 0.00013765859610934364 0 0.010682644529650002 3.4614090246274359e-05 0 0.010624823694386127 0.0001926347915742168 0 0.01072088868532761 0.00013765859610934364 0 0.010682644529650002 3.4614090246274359e-05 0 0.010862398768099489 3.5577766570397405e-05 0 0.010682644529650002 3.4614090246274359e-05 0 0.010862398768099489 3.5577766570397405e-05 0 0.010810805362232188 -0.00013066485926959407 0 0.010544397296783692 0.00029862245180562754 0 0.012036041707746884 0.00037517457162343336 0 0.011057555526231996 0.0001154539192995916 0 0.010898477169430194 0.00015186201433492336 0 0.010862398768099489 3.5577766570397405e-05 0 0.011022445845440119 -7.1869837664208613e-05 0 0.011057555526231996 0.0001154539192995916 0 0.010862398768099489 3.5577766570397405e-05 0 0.011022445845440119 -7.1869837664208613e-05 0 0.010862398768099489 3.5577766570397405e-05 0 0.010810805362232188 -0.00013066485926959407 0 0.01284236234224983 0.00095579904674631246 0 0.012036041707746884 0.00037517457162343336 0 0.011918163082837059 0.00072439708378984377 0 0.011920334634113983 0.00048427775005159166 0 0.012187829313009987 0.00040675358867905942 0 0.01393849863150017 0.0013080692309420329 0 0.013507139570028101 0.0012272049155253402 0 0.014010755511746006 0.00087976996811550711 0 0.011920334634113983 0.00048427775005159166 0 0.011898447864849736 0.00028425692042131911 0 0.012187829313009987 0.00040675358867905942 0 0.011367597761538034 8.6622904321889072e-05 0 0.012036041707746884 0.00037517457162343336 0 0.010518043166579871 0.00033265930874873097 0 0.010425631208277907 0.00045205198820117332 0 0.010617243910822881 0.00054464274638501848 0 0.014419073850625453 0.0014915303785391157 0 0.014010755511746006 0.00087976996811550711 0 0.014571528995297688 0.0012757499784394903 0 0.012036041707746884 0.00037517457162343336 0 0.012596276187715074 0.0009384562191915777 0 0.010518043166579871 0.00033265930874873097 0 0.010617243910822881 0.00054464274638501848 0 0.010703664528307569 0.00036429116178384266 0 0.010617243910822881 0.00054464274638501848 0 0.010798527878200469 0.00048463251887896912 0 0.010703664528307569 0.00036429116178384266 0 0.010617243910822881 0.00054464274638501848 0 0.010798527878200469 0.00048463251887896912 0 0.010848039142881365 0.00067176596676580744 0 0.010798527878200469 0.00048463251887896912 0 0.010964083734358837 0.00048002896209971312 0 0.010848039142881365 0.00067176596676580744 0 0.010798527878200469 0.00048463251887896912 0 0.010857316811798584 0.00034504363248499858 0 0.010964083734358837 0.00048002896209971312 0 0.010857316811798584 0.00034504363248499858 0 0.010703664528307569 0.00036429116178384266 0 0.0107336882930134 0.000253371055802874 0 0.010798527878200469 0.00048463251887896912 0 0.010857316811798584 0.00034504363248499858 0 0.010703664528307569 0.00036429116178384266 0 0.010857316811798584 0.00034504363248499858 0 0.0107336882930134 0.000253371055802874 0 0.010837642579286018 0.00023314376709910998 0 0.010518043166579871 0.00033265930874873097 0 0.010703664528307569 0.00036429116178384266 0 0.010624823694386127 0.0001926347915742168 0 0.010703664528307569 0.00036429116178384266 0 0.010624823694386127 0.0001926347915742168 0 0.0107336882930134 0.000253371055802874 0 0.010639244293293536 0.00018391844260410241 0 0.010624823694386127 0.0001926347915742168 0 0.010657530488200838 0.00018049870237996741 0 0.010624823694386127 0.0001926347915742168 0 0.010657530488200838 0.00018049870237996741 0 0.0107336882930134 0.000253371055802874 0 0.010657530488200838 0.00018049870237996741 0 0.010750101641782719 0.00014364628734597591 0 0.010837642579286018 0.00023314376709910998 0 0.010657530488200838 0.00018049870237996741 0 0.0107336882930134 0.000253371055802874 0 0.010837642579286018 0.00023314376709910998 0 0.010657530488200838 0.00018049870237996741 0 0.010750101641782719 0.00014364628734597591 0 0.010585713700620714 0.00014088582401201188 0 0.010611619299957038 0.00017579813729317904 0 0.010585713700620714 0.00014088582401201188 0 0.010570567625305109 0.00017796769801271616 0 0.010639244293293536 0.00018391844260410241 0 0.010657530488200838 0.00018049870237996741 0 0.010611619299957038 0.00017579813729317904 0 0.010657530488200838 0.00018049870237996741 0 0.010611619299957038 0.00017579813729317904 0 0.010585713700620714 0.00014088582401201188 0 0.010822444822954589 -0.00041437749468113113 0 0.010818011265821147 -0.00040514568304225447 0 0.010697811819480924 -0.00030346777129031604 0 0.010944105195644404 -9.4110517508283112e-05 0 0.010727494592839833 -0.00010773897282100472 0 0.010750101641782719 0.00014364628734597591 0 0.011061585320862684 0.00019901166391295667 0 0.010778637616321902 8.2523364427841253e-05 0 0.010750101641782719 0.00014364628734597591 0 0.010837642579286018 0.00023314376709910998 0 0.011061585320862684 0.00019901166391295667 0 0.010837642579286018 0.00023314376709910998 0 0.011061585320862684 0.00019901166391295667 0 0.01105926231514252 0.00035143587815315798 0 0.010944105195644404 -9.4110517508283112e-05 0 0.011239094288953505 0.00025333189985711089 0 0.011061585320862684 0.00019901166391295667 0 0.01105926231514252 0.00035143587815315798 0 0.011388639337470656 0.00045343249840538942 0 0.010857316811798584 0.00034504363248499858 0 0.010837642579286018 0.00023314376709910998 0 0.01105926231514252 0.00035143587815315798 0 0.010857316811798584 0.00034504363248499858 0 0.01105926231514252 0.00035143587815315798 0 0.010964083734358837 0.00048002896209971312 0 0.010964083734358837 0.00048002896209971312 0 0.011251415548182124 0.00051367321743817161 0 0.011267304465260626 0.00061728544007174421 0 0.01105926231514252 0.00035143587815315798 0 0.010964083734358837 0.00048002896209971312 0 0.011251415548182124 0.00051367321743817161 0 0.011251415548182124 0.00051367321743817161 0 0.011450399085438739 0.00064137661148244176 0 0.011388639337470656 0.00045343249840538942 0 0.01105926231514252 0.00035143587815315798 0 0.011251415548182124 0.00051367321743817161 0 0.011388639337470656 0.00045343249840538942 0 0.011251415548182124 0.00051367321743817161 0 0.011450399085438739 0.00064137661148244176 0 0.011267304465260626 0.00061728544007174421 0 0.011450399085438739 0.00064137661148244176 0 0.011267304465260626 0.00061728544007174421 0 0.011428392827160716 0.00073436758561428762 0 0.011267304465260626 0.00061728544007174421 0 0.011428392827160716 0.00073436758561428762 0 0.011259947965415089 0.00072523910727735597 0 0.011489358842328594 0.00085907379102616495 0 0.012246374569950631 0.0012096866144687042 0 0.011450399085438739 0.00064137661148244176 0 0.011428392827160716 0.00073436758561428762 0 0.011627352926684181 0.00075943634392933829 0 0.011428392827160716 0.00073436758561428762 0 0.011315285095367677 0.00072117638267233156 0 0.011751888508368719 0.00088188877541396193 0 0.012246374569950631 0.0012096866144687042 0 0.012976711413488386 0.0014702382517242654 0 0.011428392827160716 0.00073436758561428762 0 0.011627352926684181 0.00075943634392933829 0 0.011751888508368719 0.00088188877541396193 0 0.01454639695803582 0.0020017736781776096 0 0.014638509469636633 0.0020024215458172923 0 0.014068301482828532 0.0021156322404281861 0 0.01454639695803582 0.0020017736781776096 0 0.01464895598691443 0.0019560971510561615 0 0.014638509469636633 0.0020024215458172923 0 0.01454639695803582 0.0020017736781776096 0 0.01464895598691443 0.0019560971510561615 0 0.01476992099192846 0.0018897623076885705 0 0.01464895598691443 0.0019560971510561615 0 0.014638509469636633 0.0020024215458172923 0 0.014717424422526316 0.0018772303232160766 0 0.010691932189661914 0.00022956915204363774 0 0.012246374569950631 0.0012096866144687042 0 0.014638509469636633 0.0020024215458172923 0 0.014754486512565255 0.0016905739904394606 0 0.014717424422526316 0.0018772303232160766 0 0.012246374569950631 0.0012096866144687042 0 0.012897344978305006 0.0012118857286833094 0 0.010964083734358837 0.00048002896209971312 0 0.011267304465260626 0.00061728544007174421 0 0.011259947965415089 0.00072523910727735597 0 0.010964083734358837 0.00048002896209971312 0 0.011148069433553993 0.00079875824299317636 0 0.010848039142881365 0.00067176596676580744 0 0.014754486512565255 0.0016905739904394606 0 0.014709821654403741 0.0017470807069791515 0 0.014717424422526316 0.0018772303232160766 0 0.012596276187715074 0.0009384562191915777 0 0.012897344978305006 0.0012118857286833094 0 0.014419073850625453 0.0014915303785391157 0 0.014571528995297688 0.0012757499784394903 0 0.014709821654403741 0.0017470807069791515 0 0.014571528995297688 0.0012757499784394903 0 0.014754486512565255 0.0016905739904394606 0 0.014709821654403741 0.0017470807069791515 0 0.014709821654403741 0.0017470807069791515 0 0.01476992099192846 0.0018897623076885705 0 0.014852218175822312 0.0018759907147186236 0 0.014545495743080502 0.0018749491706178494 0 0.014709821654403741 0.0017470807069791515 0 0.014852218175822312 0.0018759907147186236 0 0.014709821654403741 0.0017470807069791515 0 0.014717424422526316 0.0018772303232160766 0 0.01476992099192846 0.0018897623076885705 0 0.01464895598691443 0.0019560971510561615 0 0.014717424422526316 0.0018772303232160766 0 0.01476992099192846 0.0018897623076885705 0 0.01476992099192846 0.0018897623076885705 0 0.014852218175822312 0.0018759907147186236 0 0.014848829938675335 0.0018445081076150626 0 0.01476992099192846 0.0018897623076885705 0 0.014848829938675335 0.0018445081076150626 0 0.014706691529756549 0.0018582420539910633 0 0.014932660389993149 0.0018879927803106193 0 0.014852218175822312 0.0018759907147186236 0 0.015019918786076284 0.0018772259452257023 0 0.015202080030077746 0.0019027077579087724 0 0.014932660389993149 0.0018879927803106193 0 0.015019918786076284 0.0018772259452257023 0 0.014827411841794447 0.0017944168362181057 0 0.015019918786076284 0.0018772259452257023 0 0.014848829938675335 0.0018445081076150626 0 0.014852218175822312 0.0018759907147186236 0 0.015019918786076284 0.0018772259452257023 0 0.014848829938675335 0.0018445081076150626 0 0.014827411841794447 0.0017944168362181057 0 0.014848829938675335 0.0018445081076150626 0 0.014530381973044022 0.0016682656390028246 0 0.014727038790856784 0.0017796639158216749 0 0.014827411841794447 0.0017944168362181057 0 0.014530381973044022 0.0016682656390028246 0 0.014192061838590495 0.0012124834929411186 0 0.014484742166932919 0.0016586460985641848 0 0.012976711413488386 0.0014702382517242654 0 0.012504445563609481 0.00079869877525032252 0 0.014530381973044022 0.0016682656390028246 0 0.014068301482828532 0.0021156322404281861 0 0.012539763816344295 0.00085781876873965602 0 0.013637494410241308 0.00060143726632709809 0 0.014530381973044022 0.0016682656390028246 0 0.012539763816344295 0.00085781876873965602 0 0.014530381973044022 0.0016682656390028246 0 0.014068301482828532 0.0021156322404281861 0 0.014706691529756549 0.0018582420539910633 0 0.014848829938675335 0.0018445081076150626 0 0.014530381973044022 0.0016682656390028246 0 0.014706691529756549 0.0018582420539910633 0 0.01454639695803582 0.0020017736781776096 0 0.014068301482828532 0.0021156322404281861 0 0.014706691529756549 0.0018582420539910633 0 0.01454639695803582 0.0020017736781776096 0 0.01476992099192846 0.0018897623076885705 0 0.014706691529756549 0.0018582420539910633 0 0.011933419420128006 0.0008201733095905304 0 0.01208465800892611 0.00088899153782883995 0 0.01181334791101539 0.00080283811020088406 0 0.01198516900231247 0.00079679965338234904 0 0.011933419420128006 0.0008201733095905304 0 0.01208465800892611 0.00088899153782883995 0 0.01198516900231247 0.00079679965338234904 0 0.011933419420128006 0.0008201733095905304 0 0.011952923137133951 0.00078661170846994243 0 0.011751888508368719 0.00088188877541396193 0 0.01208465800892611 0.00088899153782883995 0 0.012539763816344295 0.00085781876873965602 0 0.011751888508368719 0.00088188877541396193 0 0.01208465800892611 0.00088899153782883995 0 0.01181334791101539 0.00080283811020088406 0 0.012105875414500585 0.00066904446789658361 0 0.01208465800892611 0.00088899153782883995 0 0.012539763816344295 0.00085781876873965602 0 0.012105875414500585 0.00066904446789658361 0 0.01198516900231247 0.00079679965338234904 0 0.011980280336852788 0.00070776776649103524 0 0.012105875414500585 0.00066904446789658361 0 0.01198516900231247 0.00079679965338234904 0 0.01208465800892611 0.00088899153782883995 0 0.01198516900231247 0.00079679965338234904 0 0.011980280336852788 0.00070776776649103524 0 0.011981621471209646 0.00075467945084179886 0 0.01197742711532862 0.00072258308065681939 0 0.011980280336852788 0.00070776776649103524 0 0.011981621471209646 0.00075467945084179886 0 0.01197742711532862 0.00072258308065681939 0 0.011981621471209646 0.00075467945084179886 0 0.012088688649366689 0.00076833903733365726 0 0.011981621471209646 0.00075467945084179886 0 0.011999650482051304 0.00072636782694637282 0 0.012073967918965242 0.00069183653940175518 0 0.01198516900231247 0.00079679965338234904 0 0.011981621471209646 0.00075467945084179886 0 0.011952923137133951 0.00078661170846994243 0 0.011981621471209646 0.00075467945084179886 0 0.011952923137133951 0.00078661170846994243 0 0.011999650482051304 0.00072636782694637282 0 0.011952923137133951 0.00078661170846994243 0 0.011999650482051304 0.00072636782694637282 0 0.011829405143370707 0.00072258320308079551 0 0.012334536078928062 0.0008910445469839306 0 0.01182754089590151 0.00073234647824357163 0 0.012334536078928062 0.0008910445469839306 0 0.012458996627838398 0.0010175119084184759 0 0.012488374335838581 0.0010379979371880612 0 0.012385635266006074 0.00021869772805040139 0 0.01347514862059984 0.00057748196382007813 0 0.012385635266006074 0.00021869772805040139 0 0.011829405143370707 0.00072258320308079551 0 0.011751173706312712 0.00017563546191006607 0 0.012488374335838581 0.0010379979371880612 0 0.012385635266006074 0.00021869772805040139 0 0.011829405143370707 0.00072258320308079551 0 0.011616822931335043 0.00045175327877664738 0 0.011829405143370707 0.00072258320308079551 0 0.011636570804484065 0.00070934854591057819 0 0.011616822931335043 0.00045175327877664738 0 0.011829405143370707 0.00072258320308079551 0 0.011751173706312712 0.00017563546191006607 0 0.011933419420128006 0.0008201733095905304 0 0.011829405143370707 0.00072258320308079551 0 0.01181334791101539 0.00080283811020088406 0 0.011933419420128006 0.0008201733095905304 0 0.011952923137133951 0.00078661170846994243 0 0.011829405143370707 0.00072258320308079551 0 0.011829405143370707 0.00072258320308079551 0 0.01181334791101539 0.00080283811020088406 0 0.011636570804484065 0.00070934854591057819 0 0.011627352926684181 0.00075943634392933829 0 0.011751888508368719 0.00088188877541396193 0 0.01181334791101539 0.00080283811020088406 0 0.011627352926684181 0.00075943634392933829 0 0.01181334791101539 0.00080283811020088406 0 0.011636570804484065 0.00070934854591057819 0 0.011616822931335043 0.00045175327877664738 0 0.011636570804484065 0.00070934854591057819 0 0.01105895547123757 4.9231022140601022e-05 0 0.011450399085438739 0.00064137661148244176 0 0.011636570804484065 0.00070934854591057819 0 0.011388639337470656 0.00045343249840538942 0 0.01158148062584226 0.00068304273238495945 0 0.011239094288953505 0.00025333189985711089 0 0.011450399085438739 0.00064137661148244176 0 0.011627352926684181 0.00075943634392933829 0 0.011636570804484065 0.00070934854591057819 0 0.01105895547123757 4.9231022140601022e-05 0 0.011751173706312712 0.00017563546191006607 0 0.011258561138843408 -0.00021361947859656683 0 0.011616822931335043 0.00045175327877664738 0 0.01105895547123757 4.9231022140601022e-05 0 0.011751173706312712 0.00017563546191006607 0 0.011258561138843408 -0.00021361947859656683 0 0.011098524415657713 -0.00051834852650044358 0 0.011993318260685502 -0.00020168665023351622 0 0.011751173706312712 0.00017563546191006607 0 0.011258561138843408 -0.00021361947859656683 0 0.011993318260685502 -0.00020168665023351622 0 0.010822444822954589 -0.00041437749468113113 0 0.01105895547123757 4.9231022140601022e-05 0 0.011258561138843408 -0.00021361947859656683 0 0.010822444822954589 -0.00041437749468113113 0 0.011258561138843408 -0.00021361947859656683 0 0.011098524415657713 -0.00051834852650044358 0 0.010822444822954589 -0.00041437749468113113 0 0.011098524415657713 -0.00051834852650044358 0 0.010818011265821147 -0.00040514568304225447 0 0.011098524415657713 -0.00051834852650044358 0 0.010529281815492156 -0.00043011220465902315 0 0.010663552926282302 -0.00028265233023279547 0 0.011098524415657713 -0.00051834852650044358 0 0.010818011265821147 -0.00040514568304225447 0 0.010663552926282302 -0.00028265233023279547 0 0.011228590532280355 -0.00064510894865275068 0 0.011422445377266164 -0.00077593293050644393 0 0.011948895166394045 -0.00090439485502373453 0 0.012576630034697485 -0.00047599286359191896 0 0.012500070076977052 -0.0011182972176503976 0 0.010529281815492156 -0.00043011220465902315 0 0.010304120597641398 -0.00032435332941194931 0 0.01044451020536088 -0.00023728951608469138 0 0.011095853240424447 -0.00053726832613980216 0 0.011228590532280355 -0.00064510894865275068 0 0.011098524415657713 -0.00051834852650044358 0 0.011948895166394045 -0.00090439485502373453 0 0.011993318260685502 -0.00020168665023351622 0 0.011948895166394045 -0.00090439485502373453 0 0.011993318260685502 -0.00020168665023351622 0 0.012576630034697485 -0.00047599286359191896 0 0.012441554349521156 -7.3536772880263866e-05 0 0.011993318260685502 -0.00020168665023351622 0 0.012576630034697485 -0.00047599286359191896 0 0.012385635266006074 0.00021869772805040139 0 0.011751173706312712 0.00017563546191006607 0 0.011993318260685502 -0.00020168665023351622 0 0.012385635266006074 0.00021869772805040139 0 0.012441554349521156 -7.3536772880263866e-05 0 0.012796374084872959 7.4803355583065619e-05 0 0.012385635266006074 0.00021869772805040139 0 0.012441554349521156 -7.3536772880263866e-05 0 0.011993318260685502 -0.00020168665023351622 0 0.012415745336391733 0.00020175468458540785 0 0.013395181605097641 -0.00019124349037757593 0 0.013919615770898475 -0.00043053000298070367 0 0.015100340436306344 -0.00048156136000270455 0 0.014828913702405537 -0.00020708649883281847 0 0.013919615770898475 -0.00043053000298070367 0 0.014828913702405537 -0.00020708649883281847 0 0.014607513313092461 0.00017746062217477098 0 0.013395181605097641 -0.00019124349037757593 0 0.014051035019004832 -9.2068835335634906e-05 0 0.012796374084872959 7.4803355583065619e-05 0 0.012994226026039189 -0.00037109365021724904 0 0.013416507134266124 -0.00013779508675557521 0 0.012441554349521156 -7.3536772880263866e-05 0 0.012796374084872959 7.4803355583065619e-05 0 0.012576630034697485 -0.00047599286359191896 0 0.012796374084872959 7.4803355583065619e-05 0 0.012994226026039189 -0.00037109365021724904 0 0.012576630034697485 -0.00047599286359191896 0 0.012994226026039189 -0.00037109365021724904 0 0.012576630034697485 -0.00047599286359191896 0 0.012881486548007644 -0.00095886040298027964 0 0.012994226026039189 -0.00037109365021724904 0 0.012881486548007644 -0.00095886040298027964 0 0.013208801550998505 -0.00073432993238305025 0 0.01312092086732574 -0.00045600305950551382 0 0.01157905985698188 -0.00032398444700081341 0 0.012881486548007644 -0.00095886040298027964 0 0.013208801550998505 -0.00073432993238305025 0 0.012994016608837538 -0.0013292529360012539 0 0.012881486548007644 -0.00095886040298027964 0 0.012500070076977052 -0.0011182972176503976 0 0.012994016608837538 -0.0013292529360012539 0 0.012576630034697485 -0.00047599286359191896 0 0.012881486548007644 -0.00095886040298027964 0 0.012500070076977052 -0.0011182972176503976 0 0.013244781394372863 -6.1584087592221627e-07 0 0.012747822471652419 -0.00014991721745480393 0 0.013327885051221016 -7.1667528855525497e-05 0 0.013244781394372863 -6.1584087592221627e-07 0 0.012747822471652419 -0.00014991721745480393 0 0.012192217312811612 -4.4305226595744528e-07 0 0.012747822471652419 -0.00014991721745480393 0 0.012882277392820907 -0.00019065782261490659 0 0.013327885051221016 -7.1667528855525497e-05 0 0.012747822471652419 -0.00014991721745480393 0 0.012882277392820907 -0.00019065782261490659 0 0.012851116753331332 -5.0694709447615536e-05 0 0.012882277392820907 -0.00019065782261490659 0 0.013327885051221016 -7.1667528855525497e-05 0 0.01314249957663648 0.00051804925678799823 0 0.01312092086732574 -0.00045600305950551382 0 0.014051035019004832 -9.2068835335634906e-05 0 0.013244781394372863 -6.1584087592221627e-07 0 0.013327885051221016 -7.1667528855525497e-05 0 0.014294299913620873 1.1275699717327009e-06 0 0.014296388662852938 1.4212502082131505e-07 0 0.014051035019004832 -9.2068835335634906e-05 0 0.013327885051221016 -7.1667528855525497e-05 0 0.014294299913620873 1.1275699717327009e-06 0 0.01314249957663648 0.00051804925678799823 0 0.01429763724233846 5.605627720930736e-07 0 0.015147732625139097 -0.00029269534879222832 0 0.015146187031502714 -0.00016168742792017511 0 0.01429763724233846 5.605627720930736e-07 0 0.015196781582383537 -0.00013985014326766727 0 0.015147732625139097 -0.00029269534879222832 0 0.012994226026039189 -0.00037109365021724904 0 0.013208801550998505 -0.00073432993238305025 0 0.013416507134266124 -0.00013779508675557521 0 0.014051035019004832 -9.2068835335634906e-05 0 0.014255822604283437 -7.8668882513153036e-05 0 0.01524631344295403 -5.0533653686268064e-05 0 0.014828913702405537 -0.00020708649883281847 0 0.014607513313092461 0.00017746062217477098 0 0.015100340436306344 -0.00048156136000270455 0 0.015147732625139097 -0.00029269534879222832 0 0.014828913702405537 -0.00020708649883281847 0 0.015147732625139097 -0.00029269534879222832 0 0.01524631344295403 -5.0533653686268064e-05 0 0.014828913702405537 -0.00020708649883281847 0 0.01429763724233846 5.605627720930736e-07 0 0.015415115030952151 -1.2579306971411944e-06 0 0.015146187031502714 -0.00016168742792017511 0 0.01524631344295403 -5.0533653686268064e-05 0 0.015415115030952151 -1.2579306971411944e-06 0 0.015146187031502714 -0.00016168742792017511 0 0.015147732625139097 -0.00029269534879222832 0 0.01524631344295403 -5.0533653686268064e-05 0 0.015146187031502714 -0.00016168742792017511 0 0.015415115030952151 -1.2579306971411944e-06 0 0.015552936361044319 0.00017025957904685064 0 0.016531719075617249 2.1986467793272499e-06 0 0.01524631344295403 -5.0533653686268064e-05 0 0.015415115030952151 -1.2579306971411944e-06 0 0.015552936361044319 0.00017025957904685064 0 0.016535152228297333 -7.5381123939496383e-07 0 0.017216908262306128 -3.8165904834782422e-05 0 0.017321583596955282 -2.9261413669217363e-06 0 0.016535152228297333 -7.5381123939496383e-07 0 0.017553377614499377 1.5136079999271874e-06 0 0.017321583596955282 -2.9261413669217363e-06 0 0.016533677348349467 2.137506396327688e-07 0 0.016349403757769981 0.00045970997157413569 0 0.015552936361044319 0.00017025957904685064 0 0.016531719075617249 2.1986467793272499e-06 0 0.015562449422110363 0.0010529971700220045 0 0.015562449422110363 0.0010529971700220045 0 0.014595068064999024 0.00083562964059956228 0 0.014815473037089402 0.0016479795919162675 0 0.015552936361044319 0.00017025957904685064 0 0.015562449422110363 0.0010529971700220045 0 0.014595068064999024 0.00083562964059956228 0 0.015552936361044319 0.00017025957904685064 0 0.014607513313092461 0.00017746062217477098 0 0.014595068064999024 0.00083562964059956228 0 0.01524631344295403 -5.0533653686268064e-05 0 0.015552936361044319 0.00017025957904685064 0 0.014607513313092461 0.00017746062217477098 0 0.014607513313092461 0.00017746062217477098 0 0.01347514862059984 0.00057748196382007813 0 0.014595068064999024 0.00083562964059956228 0 0.013919615770898475 -0.00043053000298070367 0 0.014607513313092461 0.00017746062217477098 0 0.01347514862059984 0.00057748196382007813 0 0.012385635266006074 0.00021869772805040139 0 0.013919615770898475 -0.00043053000298070367 0 0.01347514862059984 0.00057748196382007813 0 0.012488374335838581 0.0010379979371880612 0 0.01347514862059984 0.00057748196382007813 0 0.01362321303867947 0.0013655415646303367 0 0.01362321303867947 0.0013655415646303367 0 0.014595068064999024 0.00083562964059956228 0 0.014815473037089402 0.0016479795919162675 0 0.01347514862059984 0.00057748196382007813 0 0.01362321303867947 0.0013655415646303367 0 0.014595068064999024 0.00083562964059956228 0 0.012458996627838398 0.0010175119084184759 0 0.015516248947788048 0.00068238888148709352 0 0.012073967918965242 0.00069183653940175518 0 0.012088688649366689 0.00076833903733365726 0 0.012250083766143506 0.00070843873733780619 0 0.014932904640609724 0.00081935223995962701 0 0.015516248947788048 0.00068238888148709352 0 0.011981621471209646 0.00075467945084179886 0 0.012073967918965242 0.00069183653940175518 0 0.012088688649366689 0.00076833903733365726 0 0.014520609499980594 0.00094575079813869519 0 0.014932904640609724 0.00081935223995962701 0 0.017825050588573723 0.0011011253250800097 0 0.017530949849894336 0.0010309388630463598 0 0.017830741341268094 0.00084056855319805245 0 0.017825050588573723 0.0011011253250800097 0 0.017980772413433037 0.00083817011024102449 0 0.018184782207062707 0.0009972366074856773 0 0.017825050588573723 0.0011011253250800097 0 0.017830741341268094 0.00084056855319805245 0 0.017980772413433037 0.00083817011024102449 0 0.017830741341268094 0.00084056855319805245 0 0.017980772413433037 0.00083817011024102449 0 0.018009539336715188 0.00085857201742504485 0 0.017980772413433037 0.00083817011024102449 0 0.018184782207062707 0.0009972366074856773 0 0.01793026997809968 0.00074219168559482441 0 0.018184782207062707 0.0009972366074856773 0 0.01793026997809968 0.00074219168559482441 0 0.017827344846698866 0.00076705558704487234 0 0.018121355418330619 0.00024815266968552884 0 0.017554619403886806 1.1382696237164384e-07 0 0.017798769933607819 0.00084103911143597798 0 0.017590706263333554 0.00037687751686683993 0 0.017553377614499377 1.5136079999271874e-06 0 0.017827344846698866 0.00076705558704487234 0 0.017798769933607819 0.00084103911143597798 0 0.017590706263333554 0.00037687751686683993 0 0.018672644716362614 -3.0304804705634822e-08 0 0.018709641731501244 -8.6582595889743222e-07 0 0.017554261109088861 3.2309943636050389e-08 0 0.01793026997809968 0.00074219168559482441 0 0.017827344846698866 0.00076705558704487234 0 0.017590706263333554 0.00037687751686683993 0 0.017590706263333554 0.00037687751686683993 0 0.017321583596955282 -2.9261413669217363e-06 0 0.016756461134703707 0.00011259520467536611 0 0.017590706263333554 0.00037687751686683993 0 0.017553377614499377 1.5136079999271874e-06 0 0.017321583596955282 -2.9261413669217363e-06 0 0.017216908262306128 -3.8165904834782422e-05 0 0.017321583596955282 -2.9261413669217363e-06 0 0.016756461134703707 0.00011259520467536611 0 0.01793026997809968 0.00074219168559482441 0 0.017590706263333554 0.00037687751686683993 0 0.018009539336715188 0.00085857201742504485 0 0.018322542915053724 0.0004774976549079598 0 0.015516248947788048 0.00068238888148709352 0 0.016349403757769981 0.00045970997157413569 0 0.015516248947788048 0.00068238888148709352 0 0.017980772413433037 0.00083817011024102449 0 0.01793026997809968 0.00074219168559482441 0 0.018009539336715188 0.00085857201742504485 0 0.0065383928618301928 -6.4484118200390232e-05 0 0.0069807696327073279 -9.3391029227732666e-07 0 0.006118664289135778 -0.00030592975315787404 0 0.0065383928618301928 -6.4484118200390232e-05 0 0.0069807696327073279 -9.3391029227732666e-07 0 0.0084496383421947419 1.3163595018230885e-06 0 0.0069807696327073279 -9.3391029227732666e-07 0 0.006118664289135778 -0.00030592975315787404 0 0.0055089067233955666 -3.8031408964366262e-07 0 0.006118664289135778 -0.00030592975315787404 0 0.0063443941245852203 -0.00066951382253800879 0 0.0058664514919300071 -0.00035510338772585403 0 0.0063443941245852203 -0.00066951382253800879 0 0.0065157565084081413 -0.00072165574585789398 0 0.0062228401579288292 -0.00041025248977374679 0 0.0063443941245852203 -0.00066951382253800879 0 0.0065190741545476131 -0.00038324857859875852 0 0.0066300984509765756 -0.00086784322335233194 0 0.0065383928618301928 -6.4484118200390232e-05 0 0.006118664289135778 -0.00030592975315787404 0 0.0063443941245852203 -0.00066951382253800879 0 0.0074759840339941094 -0.00065617695649265826 0 0.0063443941245852203 -0.00066951382253800879 0 0.0069870860939253623 -0.00026981024426909382 0 0.0070158670703068648 -0.00038576618432916067 0 0.0064291722874316067 -0.00062382247142614184 0 0.0063443941245852203 -0.00066951382253800879 0 0.0069870860939253623 -0.00026981024426909382 0 0.0065190741545476131 -0.00038324857859875852 0 0.010025306723822265 -0.00014861089524523296 0 0.0099563678058422981 -0.00017767266664851173 0 0.010020655575217852 -0.00018285959494067063 0 0.010025306723822265 -0.00014861089524523296 0 0.010020655575217852 -0.00018285959494067063 0 0.010051439552328092 -0.00015262114605569315 0 0.0069870860939253623 -0.00026981024426909382 0 0.0071337848317928939 0.00041117028774514654 0 0.0075086838636362402 -5.7602742185559248e-05 0 0.0069870860939253623 -0.00026981024426909382 0 0.0065190741545476131 -0.00038324857859875852 0 0.0071337848317928939 0.00041117028774514654 0 0.0081553753920370568 -0.00027264751045011788 0 0.0093530593041614794 -4.2830888445735704e-05 0 0.0093530593041614794 -4.2830888445735704e-05 0 0.010288838242172492 -0.00015343781210329282 0 0.0093530593041614794 -4.2830888445735704e-05 0 0.0089255168715296901 0.00026735089048367201 0 0.0071337848317928939 0.00041117028774514654 0 0.0078993180606525461 0.00041168607843051 0 0.0075086838636362402 -5.7602742185559248e-05 0 0.0078993180606525461 0.00041168607843051 0 0.0075086838636362402 -5.7602742185559248e-05 0 0.0080805547240062284 -9.0260018670884086e-05 0 0.0074759840339941094 -0.00065617695649265826 0 0.0069870860939253623 -0.00026981024426909382 0 0.0075086838636362402 -5.7602742185559248e-05 0 0.0074759840339941094 -0.00065617695649265826 0 0.0075086838636362402 -5.7602742185559248e-05 0 0.0080805547240062284 -9.0260018670884086e-05 0 0.0070158670703068648 -0.00038576618432916067 0 0.0084516359055938108 -1.0516698265378074e-07 0 0.0074759840339941094 -0.00065617695649265826 0 0.0080805547240062284 -9.0260018670884086e-05 0 0.008454189145486183 -1.639472913015553e-06 0 0.01013774441644566 0.00022468514601184573 0 0.0090655595143003132 9.4643000750744459e-07 0 0.0099471976792322482 -7.963600277330617e-05 0 0.0078993180606525461 0.00041168607843051 0 0.0080805547240062284 -9.0260018670884086e-05 0 0.0090618340123695736 1.6122619659494668e-06 0 0.0080805547240062284 -9.0260018670884086e-05 0 0.008454189145486183 -1.639472913015553e-06 0 0.0090618340123695736 1.6122619659494668e-06 0 0.0089255168715296901 0.00026735089048367201 0 0.0090643248204699631 1.7245957761053314e-07 0 0.0090655595143003132 9.4643000750744459e-07 0 0.0099471976792322482 -7.963600277330617e-05 0 0.010102759222529515 -7.5673364441626371e-07 0 0.01013774441644566 0.00022468514601184573 0 0.0099471976792322482 -7.963600277330617e-05 0 0.010221506893251272 -0.00012037073432152907 0 0.0099471976792322482 -7.963600277330617e-05 0 0.010221506893251272 -0.00012037073432152907 0 0.010332712664221831 -0.00012547768933881867 0 0.0099471976792322482 -7.963600277330617e-05 0 0.010102759222529515 -7.5673364441626371e-07 0 0.010332712664221831 -0.00012547768933881867 0 0.01024072765517231 -9.3481917300071359e-05 0 0.010221506893251272 -0.00012037073432152907 0 0.010250086333542035 -0.00011022841150310187 0 0.010561426155122448 0.00016836177741267775 0 0.01013774441644566 0.00022468514601184573 0 0.010221506893251272 -0.00012037073432152907 0 0.0093530593041614794 -4.2830888445735704e-05 0 0.010509024712276381 6.0691527088951328e-05 0 0.010221506893251272 -0.00012037073432152907 0 0.01030345827816778 -0.00010141554658628947 0 0.010332712664221831 -0.00012547768933881867 0 0.010221506893251272 -0.00012037073432152907 0 0.01030345827816778 -0.00010141554658628947 0 0.010250086333542035 -0.00011022841150310187 0 0.01030345827816778 -0.00010141554658628947 0 0.010272240803665005 4.2544226540106282e-06 0 0.010250086333542035 -0.00011022841150310187 0 0.01030345827816778 -0.00010141554658628947 0 0.010332712664221831 -0.00012547768933881867 0 0.011138789576957306 4.4405694655504582e-07 0 0.010102759222529515 -7.5673364441626371e-07 0 0.010332712664221831 -0.00012547768933881867 0 0.011138789576957306 4.4405694655504582e-07 0 0.01030345827816778 -0.00010141554658628947 0 0.011138789576957306 4.4405694655504582e-07 0 0.01044140413802902 0.00019319518253536078 0 0.011140955428835841 3.3427116751478416e-09 0 0.011453155325099674 0.00013479373590683492 0 0.011142677027077396 9.7388345642101966e-07 0 0.012496076086561713 9.6428845553865443e-05 0 0.012192217312811612 -4.4305226595744528e-07 0 0.01044140413802902 0.00019319518253536078 0 0.010211258610620284 0.00018964983758693681 0 0.010272240803665005 4.2544226540106282e-06 0 0.01030345827816778 -0.00010141554658628947 0 0.01044140413802902 0.00019319518253536078 0 0.010272240803665005 4.2544226540106282e-06 0 0.012747822471652419 -0.00014991721745480393 0 0.012496076086561713 9.6428845553865443e-05 0 0.012851116753331332 -5.0694709447615536e-05 0 0.011453155325099674 0.00013479373590683492 0 0.01157905985698188 -0.00032398444700081341 0 0.012747822471652419 -0.00014991721745480393 0 0.012496076086561713 9.6428845553865443e-05 0 0.012192217312811612 -4.4305226595744528e-07 0 0.010304120597641398 -0.00032435332941194931 0 0.010157013224600086 -0.00023710386310570275 0 0.010306417833128988 -0.00016922628665104673 0 0.011422445377266164 -0.00077593293050644393 0 0.01157905985698188 -0.00032398444700081341 0 0.01157905985698188 -0.00032398444700081341 0 0.010019013743542285 -6.8971940325114988e-05 0 0.010211258610620284 0.00018964983758693681 0 0.010272240803665005 4.2544226540106282e-06 0 0.010206240212170758 -7.6035039081175754e-05 0 0.010206240212170758 -7.6035039081175754e-05 0 0.010306417833128988 -0.00016922628665104673 0 0.01028592212610447 -9.509203532086249e-05 0 0.010157013224600086 -0.00023710386310570275 0 0.010206240212170758 -7.6035039081175754e-05 0 0.010306417833128988 -0.00016922628665104673 0 0.010206240212170758 -7.6035039081175754e-05 0 0.010250934295946772 -9.80623643090525e-05 0 0.01028592212610447 -9.509203532086249e-05 0 0.010272240803665005 4.2544226540106282e-06 0 0.010206240212170758 -7.6035039081175754e-05 0 0.010250086333542035 -0.00011022841150310187 0 0.010206240212170758 -7.6035039081175754e-05 0 0.010250086333542035 -0.00011022841150310187 0 0.010250934295946772 -9.80623643090525e-05 0 0.01024072765517231 -9.3481917300071359e-05 0 0.010250934295946772 -9.80623643090525e-05 0 0.010265407869511795 -8.7316636337719038e-05 0 0.01024072765517231 -9.3481917300071359e-05 0 0.010250086333542035 -0.00011022841150310187 0 0.010250934295946772 -9.80623643090525e-05 0 0.010250934295946772 -9.80623643090525e-05 0 0.010265407869511795 -8.7316636337719038e-05 0 0.01028592212610447 -9.509203532086249e-05 0 0.010288838242172492 -0.00015343781210329282 0 0.010149275453346833 -0.00013630432432559352 0 0.010304147565826094 -0.00010903521093448775 0 0.010312990327599284 -0.0001068884500577392 0 0.01028592212610447 -9.509203532086249e-05 0 0.010265407869511795 -8.7316636337719038e-05 0 0.010304147565826094 -0.00010903521093448775 0 0.01028592212610447 -9.509203532086249e-05 0 0.010149275453346833 -0.00013630432432559352 0 0.010211995613354121 -0.00014315936102400257 0 0.010312990327599284 -0.0001068884500577392 0 0.010327073851744495 -0.00012383975690432464 0 0.010208962539660768 -0.00014242575251638805 0 0.010304147565826094 -0.00010903521093448775 0 0.010312990327599284 -0.0001068884500577392 0 0.010208962539660768 -0.00014242575251638805 0 0.010312990327599284 -0.0001068884500577392 0 0.010381830273038857 -0.00014409719110604571 0 0.010327073851744495 -0.00012383975690432464 0 0.010312990327599284 -0.0001068884500577392 0 0.01028592212610447 -9.509203532086249e-05 0 0.010381830273038857 -0.00014409719110604571 0 0.010306417833128988 -0.00016922628665104673 0 0.01028592212610447 -9.509203532086249e-05 0 0.010381830273038857 -0.00014409719110604571 0 0.010306417833128988 -0.00016922628665104673 0 0.010381830273038857 -0.00014409719110604571 0 0.01044451020536088 -0.00023728951608469138 0 0.010381830273038857 -0.00014409719110604571 0 0.010477614315256172 -0.00017536182013271046 0 0.010327073851744495 -0.00012383975690432464 0 0.010381830273038857 -0.00014409719110604571 0 0.01044451020536088 -0.00023728951608469138 0 0.010477614315256172 -0.00017536182013271046 0 0.010529281815492156 -0.00043011220465902315 0 0.01044451020536088 -0.00023728951608469138 0 0.010663552926282302 -0.00028265233023279547 0 0.010304120597641398 -0.00032435332941194931 0 0.010306417833128988 -0.00016922628665104673 0 0.01044451020536088 -0.00023728951608469138 0 0.010818011265821147 -0.00040514568304225447 0 0.010663552926282302 -0.00028265233023279547 0 0.010697811819480924 -0.00030346777129031604 0 0.010663552926282302 -0.00028265233023279547 0 0.010472382699956036 -0.00015904166629036913 0 0.010697811819480924 -0.00030346777129031604 0 0.01044451020536088 -0.00023728951608469138 0 0.010663552926282302 -0.00028265233023279547 0 0.010477614315256172 -0.00017536182013271046 0 0.010663552926282302 -0.00028265233023279547 0 0.010477614315256172 -0.00017536182013271046 0 0.010472382699956036 -0.00015904166629036913 0 0.010477614315256172 -0.00017536182013271046 0 0.010472382699956036 -0.00015904166629036913 0 0.010327073851744495 -0.00012383975690432464 0 0.010472382699956036 -0.00015904166629036913 0 0.010327073851744495 -0.00012383975690432464 0 0.010272665533297464 -0.00011027059300661122 0 0.010327073851744495 -0.00012383975690432464 0 0.010208962539660768 -0.00014242575251638805 0 0.010131579427537158 -0.00013696120244267417 0 0.010327073851744495 -0.00012383975690432464 0 0.010131579427537158 -0.00013696120244267417 0 0.010272665533297464 -0.00011027059300661122 0 0.010131579427537158 -0.00013696120244267417 0 0.0099638545443818463 -0.00018946989633082269 0 0.010272665533297464 -0.00011027059300661122 0 0.0099143178937813343 -0.00017317424268228017 0 0.010131579427537158 -0.00013696120244267417 0 0.0099638545443818463 -0.00018946989633082269 0 0.0099143178937813343 -0.00017317424268228017 0 0.0095984321596662842 -0.00027667357666461429 0 0.0099638545443818463 -0.00018946989633082269 0 0.010208962539660768 -0.00014242575251638805 0 0.010131579427537158 -0.00013696120244267417 0 0.010077049578208229 -0.00012959927172158129 0 0.0099143178937813343 -0.00017317424268228017 0 0.010131579427537158 -0.00013696120244267417 0 0.010077049578208229 -0.00012959927172158129 0 0.010062031403001907 -0.00017227621302808781 0 0.010208962539660768 -0.00014242575251638805 0 0.010077049578208229 -0.00012959927172158129 0 0.010062031403001907 -0.00017227621302808781 0 0.010077049578208229 -0.00012959927172158129 0 0.010051439552328092 -0.00015262114605569315 0 0.010020655575217852 -0.00018285959494067063 0 0.010062031403001907 -0.00017227621302808781 0 0.010051439552328092 -0.00015262114605569315 0 0.0081553753920370568 -0.00027264751045011788 0 0.0083897306201532081 -0.00051034614655765876 0 0.010025306723822265 -0.00014861089524523296 0 0.010051439552328092 -0.00015262114605569315 0 0.010046139454393532 -0.00019272656812661547 0 0.010077049578208229 -0.00012959927172158129 0 0.010051439552328092 -0.00015262114605569315 0 0.010046139454393532 -0.00019272656812661547 0 0.0099143178937813343 -0.00017317424268228017 0 0.010077049578208229 -0.00012959927172158129 0 0.010046139454393532 -0.00019272656812661547 0 0.0083897306201532081 -0.00051034614655765876 0 0.0086525343558256571 -0.00063396356642934318 0 0.0099143178937813343 -0.00017317424268228017 0 0.010046139454393532 -0.00019272656812661547 0 0.0098238006046201601 -0.0003229545920657691 0 0.0066300984509765756 -0.00086784322335233194 0 0.0065157565084081413 -0.00072165574585789398 0 0.0074430762417879133 -0.0010418148072634922 0 0.0063443941245852203 -0.00066951382253800879 0 0.0066300984509765756 -0.00086784322335233194 0 0.0065157565084081413 -0.00072165574585789398 0 0.0065157565084081413 -0.00072165574585789398 0 0.0074430762417879133 -0.0010418148072634922 0 0.0067873308390505602 -0.00049188584787223234 0 0.0074430762417879133 -0.0010418148072634922 0 0.0074970137329001488 -0.00044420929118935631 0 0.0067873308390505602 -0.00049188584787223234 0 0.0074430762417879133 -0.0010418148072634922 0 0.0090128393337372634 -0.00041501553686016962 0 0.0074970137329001488 -0.00044420929118935631 0 0.0086525343558256571 -0.00063396356642934318 0 0.0090274379739831798 -0.000408690627896209 0 0.0098238006046201601 -0.0003229545920657691 0 0.0095984321596662842 -0.00027667357666461429 0 0.0090128393337372634 -0.00041501553686016962 0 0.0099143178937813343 -0.00017317424268228017 0 0.0098238006046201601 -0.0003229545920657691 0 0.0095984321596662842 -0.00027667357666461429 0 0.0097639617775353502 -0.00026103203635079891 0 0.0097861883073661511 -0.00022026431873223217 0 0.0099667309309106333 -0.00022597390885591091 0 0.0097639617775353502 -0.00026103203635079891 0 0.0099667309309106333 -0.00022597390885591091 0 0.0099638545443818463 -0.00018946989633082269 0 0.0095984321596662842 -0.00027667357666461429 0 0.0097639617775353502 -0.00026103203635079891 0 0.0095326553715306232 -0.00030957925913371073 0 0.0095984321596662842 -0.00027667357666461429 0 0.0097639617775353502 -0.00026103203635079891 0 0.0099638545443818463 -0.00018946989633082269 0 0.0095984321596662842 -0.00027667357666461429 0 0.0095326553715306232 -0.00030957925913371073 0 0.0090128393337372634 -0.00041501553686016962 0 0.0097639617775353502 -0.00026103203635079891 0 0.0095326553715306232 -0.00030957925913371073 0 0.0097861883073661511 -0.00022026431873223217 0 0.0095326553715306232 -0.00030957925913371073 0 0.0097861883073661511 -0.00022026431873223217 0 0.0095811507568054257 -0.00012621461831515242 0 0.0097861883073661511 -0.00022026431873223217 0 0.009958806844068753 -0.00021312937770369623 0 0.0098139205422548698 -6.8506583795397018e-05 0 0.010379076027932692 -0.0004203844285872224 0 0.0070782809839110682 -9.2897097637034717e-05 0 0.0099812746862404239 -0.00033741268378578514 0 0.010027224473243215 -0.00030412999586362956 0 0.010008236874623081 -0.00036859924200782171 0 0.0099812746862404239 -0.00033741268378578514 0 0.010027224473243215 -0.00030412999586362956 0 0.010003807238631875 -0.00026995804803342223 0 0.010379076027932692 -0.0004203844285872224 0 0.0099411400620057471 -0.00011146894714247073 0 0.009958806844068753 -0.00021312937770369623 0 0.0099667309309106333 -0.00022597390885591091 0 0.010068183850591519 -0.00019307481546906795 0 0.010027224473243215 -0.00030412999586362956 0 0.010068183850591519 -0.00019307481546906795 0 0.010003807238631875 -0.00026995804803342223 0 0.0097861883073661511 -0.00022026431873223217 0 0.009958806844068753 -0.00021312937770369623 0 0.0099667309309106333 -0.00022597390885591091 0 0.0099667309309106333 -0.00022597390885591091 0 0.010068183850591519 -0.00019307481546906795 0 0.010121618544588633 -0.00015011346198248176 0 0.010068183850591519 -0.00019307481546906795 0 0.010210336148993441 -6.5471163738997564e-05 0 0.010145283883228729 -8.5877698127050979e-05 0 0.010068183850591519 -0.00019307481546906795 0 0.010210336148993441 -6.5471163738997564e-05 0 0.010121618544588633 -0.00015011346198248176 0 0.010210336148993441 -6.5471163738997564e-05 0 0.010121618544588633 -0.00015011346198248176 0 0.010284086842889962 -4.9842284871152412e-05 0 0.010121618544588633 -0.00015011346198248176 0 0.010224063753732934 -0.00011279621450608337 0 0.010284086842889962 -4.9842284871152412e-05 0 0.010121618544588633 -0.00015011346198248176 0 0.0099638545443818463 -0.00018946989633082269 0 0.010224063753732934 -0.00011279621450608337 0 0.0099667309309106333 -0.00022597390885591091 0 0.010121618544588633 -0.00015011346198248176 0 0.0099638545443818463 -0.00018946989633082269 0 0.0099638545443818463 -0.00018946989633082269 0 0.010272665533297464 -0.00011027059300661122 0 0.010224063753732934 -0.00011279621450608337 0 0.010272665533297464 -0.00011027059300661122 0 0.010224063753732934 -0.00011279621450608337 0 0.010471542958664988 -7.158775273734742e-05 0 0.010224063753732934 -0.00011279621450608337 0 0.010471542958664988 -7.158775273734742e-05 0 0.010284086842889962 -4.9842284871152412e-05 0 0.010472382699956036 -0.00015904166629036913 0 0.010272665533297464 -0.00011027059300661122 0 0.010471542958664988 -7.158775273734742e-05 0 0.01051331937075963 -8.1893475352033354e-05 0 0.010727494592839833 -0.00010773897282100472 0 0.010472382699956036 -0.00015904166629036913 0 0.010471542958664988 -7.158775273734742e-05 0 0.010697811819480924 -0.00030346777129031604 0 0.010471542958664988 -7.158775273734742e-05 0 0.010611835461192673 7.8695489453930082e-05 0 0.010778637616321902 8.2523364427841253e-05 0 0.010471542958664988 -7.158775273734742e-05 0 0.010611835461192673 7.8695489453930082e-05 0 0.010494540352572905 8.9371475603759333e-05 0 0.010750101641782719 0.00014364628734597591 0 0.010611835461192673 7.8695489453930082e-05 0 0.010778637616321902 8.2523364427841253e-05 0 0.010519099824405631 0.0001524425552914316 0 0.010585713700620714 0.00014088582401201188 0 0.010570567625305109 0.00017796769801271616 0 0.010519099824405631 0.0001524425552914316 0 0.010585713700620714 0.00014088582401201188 0 0.010494540352572905 8.9371475603759333e-05 0 0.010519099824405631 0.0001524425552914316 0 0.010570567625305109 0.00017796769801271616 0 0.010526288656706963 0.00019173817671391721 0 0.010611835461192673 7.8695489453930082e-05 0 0.010585713700620714 0.00014088582401201188 0 0.010494540352572905 8.9371475603759333e-05 0 0.010750101641782719 0.00014364628734597591 0 0.010611835461192673 7.8695489453930082e-05 0 0.010585713700620714 0.00014088582401201188 0 0.010471542958664988 -7.158775273734742e-05 0 0.010494540352572905 8.9371475603759333e-05 0 0.010388196470005648 5.468406834591576e-05 0 0.010494540352572905 8.9371475603759333e-05 0 0.010436750556791181 0.00015509027970381976 0 0.010388196470005648 5.468406834591576e-05 0 0.010519099824405631 0.0001524425552914316 0 0.010494540352572905 8.9371475603759333e-05 0 0.010436750556791181 0.00015509027970381976 0 0.010519099824405631 0.0001524425552914316 0 0.010436750556791181 0.00015509027970381976 0 0.010526288656706963 0.00019173817671391721 0 0.010436750556791181 0.00015509027970381976 0 0.010370557689531752 0.00012636315303855752 0 0.010349398097551834 0.00020305451502434236 0 0.010388196470005648 5.468406834591576e-05 0 0.010284086842889962 -4.9842284871152412e-05 0 0.010304622252778955 6.676782721763622e-05 0 0.010436750556791181 0.00015509027970381976 0 0.010370557689531752 0.00012636315303855752 0 0.010388196470005648 5.468406834591576e-05 0 0.010370557689531752 0.00012636315303855752 0 0.010388196470005648 5.468406834591576e-05 0 0.010304622252778955 6.676782721763622e-05 0 0.010370557689531752 0.00012636315303855752 0 0.010304622252778955 6.676782721763622e-05 0 0.010349398097551834 0.00020305451502434236 0 0.010471542958664988 -7.158775273734742e-05 0 0.010388196470005648 5.468406834591576e-05 0 0.010284086842889962 -4.9842284871152412e-05 0 0.010210336148993441 -6.5471163738997564e-05 0 0.010284086842889962 -4.9842284871152412e-05 0 0.010304622252778955 6.676782721763622e-05 0 0.010210336148993441 -6.5471163738997564e-05 0 0.010304622252778955 6.676782721763622e-05 0 0.010204560855558808 3.2815040667961488e-05 0 0.010204560855558808 3.2815040667961488e-05 0 0.010145705214939274 6.329264909748933e-05 0 0.010100861841366219 -1.0016153008283109e-05 0 0.010204560855558808 3.2815040667961488e-05 0 0.010145705214939274 6.329264909748933e-05 0 0.010204878211513814 0.00012922374750796162 0 0.010204560855558808 3.2815040667961488e-05 0 0.010275226397660851 0.00015283968447936692 0 0.010204878211513814 0.00012922374750796162 0 0.010275226397660851 0.00015283968447936692 0 0.010204878211513814 0.00012922374750796162 0 0.010250910023388167 0.00021314140333023493 0 0.010304622252778955 6.676782721763622e-05 0 0.010204560855558808 3.2815040667961488e-05 0 0.010275226397660851 0.00015283968447936692 0 0.01017484452907939 0.0002259360258787075 0 0.010221312486829249 0.00039060753183963023 0 0.0099534116110702765 -3.5755993186477131e-05 0 0.0098266567634500476 0.00085781973718063848 0 0.010221312486829249 0.00039060753183963023 0 0.010019224864801685 0.00062474327980944426 0 0.0098266567634500476 0.00085781973718063848 0 0.010221312486829249 0.00039060753183963023 0 0.0097481075295581723 0.00093120092883654747 0 0.010150968415939226 0.00043192382388891815 0 0.0098907807562788018 0.00045347876452255366 0 0.010083955145463607 4.9957295997048787e-05 0 0.01017484452907939 0.0002259360258787075 0 0.0099534116110702765 -3.5755993186477131e-05 0 0.010146818706341093 0.0001191694997354844 0 0.010083955145463607 4.9957295997048787e-05 0 0.010145705214939274 6.329264909748933e-05 0 0.010083955145463607 4.9957295997048787e-05 0 0.010145705214939274 6.329264909748933e-05 0 0.010100861841366219 -1.0016153008283109e-05 0 0.010146818706341093 0.0001191694997354844 0 0.010145705214939274 6.329264909748933e-05 0 0.010204878211513814 0.00012922374750796162 0 0.010146818706341093 0.0001191694997354844 0 0.010083955145463607 4.9957295997048787e-05 0 0.01017484452907939 0.0002259360258787075 0 0.010204878211513814 0.00012922374750796162 0 0.01017484452907939 0.0002259360258787075 0 0.010250910023388167 0.00021314140333023493 0 0.010146818706341093 0.0001191694997354844 0 0.010204878211513814 0.00012922374750796162 0 0.01017484452907939 0.0002259360258787075 0 0.010221312486829249 0.00039060753183963023 0 0.010279239115076151 0.00035395239750825438 0 0.0099607642445039158 0.00064182104990735006 0 0.01017484452907939 0.0002259360258787075 0 0.010221312486829249 0.00039060753183963023 0 0.01025270064585712 0.00029523684882424732 0 0.010221312486829249 0.00039060753183963023 0 0.01025270064585712 0.00029523684882424732 0 0.010279239115076151 0.00035395239750825438 0 0.010250910023388167 0.00021314140333023493 0 0.01025270064585712 0.00029523684882424732 0 0.010304307255397528 0.0002486057255755951 0 0.01017484452907939 0.0002259360258787075 0 0.010250910023388167 0.00021314140333023493 0 0.01025270064585712 0.00029523684882424732 0 0.01025270064585712 0.00029523684882424732 0 0.010279239115076151 0.00035395239750825438 0 0.010304307255397528 0.0002486057255755951 0 0.010345845307217306 0.00028555980072175757 0 0.010414867787471634 0.00029694113323337963 0 0.010279239115076151 0.00035395239750825438 0 0.010345845307217306 0.00028555980072175757 0 0.010279239115076151 0.00035395239750825438 0 0.010304307255397528 0.0002486057255755951 0 0.010345845307217306 0.00028555980072175757 0 0.010414867787471634 0.00029694113323337963 0 0.010428752834413023 0.00025725773759457726 0 0.010414867787471634 0.00029694113323337963 0 0.010279239115076151 0.00035395239750825438 0 0.010471792023526773 0.00033360427944969156 0 0.010279239115076151 0.00035395239750825438 0 0.010471792023526773 0.00033360427944969156 0 0.010578898062294751 0.00042009946895018544 0 0.010414867787471634 0.00029694113323337963 0 0.010471792023526773 0.00033360427944969156 0 0.010534115061835016 0.00029990803943502446 0 0.010471792023526773 0.00033360427944969156 0 0.010604840316255987 0.0003504124499182804 0 0.010534115061835016 0.00029990803943502446 0 0.010471792023526773 0.00033360427944969156 0 0.010604840316255987 0.0003504124499182804 0 0.010578898062294751 0.00042009946895018544 0 0.010304622252778955 6.676782721763622e-05 0 0.010275226397660851 0.00015283968447936692 0 0.010349398097551834 0.00020305451502434236 0 0.010275226397660851 0.00015283968447936692 0 0.010304307255397528 0.0002486057255755951 0 0.010349398097551834 0.00020305451502434236 0 0.010275226397660851 0.00015283968447936692 0 0.010250910023388167 0.00021314140333023493 0 0.010304307255397528 0.0002486057255755951 0 0.010345845307217306 0.00028555980072175757 0 0.010304307255397528 0.0002486057255755951 0 0.010349398097551834 0.00020305451502434236 0 0.010345845307217306 0.00028555980072175757 0 0.010349398097551834 0.00020305451502434236 0 0.010428752834413023 0.00025725773759457726 0 0.010436750556791181 0.00015509027970381976 0 0.010349398097551834 0.00020305451502434236 0 0.010452660784204048 0.0002113808000590897 0 0.010436750556791181 0.00015509027970381976 0 0.010452660784204048 0.0002113808000590897 0 0.010526288656706963 0.00019173817671391721 0 0.010452660784204048 0.0002113808000590897 0 0.010530073889965848 0.00021500256420092521 0 0.010526288656706963 0.00019173817671391721 0 0.010452660784204048 0.0002113808000590897 0 0.010530073889965848 0.00021500256420092521 0 0.01050680701577166 0.00023817163276383213 0 0.010530073889965848 0.00021500256420092521 0 0.01050680701577166 0.00023817163276383213 0 0.010581855079279046 0.00022827346580732303 0 0.010452660784204048 0.0002113808000590897 0 0.010428752834413023 0.00025725773759457726 0 0.01050680701577166 0.00023817163276383213 0 0.010349398097551834 0.00020305451502434236 0 0.010452660784204048 0.0002113808000590897 0 0.010428752834413023 0.00025725773759457726 0 0.010414867787471634 0.00029694113323337963 0 0.010428752834413023 0.00025725773759457726 0 0.010506092163081604 0.00026722490739718554 0 0.010414867787471634 0.00029694113323337963 0 0.010506092163081604 0.00026722490739718554 0 0.010534115061835016 0.00029990803943502446 0 0.010428752834413023 0.00025725773759457726 0 0.010506092163081604 0.00026722490739718554 0 0.01050680701577166 0.00023817163276383213 0 0.010604840316255987 0.0003504124499182804 0 0.010534115061835016 0.00029990803943502446 0 0.010664853140742576 0.00030904594974118764 0 0.010506092163081604 0.00026722490739718554 0 0.010534115061835016 0.00029990803943502446 0 0.010618144897797853 0.00027306297628932902 0 0.010534115061835016 0.00029990803943502446 0 0.010618144897797853 0.00027306297628932902 0 0.010664853140742576 0.00030904594974118764 0 0.010618144897797853 0.00027306297628932902 0 0.010585922604490558 0.00024857679192926254 0 0.010706255526341742 0.00024769224739967132 0 0.010618144897797853 0.00027306297628932902 0 0.010706255526341742 0.00024769224739967132 0 0.010738626151067148 0.00027646344274680776 0 0.010506092163081604 0.00026722490739718554 0 0.010618144897797853 0.00027306297628932902 0 0.010585922604490558 0.00024857679192926254 0 0.010506092163081604 0.00026722490739718554 0 0.01050680701577166 0.00023817163276383213 0 0.010585922604490558 0.00024857679192926254 0 0.01050680701577166 0.00023817163276383213 0 0.010585922604490558 0.00024857679192926254 0 0.010581855079279046 0.00022827346580732303 0 0.010585922604490558 0.00024857679192926254 0 0.010663237824041584 0.00022630525515959397 0 0.010581855079279046 0.00022827346580732303 0 0.010663237824041584 0.00022630525515959397 0 0.010581855079279046 0.00022827346580732303 0 0.010617527667868734 0.00020867754666949111 0 0.010663237824041584 0.00022630525515959397 0 0.010706255526341742 0.00024769224739967132 0 0.010797134434927629 0.0002323781063022161 0 0.010585922604490558 0.00024857679192926254 0 0.010663237824041584 0.00022630525515959397 0 0.010706255526341742 0.00024769224739967132 0 0.010823167774741323 0.00021841022796404276 0 0.010730481505084714 0.00022026412184619878 0 0.010797134434927629 0.0002323781063022161 0 0.010663237824041584 0.00022630525515959397 0 0.010730481505084714 0.00022026412184619878 0 0.010797134434927629 0.0002323781063022161 0 0.010663237824041584 0.00022630525515959397 0 0.010730481505084714 0.00022026412184619878 0 0.010617527667868734 0.00020867754666949111 0 0.010731032068324133 0.00020707670803959819 0 0.010730481505084714 0.00022026412184619878 0 0.010617527667868734 0.00020867754666949111 0 0.010617527667868734 0.00020867754666949111 0 0.010570567625305109 0.00017796769801271616 0 0.010526288656706963 0.00019173817671391721 0 0.010646494628572138 0.00019340084717972322 0 0.010617527667868734 0.00020867754666949111 0 0.010570567625305109 0.00017796769801271616 0 0.010530073889965848 0.00021500256420092521 0 0.010617527667868734 0.00020867754666949111 0 0.010526288656706963 0.00019173817671391721 0 0.010530073889965848 0.00021500256420092521 0 0.010581855079279046 0.00022827346580732303 0 0.010617527667868734 0.00020867754666949111 0 0.011012025680001666 0.00026797231143852455 0 0.010952444522581003 0.00024511959203683744 0 0.010925832941482472 0.00028182264855263124 0 0.011012025680001666 0.00026797231143852455 0 0.010925832941482472 0.00028182264855263124 0 0.011027883019433452 0.0003044711946202012 0 0.011012025680001666 0.00026797231143852455 0 0.01110546587917814 0.0002791822058233422 0 0.011027883019433452 0.0003044711946202012 0 0.011096580378437283 0.00024762938428864981 0 0.011012025680001666 0.00026797231143852455 0 0.01110546587917814 0.0002791822058233422 0 0.011169187070077122 0.00027076176651907961 0 0.011096580378437283 0.00024762938428864981 0 0.01110546587917814 0.0002791822058233422 0 0.011096580378437283 0.00024762938428864981 0 0.011012025680001666 0.00026797231143852455 0 0.010952444522581003 0.00024511959203683744 0 0.010898839867615195 0.00023044634924454375 0 0.010952444522581003 0.00024511959203683744 0 0.010833651496364475 0.00025309232578752522 0 0.010898839867615195 0.00023044634924454375 0 0.010797134434927629 0.0002323781063022161 0 0.010833651496364475 0.00025309232578752522 0 0.010706255526341742 0.00024769224739967132 0 0.010797134434927629 0.0002323781063022161 0 0.010833651496364475 0.00025309232578752522 0 0.010706255526341742 0.00024769224739967132 0 0.010833651496364475 0.00025309232578752522 0 0.010738626151067148 0.00027646344274680776 0 0.010952444522581003 0.00024511959203683744 0 0.010833651496364475 0.00025309232578752522 0 0.010925832941482472 0.00028182264855263124 0 0.010833651496364475 0.00025309232578752522 0 0.010925832941482472 0.00028182264855263124 0 0.010828035313693847 0.00028880654935416363 0 0.010925832941482472 0.00028182264855263124 0 0.010828035313693847 0.00028880654935416363 0 0.010873878869877547 0.00033362656276074757 0 0.010833651496364475 0.00025309232578752522 0 0.010828035313693847 0.00028880654935416363 0 0.010738626151067148 0.00027646344274680776 0 0.010828035313693847 0.00028880654935416363 0 0.010738626151067148 0.00027646344274680776 0 0.010775066586879265 0.00032120917945151569 0 0.010618144897797853 0.00027306297628932902 0 0.010738626151067148 0.00027646344274680776 0 0.010664853140742576 0.00030904594974118764 0 0.010738626151067148 0.00027646344274680776 0 0.010664853140742576 0.00030904594974118764 0 0.010775066586879265 0.00032120917945151569 0 0.010664853140742576 0.00030904594974118764 0 0.010775066586879265 0.00032120917945151569 0 0.010724432677759991 0.00036644951662206834 0 0.010604840316255987 0.0003504124499182804 0 0.010664853140742576 0.00030904594974118764 0 0.010724432677759991 0.00036644951662206834 0 0.010828035313693847 0.00028880654935416363 0 0.010775066586879265 0.00032120917945151569 0 0.010873878869877547 0.00033362656276074757 0 0.010775066586879265 0.00032120917945151569 0 0.010724432677759991 0.00036644951662206834 0 0.010834486841239466 0.00039071543714266259 0 0.010775066586879265 0.00032120917945151569 0 0.010873878869877547 0.00033362656276074757 0 0.010834486841239466 0.00039071543714266259 0 0.010873878869877547 0.00033362656276074757 0 0.010929872420462085 0.00040048633733473949 0 0.010834486841239466 0.00039071543714266259 0 0.010964848413423408 0.00033009623343097132 0 0.011008467104294097 0.00039051689907565641 0 0.010929872420462085 0.00040048633733473949 0 0.010873878869877547 0.00033362656276074757 0 0.010964848413423408 0.00033009623343097132 0 0.010929872420462085 0.00040048633733473949 0 0.010925832941482472 0.00028182264855263124 0 0.010964848413423408 0.00033009623343097132 0 0.011027883019433452 0.0003044711946202012 0 0.010925832941482472 0.00028182264855263124 0 0.010873878869877547 0.00033362656276074757 0 0.010964848413423408 0.00033009623343097132 0 0.01110546587917814 0.0002791822058233422 0 0.011027883019433452 0.0003044711946202012 0 0.011103299536556005 0.00032572672277847409 0 0.011027883019433452 0.0003044711946202012 0 0.011040741271551789 0.00034376901582453261 0 0.011103299536556005 0.00032572672277847409 0 0.010964848413423408 0.00033009623343097132 0 0.011027883019433452 0.0003044711946202012 0 0.011040741271551789 0.00034376901582453261 0 0.011040741271551789 0.00034376901582453261 0 0.011088955239437658 0.0003794037852660668 0 0.011103299536556005 0.00032572672277847409 0 0.010964848413423408 0.00033009623343097132 0 0.011040741271551789 0.00034376901582453261 0 0.011008467104294097 0.00039051689907565641 0 0.011040741271551789 0.00034376901582453261 0 0.011008467104294097 0.00039051689907565641 0 0.011088955239437658 0.0003794037852660668 0 0.010984594288205184 0.00047239388592968138 0 0.010865774220714611 0.00067521621562331171 0 0.011155946759358716 0.00041862745108573341 0 0.010984594288205184 0.00047239388592968138 0 0.011088955239437658 0.0003794037852660668 0 0.011155946759358716 0.00041862745108573341 0 0.0097599570870705258 0.0005397929204734829 0 0.0097997912487844917 0.00055701554371977234 0 0.009891140049579774 0.00046389607995966079 0 0.010310422002370218 0.00061908225552523679 0 0.010517416585564619 0.00043785711889651789 0 0.011008467104294097 0.00039051689907565641 0 0.010984594288205184 0.00047239388592968138 0 0.011088955239437658 0.0003794037852660668 0 0.011008467104294097 0.00039051689907565641 0 0.010929872420462085 0.00040048633733473949 0 0.010984594288205184 0.00047239388592968138 0 0.010984594288205184 0.00047239388592968138 0 0.010882047248427231 0.00047050582950313038 0 0.010869473783564561 0.00053473817332707339 0 0.010929872420462085 0.00040048633733473949 0 0.010984594288205184 0.00047239388592968138 0 0.010882047248427231 0.00047050582950313038 0 0.010984594288205184 0.00047239388592968138 0 0.010869473783564561 0.00053473817332707339 0 0.010865774220714611 0.00067521621562331171 0 0.010294826771596282 0.00040670079582502287 0 0.010310422002370218 0.00061908225552523679 0 0.010279239115076151 0.00035395239750825438 0 0.010578898062294751 0.00042009946895018544 0 0.010865774220714611 0.00067521621562331171 0 0.010664285913371355 0.000400997069096169 0 0.010578898062294751 0.00042009946895018544 0 0.010755261168925685 0.00047489316100557708 0 0.010604840316255987 0.0003504124499182804 0 0.010664285913371355 0.000400997069096169 0 0.010578898062294751 0.00042009946895018544 0 0.010604840316255987 0.0003504124499182804 0 0.010664285913371355 0.000400997069096169 0 0.010724432677759991 0.00036644951662206834 0 0.010664285913371355 0.000400997069096169 0 0.010724432677759991 0.00036644951662206834 0 0.010755261168925685 0.00047489316100557708 0 0.010834486841239466 0.00039071543714266259 0 0.010882047248427231 0.00047050582950313038 0 0.010755261168925685 0.00047489316100557708 0 0.010724432677759991 0.00036644951662206834 0 0.010834486841239466 0.00039071543714266259 0 0.010755261168925685 0.00047489316100557708 0 0.010929872420462085 0.00040048633733473949 0 0.010834486841239466 0.00039071543714266259 0 0.010882047248427231 0.00047050582950313038 0 0.010869473783564561 0.00053473817332707339 0 0.010755261168925685 0.00047489316100557708 0 0.010865774220714611 0.00067521621562331171 0 0.010882047248427231 0.00047050582950313038 0 0.010869473783564561 0.00053473817332707339 0 0.010755261168925685 0.00047489316100557708 0 0.010578898062294751 0.00042009946895018544 0 0.010755261168925685 0.00047489316100557708 0 0.010865774220714611 0.00067521621562331171 0 0.0099447118281154878 0.00088550840311390957 0 0.009674237643922513 0.00069840159236105503 0 0.0098266567634500476 0.00085781973718063848 0 0.0093860152756308299 0.0011522045289814012 0 0.0096215207750601876 0.00092042045428540077 0 0.0098266567634500476 0.00085781973718063848 0 0.010019224864801685 0.00062474327980944426 0 0.010606128825929427 0.00062116820257236271 0 0.010019224864801685 0.00062474327980944426 0 0.010332158356857265 0.00049107108487096761 0 0.010606128825929427 0.00062116820257236271 0 0.010221312486829249 0.00039060753183963023 0 0.010019224864801685 0.00062474327980944426 0 0.0099607642445039158 0.00064182104990735006 0 0.010057620628542152 0.00065643817611243005 0 0.010310422002370218 0.00061908225552523679 0 0.0093860152756308299 0.0011522045289814012 0 0.0094671833361254284 0.00092200853575554614 0 0.0096215207750601876 0.00092042045428540077 0 0.009674237643922513 0.00069840159236105503 0 0.0096380253809853489 0.00053534087901129781 0 0.009674237643922513 0.00069840159236105503 0 0.0092389713198514495 0.00083345235278537604 0 0.0093860152756308299 0.0011522045289814012 0 0.0092934660370120135 0.00094071895358448481 0 0.0091296015258586962 0.00090476834147541405 0 0.010310422002370218 0.00061908225552523679 0 0.009674237643922513 0.00069840159236105503 0 0.0093860152756308299 0.0011522045289814012 0 0.0092934660370120135 0.00094071895358448481 0 0.0094671833361254284 0.00092200853575554614 0 0.0092934660370120135 0.00094071895358448481 0 0.0094671833361254284 0.00092200853575554614 0 0.0093881812497618525 0.00085801559917488544 0 0.0092934660370120135 0.00094071895358448481 0 0.009215415227902219 0.00089394636053315602 0 0.0093881812497618525 0.00085801559917488544 0 0.0093881812497618525 0.00085801559917488544 0 0.009217912190605167 0.00084945774701700627 0 0.0094055835961562081 0.00062982371506042792 0 0.009215415227902219 0.00089394636053315602 0 0.0093881812497618525 0.00085801559917488544 0 0.009217912190605167 0.00084945774701700627 0 0.0093881812497618525 0.00085801559917488544 0 0.0095676180315914707 0.00073826096423396353 0 0.0095568562428138982 0.00087810013477003816 0 0.0093881812497618525 0.00085801559917488544 0 0.0095676180315914707 0.00073826096423396353 0 0.0094055835961562081 0.00062982371506042792 0 0.0095676180315914707 0.00073826096423396353 0 0.0095568562428138982 0.00087810013477003816 0 0.0097481075295581723 0.00093120092883654747 0 0.0097045067078376512 0.0002515442134937829 0 0.0098907807562788018 0.00045347876452255366 0 0.0094671833361254284 0.00092200853575554614 0 0.0093881812497618525 0.00085801559917488544 0 0.0095568562428138982 0.00087810013477003816 0 0.0094671833361254284 0.00092200853575554614 0 0.0095568562428138982 0.00087810013477003816 0 0.0096215207750601876 0.00092042045428540077 0 0.0095568562428138982 0.00087810013477003816 0 0.0096215207750601876 0.00092042045428540077 0 0.0097481075295581723 0.00093120092883654747 0 0.0098266567634500476 0.00085781973718063848 0 0.0096215207750601876 0.00092042045428540077 0 0.0097481075295581723 0.00093120092883654747 0 0.0099534116110702765 -3.5755993186477131e-05 0 0.010044101508535117 -1.6999272127796633e-05 0 0.010027196577873666 -6.5930259147431366e-05 0 0.010083955145463607 4.9957295997048787e-05 0 0.0099534116110702765 -3.5755993186477131e-05 0 0.010044101508535117 -1.6999272127796633e-05 0 0.010083955145463607 4.9957295997048787e-05 0 0.010044101508535117 -1.6999272127796633e-05 0 0.010100861841366219 -1.0016153008283109e-05 0 0.010100861841366219 -1.0016153008283109e-05 0 0.010027196577873666 -6.5930259147431366e-05 0 0.010075542406406318 -0.00010833585145358652 0 0.010044101508535117 -1.6999272127796633e-05 0 0.010100861841366219 -1.0016153008283109e-05 0 0.010027196577873666 -6.5930259147431366e-05 0 0.010027196577873666 -6.5930259147431366e-05 0 0.010075542406406318 -0.00010833585145358652 0 0.0099858404455548649 -0.00013126354947274875 0 0.0099534116110702765 -3.5755993186477131e-05 0 0.010027196577873666 -6.5930259147431366e-05 0 0.0099858404455548649 -0.00013126354947274875 0 0.010204560855558808 3.2815040667961488e-05 0 0.010145283883228729 -8.5877698127050979e-05 0 0.010075542406406318 -0.00010833585145358652 0 0.010210336148993441 -6.5471163738997564e-05 0 0.010204560855558808 3.2815040667961488e-05 0 0.010145283883228729 -8.5877698127050979e-05 0 0.010204560855558808 3.2815040667961488e-05 0 0.010100861841366219 -1.0016153008283109e-05 0 0.010075542406406318 -0.00010833585145358652 0 0.010068183850591519 -0.00019307481546906795 0 0.010075542406406318 -0.00010833585145358652 0 0.009984667283759718 -0.0002087081792467937 0 0.010068183850591519 -0.00019307481546906795 0 0.010145283883228729 -8.5877698127050979e-05 0 0.010075542406406318 -0.00010833585145358652 0 0.010075542406406318 -0.00010833585145358652 0 0.0099858404455548649 -0.00013126354947274875 0 0.009984667283759718 -0.0002087081792467937 0 0.0098776234770280927 -0.00018421939902284155 0 0.0099534116110702765 -3.5755993186477131e-05 0 0.0099858404455548649 -0.00013126354947274875 0 0.0098776234770280927 -0.00018421939902284155 0 0.0099858404455548649 -0.00013126354947274875 0 0.009984667283759718 -0.0002087081792467937 0 0.0098776234770280927 -0.00018421939902284155 0 0.009984667283759718 -0.0002087081792467937 0 0.0098925435134261074 -0.00025944505982502359 0 0.009984667283759718 -0.0002087081792467937 0 0.0098925435134261074 -0.00025944505982502359 0 0.0099412059161735934 -0.00029541873746622831 0 0.009984667283759718 -0.0002087081792467937 0 0.010003807238631875 -0.00026995804803342223 0 0.0099412059161735934 -0.00029541873746622831 0 0.010068183850591519 -0.00019307481546906795 0 0.009984667283759718 -0.0002087081792467937 0 0.010003807238631875 -0.00026995804803342223 0 0.0099812746862404239 -0.00033741268378578514 0 0.0099412059161735934 -0.00029541873746622831 0 0.0099070414455386582 -0.00036566835323945845 0 0.0099812746862404239 -0.00033741268378578514 0 0.010003807238631875 -0.00026995804803342223 0 0.0099412059161735934 -0.00029541873746622831 0 0.0098925435134261074 -0.00025944505982502359 0 0.0099412059161735934 -0.00029541873746622831 0 0.0098626295205988621 -0.00032131202682374004 0 0.0099412059161735934 -0.00029541873746622831 0 0.0098626295205988621 -0.00032131202682374004 0 0.0099070414455386582 -0.00036566835323945845 0 0.0098626295205988621 -0.00032131202682374004 0 0.0097902496558583442 -0.00030013593395023913 0 0.0098035651390388483 -0.00039089009294773997 0 0.0098925435134261074 -0.00025944505982502359 0 0.0098626295205988621 -0.00032131202682374004 0 0.0097902496558583442 -0.00030013593395023913 0 0.0094929029390596314 0.0003947431671299354 0 0.0092827888972647817 0.00039596698010609484 0 0.0093656496124066395 -6.9364379172268475e-05 0 0.0094647858252528781 0.00012734711293499963 0 0.0096492634149227836 -0.00096619046404900833 0 0.0090895845526271293 -0.00015994754685540603 0 0.0094647858252528781 0.00012734711293499963 0 0.0090895845526271293 -0.00015994754685540603 0 0.0090234059079139194 0.00045703657525459506 0 0.0094929029390596314 0.0003947431671299354 0 0.0092827888972647817 0.00039596698010609484 0 0.0094055835961562081 0.00062982371506042792 0 0.009217912190605167 0.00084945774701700627 0 0.0094647858252528781 0.00012734711293499963 0 0.0090234059079139194 0.00045703657525459506 0 0.009217912190605167 0.00084945774701700627 0 0.0092827888972647817 0.00039596698010609484 0 0.0094055835961562081 0.00062982371506042792 0 0.0091997460231342705 0.00082559088884089809 0 0.0095053938238843904 0.00023830621973887348 0 0.0097045067078376512 0.0002515442134937829 0 0.0097862393199510799 0.00013544410078386132 0 0.0095676180315914707 0.00073826096423396353 0 0.0094929029390596314 0.0003947431671299354 0 0.0094055835961562081 0.00062982371506042792 0 0.0098776234770280927 -0.00018421939902284155 0 0.0098925435134261074 -0.00025944505982502359 0 0.0097902496558583442 -0.00030013593395023913 0 0.0064001317208651799 -0.0013096978691809556 0 0.0065163614513661797 -0.00050176801812479549 0 0.0039764305944839148 -0.00057754181165496773 0 0.0031234569620915962 0.00010356640088407785 0 0.0038223713708510749 4.2330425420140789e-05 0 0.0039764305944839148 -0.00057754181165496773 0 0.0027963693574713814 -0.00077206316596001984 0 0.0031234569620915962 0.00010356640088407785 0 0.0064001317208651799 -0.0013096978691809556 0 0.0016780605106538682 -0.0010273383967699631 0 0.0040559987472799817 -0.0022868644983638159 0 0.0046057723006079311 -0.0024100027585092052 0 0.0036153730415940679 -0.00040664171200440163 0 -0.0016616872196993033 -0.0034569764908659677 0 -0.0017093227594821903 -0.0036622360267906055 0 -0.0021837364852022212 -0.0027363087958620939 0 0.0055737200038938435 -0.00187560202504346 0 0.0016780605106538682 -0.0010273383967699631 0 -0.0016616872196993033 -0.0034569764908659677 0 -0.0021837364852022212 -0.0027363087958620939 0 -0.0017445137955040952 -0.0029317767416798166 0 -0.00085790897727780219 -0.0033274111496176483 0 -0.0017243862059667034 -0.0036659625332039598 0 6.100842890746557e-05 -0.0036215446699425489 0 0.0093483756340231906 -0.0019951086090944752 0 0.009780572306819859 -0.0021742617973242238 0 0.0083944870187008698 -0.0024602201925380839 0 -0.0017093227594821903 -0.0036622360267906055 0 -0.0017394976109120564 -0.0037786629089102504 0 -0.0021837364852022212 -0.0027363087958620939 0 0.0047426599893074508 -0.001924352177148172 0 0.0040814586398203118 -0.0031016738669496463 0 -0.0016616872196993033 -0.0034569764908659677 0 -0.0014223379146419211 -0.0030760669461706476 0 -0.0017445137955040952 -0.0029317767416798166 0 0.0040901441173383105 -0.0026372417205710705 0 0.0047426599893074508 -0.001924352177148172 0 -0.0016616872196993033 -0.0034569764908659677 0 -0.00085790897727780219 -0.0033274111496176483 0 -0.0017243862059667034 -0.0036659625332039598 0 -0.0016616872196993033 -0.0034569764908659677 0 -0.00085790897727780219 -0.0033274111496176483 0 -0.0014223379146419211 -0.0030760669461706476 0 0.0093483756340231906 -0.0019951086090944752 0 0.0098126125271638352 -0.0020772869798708401 0 0.0088602969643486289 -0.0010507985741884181 0 0.0064001317208651799 -0.0013096978691809556 0 0.0083445507535158808 -0.0005436738828474006 0 0.0072152108604994691 -0.0012001573877548745 0 0.0071179676972493982 -0.0011784476638628527 0 0.0071737352744790572 -0.00098500749264872779 0 0.0064001317208651799 -0.0013096978691809556 0 0.0055737200038938435 -0.00187560202504346 0 0.0093483756340231906 -0.0019951086090944752 0 0.009780572306819859 -0.0021742617973242238 0 0.0098126125271638352 -0.0020772869798708401 0 0.0047426599893074508 -0.001924352177148172 0 0.0055737200038938435 -0.00187560202504346 0 0.0055737200038938435 -0.00187560202504346 0 0.0083445507535158808 -0.0005436738828474006 0 0.0095053938238843904 0.00023830621973887348 0 0.0083445507535158808 -0.0005436738828474006 0 0.0095599455224545816 -0.0012604207629134583 0 0.0096492634149227836 -0.00096619046404900833 0 0.0090895845526271293 -0.00015994754685540603 0 0.0098126125271638352 -0.0020772869798708401 0 0.0090895845526271293 -0.00015994754685540603 0 0.0088602969643486289 -0.0010507985741884181 0 0.0055737200038938435 -0.00187560202504346 0 0.010371598924813361 -0.0003860762117818573 0 0.0097862393199510799 0.00013544410078386132 0 0.0083445507535158808 -0.0005436738828474006 0 0.0097902496558583442 -0.00030013593395023913 0 0.0097071118333696121 -0.00043593751803251425 0 0.0098035651390388483 -0.00039089009294773997 0 0.0097094402185169838 -0.00048635884340908351 0 0.0098035651390388483 -0.00039089009294773997 0 0.0098557604228779374 -0.00044692708016169636 0 0.0097094402185169838 -0.00048635884340908351 0 0.0097071118333696121 -0.00043593751803251425 0 0.0098035651390388483 -0.00039089009294773997 0 0.0098035651390388483 -0.00039089009294773997 0 0.0099070414455386582 -0.00036566835323945845 0 0.0098557604228779374 -0.00044692708016169636 0 0.0098626295205988621 -0.00032131202682374004 0 0.0098035651390388483 -0.00039089009294773997 0 0.0099070414455386582 -0.00036566835323945845 0 0.0099070414455386582 -0.00036566835323945845 0 0.0098557604228779374 -0.00044692708016169636 0 0.0099553711039260997 -0.00039671155017563281 0 0.0099812746862404239 -0.00033741268378578514 0 0.0099070414455386582 -0.00036566835323945845 0 0.0099553711039260997 -0.00039671155017563281 0 0.0065163614513661797 -0.00050176801812479549 0 0.0053560821091440973 -0.00079582285147357899 0 0.0027963693574713814 -0.00077206316596001984 0 0.0019933519583136294 0.00021457651524956295 0 0.0016099403904313021 -0.00096469755774716284 0 0.0027963693574713814 -0.00077206316596001984 0 0.0031234569620915962 0.00010356640088407785 0 0.0019933519583136294 0.00021457651524956295 0 0.0031234569620915962 0.00010356640088407785 0 0.0019933519583136294 0.00021457651524956295 0 0.0027291371721360641 0.00082310366370117859 0 0.0031234569620915962 0.00010356640088407785 0 0.0027291371721360641 0.00082310366370117859 0 0.0034386632738133503 0.00079738514828525404 0 0.0019933519583136294 0.00021457651524956295 0 0.0020626903139377827 0.001265547269336571 0 0.0010384781759582113 0.00097413691258171886 0 0.0019933519583136294 0.00021457651524956295 0 0.0020626903139377827 0.001265547269336571 0 0.0027291371721360641 0.00082310366370117859 0 0.00088336596539477562 0.0010415021042107957 0 0.00048640485244903227 0.00056426263559219612 0 0.0020626903139377827 0.001265547269336571 0 0.0027291371721360641 0.00082310366370117859 0 0.0030594180674143497 0.0015444079863385005 0 0.0027291371721360641 0.00082310366370117859 0 0.0034386632738133503 0.00079738514828525404 0 0.0030594180674143497 0.0015444079863385005 0 -0.00097030174170822611 -0.0012213968829030684 0 -0.0024125801689534416 -0.00023509794511043992 0 0.00029913692750701025 -0.00044992537194757121 0 9.2595957964751975e-05 -0.00050846861660479791 0 8.0361202810618016e-05 0.00046214275555779127 0 0.0017537216649802481 0.00015268233523688129 0 0.00048640485244903227 0.00056426263559219612 0 -0.0023217704948401215 -0.0017275915883013685 0 -0.0024501010352043985 -0.001007582914075411 0 -0.0023058967915761423 -0.0011353119359317778 0 9.2595957964751975e-05 -0.00050846861660479791 0 8.0361202810618016e-05 0.00046214275555779127 0 -0.00032991920107035548 0.00034537908181107429 0 -0.0020498720669243839 -0.001217389536666634 0 -0.0023217704948401215 -0.0017275915883013685 0 -0.0016920570606337828 -0.0015546663496996507 0 -0.0020498720669243839 -0.001217389536666634 0 -0.0023217704948401215 -0.0017275915883013685 0 -0.0023058967915761423 -0.0011353119359317778 0 0.00029913692750701025 -0.00044992537194757121 0 9.2595957964751975e-05 -0.00050846861660479791 0 0.00053078329385928744 -0.0013571890561962763 0 -0.00097030174170822611 -0.0012213968829030684 0 0.0016780605106538682 -0.0010273383967699631 0 0.0031234569620915962 0.00010356640088407785 0 0.0034386632738133503 0.00079738514828525404 0 0.0038223713708510749 4.2330425420140789e-05 0 -0.0023217704948401215 -0.0017275915883013685 0 -0.0021837364852022212 -0.0027363087958620939 0 -0.0017625902769226509 -0.0020595665936733927 0 0.0017537216649802481 0.00015268233523688129 0 0.0016780605106538682 -0.0010273383967699631 0 -0.00085790897727780219 -0.0033274111496176483 0 -0.0014223379146419211 -0.0030760669461706476 0 -0.0013995674563183993 -0.002593711275345259 0 -0.00085790897727780219 -0.0033274111496176483 0 -0.0013995674563183993 -0.002593711275345259 0 -0.00054327702568511592 -0.0022665264153294562 0 -0.0021837364852022212 -0.0027363087958620939 0 -0.0013995674563183993 -0.002593711275345259 0 -0.0017445137955040952 -0.0029317767416798166 0 -0.0014223379146419211 -0.0030760669461706476 0 -0.0013995674563183993 -0.002593711275345259 0 -0.0017445137955040952 -0.0029317767416798166 0 -0.0021837364852022212 -0.0027363087958620939 0 -0.0013995674563183993 -0.002593711275345259 0 -0.0017625902769226509 -0.0020595665936733927 0 -0.0013995674563183993 -0.002593711275345259 0 -0.001307308302773199 -0.001948206548503221 0 -0.00054327702568511592 -0.0022665264153294562 0 -0.0013995674563183993 -0.002593711275345259 0 -0.0017625902769226509 -0.0020595665936733927 0 -0.001307308302773199 -0.001948206548503221 0 -0.001307308302773199 -0.001948206548503221 0 -0.0016920570606337828 -0.0015546663496996507 0 -0.0011574472779584653 -0.0014900656679751711 0 -0.0017625902769226509 -0.0020595665936733927 0 -0.001307308302773199 -0.001948206548503221 0 -0.0016920570606337828 -0.0015546663496996507 0 -0.0023217704948401215 -0.0017275915883013685 0 -0.0017625902769226509 -0.0020595665936733927 0 -0.0016920570606337828 -0.0015546663496996507 0 -0.0020498720669243839 -0.001217389536666634 0 -0.0016920570606337828 -0.0015546663496996507 0 -0.0016830743527910179 -0.0011424952224331182 0 -0.0016920570606337828 -0.0015546663496996507 0 -0.0016830743527910179 -0.0011424952224331182 0 -0.0011574472779584653 -0.0014900656679751711 0 -0.0016830743527910179 -0.0011424952224331182 0 -0.0017224166730238747 -0.00089699295305695832 0 -0.0013916207161878381 -0.00095554257213965616 0 -0.0016830743527910179 -0.0011424952224331182 0 -0.0011574472779584653 -0.0014900656679751711 0 -0.0013916207161878381 -0.00095554257213965616 0 -0.0016830743527910179 -0.0011424952224331182 0 -0.0020241127599219615 -0.00092572777205303597 0 -0.0017224166730238747 -0.00089699295305695832 0 -0.0020498720669243839 -0.001217389536666634 0 -0.0016830743527910179 -0.0011424952224331182 0 -0.0020241127599219615 -0.00092572777205303597 0 -0.0020241127599219615 -0.00092572777205303597 0 -0.0017224166730238747 -0.00089699295305695832 0 -0.0017943399694324729 -0.00056805402615337256 0 -0.0017224166730238747 -0.00089699295305695832 0 -0.0017943399694324729 -0.00056805402615337256 0 -0.0013916207161878381 -0.00095554257213965616 0 -0.00088351522588788617 0.00063245441421103273 0 -0.00082290834973660699 0.00057377367086400039 0 -0.00080867094147884318 0.00065475155573090744 0 -0.0024125801689534416 -0.00023509794511043992 0 0.00048640485244903227 0.00056426263559219612 0 -0.0020498720669243839 -0.001217389536666634 0 -0.0020241127599219615 -0.00092572777205303597 0 -0.002242305720943891 -0.00097418945984052555 0 -0.0024501010352043985 -0.001007582914075411 0 -0.0022466246871599618 -0.00095050458033638498 0 -0.0023058967915761423 -0.0011353119359317778 0 -0.0034619028447503233 -0.0011943368257247582 0 -0.0031972205186919654 -0.0010145891722597186 0 -0.0024125801689534416 -0.00023509794511043992 0 -0.0034619028447503233 -0.0011943368257247582 0 -0.0020498720669243839 -0.001217389536666634 0 -0.002242305720943891 -0.00097418945984052555 0 -0.0023058967915761423 -0.0011353119359317778 0 -0.0024633874778921634 -0.00095065991984188047 0 -0.0034619028447503233 -0.0011943368257247582 0 -0.00088351522588788617 0.00063245441421103273 0 -0.00085184617044506633 0.00049329447960337223 0 -0.00082290834973660699 0.00057377367086400039 0 -0.0024125801689534416 -0.00023509794511043992 0 -0.0038317368464542028 -0.00031579556635151176 0 -0.0067306815068540211 -0.0013126736637803622 0 -0.0067344424072010699 -0.001314456425883778 0 -0.0067648722622971561 -0.0013096007045681226 0 -0.0067344424072010699 -0.001314456425883778 0 -0.0067648722622971561 -0.0013096007045681226 0 -0.0067727179614083368 -0.0013053224215762082 0 -0.0067344424072010699 -0.001314456425883778 0 -0.0067727179614083368 -0.0013053224215762082 0 -0.0067576036146923604 -0.0012990273402486428 0 -0.0034619028447503233 -0.0011943368257247582 0 -0.0045505296802975607 -0.00073899974592951765 0 -0.0038317368464542028 -0.00031579556635151176 0 -0.0050706538001256364 -0.001154092427379672 0 -0.0067648722622971561 -0.0013096007045681226 0 -0.0067727179614083368 -0.0013053224215762082 0 -0.0068299475267031302 -0.001296907931596828 0 -0.0020241127599219615 -0.00092572777205303597 0 -0.0017943399694324729 -0.00056805402615337256 0 -0.0020648321298729895 -0.00015562397011108814 0 -0.0020241127599219615 -0.00092572777205303597 0 -0.0021915997715907568 -0.00097806887862921681 0 -0.0020648321298729895 -0.00015562397011108814 0 -0.0017943399694324729 -0.00056805402615337256 0 -0.0020648321298729895 -0.00015562397011108814 0 -0.0018507135266312171 -3.0898433618433174e-05 0 -0.0045505296802975607 -0.00073899974592951765 0 -0.004395355912950984 -0.00043933917938191705 0 -0.0067576036146923604 -0.0012990273402486428 0 -0.0068081713069089627 -0.001242875481413979 0 -0.0067754889166776709 -0.0012157580992910942 0 -0.0020648321298729895 -0.00015562397011108814 0 -0.0021280263555601762 0.0002883239590447722 0 -0.0018507135266312171 -3.0898433618433174e-05 0 -0.0067727179614083368 -0.0013053224215762082 0 -0.0067576036146923604 -0.0012990273402486428 0 -0.0068009065207172365 -0.0012826512088621586 0 -0.0067727179614083368 -0.0013053224215762082 0 -0.0068009065207172365 -0.0012826512088621586 0 -0.0068299475267031302 -0.001296907931596828 0 -0.0068009065207172365 -0.0012826512088621586 0 -0.0068430033675286051 -0.0012517141385169697 0 -0.0068081713069089627 -0.001242875481413979 0 -0.0068009065207172365 -0.0012826512088621586 0 -0.0068430033675286051 -0.0012517141385169697 0 -0.0068299475267031302 -0.001296907931596828 0 -0.0067576036146923604 -0.0012990273402486428 0 -0.0068009065207172365 -0.0012826512088621586 0 -0.0068081713069089627 -0.001242875481413979 0 -0.0068081713069089627 -0.001242875481413979 0 -0.0068408543250932288 -0.0011802119499531656 0 -0.0067754889166776709 -0.0012157580992910942 0 -0.0068081713069089627 -0.001242875481413979 0 -0.0068784043850942632 -0.0011946525394020255 0 -0.0068408543250932288 -0.0011802119499531656 0 -0.0068430033675286051 -0.0012517141385169697 0 -0.0068081713069089627 -0.001242875481413979 0 -0.0068784043850942632 -0.0011946525394020255 0 -0.0068784043850942632 -0.0011946525394020255 0 -0.0068408543250932288 -0.0011802119499531656 0 -0.0069107400368822857 -0.0011196284211416072 0 -0.0068784043850942632 -0.0011946525394020255 0 -0.0069672279829412547 -0.0011599446219098355 0 -0.0069107400368822857 -0.0011196284211416072 0 -0.0068408543250932288 -0.0011802119499531656 0 -0.0067754889166776709 -0.0012157580992910942 0 -0.0067863166624879418 -0.0011317733333304433 0 -0.0066949930719230732 -0.0011927664957584096 0 -0.0067754889166776709 -0.0012157580992910942 0 -0.0067863166624879418 -0.0011317733333304433 0 -0.0067576036146923604 -0.0012990273402486428 0 -0.0066949930719230732 -0.0011927664957584096 0 -0.0067754889166776709 -0.0012157580992910942 0 -0.004165808781238697 -0.00021151650212431061 0 -0.0078287053162750479 -0.00061750775646400851 0 -0.0069672279829412547 -0.0011599446219098355 0 -0.0069795144258669017 -0.0012319659272457598 0 -0.0070439923801805136 -0.0012049340288600224 0 -0.0072754315925617407 0.00086815425102038058 0 -0.0072137559726641659 0.00033012704087333688 0 -0.00770494637541642 7.0957936528456042e-05 0 -0.0069672279829412547 -0.0011599446219098355 0 -0.0070439923801805136 -0.0012049340288600224 0 -0.0070572380422390044 -0.0010962197318888313 0 -0.007361120585708549 -0.0011345444264253182 0 -0.0050706538001256364 -0.001154092427379672 0 -0.0068430033675286051 -0.0012517141385169697 0 -0.0068784043850942632 -0.0011946525394020255 0 -0.0069672279829412547 -0.0011599446219098355 0 -0.0068430033675286051 -0.0012517141385169697 0 -0.0069672279829412547 -0.0011599446219098355 0 -0.0068299475267031302 -0.001296907931596828 0 -0.0069672279829412547 -0.0011599446219098355 0 -0.0069042225477920416 -0.0012572893355262066 0 -0.0069795144258669017 -0.0012319659272457598 0 -0.00083111547074441372 0.0003593142338499011 0 -0.00067962798927759217 0.00032746970572179843 0 -0.00071336576307011392 0.00042699583844073335 0 -0.0050706538001256364 -0.001154092427379672 0 -0.0036279431533020271 -0.0005300395612131267 0 -0.00067962798927759217 0.00032746970572179843 0 -0.00059402847544143592 0.00043560014788751399 0 -0.00071336576307011392 0.00042699583844073335 0 -0.00067962798927759217 0.00032746970572179843 0 -0.00056537704992652422 0.00037705775914928362 0 -0.00054582606908082257 0.00029692680298944255 0 -0.0036279431533020271 -0.0005300395612131267 0 -0.004165808781238697 -0.00021151650212431061 0 -0.00067962798927759217 0.00032746970572179843 0 -0.00056537704992652422 0.00037705775914928362 0 -0.00059402847544143592 0.00043560014788751399 0 -0.00056537704992652422 0.00037705775914928362 0 -0.00059402847544143592 0.00043560014788751399 0 -0.00051182700037303522 0.0004328260637999873 0 -0.00059402847544143592 0.00043560014788751399 0 -0.00071336576307011392 0.00042699583844073335 0 -0.00059999893530255125 0.00054586640851776258 0 -0.00059402847544143592 0.00043560014788751399 0 -0.00059999893530255125 0.00054586640851776258 0 -0.00048266170932705028 0.00051456831526161019 0 -0.00085184617044506633 0.00049329447960337223 0 -0.00083111547074441372 0.0003593142338499011 0 -0.00071336576307011392 0.00042699583844073335 0 -0.00071336576307011392 0.00042699583844073335 0 -0.00073365185959982327 0.00052158362421982779 0 -0.00059999893530255125 0.00054586640851776258 0 -0.00085184617044506633 0.00049329447960337223 0 -0.00071336576307011392 0.00042699583844073335 0 -0.00073365185959982327 0.00052158362421982779 0 -0.00085184617044506633 0.00049329447960337223 0 -0.00073365185959982327 0.00052158362421982779 0 -0.00082290834973660699 0.00057377367086400039 0 -0.0005854366831933161 0.00069356973077436116 0 -0.00067346964431944708 0.00060349480716797535 0 -0.00077350902124400983 0.0006483630696115792 0 -0.0007791321669282157 0.00073587673481953942 0 0.00048640485244903227 0.00056426263559219612 0 -0.00073365185959982327 0.00052158362421982779 0 -0.00082290834973660699 0.00057377367086400039 0 -0.00080867094147884318 0.00065475155573090744 0 -0.00073365185959982327 0.00052158362421982779 0 -0.00067346964431944708 0.00060349480716797535 0 -0.00059999893530255125 0.00054586640851776258 0 -0.00073365185959982327 0.00052158362421982779 0 -0.00067346964431944708 0.00060349480716797535 0 -0.00077350902124400983 0.0006483630696115792 0 -0.0005854366831933161 0.00069356973077436116 0 -0.00059999893530255125 0.00054586640851776258 0 -0.0004414915959797603 0.0005975328776177671 0 -0.0005854366831933161 0.00069356973077436116 0 -0.00067346964431944708 0.00060349480716797535 0 -0.00059999893530255125 0.00054586640851776258 0 -0.0004414915959797603 0.0005975328776177671 0 -0.00026533309263243149 0.00061672552171623059 0 -0.00036410618403810783 0.00053506014200480978 0 -0.0004414915959797603 0.0005975328776177671 0 -0.00036410618403810783 0.00053506014200480978 0 -0.00048266170932705028 0.00051456831526161019 0 -0.00059999893530255125 0.00054586640851776258 0 -0.0004414915959797603 0.0005975328776177671 0 -0.00048266170932705028 0.00051456831526161019 0 -0.00026533309263243149 0.00061672552171623059 0 -0.00027841418638390331 0.00057897931242425701 0 -0.00018891264921460038 0.00063696751465199691 0 -0.00026533309263243149 0.00061672552171623059 0 -0.00027841418638390331 0.00057897931242425701 0 -0.00036410618403810783 0.00053506014200480978 0 -0.00027841418638390331 0.00057897931242425701 0 -0.00033123428458909878 0.00051926476510824355 0 -0.00036410618403810783 0.00053506014200480978 0 -0.00027841418638390331 0.00057897931242425701 0 -0.00033123428458909878 0.00051926476510824355 0 -0.00029235352821588913 0.00053521410286219446 0 -0.00033123428458909878 0.00051926476510824355 0 -0.00036410618403810783 0.00053506014200480978 0 -0.00037526797540001579 0.0004642254104824522 0 -0.00037526797540001579 0.0004642254104824522 0 -0.00044073164376730268 0.00045762471013665099 0 -0.00043175336748286537 0.00041687781066319213 0 -0.00036410618403810783 0.00053506014200480978 0 -0.00037526797540001579 0.0004642254104824522 0 -0.00044073164376730268 0.00045762471013665099 0 -0.00037526797540001579 0.0004642254104824522 0 -0.00036596028873825366 0.00044150084898703622 0 -0.00033913181670148194 0.00047789513815746072 0 -0.00033123428458909878 0.00051926476510824355 0 -0.00037526797540001579 0.0004642254104824522 0 -0.00033913181670148194 0.00047789513815746072 0 -0.00036410618403810783 0.00053506014200480978 0 -0.00048266170932705028 0.00051456831526161019 0 -0.00044073164376730268 0.00045762471013665099 0 -0.00059402847544143592 0.00043560014788751399 0 -0.00048266170932705028 0.00051456831526161019 0 -0.00051182700037303522 0.0004328260637999873 0 -0.00048266170932705028 0.00051456831526161019 0 -0.00044073164376730268 0.00045762471013665099 0 -0.00051182700037303522 0.0004328260637999873 0 -0.00044073164376730268 0.00045762471013665099 0 -0.00051182700037303522 0.0004328260637999873 0 -0.00049652465071399346 0.00038294313593345282 0 -0.00056537704992652422 0.00037705775914928362 0 -0.00051182700037303522 0.0004328260637999873 0 -0.00049652465071399346 0.00038294313593345282 0 -0.00056537704992652422 0.00037705775914928362 0 -0.00049652465071399346 0.00038294313593345282 0 -0.00054582606908082257 0.00029692680298944255 0 -0.00049652465071399346 0.00038294313593345282 0 -0.00052780685295409095 0.0003550194469322354 0 -0.00045070536850807456 0.00038165988642009543 0 -0.0017220394888813443 0.0010655701853241036 0 -0.004165808781238697 -0.00021151650212431061 0 -0.00049652465071399346 0.00038294313593345282 0 -0.00045070536850807456 0.00038165988642009543 0 -0.00043175336748286537 0.00041687781066319213 0 -0.00044073164376730268 0.00045762471013665099 0 -0.00049652465071399346 0.00038294313593345282 0 -0.00043175336748286537 0.00041687781066319213 0 -0.00037526797540001579 0.0004642254104824522 0 -0.00043175336748286537 0.00041687781066319213 0 -0.00039994883404869677 0.00041111490783322024 0 -0.00037526797540001579 0.0004642254104824522 0 -0.00036596028873825366 0.00044150084898703622 0 -0.00039994883404869677 0.00041111490783322024 0 -0.00036596028873825366 0.00044150084898703622 0 -0.00038002156047581103 0.00040217846210969019 0 -0.00039994883404869677 0.00041111490783322024 0 -0.00036596028873825366 0.00044150084898703622 0 -0.00038002156047581103 0.00040217846210969019 0 -0.00036028847993140999 0.00043024241744636801 0 -0.00038002156047581103 0.00040217846210969019 0 -0.00039994883404869677 0.00041111490783322024 0 -0.00041034411631759936 0.00037943840899819204 0 -0.00045070536850807456 0.00038165988642009543 0 -0.00043175336748286537 0.00041687781066319213 0 -0.00039994883404869677 0.00041111490783322024 0 -0.00045070536850807456 0.00038165988642009543 0 -0.00039994883404869677 0.00041111490783322024 0 -0.00041034411631759936 0.00037943840899819204 0 -0.00045070536850807456 0.00038165988642009543 0 -0.00041034411631759936 0.00037943840899819204 0 -0.00044789153434522921 0.00035144289194091353 0 -0.00041034411631759936 0.00037943840899819204 0 -0.00044789153434522921 0.00035144289194091353 0 -0.00037299456113060804 0.00034824695247322787 0 -0.00038002156047581103 0.00040217846210969019 0 -0.00041034411631759936 0.00037943840899819204 0 -0.00037299456113060804 0.00034824695247322787 0 -0.0038100149828775654 0.00058298545311977657 0 -0.0020521111081835131 0.00037588835925775658 0 -0.0067930065112787449 0.00070499269015961521 0 -0.0062887471451758799 0.00053610684159019896 0 -0.0067895985174079255 0.0002808442786642562 0 -0.0072754315925617407 0.00086815425102038058 0 -0.0067930065112787449 0.00070499269015961521 0 -0.0072137559726641659 0.00033012704087333688 0 -0.0067930065112787449 0.00070499269015961521 0 -0.0072137559726641659 0.00033012704087333688 0 -0.0067895985174079255 0.0002808442786642562 0 -0.00052780685295409095 0.0003550194469322354 0 -0.00045070536850807456 0.00038165988642009543 0 -0.00044789153434522921 0.00035144289194091353 0 -0.004165808781238697 -0.00021151650212431061 0 -0.0038100149828775654 0.00058298545311977657 0 -0.00036425311821417243 -0.00042059094399136396 0 0.0002805482392695492 0.00012859352549270112 0 0.00024062765060500936 -0.0005266902426996178 0 -0.00035823310488326956 -0.00016470917712476903 0 -0.00057902516503166568 -7.0825034809510933e-05 0 -0.00071613138903959454 -0.00023173265713729272 0 -0.00072642081579624488 -0.00016479364746438342 0 -0.0020521111081835131 0.00037588835925775658 0 -0.00057902516503166568 -7.0825034809510933e-05 0 -0.00071613138903959454 -0.00023173265713729272 0 -0.00091193208828378865 -0.00012218703658118497 0 -0.00057902516503166568 -7.0825034809510933e-05 0 -0.00091193208828378865 -0.00012218703658118497 0 -0.00048068027398775711 0.00013335518328911621 0 -0.00035823310488326956 -0.00016470917712476903 0 -0.00057902516503166568 -7.0825034809510933e-05 0 -0.00048068027398775711 0.00013335518328911621 0 -0.00037299456113060804 0.00034824695247322787 0 -0.00036028847993140999 0.00043024241744636801 0 -0.00035874996958434424 0.00044869359776902802 0 -0.00091193208828378865 -0.00012218703658118497 0 -0.00048068027398775711 0.00013335518328911621 0 -0.00035874996958434424 0.00044869359776902802 0 -0.00038002156047581103 0.00040217846210969019 0 -0.00037299456113060804 0.00034824695247322787 0 -0.00036028847993140999 0.00043024241744636801 0 -0.0020521111081835131 0.00037588835925775658 0 -2.2381538221028944e-05 0.00042145902542191078 0 -0.00048068027398775711 0.00013335518328911621 0 -0.00035874996958434424 0.00044869359776902802 0 -0.00025226726626482603 0.0005225421042724072 0 -0.00036596028873825366 0.00044150084898703622 0 -0.00036028847993140999 0.00043024241744636801 0 -0.00033913181670148194 0.00047789513815746072 0 -0.00036028847993140999 0.00043024241744636801 0 -0.00035874996958434424 0.00044869359776902802 0 -0.00032660175957811941 0.0004781062847079721 0 -0.00036425311821417243 -0.00042059094399136396 0 -0.00030817343934058867 0.00074190258506544305 0 0.0002805482392695492 0.00012859352549270112 0 -0.00035823310488326956 -0.00016470917712476903 0 -0.00048068027398775711 0.00013335518328911621 0 -0.00025226726626482603 0.0005225421042724072 0 0.0088640761073999087 0.0024129084656149499 0 0.0082121439567781028 0.0023689358990428098 0 0.0082865811545134987 0.0029604749468679918 0 0.00169821529675954 0.00078363519124029191 0 0.0050536300393853933 0.0013698727320963404 0 -0.00064906627278100667 -0.00035160808159555838 0 0.00169821529675954 0.00078363519124029191 0 0.00169821529675954 0.00078363519124029191 0 0.0043488117069612389 0.0012652577746826014 0 0.0088640761073999087 0.0024129084656149499 0 0.0085962490478971813 0.0020847737797780696 0 0.0082121439567781028 0.0023689358990428098 0 -0.00020896894778467761 0.00046760881081183624 0 -0.00026876454656627472 0.0005160497724349363 0 -0.00020198778576768881 0.00060240340891605114 0 0.0088640761073999087 0.0024129084656149499 0 0.0085962490478971813 0.0020847737797780696 0 0.0089099109052847274 0.0018020264122744348 0 0.00169821529675954 0.00078363519124029191 0 0.00034117723833591217 0.0010697412336348453 0 -0.00036028847993140999 0.00043024241744636801 0 -0.00033913181670148194 0.00047789513815746072 0 -0.00032660175957811941 0.0004781062847079721 0 -0.00033913181670148194 0.00047789513815746072 0 -0.00032660175957811941 0.0004781062847079721 0 -0.00029235352821588913 0.00053521410286219446 0 -0.00032660175957811941 0.0004781062847079721 0 -0.00026876454656627472 0.0005160497724349363 0 -0.00029235352821588913 0.00053521410286219446 0 -0.00025226726626482603 0.0005225421042724072 0 -0.00032660175957811941 0.0004781062847079721 0 -0.00026876454656627472 0.0005160497724349363 0 -0.00035874996958434424 0.00044869359776902802 0 -0.00025226726626482603 0.0005225421042724072 0 -0.00032660175957811941 0.0004781062847079721 0 -0.00026876454656627472 0.0005160497724349363 0 -0.0002496018264329703 0.00056637160902568554 0 -0.00020198778576768881 0.00060240340891605114 0 -0.00026876454656627472 0.0005160497724349363 0 -0.0002496018264329703 0.00056637160902568554 0 -0.00029235352821588913 0.00053521410286219446 0 -0.00033123428458909878 0.00051926476510824355 0 -0.00033913181670148194 0.00047789513815746072 0 -0.00029235352821588913 0.00053521410286219446 0 -0.00027841418638390331 0.00057897931242425701 0 -0.00029235352821588913 0.00053521410286219446 0 -0.00023672392168977855 0.00061151750890930197 0 -0.0002496018264329703 0.00056637160902568554 0 -0.00023672392168977855 0.00061151750890930197 0 -0.00020198778576768881 0.00060240340891605114 0 -0.0002496018264329703 0.00056637160902568554 0 -0.00029235352821588913 0.00053521410286219446 0 -0.00023672392168977855 0.00061151750890930197 0 -0.00023672392168977855 0.00061151750890930197 0 -0.00026875686884106923 0.00067631891939802437 0 -0.00018891264921460038 0.00063696751465199691 0 -0.00027841418638390331 0.00057897931242425701 0 -0.00023672392168977855 0.00061151750890930197 0 -0.00018891264921460038 0.00063696751465199691 0 0.0043488117069612389 0.0012652577746826014 0 0.0067315057437740593 0.0011903506194386544 0 -0.00023672392168977855 0.00061151750890930197 0 -0.00020198778576768881 0.00060240340891605114 0 -0.00026875686884106923 0.00067631891939802437 0 0.0089099109052847274 0.0018020264122744348 0 0.0088424351283498855 0.0014405472833343394 0 0.0089557596598435849 0.0012345898000449532 0 0.0085962490478971813 0.0020847737797780696 0 0.0086640839478147758 0.0017129728014695568 0 0.0083675815885935981 0.0017920526726224642 0 0.0085962490478971813 0.0020847737797780696 0 0.0086640839478147758 0.0017129728014695568 0 0.0089099109052847274 0.0018020264122744348 0 0.0086640839478147758 0.0017129728014695568 0 0.0089099109052847274 0.0018020264122744348 0 0.0088424351283498855 0.0014405472833343394 0 0.0086640839478147758 0.0017129728014695568 0 0.0088424351283498855 0.0014405472833343394 0 0.0085183390664882019 0.0014917054301926921 0 0.0088424351283498855 0.0014405472833343394 0 0.0087104305464679177 0.0012473193782174751 0 0.0085183390664882019 0.0014917054301926921 0 0.0088424351283498855 0.0014405472833343394 0 0.0087104305464679177 0.0012473193782174751 0 0.009008766525027875 0.0012225860276489581 0 0.0077692341438252814 0.0008879228778730597 0 0.0067315057437740593 0.0011903506194386544 0 0.0087104305464679177 0.0012473193782174751 0 0.009008766525027875 0.0012225860276489581 0 0.0087208993373188472 0.00090150749807900031 0 0.009008766525027875 0.0012225860276489581 0 0.0087208993373188472 0.00090150749807900031 0 0.0091778019793483778 0.00046510216358043572 0 0.0067315057437740593 0.0011903506194386544 0 0.0095323625658047702 0.00050897080084485406 0 0.0087208993373188472 0.00090150749807900031 0 0.0091778019793483778 0.00046510216358043572 0 0.0087655896222419184 0.0004802229039767424 0 0.0067315057437740593 0.0011903506194386544 0 0.004123736996898315 0.00024949561846110283 0 -0.00026875686884106923 0.00067631891939802437 0 -0.00019138921920657767 8.3908575719695587e-05 0 -4.6916648817526482e-05 0.00059272067165706832 0 0.0091314002393253647 0.0011677144751041128 0 0.0091778019793483778 0.00046510216358043572 0 0.0095580383399306804 0.0004209918271324301 0 -0.00026875686884106923 0.00067631891939802437 0 -4.6916648817526482e-05 0.00059272067165706832 0 -0.00018891264921460038 0.00063696751465199691 0 -0.00026533309263243149 0.00061672552171623059 0 -4.6916648817526482e-05 0.00059272067165706832 0 -0.00018891264921460038 0.00063696751465199691 0 -0.00026533309263243149 0.00061672552171623059 0 -4.6916648817526482e-05 0.00059272067165706832 0 -0.0003663507381140569 0.00071164037335483699 0 -1.8255297838491673e-05 0.00063823866901289972 0 0.00029721047629815999 0.00081332107692728267 0 0.00088336596539477562 0.0010415021042107957 0 0.00029721047629815999 0.00081332107692728267 0 -0.0004414915959797603 0.0005975328776177671 0 -0.00026533309263243149 0.00061672552171623059 0 -0.0003663507381140569 0.00071164037335483699 0 -0.0005854366831933161 0.00069356973077436116 0 -0.0004414915959797603 0.0005975328776177671 0 -0.0003663507381140569 0.00071164037335483699 0 0.0019933519583136294 0.00021457651524956295 0 0.0010384781759582113 0.00097413691258171886 0 0.00078607266716959688 -3.9454611991926764e-06 0 -4.6916648817526482e-05 0.00059272067165706832 0 0.0010384781759582113 0.00097413691258171886 0 0.00078607266716959688 -3.9454611991926764e-06 0 -0.00019138921920657767 8.3908575719695587e-05 0 -4.6916648817526482e-05 0.00059272067165706832 0 0.00078607266716959688 -3.9454611991926764e-06 0 -0.00019138921920657767 8.3908575719695587e-05 0 0.00078607266716959688 -3.9454611991926764e-06 0 0.0004575939212406015 -0.0011372852863812542 0 0.0019933519583136294 0.00021457651524956295 0 0.00078607266716959688 -3.9454611991926764e-06 0 0.0016099403904313021 -0.00096469755774716284 0 0.00078607266716959688 -3.9454611991926764e-06 0 0.0016099403904313021 -0.00096469755774716284 0 0.0004575939212406015 -0.0011372852863812542 0 0.0099812746862404239 -0.00033741268378578514 0 0.0099553711039260997 -0.00039671155017563281 0 0.010008236874623081 -0.00036859924200782171 0 0.0053560821091440973 -0.00079582285147357899 0 0.0070782809839110682 -9.2897097637034717e-05 0 0.0070782809839110682 -9.2897097637034717e-05 0 0.010428526473222554 4.6364433735980202e-05 0 0.0098231470426315189 -0.00010747944008893427 0 0.0095811507568054257 -0.00012621461831515242 0 0.0094785863443483023 0.00010243380793941229 0 0.0097861883073661511 -0.00022026431873223217 0 0.0098139205422548698 -6.8506583795397018e-05 0 0.0095811507568054257 -0.00012621461831515242 0 0.0095811507568054257 -0.00012621461831515242 0 0.0091933274238459092 -2.3111917214051844e-05 0 0.0094785863443483023 0.00010243380793941229 0 0.0095326553715306232 -0.00030957925913371073 0 0.0091933274238459092 -2.3111917214051844e-05 0 0.0090128393337372634 -0.00041501553686016962 0 0.0095326553715306232 -0.00030957925913371073 0 0.0095811507568054257 -0.00012621461831515242 0 0.0091933274238459092 -2.3111917214051844e-05 0 0.0091778019793483778 0.00046510216358043572 0 0.0091933274238459092 -2.3111917214051844e-05 0 0.0094785863443483023 0.00010243380793941229 0 0.0091778019793483778 0.00046510216358043572 0 0.0087655896222419184 0.0004802229039767424 0 0.0091933274238459092 -2.3111917214051844e-05 0 0.004123736996898315 0.00024949561846110283 0 0.0070782809839110682 -9.2897097637034717e-05 0 0.0095580383399306804 0.0004209918271324301 0 0.0098231470426315189 -0.00010747944008893427 0 0.0094785863443483023 0.00010243380793941229 0 0.0091778019793483778 0.00046510216358043572 0 0.0095580383399306804 0.0004209918271324301 0 0.0094785863443483023 0.00010243380793941229 0 0.0075603240720042049 9.4860232758420891e-05 0 0.0084494674203779204 0.00026250709454022074 0 0.007609391636730533 0.00056808682805066133 0 0.0075603240720042049 9.4860232758420891e-05 0 0.0084494674203779204 0.00026250709454022074 0 0.0090128393337372634 -0.00041501553686016962 0 0.0091933274238459092 -2.3111917214051844e-05 0 0.0084494674203779204 0.00026250709454022074 0 0.0090128393337372634 -0.00041501553686016962 0 0.0087655896222419184 0.0004802229039767424 0 0.0091933274238459092 -2.3111917214051844e-05 0 0.0084494674203779204 0.00026250709454022074 0 0.0075603240720042049 9.4860232758420891e-05 0 0.0090128393337372634 -0.00041501553686016962 0 0.0074970137329001488 -0.00044420929118935631 0 0.0074970137329001488 -0.00044420929118935631 0 0.0067873308390505602 -0.00049188584787223234 0 0.0066191953886582172 -0.00014256644773077149 0 0.0067873308390505602 -0.00049188584787223234 0 0.0066191953886582172 -0.00014256644773077149 0 0.0062228401579288292 -0.00041025248977374679 0 0.0065157565084081413 -0.00072165574585789398 0 0.0067873308390505602 -0.00049188584787223234 0 0.0062228401579288292 -0.00041025248977374679 0 0.0066191953886582172 -0.00014256644773077149 0 0.0067108672740446382 0.00025591678250339419 0 0.0061394446300839095 -7.2975932665507391e-05 0 0.0066191953886582172 -0.00014256644773077149 0 0.0061394446300839095 -7.2975932665507391e-05 0 0.0062228401579288292 -0.00041025248977374679 0 0.0075603240720042049 9.4860232758420891e-05 0 0.0074970137329001488 -0.00044420929118935631 0 0.0066191953886582172 -0.00014256644773077149 0 0.0075603240720042049 9.4860232758420891e-05 0 0.0066191953886582172 -0.00014256644773077149 0 0.0067108672740446382 0.00025591678250339419 0 0.0067108672740446382 0.00025591678250339419 0 0.0064810746652512775 0.00056991591228648653 0 0.0070703815503522114 0.00085999798351105833 0 0.0067108672740446382 0.00025591678250339419 0 0.0070703815503522114 0.00085999798351105833 0 0.007609391636730533 0.00056808682805066133 0 0.0075603240720042049 9.4860232758420891e-05 0 0.0067108672740446382 0.00025591678250339419 0 0.007609391636730533 0.00056808682805066133 0 0.0067108672740446382 0.00025591678250339419 0 0.0064810746652512775 0.00056991591228648653 0 0.0059376948092576048 0.00030530181861256186 0 0.0067108672740446382 0.00025591678250339419 0 0.0059376948092576048 0.00030530181861256186 0 0.0061394446300839095 -7.2975932665507391e-05 0 0.0064810746652512775 0.00056991591228648653 0 0.0059353572582183682 0.00069023717459970515 0 0.0059376948092576048 0.00030530181861256186 0 0.0064810746652512775 0.00056991591228648653 0 0.0063986424589796342 0.00090602239266043491 0 0.0070703815503522114 0.00085999798351105833 0 0.0063986424589796342 0.00090602239266043491 0 0.0059353572582183682 0.00069023717459970515 0 0.0056992791092602135 0.0011621782209507903 0 0.0064810746652512775 0.00056991591228648653 0 0.0063986424589796342 0.00090602239266043491 0 0.0059353572582183682 0.00069023717459970515 0 0.0065140185587130462 0.0012258758031325216 0 0.0070703815503522114 0.00085999798351105833 0 0.0071815131159505049 0.0015725180491980395 0 0.0066370082403149847 0.00095167924596636336 0 0.0069476680081261791 0.00087318966780342564 0 0.0070703815503522114 0.00085999798351105833 0 0.0077957913677230081 0.0013652900796345137 0 0.0076752336112014524 0.00090103135114462905 0 0.0070703815503522114 0.00085999798351105833 0 0.0077957913677230081 0.0013652900796345137 0 0.0071815131159505049 0.0015725180491980395 0 0.0077957913677230081 0.0013652900796345137 0 0.0076752336112014524 0.00090103135114462905 0 0.0082343828414821168 0.00082192026759157885 0 0.0084494674203779204 0.00026250709454022074 0 0.007609391636730533 0.00056808682805066133 0 0.0082343828414821168 0.00082192026759157885 0 0.0070703815503522114 0.00085999798351105833 0 0.0076752336112014524 0.00090103135114462905 0 0.007609391636730533 0.00056808682805066133 0 0.0076752336112014524 0.00090103135114462905 0 0.007609391636730533 0.00056808682805066133 0 0.0082343828414821168 0.00082192026759157885 0 0.0087655896222419184 0.0004802229039767424 0 0.0084494674203779204 0.00026250709454022074 0 0.0082343828414821168 0.00082192026759157885 0 0.0087208993373188472 0.00090150749807900031 0 0.0087655896222419184 0.0004802229039767424 0 0.0082343828414821168 0.00082192026759157885 0 0.0077957913677230081 0.0013652900796345137 0 0.0082343828414821168 0.00082192026759157885 0 0.0083737541062948225 0.0012075854517970763 0 0.0087104305464679177 0.0012473193782174751 0 0.0087208993373188472 0.00090150749807900031 0 0.0083737541062948225 0.0012075854517970763 0 0.0087208993373188472 0.00090150749807900031 0 0.0082343828414821168 0.00082192026759157885 0 0.0083737541062948225 0.0012075854517970763 0 0.0077957913677230081 0.0013652900796345137 0 0.0083737541062948225 0.0012075854517970763 0 0.00811888383620454 0.001549471595309508 0 0.0087104305464679177 0.0012473193782174751 0 0.0083737541062948225 0.0012075854517970763 0 0.0085183390664882019 0.0014917054301926921 0 0.0085183390664882019 0.0014917054301926921 0 0.00811888383620454 0.001549471595309508 0 0.0083675815885935981 0.0017920526726224642 0 0.0083737541062948225 0.0012075854517970763 0 0.0085183390664882019 0.0014917054301926921 0 0.00811888383620454 0.001549471595309508 0 0.0086640839478147758 0.0017129728014695568 0 0.0085183390664882019 0.0014917054301926921 0 0.0083675815885935981 0.0017920526726224642 0 0.00811888383620454 0.001549471595309508 0 0.0083675815885935981 0.0017920526726224642 0 0.0078099305711878215 0.0019115633612985137 0 0.0077957913677230081 0.0013652900796345137 0 0.0078099305711878215 0.0019115633612985137 0 0.0071815131159505049 0.0015725180491980395 0 0.0078099305711878215 0.0019115633612985137 0 0.0072223537346482042 0.002211577489345608 0 0.0071815131159505049 0.0015725180491980395 0 0.0077957913677230081 0.0013652900796345137 0 0.00811888383620454 0.001549471595309508 0 0.0078099305711878215 0.0019115633612985137 0 0.0078099305711878215 0.0019115633612985137 0 0.0077043603183366508 0.0024282056754608419 0 0.0072223537346482042 0.002211577489345608 0 0.0083675815885935981 0.0017920526726224642 0 0.0078099305711878215 0.0019115633612985137 0 0.0082121439567781028 0.0023689358990428098 0 0.0085962490478971813 0.0020847737797780696 0 0.0083675815885935981 0.0017920526726224642 0 0.0082121439567781028 0.0023689358990428098 0 0.0078099305711878215 0.0019115633612985137 0 0.0077043603183366508 0.0024282056754608419 0 0.0082121439567781028 0.0023689358990428098 0 0.0082121439567781028 0.0023689358990428098 0 0.0082865811545134987 0.0029604749468679918 0 0.0077563679488776007 0.0029091933808184454 0 0.0077043603183366508 0.0024282056754608419 0 0.0082121439567781028 0.0023689358990428098 0 0.0077563679488776007 0.0029091933808184454 0 0.0077043603183366508 0.0024282056754608419 0 0.0077563679488776007 0.0029091933808184454 0 0.0071797048206613092 0.0028842641013435998 0 0.0077043603183366508 0.0024282056754608419 0 0.0071797048206613092 0.0028842641013435998 0 0.0072223537346482042 0.002211577489345608 0 0.00031812571175836773 2.4558243127610693e-05 0 0.00080206384400157912 0.00015067872825613791 0 0.00082044714981694019 0.00051375101439341323 0 0.00031812571175836773 2.4558243127610693e-05 0 0.00080206384400157912 0.00015067872825613791 0 0.00050161966283937271 -0.00017203468562780098 0 0.00035152173931502921 0.00058749266041421291 0 0.0046052218607103637 0.0020950991887838449 0 0.0077563679488776007 0.0029091933808184454 0 0.0076912702155004309 0.0034813549318477876 0 0.0071797048206613092 0.0028842641013435998 0 0.0050536300393853933 0.0013698727320963404 0 0.00035152173931502921 0.00058749266041421291 0 0.0002805482392695492 0.00012859352549270112 0 0.00088365068670559173 -0.00048808195175370776 0 0.00024062765060500936 -0.0005266902426996178 0 0.0082865811545134987 0.0029604749468679918 0 0.0077563679488776007 0.0029091933808184454 0 0.0076912702155004309 0.0034813549318477876 0 0.0012500233143506432 0.00039673894639051375 0 0.0016457277339410469 0.00060700847165337806 0 0.0016418875128764157 0.00012252970668970802 0 -0.0035228716415432819 0.0017979892035160704 0 -0.0027866721104080091 0.0021173215920045614 0 0.0010865799157542106 -2.3339605311138095e-05 0 0.0012500233143506432 0.00039673894639051375 0 0.0016418875128764157 0.00012252970668970802 0 0.00080206384400157912 0.00015067872825613791 0 0.00082044714981694019 0.00051375101439341323 0 0.0012500233143506432 0.00039673894639051375 0 0.0010865799157542106 -2.3339605311138095e-05 0 0.00080206384400157912 0.00015067872825613791 0 0.00050161966283937271 -0.00017203468562780098 0 0.0010865799157542106 -2.3339605311138095e-05 0 0.00080206384400157912 0.00015067872825613791 0 0.0012500233143506432 0.00039673894639051375 0 0.0046052218607103637 0.0020950991887838449 0 0.0037708495690078453 0.0015313696630767325 0 0.00082044714981694019 0.00051375101439341323 0 0.0012500233143506432 0.00039673894639051375 0 0.0012912440127465093 0.00094557986217215051 0 0.0012500233143506432 0.00039673894639051375 0 0.0012912440127465093 0.00094557986217215051 0 0.0016457277339410469 0.00060700847165337806 0 0.0012912440127465093 0.00094557986217215051 0 0.001820344124586032 0.00095577917942268192 0 0.0016457277339410469 0.00060700847165337806 0 0.0037708495690078453 0.0015313696630767325 0 0.0043731108369343347 0.0011145890071634916 0 0.0012912440127465093 0.00094557986217215051 0 0.0017245258868797296 0.0013755583309868916 0 0.001820344124586032 0.00095577917942268192 0 0.0071797048206613092 0.0028842641013435998 0 0.0065894782252701361 0.0022609787307741693 0 0.0072223537346482042 0.002211577489345608 0 0.0065894782252701361 0.0022609787307741693 0 0.0072223537346482042 0.002211577489345608 0 0.006637453521126083 0.0017500175825932377 0 0.0072223537346482042 0.002211577489345608 0 0.0071815131159505049 0.0015725180491980395 0 0.006637453521126083 0.0017500175825932377 0 0.0065140185587130462 0.0012258758031325216 0 0.0071815131159505049 0.0015725180491980395 0 0.006637453521126083 0.0017500175825932377 0 0.0065894782252701361 0.0022609787307741693 0 0.006637453521126083 0.0017500175825932377 0 0.0059577213417580221 0.0015793453209336724 0 0.0065140185587130462 0.0012258758031325216 0 0.006637453521126083 0.0017500175825932377 0 0.0059577213417580221 0.0015793453209336724 0 0.0066370082403149847 0.00095167924596636336 0 0.0043731108369343347 0.0011145890071634916 0 0.0043731108369343347 0.0011145890071634916 0 0.0031329833141210774 0.00082550100904764541 0 0.0053952844706076832 0.00068016209803873164 0 0.0046591817631617734 0.00046558945112711481 0 0.0052721393160519818 0.00057056860282077738 0 0.0059353572582183682 0.00069023717459970515 0 0.0056992791092602135 0.0011621782209507903 0 0.0052721393160519818 0.00057056860282077738 0 0.0043731108369343347 0.0011145890071634916 0 0.0051371739860041838 0.00096207449720234976 0 0.0046591817631617734 0.00046558945112711481 0 0.004353905630137417 0.00076372955807721258 0 0.003340456173742365 0.00029426182244166391 0 0.0053952844706076832 0.00068016209803873164 0 0.0046591817631617734 0.00046558945112711481 0 0.004353905630137417 0.00076372955807721258 0 0.0022509491740780644 0.00096884538502193824 0 0.0022014649659646492 0.00066773927391352694 0 0.0023859732695004918 0.00055789909822458845 0 0.0022509491740780644 0.00096884538502193824 0 0.0019591544715960515 0.00069794361419176041 0 0.0022014649659646492 0.00066773927391352694 0 0.0022509491740780644 0.00096884538502193824 0 0.001820344124586032 0.00095577917942268192 0 0.0019591544715960515 0.00069794361419176041 0 0.0017245258868797296 0.0013755583309868916 0 0.0022509491740780644 0.00096884538502193824 0 0.001820344124586032 0.00095577917942268192 0 0.001820344124586032 0.00095577917942268192 0 0.0016457277339410469 0.00060700847165337806 0 0.0019591544715960515 0.00069794361419176041 0 0.0016457277339410469 0.00060700847165337806 0 0.0019004441854653337 0.00045149294415441991 0 0.0016418875128764157 0.00012252970668970802 0 0.0019004441854653337 0.00045149294415441991 0 0.0019591544715960515 0.00069794361419176041 0 0.0021372670700132465 0.00048591203762775884 0 0.0016457277339410469 0.00060700847165337806 0 0.0019004441854653337 0.00045149294415441991 0 0.0019591544715960515 0.00069794361419176041 0 0.0019591544715960515 0.00069794361419176041 0 0.0022014649659646492 0.00066773927391352694 0 0.0021372670700132465 0.00048591203762775884 0 0.0022014649659646492 0.00066773927391352694 0 0.0023124550321887345 0.00052094585582268245 0 0.0023859732695004918 0.00055789909822458845 0 0.0022014649659646492 0.00066773927391352694 0 0.0023124550321887345 0.00052094585582268245 0 0.0021372670700132465 0.00048591203762775884 0 0.0023124550321887345 0.00052094585582268245 0 0.0021372670700132465 0.00048591203762775884 0 0.0022061706016017002 0.0003548814215972225 0 0.0019004441854653337 0.00045149294415441991 0 0.0021372670700132465 0.00048591203762775884 0 0.0021789957183107759 0.0002680391938869934 0 0.00073390683092513923 5.5804692177955913e-05 0 -0.0011930137272048152 0.0016706610426838635 0 -0.0011930137272048152 0.0016706610426838635 0 -0.0027866721104080091 0.0021173215920045614 0 0.0019004441854653337 0.00045149294415441991 0 0.0021789957183107759 0.0002680391938869934 0 0.0016418875128764157 0.00012252970668970802 0 -0.0055383750496370305 0.004473166255348931 0 -0.0070335182939500257 0.0040763934703200236 0 -0.0061689414551321905 0.0033029980536789221 0 -0.00030915086096556296 -2.2820299937515832e-05 0 -0.00048157158922788548 0.00033049291886731285 0 0.0010923933180285396 1.4480422435125756e-06 0 -0.00030915086096556296 -2.2820299937515832e-05 0 0.0010923933180285396 1.4480422435125756e-06 0 -0.00039142645077908133 -7.1842278434749075e-07 0 -0.00030915086096556296 -2.2820299937515832e-05 0 -0.00078944436084128202 -3.1446949968218246e-06 0 -0.00048157158922788548 0.00033049291886731285 0 -0.0011930137272048152 0.0016706610426838635 0 0.0012604169227791253 0.00037347904119900294 0 -0.00098953890173674114 0.00018043380180299168 0 -0.00078944436084128202 -3.1446949968218246e-06 0 -0.00048157158922788548 0.00033049291886731285 0 0.0023124550321887345 0.00052094585582268245 0 0.0022061706016017002 0.0003548814215972225 0 0.002508529677811623 0.00063787939906823847 0 0.0023124550321887345 0.00052094585582268245 0 0.002508529677811623 0.00063787939906823847 0 0.0023859732695004918 0.00055789909822458845 0 0.002508529677811623 0.00063787939906823847 0 0.0023859732695004918 0.00055789909822458845 0 0.0025133647758003893 0.00040161732646476554 0 0.002508529677811623 0.00063787939906823847 0 0.0025133647758003893 0.00040161732646476554 0 0.0010974854443836391 2.4219149760287032e-06 0 0.0012604169227791253 0.00037347904119900294 0 0.0010941224917850674 1.7559233800982284e-07 0 0.0025133647758003893 0.00040161732646476554 0 0.003340456173742365 0.00029426182244166391 0 0.0025661768434478093 -2.2723541799309585e-07 0 0.0025133647758003893 0.00040161732646476554 0 0.0010974854443836391 2.4219149760287032e-06 0 0.0025661768434478093 -2.2723541799309585e-07 0 0.0022509491740780644 0.00096884538502193824 0 0.0023859732695004918 0.00055789909822458845 0 0.0025133647758003893 0.00040161732646476554 0 0.0031329833141210774 0.00082550100904764541 0 0.0027313827247839057 0.00047953756119927589 0 0.004353905630137417 0.00076372955807721258 0 0.0025133647758003893 0.00040161732646476554 0 0.003340456173742365 0.00029426182244166391 0 0.0046591817631617734 0.00046558945112711481 0 0.003340456173742365 0.00029426182244166391 0 0.0041188438608316417 0.00013303315921791171 0 0.003340456173742365 0.00029426182244166391 0 0.0025661768434478093 -2.2723541799309585e-07 0 0.0041188438608316417 0.00013303315921791171 0 0.0025661768434478093 -2.2723541799309585e-07 0 0.0040379905114225423 -7.7668240716186012e-08 0 0.0041188438608316417 0.00013303315921791171 0 0.0040379905114225423 -7.7668240716186012e-08 0 0.0049095182241740967 3.8582698886708205e-06 0 0.0053377596410052542 -0.0001826461351869455 0 0.0040379905114225423 -7.7668240716186012e-08 0 0.0049095182241740967 3.8582698886708205e-06 0 0.0041188438608316417 0.00013303315921791171 0 0.0049095182241740967 3.8582698886708205e-06 0 0.0041188438608316417 0.00013303315921791171 0 0.0048384230383300524 0.00024567466363760145 0 0.0046591817631617734 0.00046558945112711481 0 0.0041188438608316417 0.00013303315921791171 0 0.0048384230383300524 0.00024567466363760145 0 0.0046591817631617734 0.00046558945112711481 0 0.0048384230383300524 0.00024567466363760145 0 0.0052721393160519818 0.00057056860282077738 0 0.0048384230383300524 0.00024567466363760145 0 0.0052721393160519818 0.00057056860282077738 0 0.0052808966775911266 0.00017881895554503028 0 0.0049095182241740967 3.8582698886708205e-06 0 0.0048384230383300524 0.00024567466363760145 0 0.0052808966775911266 0.00017881895554503028 0 0.0052721393160519818 0.00057056860282077738 0 0.0059376948092576048 0.00030530181861256186 0 0.0052808966775911266 0.00017881895554503028 0 0.0059353572582183682 0.00069023717459970515 0 0.0052721393160519818 0.00057056860282077738 0 0.0059376948092576048 0.00030530181861256186 0 0.0059376948092576048 0.00030530181861256186 0 0.0052808966775911266 0.00017881895554503028 0 0.0056035679098142086 -0.00013419933672376879 0 0.0059376948092576048 0.00030530181861256186 0 0.0056035679098142086 -0.00013419933672376879 0 0.0061394446300839095 -7.2975932665507391e-05 0 0.0049095182241740967 3.8582698886708205e-06 0 0.0052808966775911266 0.00017881895554503028 0 0.0056035679098142086 -0.00013419933672376879 0 0.0049095182241740967 3.8582698886708205e-06 0 0.0056035679098142086 -0.00013419933672376879 0 0.0053377596410052542 -0.0001826461351869455 0 0.0056035679098142086 -0.00013419933672376879 0 0.0058664514919300071 -0.00035510338772585403 0 0.0053377596410052542 -0.0001826461351869455 0 0.0056035679098142086 -0.00013419933672376879 0 0.0061394446300839095 -7.2975932665507391e-05 0 0.0062228401579288292 -0.00041025248977374679 0 0.0063443941245852203 -0.00066951382253800879 0 0.0062228401579288292 -0.00041025248977374679 0 0.0058664514919300071 -0.00035510338772585403 0 0.0056035679098142086 -0.00013419933672376879 0 0.0062228401579288292 -0.00041025248977374679 0 0.0058664514919300071 -0.00035510338772585403 0 0.006118664289135778 -0.00030592975315787404 0 0.0058664514919300071 -0.00035510338772585403 0 0.0053377596410052542 -0.0001826461351869455 0 0.006118664289135778 -0.00030592975315787404 0 0.0055089067233955666 -3.8031408964366262e-07 0 0.0053377596410052542 -0.0001826461351869455 0 0.0040379905114225423 -7.7668240716186012e-08 0 0.0055089067233955666 -3.8031408964366262e-07 0 0.0053377596410052542 -0.0001826461351869455 0 0.0086001840816443825 0.00065013240276521939 0 0.0087964249822506599 1.357449972659766e-05 0 0.0083278192282515758 0.00077155364656657894 0 0.0085511121678097241 0.00011674180530514421 0 0.0087758361684029482 -9.2660967655981748e-06 0 0.0088944553768895845 0.00057706606607609771 0 0.0090601224980436899 0.00039421190269286777 0 0.0087758361684029482 -9.2660967655981748e-06 0 0.0077626533848862743 0.00062494600655275609 0 0.008442792656763223 0.00013232404702100722 0 0.0078490693057340355 0.00056742871101930726 0 0.0083278192282515758 0.00077155364656657894 0 0.0085511121678097241 0.00011674180530514421 0 0.0076684155597160353 0.0006797199897284914 0 0.0075625475868976947 0.00024903166064474977 0 0.0083424442451769578 0.00017436018465105839 0 0.0086001840816443825 0.00065013240276521939 0 0.0083325451151514702 0.0012817943383686072 0 0.0077311991258878663 0.0010682069919407729 0 0.0083278192282515758 0.00077155364656657894 0 0.0077628886604995699 0.0015622528771545355 0 0.0078490693057340355 0.00056742871101930726 0 0.0077311991258878663 0.0010682069919407729 0 0.0083278192282515758 0.00077155364656657894 0 0.0088944553768895845 0.00057706606607609771 0 0.0091967948918206203 0.00075004143751090154 0 0.0090601224980436899 0.00039421190269286777 0 0.0088944553768895845 0.00057706606607609771 0 0.0091967948918206203 0.00075004143751090154 0 0.0089978507483124033 0.00084190119336223848 0 0.0091967948918206203 0.00075004143751090154 0 0.0094411471787054172 0.0006073702129205437 0 0.0090601224980436899 0.00039421190269286777 0 0.0091967948918206203 0.00075004143751090154 0 0.0094411471787054172 0.0006073702129205437 0 0.009447861224583529 0.00087714912785635823 0 0.0094411471787054172 0.0006073702129205437 0 0.0097238330195188981 0.00097430450942701528 0 0.0097728067052821419 0.00063458335792010759 0 0.0094411471787054172 0.0006073702129205437 0 0.0097238330195188981 0.00097430450942701528 0 0.009447861224583529 0.00087714912785635823 0 0.0094411471787054172 0.0006073702129205437 0 0.0096436510848067602 0.00030850421821424238 0 0.0097728067052821419 0.00063458335792010759 0 0.0094411471787054172 0.0006073702129205437 0 0.0096436510848067602 0.00030850421821424238 0 0.0092744330669548534 0.00019673050181465805 0 0.0090601224980436899 0.00039421190269286777 0 0.0090421008631045401 0.00016426296263388703 0 0.0087758361684029482 -9.2660967655981748e-06 0 0.0094411471787054172 0.0006073702129205437 0 0.0090601224980436899 0.00039421190269286777 0 0.0092744330669548534 0.00019673050181465805 0 0.0090601224980436899 0.00039421190269286777 0 0.0092744330669548534 0.00019673050181465805 0 0.0090421008631045401 0.00016426296263388703 0 0.0090421008631045401 0.00016426296263388703 0 0.0090836817843116119 -6.2215074408125508e-05 0 0.0087758361684029482 -9.2660967655981748e-06 0 0.0090836817843116119 -6.2215074408125508e-05 0 0.0094555905126287691 -0.00031301286968846989 0 0.0089778687004536326 -0.0003362571199566482 0 0.0092744330669548534 0.00019673050181465805 0 0.0090421008631045401 0.00016426296263388703 0 0.0090836817843116119 -6.2215074408125508e-05 0 0.0090836817843116119 -6.2215074408125508e-05 0 0.0089778687004536326 -0.0003362571199566482 0 0.0087758361684029482 -9.2660967655981748e-06 0 0.0096436510848067602 0.00030850421821424238 0 0.0092744330669548534 0.00019673050181465805 0 0.0094555905126287691 -0.00031301286968846989 0 0.0092744330669548534 0.00019673050181465805 0 0.0090836817843116119 -6.2215074408125508e-05 0 0.0094555905126287691 -0.00031301286968846989 0 0.0094555905126287691 -0.00031301286968846989 0 0.0091029465590392947 -0.00066663118496480529 0 0.0092448256524221319 -0.00078932391548755564 0 0.0094555905126287691 -0.00031301286968846989 0 0.0091029465590392947 -0.00066663118496480529 0 0.0089778687004536326 -0.0003362571199566482 0 0.0094555905126287691 -0.00031301286968846989 0 0.0092448256524221319 -0.00078932391548755564 0 0.0094350222645097574 -0.00095173996047628233 0 0.0088379270780862152 -0.00070915042211696191 0 0.0082743070002240411 -0.00047989211759881062 0 0.0087677088623967728 -0.0010917010617851242 0 0.0089778687004536326 -0.0003362571199566482 0 0.0088379270780862152 -0.00070915042211696191 0 0.0082743070002240411 -0.00047989211759881062 0 0.0091029465590392947 -0.00066663118496480529 0 0.0089778687004536326 -0.0003362571199566482 0 0.0088379270780862152 -0.00070915042211696191 0 0.0089491035228971699 -0.00030267691943605522 0 0.008442792656763223 0.00013232404702100722 0 0.0089778687004536326 -0.0003362571199566482 0 0.0082743070002240411 -0.00047989211759881062 0 0.0083424442451769578 0.00017436018465105839 0 0.0089778687004536326 -0.0003362571199566482 0 0.0085511121678097241 0.00011674180530514421 0 0.0087758361684029482 -9.2660967655981748e-06 0 0.0075625475868976947 0.00024903166064474977 0 0.0082743070002240411 -0.00047989211759881062 0 0.0083424442451769578 0.00017436018465105839 0 0.0074591110079254676 0.00030232580544387868 0 0.0081553654288394235 -0.00042563764063866541 0 0.0073718420333684477 0.00033143963007051458 0 0.0080218892224778512 -0.00034830516460236411 0 0.0074573606401428178 -0.00037293779283301885 0 0.0080218892224778512 -0.00034830516460236411 0 0.0074573606401428178 -0.00037293779283301885 0 0.0074563396392288957 -0.0008399324021778411 0 0.0074573606401428178 -0.00037293779283301885 0 0.0074563396392288957 -0.0008399324021778411 0 0.0069544527174394237 -0.00081279584368931768 0 0.0074573606401428178 -0.00037293779283301885 0 0.0069771113108242685 -0.00032268919955042878 0 0.0069544527174394237 -0.00081279584368931768 0 0.0074573606401428178 -0.00037293779283301885 0 0.0069771113108242685 -0.00032268919955042878 0 0.007095891080184164 -3.801173387920678e-05 0 0.0069771113108242685 -0.00032268919955042878 0 0.0064692697217544953 -0.00050146303770644707 0 0.0069544527174394237 -0.00081279584368931768 0 0.0064692697217544953 -0.00050146303770644707 0 0.0067298645750151244 -6.6338543187425351e-05 0 0.0062889418364868634 -5.5858295557744829e-05 0 0.0069771113108242685 -0.00032268919955042878 0 0.0064692697217544953 -0.00050146303770644707 0 0.0067298645750151244 -6.6338543187425351e-05 0 0.0067298645750151244 -6.6338543187425351e-05 0 0.0062889418364868634 -5.5858295557744829e-05 0 0.0066154506006239292 0.00026401243619328851 0 0.0062889418364868634 -5.5858295557744829e-05 0 0.0066154506006239292 0.00026401243619328851 0 0.0062117078901223095 0.00025623005243382961 0 0.0067298645750151244 -6.6338543187425351e-05 0 0.0066154506006239292 0.00026401243619328851 0 0.0069433034593233117 0.00022341329420533668 0 0.0073718420333684477 0.00033143963007051458 0 0.0074573606401428178 -0.00037293779283301885 0 0.007095891080184164 -3.801173387920678e-05 0 0.0073718420333684477 0.00033143963007051458 0 0.0069433034593233117 0.00022341329420533668 0 0.007095891080184164 -3.801173387920678e-05 0 0.0069771113108242685 -0.00032268919955042878 0 0.0067298645750151244 -6.6338543187425351e-05 0 0.007095891080184164 -3.801173387920678e-05 0 0.0067298645750151244 -6.6338543187425351e-05 0 0.0069433034593233117 0.00022341329420533668 0 0.007095891080184164 -3.801173387920678e-05 0 0.0051496951421121685 -0.00034350153520171662 0 0.005272051078604457 -0.00055091672896755302 0 0.0055409863080920687 -0.00029881330842905762 0 0.0049868857440591458 -0.00064888901185557386 0 0.005272051078604457 -0.00055091672896755302 0 0.0050745879825182172 -0.00085797217738564787 0 0.005272051078604457 -0.00055091672896755302 0 0.0055334664183449359 -0.00064357399282024207 0 0.0050745879825182172 -0.00085797217738564787 0 0.005272051078604457 -0.00055091672896755302 0 0.0055334664183449359 -0.00064357399282024207 0 0.0055409863080920687 -0.00029881330842905762 0 0.0055409863080920687 -0.00029881330842905762 0 0.0059509092639163184 -0.00039313974744300292 0 0.0058839736849041315 3.6776471964442542e-06 0 0.0055334664183449359 -0.00064357399282024207 0 0.0055409863080920687 -0.00029881330842905762 0 0.0059509092639163184 -0.00039313974744300292 0 0.0055334664183449359 -0.00064357399282024207 0 0.0059509092639163184 -0.00039313974744300292 0 0.0059769385784968557 -0.00085067061787251355 0 0.0064692697217544953 -0.00050146303770644707 0 0.0059509092639163184 -0.00039313974744300292 0 0.0059769385784968557 -0.00085067061787251355 0 0.0064692697217544953 -0.00050146303770644707 0 0.0062889418364868634 -5.5858295557744829e-05 0 0.0059509092639163184 -0.00039313974744300292 0 0.0062889418364868634 -5.5858295557744829e-05 0 0.0059509092639163184 -0.00039313974744300292 0 0.0058839736849041315 3.6776471964442542e-06 0 0.0062889418364868634 -5.5858295557744829e-05 0 0.0062117078901223095 0.00025623005243382961 0 0.0058839736849041315 3.6776471964442542e-06 0 0.0062117078901223095 0.00025623005243382961 0 0.0058839736849041315 3.6776471964442542e-06 0 0.0058741555696770857 0.00041641206493554941 0 0.0055409863080920687 -0.00029881330842905762 0 0.0058839736849041315 3.6776471964442542e-06 0 0.0055215590967244814 1.9753960531546275e-05 0 0.0055215590967244814 1.9753960531546275e-05 0 0.0053661173801607164 0.00030705249742844423 0 0.0058741555696770857 0.00041641206493554941 0 0.0058839736849041315 3.6776471964442542e-06 0 0.0055215590967244814 1.9753960531546275e-05 0 0.0058741555696770857 0.00041641206493554941 0 0.0051762353058611059 8.642150578978983e-06 0 0.0055215590967244814 1.9753960531546275e-05 0 0.0053661173801607164 0.00030705249742844423 0 0.0051762353058611059 8.642150578978983e-06 0 0.0051496951421121685 -0.00034350153520171662 0 0.0055215590967244814 1.9753960531546275e-05 0 0.0051496951421121685 -0.00034350153520171662 0 0.0055409863080920687 -0.00029881330842905762 0 0.0055215590967244814 1.9753960531546275e-05 0 0.0052110940342889349 0.00057025887870691423 0 0.0053661173801607164 0.00030705249742844423 0 0.0056610754901280239 0.00086649379930808454 0 0.0053661173801607164 0.00030705249742844423 0 0.0058741555696770857 0.00041641206493554941 0 0.0056610754901280239 0.00086649379930808454 0 0.0058741555696770857 0.00041641206493554941 0 0.006175086529714228 0.00051138007870863572 0 0.0061327865207889722 0.00076048765327996746 0 0.0058741555696770857 0.00041641206493554941 0 0.0061327865207889722 0.00076048765327996746 0 0.0056610754901280239 0.00086649379930808454 0 0.0062117078901223095 0.00025623005243382961 0 0.006175086529714228 0.00051138007870863572 0 0.0065041552040083781 0.00052784968831090366 0 0.0062117078901223095 0.00025623005243382961 0 0.0058741555696770857 0.00041641206493554941 0 0.006175086529714228 0.00051138007870863572 0 0.006175086529714228 0.00051138007870863572 0 0.0061327865207889722 0.00076048765327996746 0 0.0064520524059938312 0.0007750829081301045 0 0.0061327865207889722 0.00076048765327996746 0 0.0061056271534005507 0.001130194093121471 0 0.0064542993147332023 0.0011204737820186678 0 0.0061327865207889722 0.00076048765327996746 0 0.0064520524059938312 0.0007750829081301045 0 0.0064542993147332023 0.0011204737820186678 0 0.0061327865207889722 0.00076048765327996746 0 0.0061056271534005507 0.001130194093121471 0 0.0056610754901280239 0.00086649379930808454 0 0.0061056271534005507 0.001130194093121471 0 0.0056610754901280239 0.00086649379930808454 0 0.0058426308491839876 0.0014176510146284129 0 0.0051239946252852114 0.0014278333128069727 0 0.0056610754901280239 0.00086649379930808454 0 0.0058426308491839876 0.0014176510146284129 0 0.0073718420333684477 0.00033143963007051458 0 0.0069433034593233117 0.00022341329420533668 0 0.006832365422040518 0.00056134650143631435 0 0.0076684155597160353 0.0006797199897284914 0 0.0075625475868976947 0.00024903166064474977 0 0.0068382931048289082 0.0009743304327457105 0 0.0073718420333684477 0.00033143963007051458 0 0.006832365422040518 0.00056134650143631435 0 0.0068382931048289082 0.0009743304327457105 0 0.0074591110079254676 0.00030232580544387868 0 0.0068703247310230274 0.0009455497008304983 0 0.0066154506006239292 0.00026401243619328851 0 0.0069433034593233117 0.00022341329420533668 0 0.006832365422040518 0.00056134650143631435 0 0.0066154506006239292 0.00026401243619328851 0 0.0065041552040083781 0.00052784968831090366 0 0.006832365422040518 0.00056134650143631435 0 0.0066154506006239292 0.00026401243619328851 0 0.0062117078901223095 0.00025623005243382961 0 0.0065041552040083781 0.00052784968831090366 0 0.006175086529714228 0.00051138007870863572 0 0.0065041552040083781 0.00052784968831090366 0 0.0064520524059938312 0.0007750829081301045 0 0.0065041552040083781 0.00052784968831090366 0 0.0064520524059938312 0.0007750829081301045 0 0.0066525172641765063 0.00076230796194332766 0 0.0065041552040083781 0.00052784968831090366 0 0.006832365422040518 0.00056134650143631435 0 0.0066525172641765063 0.00076230796194332766 0 0.006832365422040518 0.00056134650143631435 0 0.0066525172641765063 0.00076230796194332766 0 0.0068382931048289082 0.0009743304327457105 0 0.0066325606812435555 0.00096260007065249111 0 0.0064542993147332023 0.0011204737820186678 0 0.0069726558598380275 0.0011516419050014962 0 0.0066525172641765063 0.00076230796194332766 0 0.0066325606812435555 0.00096260007065249111 0 0.0068382931048289082 0.0009743304327457105 0 0.0064520524059938312 0.0007750829081301045 0 0.0066325606812435555 0.00096260007065249111 0 0.0064542993147332023 0.0011204737820186678 0 0.0064520524059938312 0.0007750829081301045 0 0.0066525172641765063 0.00076230796194332766 0 0.0066325606812435555 0.00096260007065249111 0 0.0066325606812435555 0.00096260007065249111 0 0.0068382931048289082 0.0009743304327457105 0 0.0069726558598380275 0.0011516419050014962 0 0.0077626533848862743 0.00062494600655275609 0 0.0071115013350131215 0.0010976438898118706 0 0.0076684155597160353 0.0006797199897284914 0 0.0068382931048289082 0.0009743304327457105 0 0.0069726558598380275 0.0011516419050014962 0 0.0078490693057340355 0.00056742871101930726 0 0.0077311991258878663 0.0010682069919407729 0 0.0072617432864305236 0.0010327208707892768 0 0.0077311991258878663 0.0010682069919407729 0 0.0072617432864305236 0.0010327208707892768 0 0.0074522572086206844 0.0013391342323917192 0 0.0074522572086206844 0.0013391342323917192 0 0.0072654063841587303 0.0016442382917264662 0 0.0077628886604995699 0.0015622528771545355 0 0.0074522572086206844 0.0013391342323917192 0 0.0072654063841587303 0.0016442382917264662 0 0.0071489860845774062 0.0013839952231116245 0 0.0072617432864305236 0.0010327208707892768 0 0.0074522572086206844 0.0013391342323917192 0 0.0071489860845774062 0.0013839952231116245 0 0.0064542993147332023 0.0011204737820186678 0 0.0069726558598380275 0.0011516419050014962 0 0.0065423275145971294 0.0015223372472172863 0 0.0072654063841587303 0.0016442382917264662 0 0.0071489860845774062 0.0013839952231116245 0 0.0065423275145971294 0.0015223372472172863 0 0.0071115013350131215 0.0010976438898118706 0 0.0065826383635336555 0.0015015426264201959 0 0.0072617432864305236 0.0010327208707892768 0 0.0071489860845774062 0.0013839952231116245 0 0.0065423275145971294 0.0015223372472172863 0 0.007232907296328233 0.0016692232928459578 0 0.0069929740441574762 0.0019562445676265436 0 0.0072654063841587303 0.0016442382917264662 0 0.0065423275145971294 0.0015223372472172863 0 0.0063533720064433107 0.0022093598630337848 0 0.0072654063841587303 0.0016442382917264662 0 0.0074405291008225226 0.0018324802651895817 0 0.0073883004136894546 0.0018431825275934326 0 0.0072654063841587303 0.0016442382917264662 0 0.0073883004136894546 0.0018431825275934326 0 0.0077628886604995699 0.0015622528771545355 0 0.0051239946252852114 0.0014278333128069727 0 0.0058426308491839876 0.0014176510146284129 0 0.0057042838086983167 0.0017978021869910227 0 0.0058426308491839876 0.0014176510146284129 0 0.0060600473516382401 0.0018369064490338979 0 0.0057042838086983167 0.0017978021869910227 0 0.0061056271534005507 0.001130194093121471 0 0.0065423275145971294 0.0015223372472172863 0 0.0058426308491839876 0.0014176510146284129 0 0.0065423275145971294 0.0015223372472172863 0 0.0058426308491839876 0.0014176510146284129 0 0.0060600473516382401 0.0018369064490338979 0 0.0061056271534005507 0.001130194093121471 0 0.0064542993147332023 0.0011204737820186678 0 0.0065423275145971294 0.0015223372472172863 0 0.0060600473516382401 0.0018369064490338979 0 0.0059627813787479379 0.00215784362277088 0 0.0063533720064433107 0.0022093598630337848 0 0.0065423275145971294 0.0015223372472172863 0 0.0060600473516382401 0.0018369064490338979 0 0.0063533720064433107 0.0022093598630337848 0 0.0060600473516382401 0.0018369064490338979 0 0.0057042838086983167 0.0017978021869910227 0 0.0059627813787479379 0.00215784362277088 0 0.0055465072906620482 0.0020928257431296962 0 0.0057042838086983167 0.0017978021869910227 0 0.0059627813787479379 0.00215784362277088 0 0.0055465072906620482 0.0020928257431296962 0 0.0059627813787479379 0.00215784362277088 0 0.0059056700225518554 0.0022471744844787585 0 0.0059627813787479379 0.00215784362277088 0 0.0059056700225518554 0.0022471744844787585 0 0.0059364135815947322 0.0023254161035630178 0 0.0059627813787479379 0.00215784362277088 0 0.0063533720064433107 0.0022093598630337848 0 0.0059364135815947322 0.0023254161035630178 0 0.0069929740441574762 0.0019562445676265436 0 0.006546168325459005 0.0021142374384977474 0 0.0074405291008225226 0.0018324802651895817 0 0.0075378512084836036 0.0017035810326211458 0 0.0078214065623370185 0.0017235545829962042 0 0.0076763084632317314 0.001473843247259108 0 0.0075378512084836036 0.0017035810326211458 0 0.0073879314150753078 0.0016420773546055813 0 0.0076763084632317314 0.001473843247259108 0 0.0075378512084836036 0.0017035810326211458 0 0.0078214065623370185 0.0017235545829962042 0 0.0061055014235297878 0.0022882561355020985 0 0.0059056700225518554 0.0022471744844787585 0 0.0059364135815947322 0.0023254161035630178 0 0.0086655620396906882 0.0014734057876904258 0 0.0087470290467647656 0.0017753989221744319 0 0.0088365560854199807 0.0015918067273490032 0 0.0074405291008225226 0.0018324802651895817 0 0.0073883004136894546 0.0018431825275934326 0 0.0074306746616147213 0.0017698979794624494 0 0.0074405291008225226 0.0018324802651895817 0 0.0075378512084836036 0.0017035810326211458 0 0.0074306746616147213 0.0017698979794624494 0 0.0075378512084836036 0.0017035810326211458 0 0.0074306746616147213 0.0017698979794624494 0 0.0073879314150753078 0.0016420773546055813 0 0.0098448188940584123 0.0020883579931024825 0 0.010160533912910292 0.0021518077903308766 0 0.0077771644346601859 0.0016452919904623234 0 0.0098448188940584123 0.0020883579931024825 0 0.0086655620396906882 0.0014734057876904258 0 0.0085241925774371865 0.0018461386100508553 0 0.0087470290467647656 0.0017753989221744319 0 0.0073883004136894546 0.0018431825275934326 0 0.0074306746616147213 0.0017698979794624494 0 0.0073879314150753078 0.0016420773546055813 0 0.010160533912910292 0.0021518077903308766 0 0.0099766399186232441 0.0020161804992523476 0 0.011383535111330362 0.0021218382674403589 0 0.011475453245168585 0.0025678479525055725 0 0.010959707820394359 0.0027175812303159522 0 0.0087470290467647656 0.0017753989221744319 0 0.0089869384556281115 0.0017075988518905569 0 0.0088365560854199807 0.0015918067273490032 0 0.010368029152109291 0.0017222167037733121 0 0.0097421675980464955 0.0016925690551936145 0 0.0099551889137520656 0.0015705854380121801 0 0.010250874864014431 0.0013831021480505358 0 0.010368029152109291 0.0017222167037733121 0 0.0099551889137520656 0.0015705854380121801 0 0.0099766399186232441 0.0020161804992523476 0 0.0097290003999574107 0.0017208083862526849 0 0.0092172675720982936 0.0013535050018213511 0 0.0095081782584091109 0.0013943467466221398 0 0.0097421675980464955 0.0016925690551936145 0 0.0099766399186232441 0.0020161804992523476 0 0.0090511203906932652 0.0013164280792658067 0 0.0092220359669057776 0.0018753211216263257 0 0.0092172675720982936 0.0013535050018213511 0 0.0097421675980464955 0.0016925690551936145 0 0.0086655620396906882 0.0014734057876904258 0 0.0088365560854199807 0.0015918067273490032 0 0.0090244198096957016 0.001365487772774703 0 0.0089869384556281115 0.0017075988518905569 0 0.0088365560854199807 0.0015918067273490032 0 0.0090244198096957016 0.001365487772774703 0 0.0086655620396906882 0.0014734057876904258 0 0.0090244198096957016 0.001365487772774703 0 0.0088200703548506464 0.0010547837413757628 0 0.0090244198096957016 0.001365487772774703 0 0.0090672546765600721 0.00098849757509764232 0 0.0088200703548506464 0.0010547837413757628 0 0.0077771644346601859 0.0016452919904623234 0 0.0083325451151514702 0.0012817943383686072 0 0.0090511203906932652 0.0013164280792658067 0 0.0090987346433505662 0.0010169601141270857 0 0.0092172675720982936 0.0013535050018213511 0 0.0093363062634243474 0.0011912816374710711 0 0.0090672546765600721 0.00098849757509764232 0 0.0092172675720982936 0.0013535050018213511 0 0.0093363062634243474 0.0011912816374710711 0 0.0095081782584091109 0.0013943467466221398 0 0.0093363062634243474 0.0011912816374710711 0 0.0090672546765600721 0.00098849757509764232 0 0.0093122562094402981 0.0010061505052851309 0 0.0091967948918206203 0.00075004143751090154 0 0.0090672546765600721 0.00098849757509764232 0 0.0089978507483124033 0.00084190119336223848 0 0.0091967948918206203 0.00075004143751090154 0 0.0090672546765600721 0.00098849757509764232 0 0.0093122562094402981 0.0010061505052851309 0 0.0090672546765600721 0.00098849757509764232 0 0.0089978507483124033 0.00084190119336223848 0 0.0088200703548506464 0.0010547837413757628 0 0.0088944553768895845 0.00057706606607609771 0 0.0089978507483124033 0.00084190119336223848 0 0.0088200703548506464 0.0010547837413757628 0 0.0077311991258878663 0.0010682069919407729 0 0.0074522572086206844 0.0013391342323917192 0 0.0077628886604995699 0.0015622528771545355 0 0.0097238330195188981 0.00097430450942701528 0 0.009447861224583529 0.00087714912785635823 0 0.0095553191902241034 0.0012163516354462933 0 0.009447861224583529 0.00087714912785635823 0 0.0093122562094402981 0.0010061505052851309 0 0.0095553191902241034 0.0012163516354462933 0 0.0091967948918206203 0.00075004143751090154 0 0.009447861224583529 0.00087714912785635823 0 0.0093122562094402981 0.0010061505052851309 0 0.0095553191902241034 0.0012163516354462933 0 0.0095081782584091109 0.0013943467466221398 0 0.0096827722016280399 0.0015061103797856957 0 0.0093363062634243474 0.0011912816374710711 0 0.0093122562094402981 0.0010061505052851309 0 0.0095553191902241034 0.0012163516354462933 0 0.0093363062634243474 0.0011912816374710711 0 0.0095553191902241034 0.0012163516354462933 0 0.0095081782584091109 0.0013943467466221398 0 0.0095553191902241034 0.0012163516354462933 0 0.0097431633391894742 0.0013025957264495818 0 0.0096827722016280399 0.0015061103797856957 0 0.0097238330195188981 0.00097430450942701528 0 0.0097431633391894742 0.0013025957264495818 0 0.0099830709234716569 0.0011613865844889895 0 0.0097238330195188981 0.00097430450942701528 0 0.0095553191902241034 0.0012163516354462933 0 0.0097431633391894742 0.0013025957264495818 0 0.0097431633391894742 0.0013025957264495818 0 0.0097632066458891859 0.0016190716471601587 0 0.0099830709234716569 0.0011613865844889895 0 0.0097431633391894742 0.0013025957264495818 0 0.0097632066458891859 0.0016190716471601587 0 0.0096827722016280399 0.0015061103797856957 0 0.0097632066458891859 0.0016190716471601587 0 0.0096827722016280399 0.0015061103797856957 0 0.0097816411109828919 0.00161066074028527 0 0.0095081782584091109 0.0013943467466221398 0 0.0096827722016280399 0.0015061103797856957 0 0.0097421675980464955 0.0016925690551936145 0 0.0096827722016280399 0.0015061103797856957 0 0.0097421675980464955 0.0016925690551936145 0 0.0097816411109828919 0.00161066074028527 0 0.0098133501116228379 0.0013951018541031135 0 0.0097816411109828919 0.00161066074028527 0 0.0099551889137520656 0.0015705854380121801 0 0.0097421675980464955 0.0016925690551936145 0 0.0097816411109828919 0.00161066074028527 0 0.0099551889137520656 0.0015705854380121801 0 0.01029520688667648 0.0010841720857962638 0 0.0098024785568722045 0.001488625900570533 0 0.0098133501116228379 0.0013951018541031135 0 0.0097632066458891859 0.0016190716471601587 0 0.0097816411109828919 0.00161066074028527 0 0.0099942836753793285 0.0012625844260736763 0 0.0099821544556002121 0.0012523519737781899 0 0.0099922333931885543 0.0012606407228750731 0 0.011103358069756517 0.00038017787157911307 0 0.011104648883796579 0.00037593226967882115 0 0.011090129161756347 0.00037029717599460963 0 0.011104648883796579 0.00037593226967882115 0 0.011090129161756347 0.00037029717599460963 0 0.011080935141027684 0.00042201297942699533 0 0.010598944979688942 0.00076905216495133026 0 0.010553061116079149 0.00083936823744390585 0 0.0099821544556002121 0.0012523519737781899 0 0.0099922333931885543 0.0012606407228750731 0 0.010047057785885782 0.0012385777796521957 0 0.0098024785568722045 0.001488625900570533 0 0.010007000044784513 0.0011484442833959319 0 0.0099821544556002121 0.0012523519737781899 0 0.010047057785885782 0.0012385777796521957 0 0.0099830709234716569 0.0011613865844889895 0 0.011080935141027684 0.00042201297942699533 0 0.011027747538430133 0.00036138901589265264 0 0.010919318174054365 0.00038075146422630071 0 0.011080935141027684 0.00042201297942699533 0 0.010919318174054365 0.00038075146422630071 0 0.01089973621279451 0.00057273430034337559 0 0.011090129161756347 0.00037029717599460963 0 0.011080935141027684 0.00042201297942699533 0 0.011027747538430133 0.00036138901589265264 0 0.011083675965893757 0.00036411647669218621 0 0.011090129161756347 0.00037029717599460963 0 0.011027747538430133 0.00036138901589265264 0 0.011083675965893757 0.00036411647669218621 0 0.011027747538430133 0.00036138901589265264 0 0.010963975108561886 0.00033429417131657731 0 0.010963975108561886 0.00033429417131657731 0 0.010822139006596199 0.00030824365778848089 0 0.010919318174054365 0.00038075146422630071 0 0.011027747538430133 0.00036138901589265264 0 0.010963975108561886 0.00033429417131657731 0 0.010919318174054365 0.00038075146422630071 0 0.010963975108561886 0.00033429417131657731 0 0.010936386060557997 0.00032257119241237251 0 0.010822139006596199 0.00030824365778848089 0 0.011050904010389254 0.00035847870906778595 0 0.010963975108561886 0.00033429417131657731 0 0.010936386060557997 0.00032257119241237251 0 0.010936386060557997 0.00032257119241237251 0 0.010822139006596199 0.00030824365778848089 0 0.010768530709692791 0.00024161726710627196 0 0.010822139006596199 0.00030824365778848089 0 0.010736031367700481 0.00040522460035755299 0 0.010919318174054365 0.00038075146422630071 0 0.010822139006596199 0.00030824365778848089 0 0.010645719895144616 0.00034801836420422338 0 0.010768530709692791 0.00024161726710627196 0 0.010822139006596199 0.00030824365778848089 0 0.010645719895144616 0.00034801836420422338 0 0.010736031367700481 0.00040522460035755299 0 0.010645719895144616 0.00034801836420422338 0 0.010736031367700481 0.00040522460035755299 0 0.010400175695357268 0.00054152310253003559 0 0.010736031367700481 0.00040522460035755299 0 0.010919318174054365 0.00038075146422630071 0 0.01089973621279451 0.00057273430034337559 0 0.010736031367700481 0.00040522460035755299 0 0.01089973621279451 0.00057273430034337559 0 0.010400175695357268 0.00054152310253003559 0 0.01089973621279451 0.00057273430034337559 0 0.010335516064841527 0.00083481941776177124 0 0.010400175695357268 0.00054152310253003559 0 0.010335516064841527 0.00083481941776177124 0 0.010199666738935045 0.00088678884844648745 0 0.010134906206048783 0.00088188652509378141 0 0.010203880150205446 0.0010969735487180098 0 0.010335516064841527 0.00083481941776177124 0 0.010199666738935045 0.00088678884844648745 0 0.010538720182572155 0.00082324381561772807 0 0.010369124240453009 0.0008488745091913796 0 0.010199666738935045 0.00088678884844648745 0 0.0099830709234716569 0.0011613865844889895 0 0.010102888734728055 0.00084465045475491771 0 0.0097238330195188981 0.00097430450942701528 0 0.0099830709234716569 0.0011613865844889895 0 0.010102888734728055 0.00084465045475491771 0 0.010553061116079149 0.00083936823744390585 0 0.010538720182572155 0.00082324381561772807 0 0.010203880150205446 0.0010969735487180098 0 0.010199666738935045 0.00088678884844648745 0 0.0099830709234716569 0.0011613865844889895 0 0.010047057785885782 0.0012385777796521957 0 0.010203880150205446 0.0010969735487180098 0 0.0099830709234716569 0.0011613865844889895 0 0.011088955239437658 0.0003794037852660668 0 0.011163177666286649 0.00034391413244100701 0 0.011103299536556005 0.00032572672277847409 0 0.011160840349916523 0.00029890301015636126 0 0.011188719057068329 0.00028639948509952073 0 0.011183710768049072 0.00029660680711978484 0 0.011163177666286649 0.00034391413244100701 0 0.011160840349916523 0.00029890301015636126 0 0.011183710768049072 0.00029660680711978484 0 0.01110546587917814 0.0002791822058233422 0 0.011160840349916523 0.00029890301015636126 0 0.011103299536556005 0.00032572672277847409 0 0.011163177666286649 0.00034391413244100701 0 0.011160840349916523 0.00029890301015636126 0 0.011103299536556005 0.00032572672277847409 0 0.01110546587917814 0.0002791822058233422 0 0.011160840349916523 0.00029890301015636126 0 0.011185057036758678 0.00028413326295254 0 0.011169187070077122 0.00027076176651907961 0 0.01110546587917814 0.0002791822058233422 0 0.011185057036758678 0.00028413326295254 0 0.011224804269746256 0.00030089712423787037 0 0.011169187070077122 0.00027076176651907961 0 0.011185057036758678 0.00028413326295254 0 0.011160840349916523 0.00029890301015636126 0 0.011185057036758678 0.00028413326295254 0 0.011188719057068329 0.00028639948509952073 0 0.011188719057068329 0.00028639948509952073 0 0.011199207530428242 0.00029108325024739136 0 0.011196221762218725 0.00027370674275221382 0 0.011171913314133468 0.00033853618055891885 0 0.011224804269746256 0.00030089712423787037 0 0.011199207530428242 0.00029108325024739136 0 0.011185057036758678 0.00028413326295254 0 0.011188719057068329 0.00028639948509952073 0 0.011199207530428242 0.00029108325024739136 0 0.011224804269746256 0.00030089712423787037 0 0.011185057036758678 0.00028413326295254 0 0.011199207530428242 0.00029108325024739136 0 0.011199207530428242 0.00029108325024739136 0 0.011196221762218725 0.00027370674275221382 0 0.011170383929466988 0.00028060095887215219 0 0.010651434656941176 0.00028385149991681005 0 0.010517416585564619 0.00043785711889651789 0 0.011163177666286649 0.00034391413244100701 0 0.011206435910952914 0.00022293432657641892 0 0.011155946759358716 0.00041862745108573341 0 0.011196221762218725 0.00027370674275221382 0 0.011206435910952914 0.00022293432657641892 0 0.011170383929466988 0.00028060095887215219 0 0.011163177666286649 0.00034391413244100701 0 0.011183710768049072 0.00029660680711978484 0 0.011206435910952914 0.00022293432657641892 0 0.011196221762218725 0.00027370674275221382 0 0.011183710768049072 0.00029660680711978484 0 0.011206435910952914 0.00022293432657641892 0 0.011188719057068329 0.00028639948509952073 0 0.011196221762218725 0.00027370674275221382 0 0.011183710768049072 0.00029660680711978484 0 0.011206435910952914 0.00022293432657641892 0 0.011069577209114395 0.00029120903486305944 0 0.010768530709692791 0.00024161726710627196 0 0.010651434656941176 0.00028385149991681005 0 0.010744523356859617 0.00024572827459395436 0 0.010392849682424526 0.00033461775615073057 0 0.0099304220472071648 0.00043059331211897395 0 0.010107049072352802 0.00031566043852854518 0 0.010458581332026019 0.00034689705270534365 0 0.010096785516137361 0.00043145465397937917 0 0.011206435910952914 0.00022293432657641892 0 0.011170383929466988 0.00028060095887215219 0 0.011069577209114395 0.00029120903486305944 0 0.011171913314133468 0.00033853618055891885 0 0.011170383929466988 0.00028060095887215219 0 0.011069577209114395 0.00029120903486305944 0 0.011171913314133468 0.00033853618055891885 0 0.011199207530428242 0.00029108325024739136 0 0.011170383929466988 0.00028060095887215219 0 0.011171913314133468 0.00033853618055891885 0 0.011069577209114395 0.00029120903486305944 0 0.010989059270520879 0.00032356200430946127 0 0.011072754893931759 0.00036010946753746453 0 0.010936386060557997 0.00032257119241237251 0 0.010989059270520879 0.00032356200430946127 0 0.011069577209114395 0.00029120903486305944 0 0.010989059270520879 0.00032356200430946127 0 0.010768530709692791 0.00024161726710627196 0 0.010936386060557997 0.00032257119241237251 0 0.010989059270520879 0.00032356200430946127 0 0.010768530709692791 0.00024161726710627196 0 0.010107049072352802 0.00031566043852854518 0 0.010768530709692791 0.00024161726710627196 0 0.010458581332026019 0.00034689705270534365 0 0.010645719895144616 0.00034801836420422338 0 0.010768530709692791 0.00024161726710627196 0 0.010458581332026019 0.00034689705270534365 0 0.010645719895144616 0.00034801836420422338 0 0.010458581332026019 0.00034689705270534365 0 0.010400175695357268 0.00054152310253003559 0 0.010458581332026019 0.00034689705270534365 0 0.010400175695357268 0.00054152310253003559 0 0.01012156878569929 0.00053453575040633141 0 0.010400175695357268 0.00054152310253003559 0 0.01012156878569929 0.00053453575040633141 0 0.01007243123587204 0.00070139838924906668 0 0.010335516064841527 0.00083481941776177124 0 0.01007243123587204 0.00070139838924906668 0 0.0099173864377599414 0.00086034952369341735 0 0.010335516064841527 0.00083481941776177124 0 0.010400175695357268 0.00054152310253003559 0 0.01007243123587204 0.00070139838924906668 0 0.01007243123587204 0.00070139838924906668 0 0.0097849344967632455 0.00074850753809487837 0 0.0099173864377599414 0.00086034952369341735 0 0.01007243123587204 0.00070139838924906668 0 0.0097849344967632455 0.00074850753809487837 0 0.0098201283624342502 0.00061188300611405492 0 0.0097849344967632455 0.00074850753809487837 0 0.0096263014667701159 0.00067727673825789024 0 0.009491437433220196 0.00082337975341424425 0 0.0097849344967632455 0.00074850753809487837 0 0.0098201283624342502 0.00061188300611405492 0 0.0096263014667701159 0.00067727673825789024 0 0.0098201283624342502 0.00061188300611405492 0 0.0096767464482134542 0.00057232706735283975 0 0.0096263014667701159 0.00067727673825789024 0 0.010458581332026019 0.00034689705270534365 0 0.01012156878569929 0.00053453575040633141 0 0.0097108004342756436 0.00040136047504489331 0 0.01012156878569929 0.00053453575040633141 0 0.0098201283624342502 0.00061188300611405492 0 0.0097108004342756436 0.00040136047504489331 0 0.0098201283624342502 0.00061188300611405492 0 0.0097108004342756436 0.00040136047504489331 0 0.0096767464482134542 0.00057232706735283975 0 0.01012156878569929 0.00053453575040633141 0 0.01007243123587204 0.00070139838924906668 0 0.0098201283624342502 0.00061188300611405492 0 0.010107049072352802 0.00031566043852854518 0 0.010096785516137361 0.00043145465397937917 0 0.009891140049579774 0.00046389607995966079 0 0.010096785516137361 0.00043145465397937917 0 0.0099162899041678309 0.00050856648477330126 0 0.009891140049579774 0.00046389607995966079 0 0.0099304220472071648 0.00043059331211897395 0 0.0096380253809853489 0.00053534087901129781 0 0.0097108004342756436 0.00040136047504489331 0 0.0095640444752386651 0.00057509687069165916 0 0.0094104924595443534 0.00057524079440878927 0 0.0097108004342756436 0.00040136047504489331 0 0.0095640444752386651 0.00057509687069165916 0 0.0096767464482134542 0.00057232706735283975 0 0.0094881043699936076 0.00069199728325486452 0 0.0094180373374403593 0.00074517637408114416 0 0.009491437433220196 0.00082337975341424425 0 0.0095640444752386651 0.00057509687069165916 0 0.0096767464482134542 0.00057232706735283975 0 0.0096263014667701159 0.00067727673825789024 0 0.0096263014667701159 0.00067727673825789024 0 0.0094881043699936076 0.00069199728325486452 0 0.009491437433220196 0.00082337975341424425 0 0.0095640444752386651 0.00057509687069165916 0 0.0096263014667701159 0.00067727673825789024 0 0.0094881043699936076 0.00069199728325486452 0 0.0095640444752386651 0.00057509687069165916 0 0.0094881043699936076 0.00069199728325486452 0 0.0094104924595443534 0.00057524079440878927 0 0.009232095675353668 0.00066856501838971117 0 0.0094180373374403593 0.00074517637408114416 0 0.0093843236757239872 0.00066810013849976377 0 0.0094881043699936076 0.00069199728325486452 0 0.0093843236757239872 0.00066810013849976377 0 0.0094104924595443534 0.00057524079440878927 0 0.009232095675353668 0.00066856501838971117 0 0.0093843236757239872 0.00066810013849976377 0 0.0094104924595443534 0.00057524079440878927 0 0.0094881043699936076 0.00069199728325486452 0 0.0094180373374403593 0.00074517637408114416 0 0.0093843236757239872 0.00066810013849976377 0 0.0097997912487844917 0.00055701554371977234 0 0.0099162899041678309 0.00050856648477330126 0 0.009891140049579774 0.00046389607995966079 0 0.011088955239437658 0.0003794037852660668 0 0.011163177666286649 0.00034391413244100701 0 0.011155946759358716 0.00041862745108573341 0 0.009217912190605167 0.00084945774701700627 0 0.0090835025202707555 0.00091088614798224686 0 0.0088189821989075271 0.00099778739524047813 0 0.009215415227902219 0.00089394636053315602 0 0.009217912190605167 0.00084945774701700627 0 0.0090835025202707555 0.00091088614798224686 0 0.009215415227902219 0.00089394636053315602 0 0.0091296015258586962 0.00090476834147541405 0 0.0090835025202707555 0.00091088614798224686 0 0.0092934660370120135 0.00094071895358448481 0 0.009215415227902219 0.00089394636053315602 0 0.0091296015258586962 0.00090476834147541405 0 0.0091296015258586962 0.00090476834147541405 0 0.0090835025202707555 0.00091088614798224686 0 0.009491437433220196 0.00082337975341424425 0 0.0092389713198514495 0.00083345235278537604 0 0.0095007168043619687 0.00084658975154490576 0 0.0090835025202707555 0.00091088614798224686 0 0.009491437433220196 0.00082337975341424425 0 0.0095754012998398932 0.00098689077642436927 0 0.0090835025202707555 0.00091088614798224686 0 0.0095754012998398932 0.00098689077642436927 0 0.0088189821989075271 0.00099778739524047813 0 0.0097849344967632455 0.00074850753809487837 0 0.009491437433220196 0.00082337975341424425 0 0.0099173864377599414 0.00086034952369341735 0 0.009491437433220196 0.00082337975341424425 0 0.0095754012998398932 0.00098689077642436927 0 0.0099173864377599414 0.00086034952369341735 0 0.0095754012998398932 0.00098689077642436927 0 0.0099173864377599414 0.00086034952369341735 0 0.0099954661047129169 0.00098163676655273159 0 0.0095754012998398932 0.00098689077642436927 0 0.0099954661047129169 0.00098163676655273159 0 0.009910166133546788 0.0012122180006603732 0 0.0095754012998398932 0.00098689077642436927 0 0.0094908568330884929 0.0013288314250950468 0 0.009910166133546788 0.0012122180006603732 0 0.0094908568330884929 0.0013288314250950468 0 0.009910166133546788 0.0012122180006603732 0 0.0097865317566571894 0.0013717025261591779 0 0.0080400572303684307 0.00068374433671044936 0 0.0075031530443610966 0.00020529598790485341 0 0.0095754012998398932 0.00098689077642436927 0 0.0094908568330884929 0.0013288314250950468 0 0.0088189821989075271 0.00099778739524047813 0 0.0080400572303684307 0.00068374433671044936 0 0.0087140272027617025 0.00099441211791580935 0 0.0066257921771706446 0.00017623908629836553 0 0.0088189821989075271 0.00099778739524047813 0 0.0082972357245433316 5.4473961855955457e-05 0 0.0066257921771706446 0.00017623908629836553 0 0.0082972357245433316 5.4473961855955457e-05 0 0.0078997921979293145 -0.0010018116435311585 0 0.0082972357245433316 5.4473961855955457e-05 0 0.0085100778852354418 -0.00051079388320537347 0 0.0078997921979293145 -0.0010018116435311585 0 0.0082972357245433316 5.4473961855955457e-05 0 0.0085100778852354418 -0.00051079388320537347 0 0.0090895845526271293 -0.00015994754685540603 0 0.0085100778852354418 -0.00051079388320537347 0 0.0090895845526271293 -0.00015994754685540603 0 0.0088602969643486289 -0.0010507985741884181 0 0.0082972357245433316 5.4473961855955457e-05 0 0.0090895845526271293 -0.00015994754685540603 0 0.0090234059079139194 0.00045703657525459506 0 0.0088189821989075271 0.00099778739524047813 0 0.0082972357245433316 5.4473961855955457e-05 0 0.0090234059079139194 0.00045703657525459506 0 0.009217912190605167 0.00084945774701700627 0 0.0088189821989075271 0.00099778739524047813 0 0.0090234059079139194 0.00045703657525459506 0 0.010204976829688881 0.0009924064802625818 0 0.010102888734728055 0.00084465045475491771 0 0.010138935481425243 0.00090127563909947223 0 0.010204976829688881 0.0009924064802625818 0 0.010138935481425243 0.00090127563909947223 0 0.01008197189523522 0.0010614996794147537 0 0.0096436510848067602 0.00030850421821424238 0 0.01002503717728131 0.0001677933374105651 0 0.0097728067052821419 0.00063458335792010759 0 0.010056202998378318 0.00054750563994329128 0 0.010121896452965356 0.00085495865929295601 0 0.01002503717728131 0.0001677933374105651 0 0.010102888734728055 0.00084465045475491771 0 0.0097728067052821419 0.00063458335792010759 0 0.0097238330195188981 0.00097430450942701528 0 0.010102888734728055 0.00084465045475491771 0 0.0097728067052821419 0.00063458335792010759 0 0.010199666738935045 0.00088678884844648745 0 0.010102888734728055 0.00084465045475491771 0 0.010138935481425243 0.00090127563909947223 0 0.010199666738935045 0.00088678884844648745 0 0.010138935481425243 0.00090127563909947223 0 0.010134906206048783 0.00088188652509378141 0 0.010335516064841527 0.00083481941776177124 0 0.0099173864377599414 0.00086034952369341735 0 0.010134906206048783 0.00088188652509378141 0 0.0099173864377599414 0.00086034952369341735 0 0.010134906206048783 0.00088188652509378141 0 0.0099954661047129169 0.00098163676655273159 0 0.010138935481425243 0.00090127563909947223 0 0.010134906206048783 0.00088188652509378141 0 0.0099954661047129169 0.00098163676655273159 0 0.010138935481425243 0.00090127563909947223 0 0.0099954661047129169 0.00098163676655273159 0 0.01008197189523522 0.0010614996794147537 0 0.0099954661047129169 0.00098163676655273159 0 0.01008197189523522 0.0010614996794147537 0 0.009910166133546788 0.0012122180006603732 0 0.009910166133546788 0.0012122180006603732 0 0.00993806071698701 0.0013202259918268123 0 0.0097865317566571894 0.0013717025261591779 0 0.009910166133546788 0.0012122180006603732 0 0.010048079796629465 0.0012413055230940768 0 0.00993806071698701 0.0013202259918268123 0 0.01008197189523522 0.0010614996794147537 0 0.009910166133546788 0.0012122180006603732 0 0.010048079796629465 0.0012413055230940768 0 0.01008197189523522 0.0010614996794147537 0 0.010048079796629465 0.0012413055230940768 0 0.010198480394941312 0.0012003478303589782 0 0.010204976829688881 0.0009924064802625818 0 0.01008197189523522 0.0010614996794147537 0 0.010198480394941312 0.0012003478303589782 0 0.010056202998378318 0.00054750563994329128 0 0.0104185627879538 0.00047543633299195902 0 0.0096436510848067602 0.00030850421821424238 0 0.0094555905126287691 -0.00031301286968846989 0 0.01002503717728131 0.0001677933374105651 0 0.0094555905126287691 -0.00031301286968846989 0 0.01002503717728131 0.0001677933374105651 0 0.0098600981876492723 -0.00059100121653236242 0 0.0094555905126287691 -0.00031301286968846989 0 0.0098600981876492723 -0.00059100121653236242 0 0.0094350222645097574 -0.00095173996047628233 0 0.0098600981876492723 -0.00059100121653236242 0 0.0095577332679372753 -0.001306171628650168 0 0.0094350222645097574 -0.00095173996047628233 0 0.0104185627879538 0.00047543633299195902 0 0.0067176685592462131 -0.00061665171544021658 0 0.0069376565142001585 -0.0024403222691980913 0 0.0065271232662508991 -0.0020579655042132707 0 0.0069726638442871251 -0.0017175064981977586 0 -0.00048363373758881204 -0.0021744101809874389 0 -0.00068700240323313084 -0.002373856093689705 0 -0.00066585478924043701 -0.002298948477257326 0 0.0093953872421048377 -0.0012588551907117293 0 0.0093895742108510618 -0.0012861410670045221 0 0.0093038259104146221 -0.0011833376999185704 0 0.0093953872421048377 -0.0012588551907117293 0 0.0093262736259269643 -0.0013028469575287389 0 0.0095577332679372753 -0.001306171628650168 0 0.0067176685592462131 -0.00061665171544021658 0 0.0012450957747453758 -0.0023987264764049991 0 0.0093953872421048377 -0.0012588551907117293 0 0.0095577332679372753 -0.001306171628650168 0 0.0094350222645097574 -0.00095173996047628233 0 0.0032284642830477071 -0.0021432249372530018 0 0.0067176685592462131 -0.00061665171544021658 0 0.0039037859603034009 -0.0016308648145203874 0 0.0032284642830477071 -0.0021432249372530018 0 -0.00065606629556462569 -0.0022130491983049622 0 -0.00075182804659026231 -0.0023108775371661503 0 -0.00066585478924043701 -0.002298948477257326 0 -0.00065606629556462569 -0.0022130491983049622 0 -0.00048363373758881204 -0.0021744101809874389 0 -0.00066585478924043701 -0.002298948477257326 0 0.010160903116998483 0.0013608439652637015 0 0.010060724213666295 0.001376705153147555 0 0.010106160485518729 0.0013012610461096694 0 0.0069376565142001585 -0.0024403222691980913 0 0.0065271232662508991 -0.0020579655042132707 0 0.0060983240926714031 -0.0024451333593732937 0 0.0067176685592462131 -0.00061665171544021658 0 0.0085027012458188268 -0.00052155456573064638 0 0.0065271232662508991 -0.0020579655042132707 0 0.0060983240926714031 -0.0024451333593732937 0 0.0060945152471607944 -0.0017510554207378901 0 0.010048079796629465 0.0012413055230940768 0 0.010198480394941312 0.0012003478303589782 0 0.010106160485518729 0.0013012610461096694 0 0.010198480394941312 0.0012003478303589782 0 0.010160903116998483 0.0013608439652637015 0 0.010106160485518729 0.0013012610461096694 0 0.010048079796629465 0.0012413055230940768 0 0.010106160485518729 0.0013012610461096694 0 0.010010609075486432 0.0013353050059024246 0 0.010010609075486432 0.0013353050059024246 0 0.00993806071698701 0.0013202259918268123 0 0.0099414731298923635 0.0013980675168403299 0 0.010048079796629465 0.0012413055230940768 0 0.010010609075486432 0.0013353050059024246 0 0.00993806071698701 0.0013202259918268123 0 0.010060724213666295 0.001376705153147555 0 0.010106160485518729 0.0013012610461096694 0 0.010010609075486432 0.0013353050059024246 0 0.0069902095956137465 -0.00088722082955387804 0 0.0075031530443610966 0.00020529598790485341 0 0.00993806071698701 0.0013202259918268123 0 0.0099414731298923635 0.0013980675168403299 0 0.0097865317566571894 0.0013717025261591779 0 0.0047897897699924951 -0.0021873433052289801 0 0.0046016670026439452 -0.0022364465280268015 0 0.0049995263216666723 -0.0011460509153023689 0 0.0054111107646197332 -0.0012675728408589812 0 0.0069902095956137465 -0.00088722082955387804 0 0.0069902095956137465 -0.00088722082955387804 0 0.0067564492374747667 -0.0010840392609263985 0 0.0052274870722171397 -0.0023442519077663299 0 0.0050048967809970275 -0.0021748544144024923 0 0.0055405074768506094 -0.0019552597009292235 0 0.0051417543819970253 -0.0023676874903624887 0 0.0052274870722171397 -0.0023442519077663299 0 0.0050048967809970275 -0.0021748544144024923 0 0.0047897897699924951 -0.0021873433052289801 0 0.0051417543819970253 -0.0023676874903624887 0 0.0050048967809970275 -0.0021748544144024923 0 0.0047897897699924951 -0.0021873433052289801 0 0.0050048967809970275 -0.0021748544144024923 0 0.0048266070816092846 -0.0022152307180878035 0 0.0047897897699924951 -0.0021873433052289801 0 0.0048266070816092846 -0.0022152307180878035 0 0.0049347091004730377 -0.0020007157313551441 0 0.0060983240926714031 -0.0024451333593732937 0 0.0051561644646445897 -0.0024025326807387646 0 0.0052274870722171397 -0.0023442519077663299 0 0.0060983240926714031 -0.0024451333593732937 0 0.0052274870722171397 -0.0023442519077663299 0 0.0055405074768506094 -0.0019552597009292235 0 0.010060724213666295 0.001376705153147555 0 0.010010609075486432 0.0013353050059024246 0 0.0099414731298923635 0.0013980675168403299 0 0.0085027012458188268 -0.00052155456573064638 0 0.0069902095956137465 -0.00088722082955387804 0 0.0060983240926714031 -0.0024451333593732937 0 0.0055405074768506094 -0.0019552597009292235 0 0.0060945152471607944 -0.0017510554207378901 0 0.0055405074768506094 -0.0019552597009292235 0 0.005700957923211813 -0.0013627659648063506 0 0.0060945152471607944 -0.0017510554207378901 0 0.0055405074768506094 -0.0019552597009292235 0 0.005700957923211813 -0.0013627659648063506 0 0.0051616220070839778 -0.0017008196121344119 0 0.005700957923211813 -0.0013627659648063506 0 0.0062311189584810817 -0.0012483632770717919 0 0.0060945152471607944 -0.0017510554207378901 0 0.0048266070816092846 -0.0022152307180878035 0 0.0051616220070839778 -0.0017008196121344119 0 0.0047204154962198147 -0.0013473177614698028 0 0.0050048967809970275 -0.0021748544144024923 0 0.0048266070816092846 -0.0022152307180878035 0 0.0051616220070839778 -0.0017008196121344119 0 0.0050048967809970275 -0.0021748544144024923 0 0.0055405074768506094 -0.0019552597009292235 0 0.0051616220070839778 -0.0017008196121344119 0 0.0051616220070839778 -0.0017008196121344119 0 0.0053518447972485316 -0.00097360251264976265 0 0.0047204154962198147 -0.0013473177614698028 0 0.0053518447972485316 -0.00097360251264976265 0 0.0047204154962198147 -0.0013473177614698028 0 0.0050567672205662009 -0.00027649113487489887 0 0.0053518447972485316 -0.00097360251264976265 0 0.0060950247908513021 -0.00081772331010761961 0 0.0058292050360962038 -0.00023648217611390288 0 0.005700957923211813 -0.0013627659648063506 0 0.0053518447972485316 -0.00097360251264976265 0 0.0060950247908513021 -0.00081772331010761961 0 0.005700957923211813 -0.0013627659648063506 0 0.0060950247908513021 -0.00081772331010761961 0 0.0062311189584810817 -0.0012483632770717919 0 0.005700957923211813 -0.0013627659648063506 0 0.0051616220070839778 -0.0017008196121344119 0 0.0053518447972485316 -0.00097360251264976265 0 0.00665747998079326 -0.00061309041359966922 0 0.0069726638442871251 -0.0017175064981977586 0 0.0065071687879281236 -0.0014968951519209114 0 0.0060950247908513021 -0.00081772331010761961 0 0.0062311189584810817 -0.0012483632770717919 0 0.00665747998079326 -0.00061309041359966922 0 0.0062311189584810817 -0.0012483632770717919 0 0.00665747998079326 -0.00061309041359966922 0 0.0065071687879281236 -0.0014968951519209114 0 -0.0012624295345518117 -0.0021503134978265869 0 -0.0010415057051181402 -0.0021488611065405409 0 -0.0009952093206858784 -0.0022982967808121016 0 -0.0012624295345518117 -0.0021503134978265869 0 -0.0009952093206858784 -0.0022982967808121016 0 -0.000934712163067465 -0.0024874253837461713 0 0.0028854081817804912 -0.001379772053031266 0 0.0012450957747453758 -0.0023987264764049991 0 -0.0010415057051181402 -0.0021488611065405409 0 -0.0009952093206858784 -0.0022982967808121016 0 -0.00088421543374359577 -0.0022709126711670906 0 -0.0009952093206858784 -0.0022982967808121016 0 -0.00085583986094829654 -0.002313423773962855 0 -0.00088421543374359577 -0.0022709126711670906 0 -0.00065606629556462569 -0.0022130491983049622 0 -0.00075182804659026231 -0.0023108775371661503 0 -0.0007903826830224092 -0.0023097691613921121 0 -0.00043412238662488304 -0.002353950892945102 0 0.0012450957747453758 -0.0023987264764049991 0 -0.0009952093206858784 -0.0022982967808121016 0 -0.00085583986094829654 -0.002313423773962855 0 -0.00077709281974805086 -0.0023181573911674924 0 -0.00085583986094829654 -0.002313423773962855 0 -0.00075182804659026231 -0.0023108775371661503 0 -0.00077709281974805086 -0.0023181573911674924 0 -0.00085583986094829654 -0.002313423773962855 0 -0.00075182804659026231 -0.0023108775371661503 0 -0.0007903826830224092 -0.0023097691613921121 0 -0.00075182804659026231 -0.0023108775371661503 0 -0.00077709281974805086 -0.0023181573911674924 0 -0.00066585478924043701 -0.002298948477257326 0 0.0012450957747453758 -0.0023987264764049991 0 0.00049767970978940087 -0.0020414659456577718 0 0.0065271232662508991 -0.0020579655042132707 0 0.0069726638442871251 -0.0017175064981977586 0 0.0065071687879281236 -0.0014968951519209114 0 0.0065271232662508991 -0.0020579655042132707 0 0.0060945152471607944 -0.0017510554207378901 0 0.0065071687879281236 -0.0014968951519209114 0 0.0062311189584810817 -0.0012483632770717919 0 0.0060945152471607944 -0.0017510554207378901 0 0.0065071687879281236 -0.0014968951519209114 0 -0.00085790897727780219 -0.0033274111496176483 0 6.100842890746557e-05 -0.0036215446699425489 0 -0.00054327702568511592 -0.0022665264153294562 0 0.0083944870187008698 -0.0024602201925380839 0 0.0082762241724196554 -0.0016432145464294725 0 0.0074326998989481556 -0.0019515981118901418 0 0.0083944870187008698 -0.0024602201925380839 0 0.0087714860905619141 -0.0018003532551087308 0 0.0082762241724196554 -0.0016432145464294725 0 0.0093483756340231906 -0.0019951086090944752 0 0.0083944870187008698 -0.0024602201925380839 0 0.0087714860905619141 -0.0018003532551087308 0 0.0087714860905619141 -0.0018003532551087308 0 0.0088602969643486289 -0.0010507985741884181 0 0.0082762241724196554 -0.0016432145464294725 0 0.0093483756340231906 -0.0019951086090944752 0 0.0087714860905619141 -0.0018003532551087308 0 0.0088602969643486289 -0.0010507985741884181 0 0.0085100778852354418 -0.00051079388320537347 0 0.0088602969643486289 -0.0010507985741884181 0 0.0078997921979293145 -0.0010018116435311585 0 0.0088602969643486289 -0.0010507985741884181 0 0.0082762241724196554 -0.0016432145464294725 0 0.0078997921979293145 -0.0010018116435311585 0 0.0082762241724196554 -0.0016432145464294725 0 0.0078997921979293145 -0.0010018116435311585 0 0.0074326998989481556 -0.0019515981118901418 0 0.0078997921979293145 -0.0010018116435311585 0 0.0074326998989481556 -0.0019515981118901418 0 0.0061292097098484787 -0.0016089999507947063 0 0.0083944870187008698 -0.0024602201925380839 0 0.0067559373599512763 -0.0027029994502356532 0 0.0074326998989481556 -0.0019515981118901418 0 0.0040814586398203118 -0.0031016738669496463 0 0.0046165799905376831 -0.0029024033395920776 0 0.0067559373599512763 -0.0027029994502356532 0 0.0074326998989481556 -0.0019515981118901418 0 0.0061292097098484787 -0.0016089999507947063 0 0.0067559373599512763 -0.0027029994502356532 0 0.0061292097098484787 -0.0016089999507947063 0 0.0046818348975627335 -0.0025166663511489449 0 0.0066257921771706446 0.00017623908629836553 0 0.0061292097098484787 -0.0016089999507947063 0 0.0049995263216666723 -0.0011460509153023689 0 0.0066257921771706446 0.00017623908629836553 0 0.0078997921979293145 -0.0010018116435311585 0 0.0061292097098484787 -0.0016089999507947063 0 0.0061292097098484787 -0.0016089999507947063 0 0.0049995263216666723 -0.0011460509153023689 0 0.0049347091004730377 -0.0020007157313551441 0 0.0047897897699924951 -0.0021873433052289801 0 0.0049995263216666723 -0.0011460509153023689 0 0.0049347091004730377 -0.0020007157313551441 0 0.0061292097098484787 -0.0016089999507947063 0 0.0049347091004730377 -0.0020007157313551441 0 0.0046818348975627335 -0.0025166663511489449 0 0.0048266070816092846 -0.0022152307180878035 0 0.0049347091004730377 -0.0020007157313551441 0 0.0046818348975627335 -0.0025166663511489449 0 0.0048266070816092846 -0.0022152307180878035 0 0.0046818348975627335 -0.0025166663511489449 0 0.0047204154962198147 -0.0013473177614698028 0 0.0046818348975627335 -0.0025166663511489449 0 0.0047204154962198147 -0.0013473177614698028 0 0.0033325159134476156 -0.0013950158009211507 0 0.0047204154962198147 -0.0013473177614698028 0 0.0033325159134476156 -0.0013950158009211507 0 0.0039439554973451736 -7.7512718187139492e-05 0 0.0033325159134476156 -0.0013950158009211507 0 0.0018766170726641379 -0.00020416407581030273 0 0.0039439554973451736 -7.7512718187139492e-05 0 0.0046165799905376831 -0.0029024033395920776 0 0.004693273068476533 -0.0026334398076105626 0 0.0024305267161926053 -0.0032376584821691128 0 0.0046818348975627335 -0.0025166663511489449 0 0.0033325159134476156 -0.0013950158009211507 0 0.0024305267161926053 -0.0032376584821691128 0 0.0033325159134476156 -0.0013950158009211507 0 0.0015203972918741214 -0.0018258681059770982 0 6.100842890746557e-05 -0.0036215446699425489 0 0.0024305267161926053 -0.0032376584821691128 0 0.0015203972918741214 -0.0018258681059770982 0 0.0033325159134476156 -0.0013950158009211507 0 0.0015203972918741214 -0.0018258681059770982 0 0.0018766170726641379 -0.00020416407581030273 0 0.0015203972918741214 -0.0018258681059770982 0 -0.00054327702568511592 -0.0022665264153294562 0 0.0018766170726641379 -0.00020416407581030273 0 -0.00051713646856073228 -0.0022228151691642182 0 0.00042265205687658057 -0.00081925499586586368 0 -0.0011574472779584653 -0.0014900656679751711 0 -0.00054327702568511592 -0.0022665264153294562 0 -0.00082874483366342894 -0.0011722402707394558 0 -0.001307308302773199 -0.001948206548503221 0 -0.0011574472779584653 -0.0014900656679751711 0 -0.00054327702568511592 -0.0022665264153294562 0 6.100842890746557e-05 -0.0036215446699425489 0 0.0015203972918741214 -0.0018258681059770982 0 -0.00054327702568511592 -0.0022665264153294562 0 -0.0017943399694324729 -0.00056805402615337256 0 -0.0012915895181705615 -0.0005591767656518827 0 -0.0013916207161878381 -0.00095554257213965616 0 -0.0017943399694324729 -0.00056805402615337256 0 -0.0012915895181705615 -0.0005591767656518827 0 -0.0018507135266312171 -3.0898433618433174e-05 0 -0.0011574472779584653 -0.0014900656679751711 0 -0.0013916207161878381 -0.00095554257213965616 0 -0.00082874483366342894 -0.0011722402707394558 0 -0.0012915895181705615 -0.0005591767656518827 0 -0.0013916207161878381 -0.00095554257213965616 0 -0.00082874483366342894 -0.0011722402707394558 0 0.00042265205687658057 -0.00081925499586586368 0 0.0016651857027750077 0.00040389058864133171 0 -0.0012915895181705615 -0.0005591767656518827 0 -0.00051577591776988017 -0.00048252788487482772 0 -0.0013472826824470546 -4.788665474057989e-05 0 -0.0012915895181705615 -0.0005591767656518827 0 -0.00082874483366342894 -0.0011722402707394558 0 -0.00051577591776988017 -0.00048252788487482772 0 0.0018766170726641379 -0.00020416407581030273 0 0.0032144996689741526 0.00093159010363311494 0 0.0039439554973451736 -7.7512718187139492e-05 0 0.0047204154962198147 -0.0013473177614698028 0 0.0039439554973451736 -7.7512718187139492e-05 0 0.0050567672205662009 -0.00027649113487489887 0 0.0032144996689741526 0.00093159010363311494 0 0.0039439554973451736 -7.7512718187139492e-05 0 0.0041628798331434852 0.00096159239098250889 0 0.0039439554973451736 -7.7512718187139492e-05 0 0.0041628798331434852 0.00096159239098250889 0 0.0048358252511845994 0.00053964434969872997 0 0.0032144996689741526 0.00093159010363311494 0 0.0041628798331434852 0.00096159239098250889 0 0.004146318113556432 0.0020346040731500101 0 0.0016651857027750077 0.00040389058864133171 0 0.0003603535030957705 0.00071208511431254836 0 0.0041628798331434852 0.00096159239098250889 0 0.004146318113556432 0.0020346040731500101 0 0.0046793314649533737 0.0013067890715144149 0 -0.0033178907528211891 0.00026432058181593236 0 -0.0034079662977121897 1.2658896038156579e-05 0 -0.0032469004836700758 2.3170009349213071e-05 0 0.0003603535030957705 0.00071208511431254836 0 -0.0017160648622576834 -0.00030630332384614203 0 -0.0033178907528211891 0.00026432058181593236 0 -0.0029733477121945155 0.00035183011820144318 0 -0.0032469004836700758 2.3170009349213071e-05 0 0.0003603535030957705 0.00071208511431254836 0 -0.0023129909852131979 0.00035062551672512842 0 -0.00051577591776988017 -0.00048252788487482772 0 0.0001068292643781351 0.0004011490087137494 0 -0.00079740233420668002 0.00043258403478771136 0 -0.00051577591776988017 -0.00048252788487482772 0 -0.00079740233420668002 0.00043258403478771136 0 -0.0013472826824470546 -4.788665474057989e-05 0 -0.00079740233420668002 0.00043258403478771136 0 -0.0013472826824470546 -4.788665474057989e-05 0 -0.0020418217562779071 0.00032556971005512261 0 -0.0023129909852131979 0.00035062551672512842 0 -0.0018443790537239167 0.00034361979097102059 0 -0.0029733477121945155 0.00035183011820144318 0 -0.0020418217562779071 0.00032556971005512261 0 -0.0026176615613530056 3.3594974434433686e-05 0 -0.0021280263555601762 0.0002883239590447722 0 -0.0020418217562779071 0.00032556971005512261 0 -0.0018507135266312171 -3.0898433618433174e-05 0 -0.0021280263555601762 0.0002883239590447722 0 -0.0020418217562779071 0.00032556971005512261 0 -0.0026176615613530056 3.3594974434433686e-05 0 -0.0012915895181705615 -0.0005591767656518827 0 -0.0013472826824470546 -4.788665474057989e-05 0 -0.0018507135266312171 -3.0898433618433174e-05 0 -0.0013472826824470546 -4.788665474057989e-05 0 -0.0020418217562779071 0.00032556971005512261 0 -0.0018507135266312171 -3.0898433618433174e-05 0 -0.0016232066792916939 -0.0017875869030682184 0 -0.0012902757379345871 -0.0016725699116140922 0 -0.0016647873992639696 -0.001510124872796473 0 -0.0016232066792916939 -0.0017875869030682184 0 -0.0012902757379345871 -0.0016725699116140922 0 -0.0011770997256102017 -0.0019486361549940598 0 -0.0012902757379345871 -0.0016725699116140922 0 -0.0011770997256102017 -0.0019486361549940598 0 -0.0010493525820296165 -0.0018116467515674889 0 -0.0012902757379345871 -0.0016725699116140922 0 -0.0010242705741196675 -0.001537821146617603 0 -0.0010493525820296165 -0.0018116467515674889 0 -0.0010415057051181402 -0.0021488611065405409 0 -0.0011770997256102017 -0.0019486361549940598 0 -0.00092632065361081294 -0.0020445054496441386 0 -0.0012624295345518117 -0.0021503134978265869 0 -0.0010415057051181402 -0.0021488611065405409 0 -0.0011770997256102017 -0.0019486361549940598 0 0.00665747998079326 -0.00061309041359966922 0 0.0062891742848862212 0.00065014614237359403 0 0.0058292050360962038 -0.00023648217611390288 0 -0.0012624295345518117 -0.0021503134978265869 0 -0.0016232066792916939 -0.0017875869030682184 0 -0.0011770997256102017 -0.0019486361549940598 0 0.0060950247908513021 -0.00081772331010761961 0 0.00665747998079326 -0.00061309041359966922 0 0.0058292050360962038 -0.00023648217611390288 0 0.0028854081817804912 -0.001379772053031266 0 0.0024360503190452702 -0.0004456423557613241 0 0.0053518447972485316 -0.00097360251264976265 0 0.0058292050360962038 -0.00023648217611390288 0 0.0050567672205662009 -0.00027649113487489887 0 0.0058292050360962038 -0.00023648217611390288 0 0.0050567672205662009 -0.00027649113487489887 0 0.0055597487010870857 0.00043982457261972259 0 0.0039439554973451736 -7.7512718187139492e-05 0 0.0050567672205662009 -0.00027649113487489887 0 0.0048358252511845994 0.00053964434969872997 0 0.0050567672205662009 -0.00027649113487489887 0 0.0048358252511845994 0.00053964434969872997 0 0.0055597487010870857 0.00043982457261972259 0 0.0048358252511845994 0.00053964434969872997 0 0.0055597487010870857 0.00043982457261972259 0 0.005369866148832063 0.0011733936320455661 0 0.0048358252511845994 0.00053964434969872997 0 0.005369866148832063 0.0011733936320455661 0 0.0046793314649533737 0.0013067890715144149 0 0.0041628798331434852 0.00096159239098250889 0 0.0048358252511845994 0.00053964434969872997 0 0.0046793314649533737 0.0013067890715144149 0 0.0062891742848862212 0.00065014614237359403 0 0.0055597487010870857 0.00043982457261972259 0 0.005369866148832063 0.0011733936320455661 0 0.0062891742848862212 0.00065014614237359403 0 0.0058292050360962038 -0.00023648217611390288 0 0.0055597487010870857 0.00043982457261972259 0 0.005369866148832063 0.0011733936320455661 0 0.0049804257314124082 0.0019796353232249693 0 0.0058167668338239362 0.0019257848953626877 0 0.0024360503190452702 -0.0004456423557613241 0 0.00063340112443762352 -0.00043943626950235026 0 0.0062891742848862212 0.00065014614237359403 0 0.005369866148832063 0.0011733936320455661 0 0.0058167668338239362 0.0019257848953626877 0 0.004146318113556432 0.0020346040731500101 0 0.0046793314649533737 0.0013067890715144149 0 0.0049804257314124082 0.0019796353232249693 0 0.005369866148832063 0.0011733936320455661 0 0.0046793314649533737 0.0013067890715144149 0 0.0049804257314124082 0.0019796353232249693 0 0.0003603535030957705 0.00071208511431254836 0 0.0031790645580608195 0.000941881364320857 0 0.00048109359636466635 2.447075412957207e-05 0 0.00011381120743674733 3.3680445156524729e-05 0 0.00022985453663807863 -0.00032425519825408998 0 0.00011381120743674733 3.3680445156524729e-05 0 -0.00013790016690497456 -0.00030845672971445778 0 0.00022985453663807863 -0.00032425519825408998 0 0.00063340112443762352 -0.00043943626950235026 0 -0.0012081925096641558 -0.00064117695374186947 0 -0.0020677073303427139 -0.0013777278020046546 0 -0.002002413554476945 -0.0011610504220219797 0 -0.0022930753066427098 -0.0010040170652925464 0 -0.002002413554476945 -0.0011610504220219797 0 -0.0018708103222959981 -0.0010320893639183754 0 -0.0022930753066427098 -0.0010040170652925464 0 0.00011381120743674733 3.3680445156524729e-05 0 -0.00024961914804504023 4.2589238648981926e-05 0 -0.00013790016690497456 -0.00030845672971445778 0 0.0031790645580608195 0.000941881364320857 0 0.00063340112443762352 -0.00043943626950235026 0 -0.0020677073303427139 -0.0013777278020046546 0 -0.002002413554476945 -0.0011610504220219797 0 -0.0018369608582719721 -0.001367338014275602 0 0.00063340112443762352 -0.00043943626950235026 0 -0.0015212281379688841 -0.00073569636056083389 0 -0.002002413554476945 -0.0011610504220219797 0 -0.0018369608582719721 -0.001367338014275602 0 -0.0018708103222959981 -0.0010320893639183754 0 -0.0016169364734869459 -0.0013677894095297015 0 -0.0014935814462069649 -0.0012049687845000184 0 -0.0018708103222959981 -0.0010320893639183754 0 -0.0018369608582719721 -0.001367338014275602 0 -0.0016169364734869459 -0.0013677894095297015 0 -0.0018708103222959981 -0.0010320893639183754 0 -0.0016232066792916939 -0.0017875869030682184 0 -0.0019571840970397806 -0.0013539054818605177 0 -0.0016647873992639696 -0.001510124872796473 0 -0.0019571840970397806 -0.0013539054818605177 0 -0.0018369608582719721 -0.001367338014275602 0 -0.0016647873992639696 -0.001510124872796473 0 -0.0012902757379345871 -0.0016725699116140922 0 -0.0016169364734869459 -0.0013677894095297015 0 -0.0016647873992639696 -0.001510124872796473 0 -0.0018369608582719721 -0.001367338014275602 0 -0.0016169364734869459 -0.0013677894095297015 0 -0.0016647873992639696 -0.001510124872796473 0 -0.0013108622518616434 -0.0016505033046580878 0 -0.0014240214634242349 -0.0012222955276317623 0 -0.0012902757379345871 -0.0016725699116140922 0 -0.0016169364734869459 -0.0013677894095297015 0 -0.0014935814462069649 -0.0012049687845000184 0 -0.0012902757379345871 -0.0016725699116140922 0 -0.0013532074170332583 -0.0012090105845896321 0 -0.0010242705741196675 -0.001537821146617603 0 -0.0013532074170332583 -0.0012090105845896321 0 -0.0009883917736000108 -0.0012610468223554772 0 -0.0011071329647628016 -0.00096549255522221454 0 -0.0009883917736000108 -0.0012610468223554772 0 -0.00078228427284284452 -0.00094318801044845912 0 -0.0011071329647628016 -0.00096549255522221454 0 -0.0013532074170332583 -0.0012090105845896321 0 -0.0009883917736000108 -0.0012610468223554772 0 -0.0010242705741196675 -0.001537821146617603 0 -0.0009883917736000108 -0.0012610468223554772 0 -0.0006703619490381937 -0.0014639507653756601 0 -0.00078228427284284452 -0.00094318801044845912 0 -0.00086051574345470563 -0.0012203731173761855 0 -0.0010843489880548117 -0.00046541793655579362 0 -0.0010527603220811456 -0.00096706366009080677 0 -0.00086900716808836981 -0.00029898099407324284 0 -0.0014179892105847 -7.5480221401877276e-05 0 -0.0006703619490381937 -0.0014639507653756601 0 -0.0010242705741196675 -0.001537821146617603 0 -0.00083844126271225082 -0.0017772760772432955 0 -0.0009883917736000108 -0.0012610468223554772 0 -0.0006703619490381937 -0.0014639507653756601 0 -0.0010242705741196675 -0.001537821146617603 0 -0.0004048805747021622 -0.00038651473639063696 0 0.00014925563504566297 -0.00080570215900724481 0 -1.0711034575628337e-05 -4.8726088379415989e-05 0 -0.0004048805747021622 -0.00038651473639063696 0 -0.00045321445498767841 -0.00088870017128590058 0 0.00014925563504566297 -0.00080570215900724481 0 -0.00086900716808836981 -0.00029898099407324284 0 -0.0004048805747021622 -0.00038651473639063696 0 -0.00045321445498767841 -0.00088870017128590058 0 -0.0010527603220811456 -0.00096706366009080677 0 -0.00086900716808836981 -0.00029898099407324284 0 -0.00045321445498767841 -0.00088870017128590058 0 -0.0010527603220811456 -0.00096706366009080677 0 -0.00045321445498767841 -0.00088870017128590058 0 -0.00052955163014691302 -0.0013391150367950912 0 -0.00045321445498767841 -0.00088870017128590058 0 -3.9662646485164014e-06 -0.0014848670864321129 0 -0.00052955163014691302 -0.0013391150367950912 0 -0.00045321445498767841 -0.00088870017128590058 0 0.00014925563504566297 -0.00080570215900724481 0 -3.9662646485164014e-06 -0.0014848670864321129 0 -0.0010527603220811456 -0.00096706366009080677 0 -0.00052955163014691302 -0.0013391150367950912 0 -0.00061871442423665375 -0.0018629733245912699 0 -3.9662646485164014e-06 -0.0014848670864321129 0 -0.00061871442423665375 -0.0018629733245912699 0 -0.00059775036190240266 -0.0021306352476667223 0 -4.1828245460015215e-05 -0.0015512569359593567 0 -0.00019039122337414016 -0.0020338542579354537 0 -3.9662646485164014e-06 -0.0014848670864321129 0 -0.00052955163014691302 -0.0013391150367950912 0 -0.00061871442423665375 -0.0018629733245912699 0 -3.9662646485164014e-06 -0.0014848670864321129 0 -5.3866272534443549e-05 -0.0021471486906747619 0 0.00015194250876749787 -0.002189506661604214 0 -3.9662646485164014e-06 -0.0014848670864321129 0 0.00040958320109246851 -0.0021095702573098764 0 0.00081959388723905119 -0.0019046293894033881 0 -3.9662646485164014e-06 -0.0014848670864321129 0 0.00015194250876749787 -0.002189506661604214 0 0.00040958320109246851 -0.0021095702573098764 0 -0.00083844126271225082 -0.0017772760772432955 0 -0.0010493525820296165 -0.0018116467515674889 0 -0.00092632065361081294 -0.0020445054496441386 0 -0.0010242705741196675 -0.001537821146617603 0 -0.00083844126271225082 -0.0017772760772432955 0 -0.0010493525820296165 -0.0018116467515674889 0 -0.0006703619490381937 -0.0014639507653756601 0 -0.00061871442423665375 -0.0018629733245912699 0 -0.00083844126271225082 -0.0017772760772432955 0 -0.00061871442423665375 -0.0018629733245912699 0 -0.00083844126271225082 -0.0017772760772432955 0 -0.00076958713686132128 -0.0020064642201302113 0 -0.00086051574345470563 -0.0012203731173761855 0 -0.00064295965226508463 -0.0018164000831331142 0 -0.00059775036190240266 -0.0021306352476667223 0 -0.00076958713686132128 -0.0020064642201302113 0 -0.00081421268884789488 -0.0021667186211136178 0 -0.00061871442423665375 -0.0018629733245912699 0 -0.00059775036190240266 -0.0021306352476667223 0 -0.00076958713686132128 -0.0020064642201302113 0 -0.00076958713686132128 -0.0020064642201302113 0 -0.00092632065361081294 -0.0020445054496441386 0 -0.00081421268884789488 -0.0021667186211136178 0 -0.00083844126271225082 -0.0017772760772432955 0 -0.00076958713686132128 -0.0020064642201302113 0 -0.00092632065361081294 -0.0020445054496441386 0 -0.0011770997256102017 -0.0019486361549940598 0 -0.0010493525820296165 -0.0018116467515674889 0 -0.00092632065361081294 -0.0020445054496441386 0 -0.00092632065361081294 -0.0020445054496441386 0 -0.00088421543374359577 -0.0022709126711670906 0 -0.00081421268884789488 -0.0021667186211136178 0 -0.0010415057051181402 -0.0021488611065405409 0 -0.00092632065361081294 -0.0020445054496441386 0 -0.00088421543374359577 -0.0022709126711670906 0 -0.00088421543374359577 -0.0022709126711670906 0 -0.00083286985293050473 -0.0023245278217834766 0 -0.00081421268884789488 -0.0021667186211136178 0 -0.00065606629556462569 -0.0022130491983049622 0 -0.0007903826830224092 -0.0023097691613921121 0 -0.00083286985293050473 -0.0023245278217834766 0 0.0032284642830477071 -0.0021432249372530018 0 -0.0010618576739781567 -0.0026188132578349129 0 -0.00088421543374359577 -0.0022709126711670906 0 -0.0007903826830224092 -0.0023097691613921121 0 -0.00083286985293050473 -0.0023245278217834766 0 -0.00085583986094829654 -0.002313423773962855 0 -0.00088421543374359577 -0.0022709126711670906 0 -0.0007903826830224092 -0.0023097691613921121 0 -1.7934316151160503e-05 -0.0026144065925559879 0 -5.1599524159861394e-05 -0.0025051388870485887 0 -7.3508800414981385e-06 -0.0025882892351783001 0 1.3759846847544873e-05 -0.0025771002454506378 0 -5.1599524159861394e-05 -0.0025051388870485887 0 7.1956862825373893e-05 -0.0025290224118696969 0 -5.1599524159861394e-05 -0.0025051388870485887 0 4.5445311783233782e-05 -0.002371217201431098 0 7.1956862825373893e-05 -0.0025290224118696969 0 1.3759846847544873e-05 -0.0025771002454506378 0 7.1956862825373893e-05 -0.0025290224118696969 0 8.3898591532005238e-05 -0.0026140078659804399 0 1.3759846847544873e-05 -0.0025771002454506378 0 -5.1599524159861394e-05 -0.0025051388870485887 0 -7.3508800414981385e-06 -0.0025882892351783001 0 -0.00019039122337414016 -0.0020338542579354537 0 -0.0010618576739781567 -0.0026188132578349129 0 -0.00059775036190240266 -0.0021306352476667223 0 -0.00083286985293050473 -0.0023245278217834766 0 -0.00081421268884789488 -0.0021667186211136178 0 -5.3866272534443549e-05 -0.0021471486906747619 0 -5.1599524159861394e-05 -0.0025051388870485887 0 4.5445311783233782e-05 -0.002371217201431098 0 -5.3866272534443549e-05 -0.0021471486906747619 0 0.00015194250876749787 -0.002189506661604214 0 4.5445311783233782e-05 -0.002371217201431098 0 0.00015194250876749787 -0.002189506661604214 0 0.00019894116219309319 -0.0024423414064021483 0 4.5445311783233782e-05 -0.002371217201431098 0 0.00015194250876749787 -0.002189506661604214 0 0.00040958320109246851 -0.0021095702573098764 0 0.00040965457270336359 -0.0023956061329288682 0 0.00015194250876749787 -0.002189506661604214 0 0.00019894116219309319 -0.0024423414064021483 0 0.00040965457270336359 -0.0023956061329288682 0 0.00019894116219309319 -0.0024423414064021483 0 0.00040965457270336359 -0.0023956061329288682 0 0.0003999102388567438 -0.0026129493208971134 0 0.00019894116219309319 -0.0024423414064021483 0 0.0003999102388567438 -0.0026129493208971134 0 0.00020765799095474752 -0.0025903658154389306 0 0.00019894116219309319 -0.0024423414064021483 0 4.5445311783233782e-05 -0.002371217201431098 0 7.1956862825373893e-05 -0.0025290224118696969 0 0.00019894116219309319 -0.0024423414064021483 0 0.00020765799095474752 -0.0025903658154389306 0 7.1956862825373893e-05 -0.0025290224118696969 0 7.1956862825373893e-05 -0.0025290224118696969 0 0.00013931173048902144 -0.0026135222322456434 0 8.3898591532005238e-05 -0.0026140078659804399 0 0.00020765799095474752 -0.0025903658154389306 0 7.1956862825373893e-05 -0.0025290224118696969 0 0.00013931173048902144 -0.0026135222322456434 0 0.00013931173048902144 -0.0026135222322456434 0 0.00019805211281375518 -0.0026964637124471964 0 8.3898591532005238e-05 -0.0026140078659804399 0 0.0041809509036357393 -0.001852171582456047 0 0.0047254151706846471 -0.002021966889788162 0 0.0080172280472258217 -0.0014829056861374995 0 0.0081540575149884244 -0.0013414672350910313 0 0.0088935284885347451 -0.0013988646910332656 0 0.00020765799095474752 -0.0025903658154389306 0 0.00013931173048902144 -0.0026135222322456434 0 0.00019805211281375518 -0.0026964637124471964 0 0.0080151003852256472 -0.0014700819767075339 0 0.0081540575149884244 -0.0013414672350910313 0 0.0077766890889219425 -0.0011244849078494849 0 0.0041809509036357393 -0.001852171582456047 0 0.005741769525375499 -0.00095784190694564767 0 0.002802999406153155 -0.0010510974091442824 0 0.0025969418421298569 -0.0012892258577535069 0 0.0029811593701989663 -0.0013034336120338671 0 0.0041809509036357393 -0.001852171582456047 0 0.0052433136801240208 -0.0013274026231106886 0 0.0011943816028528618 -0.0020180694264648178 0 0.0041809509036357393 -0.001852171582456047 0 0.0080151003852256472 -0.0014700819767075339 0 0.0077766890889219425 -0.0011244849078494849 0 0.0069857823990115411 -0.00146136325309741 0 0.0003999102388567438 -0.0026129493208971134 0 0.00020765799095474752 -0.0025903658154389306 0 0.00019805211281375518 -0.0026964637124471964 0 0.0077766890889219425 -0.0011244849078494849 0 0.0074563396392288957 -0.0008399324021778411 0 0.0069857823990115411 -0.00146136325309741 0 0.0080218892224778512 -0.00034830516460236411 0 0.0077766890889219425 -0.0011244849078494849 0 0.0074563396392288957 -0.0008399324021778411 0 0.0080218892224778512 -0.00034830516460236411 0 0.0081540575149884244 -0.0013414672350910313 0 0.0077766890889219425 -0.0011244849078494849 0 0.0080218892224778512 -0.00034830516460236411 0 0.0081540575149884244 -0.0013414672350910313 0 0.0087677088623967728 -0.0010917010617851242 0 0.0081553654288394235 -0.00042563764063866541 0 0.0087373102056409017 -0.0010640226509662455 0 0.0087677088623967728 -0.0010917010617851242 0 0.0090165018441672323 -0.0011573161208475143 0 0.009023806989655634 -0.00095983371020183852 0 0.0087677088623967728 -0.0010917010617851242 0 0.0090165018441672323 -0.0011573161208475143 0 0.0088935284885347451 -0.0013988646910332656 0 0.0091029465590392947 -0.00066663118496480529 0 0.0088379270780862152 -0.00070915042211696191 0 0.009023806989655634 -0.00095983371020183852 0 0.0088379270780862152 -0.00070915042211696191 0 0.0087677088623967728 -0.0010917010617851242 0 0.009023806989655634 -0.00095983371020183852 0 0.0091029465590392947 -0.00066663118496480529 0 0.009023806989655634 -0.00095983371020183852 0 0.0092448256524221319 -0.00078932391548755564 0 0.009023806989655634 -0.00095983371020183852 0 0.0092448256524221319 -0.00078932391548755564 0 0.0092033516649192345 -0.0010545285602686946 0 0.0092448256524221319 -0.00078932391548755564 0 0.0094350222645097574 -0.00095173996047628233 0 0.0092033516649192345 -0.0010545285602686946 0 0.0094350222645097574 -0.00095173996047628233 0 0.0092033516649192345 -0.0010545285602686946 0 0.0093038259104146221 -0.0011833376999185704 0 0.0093953872421048377 -0.0012588551907117293 0 0.0094350222645097574 -0.00095173996047628233 0 0.0093038259104146221 -0.0011833376999185704 0 0.0092033516649192345 -0.0010545285602686946 0 0.0091646337566637422 -0.0012196785785623385 0 0.0093038259104146221 -0.0011833376999185704 0 0.0090165018441672323 -0.0011573161208475143 0 0.009023806989655634 -0.00095983371020183852 0 0.0092033516649192345 -0.0010545285602686946 0 0.0090165018441672323 -0.0011573161208475143 0 0.0092033516649192345 -0.0010545285602686946 0 0.0091646337566637422 -0.0012196785785623385 0 0.0090165018441672323 -0.0011573161208475143 0 0.0091646337566637422 -0.0012196785785623385 0 0.0088935284885347451 -0.0013988646910332656 0 0.0093895742108510618 -0.0012861410670045221 0 0.0091646337566637422 -0.0012196785785623385 0 0.0088935284885347451 -0.0013988646910332656 0 -1.7934316151160503e-05 -0.0026144065925559879 0 -7.3508800414981385e-06 -0.0025882892351783001 0 2.9264812597427833e-05 -0.0026317464855040813 0 0.0032284642830477071 -0.0021432249372530018 0 0.0047254151706846471 -0.002021966889788162 0 0.0093895742108510618 -0.0012861410670045221 0 0.0091646337566637422 -0.0012196785785623385 0 0.0093038259104146221 -0.0011833376999185704 0 1.3759846847544873e-05 -0.0025771002454506378 0 -7.3508800414981385e-06 -0.0025882892351783001 0 2.9264812597427833e-05 -0.0026317464855040813 0 0.00019805211281375518 -0.0026964637124471964 0 8.3898591532005238e-05 -0.0026140078659804399 0 2.9264812597427833e-05 -0.0026317464855040813 0 0.0081540575149884244 -0.0013414672350910313 0 0.0087677088623967728 -0.0010917010617851242 0 0.0088935284885347451 -0.0013988646910332656 0 1.3759846847544873e-05 -0.0025771002454506378 0 8.3898591532005238e-05 -0.0026140078659804399 0 2.9264812597427833e-05 -0.0026317464855040813 0 0.0045300098812465868 -0.0011854178948480806 0 0.0042966406441259817 -0.0011543190161766685 0 0.0034951284155903357 -0.001395447141652003 0 0.004567371449333597 -0.0012307905568366274 0 0.0046587246717376919 -0.0014171675030704687 0 0.0042966406441259817 -0.0011543190161766685 0 0.0034951284155903357 -0.001395447141652003 0 0.0034845591370331521 -0.00094967807471698815 0 0.0045300098812465868 -0.0011854178948480806 0 0.0059409377830636169 -0.0014850960865744119 0 0.0054032433232744526 -0.00099850206521730819 0 0.0045300098812465868 -0.0011854178948480806 0 0.0054032433232744526 -0.00099850206521730819 0 0.0050745879825182172 -0.00085797217738564787 0 0.0055334664183449359 -0.00064357399282024207 0 0.0054032433232744526 -0.00099850206521730819 0 0.0050745879825182172 -0.00085797217738564787 0 0.0059409377830636169 -0.0014850960865744119 0 0.0054032433232744526 -0.00099850206521730819 0 0.0059769385784968557 -0.00085067061787251355 0 0.0055334664183449359 -0.00064357399282024207 0 0.0054032433232744526 -0.00099850206521730819 0 0.0059769385784968557 -0.00085067061787251355 0 0.0059409377830636169 -0.0014850960865744119 0 0.0059769385784968557 -0.00085067061787251355 0 0.0064712582351137147 -0.0010183038382703294 0 0.0064692697217544953 -0.00050146303770644707 0 0.0059769385784968557 -0.00085067061787251355 0 0.0064712582351137147 -0.0010183038382703294 0 0.0064692697217544953 -0.00050146303770644707 0 0.0064712582351137147 -0.0010183038382703294 0 0.0069544527174394237 -0.00081279584368931768 0 0.0064712582351137147 -0.0010183038382703294 0 0.0069544527174394237 -0.00081279584368931768 0 0.0069857823990115411 -0.00146136325309741 0 0.0074563396392288957 -0.0008399324021778411 0 0.0069544527174394237 -0.00081279584368931768 0 0.0069857823990115411 -0.00146136325309741 0 0.002802999406153155 -0.0010510974091442824 0 0.0029811593701989663 -0.0013034336120338671 0 0.0032002080595467139 -0.0010443952738338543 0 0.0034951284155903357 -0.001395447141652003 0 0.0029811593701989663 -0.0013034336120338671 0 0.0032002080595467139 -0.0010443952738338543 0 0.0059409377830636169 -0.0014850960865744119 0 0.0064712582351137147 -0.0010183038382703294 0 0.0069857823990115411 -0.00146136325309741 0 0.0046587246717376919 -0.0014171675030704687 0 0.0052433136801240208 -0.0013274026231106886 0 0.002802999406153155 -0.0010510974091442824 0 0.0032002080595467139 -0.0010443952738338543 0 0.0030674652046841951 -0.00077811717983389836 0 0.0011943816028528618 -0.0020180694264648178 0 0.0020356469904215719 -0.0015609036455616337 0 0.00040965457270336359 -0.0023956061329288682 0 0.0003999102388567438 -0.0026129493208971134 0 0.00082907239054306862 -0.0024529014261663378 0 0.00040958320109246851 -0.0021095702573098764 0 0.00040965457270336359 -0.0023956061329288682 0 0.00082907239054306862 -0.0024529014261663378 0 0.0032002080595467139 -0.0010443952738338543 0 0.0030674652046841951 -0.00077811717983389836 0 0.0032890875689761167 -0.00073124450643287191 0 0.0030674652046841951 -0.00077811717983389836 0 0.0032890875689761167 -0.00073124450643287191 0 0.0032644192192678931 -0.00072871481777538689 0 0.0020356469904215719 -0.0015609036455616337 0 0.0023641765958676746 -0.0013906434948505095 0 0.0032890875689761167 -0.00073124450643287191 0 0.0033440874426767797 -0.00064025815114437045 0 0.0030416835388392574 -0.00073755353224339406 0 0.0032890875689761167 -0.00073124450643287191 0 0.0034845591370331521 -0.00094967807471698815 0 0.0033440874426767797 -0.00064025815114437045 0 0.0032002080595467139 -0.0010443952738338543 0 0.0032890875689761167 -0.00073124450643287191 0 0.0034845591370331521 -0.00094967807471698815 0 0.0034951284155903357 -0.001395447141652003 0 0.0032002080595467139 -0.0010443952738338543 0 0.0034845591370331521 -0.00094967807471698815 0 0.0039736971338812056 -0.0008160467697542282 0 0.0037498100310020305 -0.0006744833167687598 0 0.0033440874426767797 -0.00064025815114437045 0 0.0042966406441259817 -0.0011543190161766685 0 0.0034845591370331521 -0.00094967807471698815 0 0.0033440874426767797 -0.00064025815114437045 0 0.0041177524696551808 -0.0009800907814022763 0 0.003450192180433746 -0.00063955677823866687 0 0.0037498100310020305 -0.0006744833167687598 0 0.0033440874426767797 -0.00064025815114437045 0 0.0032303413819746284 -0.00054423151122836102 0 0.0029017057135826449 -0.00084021244370668068 0 0.0030416835388392574 -0.00073755353224339406 0 0.0025809610735969104 -0.0011409730447898394 0 0.0032303413819746284 -0.00054423151122836102 0 0.0029017057135826449 -0.00084021244370668068 0 0.0030416835388392574 -0.00073755353224339406 0 0.0033440874426767797 -0.00064025815114437045 0 0.0032303413819746284 -0.00054423151122836102 0 0.0030416835388392574 -0.00073755353224339406 0 0.0030416835388392574 -0.00073755353224339406 0 0.0025809610735969104 -0.0011409730447898394 0 0.0032644192192678931 -0.00072871481777538689 0 0.0032890875689761167 -0.00073124450643287191 0 0.0030416835388392574 -0.00073755353224339406 0 0.0032644192192678931 -0.00072871481777538689 0 0.0025955829469363665 -0.0011477312668085476 0 0.0023641765958676746 -0.0013906434948505095 0 0.0025809610735969104 -0.0011409730447898394 0 0.0015162631175436743 -0.0020747859803250503 0 0.0016815090002258652 -0.0012477248846244592 0 0.0027290826733627422 -0.00092282346973620558 0 0.0029017057135826449 -0.00084021244370668068 0 0.0025809610735969104 -0.0011409730447898394 0 0.00040958320109246851 -0.0021095702573098764 0 0.00082907239054306862 -0.0024529014261663378 0 0.00081959388723905119 -0.0019046293894033881 0 0.00082907239054306862 -0.0024529014261663378 0 0.00081959388723905119 -0.0019046293894033881 0 0.0015162631175436743 -0.0020747859803250503 0 0.00081959388723905119 -0.0019046293894033881 0 0.0015162631175436743 -0.0020747859803250503 0 0.00093931757975438085 -0.001260165378188464 0 0.0015162631175436743 -0.0020747859803250503 0 0.0016815090002258652 -0.0012477248846244592 0 0.00093931757975438085 -0.001260165378188464 0 -3.9662646485164014e-06 -0.0014848670864321129 0 0.00081959388723905119 -0.0019046293894033881 0 0.00093931757975438085 -0.001260165378188464 0 0.00014925563504566297 -0.00080570215900724481 0 0.00093931757975438085 -0.001260165378188464 0 0.0007337671240529222 -0.00047643155360228048 0 0.00014925563504566297 -0.00080570215900724481 0 -3.9662646485164014e-06 -0.0014848670864321129 0 0.00093931757975438085 -0.001260165378188464 0 0.0016815090002258652 -0.0012477248846244592 0 0.00093931757975438085 -0.001260165378188464 0 0.0017098388741701442 -0.00074578968363510606 0 0.00093931757975438085 -0.001260165378188464 0 0.0007337671240529222 -0.00047643155360228048 0 0.0017098388741701442 -0.00074578968363510606 0 0.0007337671240529222 -0.00047643155360228048 0 0.0017098388741701442 -0.00074578968363510606 0 0.0013398055787412118 -0.00023544317663239949 0 0.00014925563504566297 -0.00080570215900724481 0 0.0007337671240529222 -0.00047643155360228048 0 -1.0711034575628337e-05 -4.8726088379415989e-05 0 0.0027290826733627422 -0.00092282346973620558 0 0.0025809610735969104 -0.0011409730447898394 0 0.0024934665787222005 -0.00074928754238282372 0 0.0025809610735969104 -0.0011409730447898394 0 0.0017098388741701442 -0.00074578968363510606 0 0.0024934665787222005 -0.00074928754238282372 0 0.0025809610735969104 -0.0011409730447898394 0 0.0016815090002258652 -0.0012477248846244592 0 0.0017098388741701442 -0.00074578968363510606 0 0.0017098388741701442 -0.00074578968363510606 0 0.0018569525163892105 -0.00045700000591608711 0 0.0024934665787222005 -0.00074928754238282372 0 0.0017098388741701442 -0.00074578968363510606 0 0.0018569525163892105 -0.00045700000591608711 0 0.0013398055787412118 -0.00023544317663239949 0 0.0018569525163892105 -0.00045700000591608711 0 0.0024934665787222005 -0.00074928754238282372 0 0.0018782255426247623 -5.5867395059901377e-05 0 0.0024934665787222005 -0.00074928754238282372 0 0.00227379979287929 0.00016061145241073952 0 0.0018782255426247623 -5.5867395059901377e-05 0 0.0018569525163892105 -0.00045700000591608711 0 0.0018782255426247623 -5.5867395059901377e-05 0 0.0013398055787412118 -0.00023544317663239949 0 0.0018782255426247623 -5.5867395059901377e-05 0 0.0011985473081589089 0.00032173928954149449 0 0.0013398055787412118 -0.00023544317663239949 0 0.0018782255426247623 -5.5867395059901377e-05 0 0.0011985473081589089 0.00032173928954149449 0 0.001842965672256366 0.00050845109552581571 0 0.0011985473081589089 0.00032173928954149449 0 0.001842965672256366 0.00050845109552581571 0 0.001348880046350482 0.00076937425512450829 0 0.00227379979287929 0.00016061145241073952 0 0.0018782255426247623 -5.5867395059901377e-05 0 0.001842965672256366 0.00050845109552581571 0 0.001842965672256366 0.00050845109552581571 0 0.0022852897453169993 0.00060493892746429868 0 0.0020611914547881646 0.00081065609362032892 0 0.00227379979287929 0.00016061145241073952 0 0.001842965672256366 0.00050845109552581571 0 0.0022852897453169993 0.00060493892746429868 0 0.00227379979287929 0.00016061145241073952 0 0.0022852897453169993 0.00060493892746429868 0 0.0024948712243856109 0.00042882533936850007 0 0.00061742411116142359 8.3502637838162415e-05 0 3.8626223959100355e-05 0.00043922088751847623 0 -1.0711034575628337e-05 -4.8726088379415989e-05 0 0.0007337671240529222 -0.00047643155360228048 0 0.00061742411116142359 8.3502637838162415e-05 0 -1.0711034575628337e-05 -4.8726088379415989e-05 0 0.0011985473081589089 0.00032173928954149449 0 0.00061742411116142359 8.3502637838162415e-05 0 0.0013398055787412118 -0.00023544317663239949 0 0.0007337671240529222 -0.00047643155360228048 0 0.00061742411116142359 8.3502637838162415e-05 0 0.0013398055787412118 -0.00023544317663239949 0 0.0011985473081589089 0.00032173928954149449 0 0.00061742411116142359 8.3502637838162415e-05 0 0.0004743718014125037 0.00046648055358217925 0 0.0011985473081589089 0.00032173928954149449 0 0.0004743718014125037 0.00046648055358217925 0 0.00079615090877218405 0.00067173208555335875 0 0.0011985473081589089 0.00032173928954149449 0 0.00079615090877218405 0.00067173208555335875 0 0.001348880046350482 0.00076937425512450829 0 0.0004743718014125037 0.00046648055358217925 0 0.00021467172293789362 0.00077530723405004024 0 0.00079615090877218405 0.00067173208555335875 0 0.00061742411116142359 8.3502637838162415e-05 0 0.0004743718014125037 0.00046648055358217925 0 3.8626223959100355e-05 0.00043922088751847623 0 0.0004743718014125037 0.00046648055358217925 0 3.8626223959100355e-05 0.00043922088751847623 0 0.00021467172293789362 0.00077530723405004024 0 3.8626223959100355e-05 0.00043922088751847623 0 0.00021467172293789362 0.00077530723405004024 0 -0.00058616038313931537 0.00092367337721167982 0 0.00021467172293789362 0.00077530723405004024 0 -7.697912837693866e-05 0.0010300474008446941 0 -0.00058616038313931537 0.00092367337721167982 0 -7.697912837693866e-05 0.0010300474008446941 0 -0.00026713744376865634 0.0012821720597305988 0 -0.00058616038313931537 0.00092367337721167982 0 0.00021467172293789362 0.00077530723405004024 0 -7.697912837693866e-05 0.0010300474008446941 0 0.00041025937974628623 0.0011270234403324148 0 0.00021467172293789362 0.00077530723405004024 0 0.00041025937974628623 0.0011270234403324148 0 0.00060527999683312604 0.00090822563848972694 0 0.00041025937974628623 0.0011270234403324148 0 0.00060527999683312604 0.00090822563848972694 0 0.0010126446125610031 0.0010629145649661245 0 0.00021467172293789362 0.00077530723405004024 0 0.00060527999683312604 0.00090822563848972694 0 0.00079615090877218405 0.00067173208555335875 0 0.00079615090877218405 0.00067173208555335875 0 0.0010126446125610031 0.0010629145649661245 0 0.001348880046350482 0.00076937425512450829 0 0.00060527999683312604 0.00090822563848972694 0 0.00079615090877218405 0.00067173208555335875 0 0.0010126446125610031 0.0010629145649661245 0 0.0010126446125610031 0.0010629145649661245 0 0.00081072930226736668 0.0014750641020657746 0 0.0012839121072234442 0.00137083224394809 0 0.00041025937974628623 0.0011270234403324148 0 0.0010126446125610031 0.0010629145649661245 0 0.00081072930226736668 0.0014750641020657746 0 -0.00058840081145550174 0.0015299810521187522 0 0.00070863174841991636 0.001556542555474362 0 0.00081072930226736668 0.0014750641020657746 0 0.0006561968640157016 0.0018720427041220753 0 0.0013870603920041389 0.0018429486066667356 0 0.00081072930226736668 0.0014750641020657746 0 0.00046999685998019456 0.0017235209006972783 0 0.00049916411816464156 0.0014120272413843066 0 0.00081072930226736668 0.0014750641020657746 0 0.00046999685998019456 0.0017235209006972783 0 0.0006561968640157016 0.0018720427041220753 0 0.00046999685998019456 0.0017235209006972783 0 0.00049916411816464156 0.0014120272413843066 0 -0.00026713744376865634 0.0012821720597305988 0 -9.7978610331887978e-05 0.001804662738223619 0 -0.00058840081145550174 0.0015299810521187522 0 0.00041025937974628623 0.0011270234403324148 0 0.00081072930226736668 0.0014750641020657746 0 0.00049916411816464156 0.0014120272413843066 0 -0.00058840081145550174 0.0015299810521187522 0 -0.001180380772032946 0.0015501169558136318 0 0.00046999685998019456 0.0017235209006972783 0 -0.00026713744376865634 0.0012821720597305988 0 -0.00118273230761047 0.0014483984623430155 0 0.00046999685998019456 0.0017235209006972783 0 0.00071302784858917276 0.0019773237805121011 0 -0.00118273230761047 0.0014483984623430155 0 -7.697912837693866e-05 0.0010300474008446941 0 0.00041025937974628623 0.0011270234403324148 0 -0.00026713744376865634 0.0012821720597305988 0 0.00041025937974628623 0.0011270234403324148 0 0.00049916411816464156 0.0014120272413843066 0 -0.00026713744376865634 0.0012821720597305988 0 0.0020438622787575453 0.0011279334793714425 0 0.001765292096847428 0.00094502454111851093 0 0.0017634893493471845 0.0013948337645978185 0 0.0020438622787575453 0.0011279334793714425 0 0.0023058945138867536 0.00093133141738068631 0 0.0022266685940130525 0.0013011391658337083 0 0.0020438622787575453 0.0011279334793714425 0 0.0023058945138867536 0.00093133141738068631 0 0.0020611914547881646 0.00081065609362032892 0 0.0022852897453169993 0.00060493892746429868 0 0.0023058945138867536 0.00093133141738068631 0 0.0020611914547881646 0.00081065609362032892 0 0.001842965672256366 0.00050845109552581571 0 0.001765292096847428 0.00094502454111851093 0 0.0020611914547881646 0.00081065609362032892 0 0.0020438622787575453 0.0011279334793714425 0 0.001765292096847428 0.00094502454111851093 0 0.0020611914547881646 0.00081065609362032892 0 0.001842965672256366 0.00050845109552581571 0 0.001765292096847428 0.00094502454111851093 0 0.001348880046350482 0.00076937425512450829 0 0.001765292096847428 0.00094502454111851093 0 0.001348880046350482 0.00076937425512450829 0 0.0014184476530341062 0.0011003029961287095 0 0.0010126446125610031 0.0010629145649661245 0 0.001348880046350482 0.00076937425512450829 0 0.0014184476530341062 0.0011003029961287095 0 0.0010126446125610031 0.0010629145649661245 0 0.0014184476530341062 0.0011003029961287095 0 0.0012839121072234442 0.00137083224394809 0 0.001765292096847428 0.00094502454111851093 0 0.0014184476530341062 0.0011003029961287095 0 0.0017634893493471845 0.0013948337645978185 0 0.0012839121072234442 0.00137083224394809 0 0.0013870603920041389 0.0018429486066667356 0 0.0017634893493471845 0.0013948337645978185 0 0.0014184476530341062 0.0011003029961287095 0 0.0012839121072234442 0.00137083224394809 0 0.0017634893493471845 0.0013948337645978185 0 0.00081072930226736668 0.0014750641020657746 0 0.0012839121072234442 0.00137083224394809 0 0.0013870603920041389 0.0018429486066667356 0 0.0013870603920041389 0.0018429486066667356 0 0.0020262187398744766 0.0017973861341764763 0 0.0017634893493471845 0.0013948337645978185 0 0.00070863174841991636 0.001556542555474362 0 0.0005517744757585454 0.0014160691996630628 0 0.0020262187398744766 0.0017973861341764763 0 0.0022266685940130525 0.0013011391658337083 0 0.0026542100017904777 0.00099976838840697938 0 0.0005517744757585454 0.0014160691996630628 0 0.0016706204168647557 0.0012532552436753598 0 0.0020262187398744766 0.0017973861341764763 0 0.0020148961764412288 0.0014036657487547315 0 0.0017634893493471845 0.0013948337645978185 0 0.0020438622787575453 0.0011279334793714425 0 0.0020148961764412288 0.0014036657487547315 0 0.0017634893493471845 0.0013948337645978185 0 0.0020262187398744766 0.0017973861341764763 0 0.0020148961764412288 0.0014036657487547315 0 0.0022266685940130525 0.0013011391658337083 0 0.0020438622787575453 0.0011279334793714425 0 0.0020148961764412288 0.0014036657487547315 0 0.0022266685940130525 0.0013011391658337083 0 0.0005517744757585454 0.0014160691996630628 0 5.5869395731948224e-05 0.0015820760773709395 0 -0.00012128675992893466 0.0020158370581909615 0 2.5556712764268448e-05 0.0017912057049524104 0 3.8167782200805398e-05 0.0019378488392466748 0 -0.0011404862812622006 0.0012149516375440665 0 5.5869395731948224e-05 0.0015820760773709395 0 0.0005517744757585454 0.0014160691996630628 0 -0.001447783637977798 0.0011907032982863429 0 -0.00042933380620411129 0.0010878440482096428 0 -0.00055249758766826452 0.0015818829720323619 0 -0.00072730061838741393 0.0014416212732223203 0 -0.00042933380620411129 0.0010878440482096428 0 -0.00055249758766826452 0.0015818829720323619 0 -0.00022434337808844882 0.0010790664481067818 0 -0.0017717668370415213 0.00043800451766052374 0 -0.0017475742479778796 0.00060794100849966449 0 -0.0016300115463879863 0.00055070472808426839 0 -0.00012128675992893466 0.0020158370581909615 0 1.4325859767664543e-05 0.0021197943470803063 0 3.8167782200805398e-05 0.0019378488392466748 0 -0.0011404862812622006 0.0012149516375440665 0 -0.00033841650338431835 0.0016555446830935766 0 -0.0011404862812622006 0.0012149516375440665 0 -0.0020348667657001662 0.00062623467087358307 0 -0.001447783637977798 0.0011907032982863429 0 -0.0023673631369490948 0.00072845771943434582 0 -0.0020403121831802261 0.00074255921449433782 0 -0.0020506992399910635 0.000734763132196571 0 -0.0020657644046940594 0.00075991181545825728 0 -0.0020506992399910635 0.000734763132196571 0 -0.0020884425281960388 0.00075643743817838604 0 -0.0020657644046940594 0.00075991181545825728 0 -0.0011404862812622006 0.0012149516375440665 0 -0.001447783637977798 0.0011907032982863429 0 -0.00058840081145550174 0.0015299810521187522 0 -0.001447783637977798 0.0011907032982863429 0 -0.00057068733934491941 0.0013246286820250792 0 -0.00028378649780403216 0.0013088591974022821 0 -0.0002422930205336161 0.0015883126456424756 0 -0.00028378649780403216 0.0013088591974022821 0 6.2943152474119671e-06 0.001293865618268841 0 -0.0002422930205336161 0.0015883126456424756 0 -0.0021674439281516777 0.0014965726879210431 0 -0.0024811356168820574 0.0011315369434882472 0 -0.0021067948180218433 0.0010601357116651656 0 -0.0021674439281516777 0.0014965726879210431 0 -0.0018162534218425549 0.0011401371787581542 0 -0.0021067948180218433 0.0010601357116651656 0 -0.0018162534218425549 0.0011401371787581542 0 -0.0017992058015373835 0.0009147851539721974 0 -0.00118273230761047 0.0014483984623430155 0 -0.0021674439281516777 0.0014965726879210431 0 -0.0018162534218425549 0.0011401371787581542 0 -0.00118273230761047 0.0014483984623430155 0 -0.0018162534218425549 0.0011401371787581542 0 -0.0019746329745467602 0.00088523102349578572 0 -0.0017992058015373835 0.0009147851539721974 0 -0.0018162534218425549 0.0011401371787581542 0 -0.0019746329745467602 0.00088523102349578572 0 -0.0021067948180218433 0.0010601357116651656 0 -0.0019746329745467602 0.00088523102349578572 0 -0.0020467975051080447 0.00075056392862569998 0 -0.0017992058015373835 0.0009147851539721974 0 -0.0019746329745467602 0.00088523102349578572 0 -0.0021067948180218433 0.0010601357116651656 0 -0.0020884425281960388 0.00075643743817838604 0 -0.0024811356168820574 0.0011315369434882472 0 -0.0021067948180218433 0.0010601357116651656 0 -0.0020884425281960388 0.00075643743817838604 0 -0.0020884425281960388 0.00075643743817838604 0 -0.0020802738367395233 0.00077176121642889546 0 -0.0020657644046940594 0.00075991181545825728 0 -0.0020884425281960388 0.00075643743817838604 0 -0.0020467975051080447 0.00075056392862569998 0 -0.0020802738367395233 0.00077176121642889546 0 -0.0019746329745467602 0.00088523102349578572 0 -0.0020884425281960388 0.00075643743817838604 0 -0.0020467975051080447 0.00075056392862569998 0 -0.0020467975051080447 0.00075056392862569998 0 -0.0021521015251684469 0.00073639136346552155 0 -0.0020802738367395233 0.00077176121642889546 0 -0.0021521015251684469 0.00073639136346552155 0 -0.0020802738367395233 0.00077176121642889546 0 -0.0022632465143767417 0.00084913541174300882 0 -0.0020618447317593451 0.00080173875640309627 0 -0.0018861100652722116 0.00077775074880890433 0 -0.0019245635814993561 0.00091473474423243886 0 -0.0020755722215038447 0.00080255558380956649 0 -0.0020348667657001662 0.00062623467087358307 0 -0.0018861100652722116 0.00077775074880890433 0 -0.0017857789759598527 0.00071259012307155526 0 -0.0019061996687200133 0.00061427621231632942 0 -0.0020618447317593451 0.00080173875640309627 0 -0.0018861100652722116 0.00077775074880890433 0 -0.0019061996687200133 0.00061427621231632942 0 -0.0018861100652722116 0.00077775074880890433 0 -0.0017483554266296822 0.00085646177237496443 0 -0.0019245635814993561 0.00091473474423243886 0 -0.0018861100652722116 0.00077775074880890433 0 -0.0017483554266296822 0.00085646177237496443 0 -0.0017857789759598527 0.00071259012307155526 0 -0.00082227437008988117 0.001481844447147691 0 -0.0011107845648249946 0.0015594841994832581 0 -0.0017483554266296822 0.00085646177237496443 0 -0.0016433716850365154 0.00072960783155830112 0 -0.0016517970914519391 0.00091911344703513205 0 -0.0017483554266296822 0.00085646177237496443 0 -0.0016433716850365154 0.00072960783155830112 0 -0.0017857789759598527 0.00071259012307155526 0 -0.0016433716850365154 0.00072960783155830112 0 -0.0017475742479778796 0.00060794100849966449 0 -0.0016300115463879863 0.00055070472808426839 0 -0.00082227437008988117 0.001481844447147691 0 -0.00033841650338431835 0.0016555446830935766 0 -0.0016433716850365154 0.00072960783155830112 0 -0.0017857789759598527 0.00071259012307155526 0 -0.0017475742479778796 0.00060794100849966449 0 -0.0017717668370415213 0.00043800451766052374 0 -0.0017475742479778796 0.00060794100849966449 0 -0.0019061996687200133 0.00061427621231632942 0 -0.0017857789759598527 0.00071259012307155526 0 -0.0017475742479778796 0.00060794100849966449 0 -0.0019061996687200133 0.00061427621231632942 0 -0.0021460231719580593 0.00080106672601756358 0 -0.0023202255470942588 0.00061793409957859699 0 -0.0018573141740198355 0.00076300038130787569 0 -0.0021460231719580593 0.00080106672601756358 0 -0.0018573141740198355 0.00076300038130787569 0 -0.0023348977602743043 0.00055642641074634509 0 -0.0021460231719580593 0.00080106672601756358 0 -0.0023348977602743043 0.00055642641074634509 0 -0.0025446326070018965 0.00082389030915658279 0 -0.0021460231719580593 0.00080106672601756358 0 -0.0022254731963330136 0.00098255769226059824 0 -0.0025446326070018965 0.00082389030915658279 0 -0.0021460231719580593 0.00080106672601756358 0 -0.0022254731963330136 0.00098255769226059824 0 -0.0023202255470942588 0.00061793409957859699 0 -0.0030091614405918722 0.00067227624881744741 0 -0.0024016399638694969 0.0006147974525153333 0 -0.0021521015251684469 0.00073639136346552155 0 -0.0023202255470942588 0.00061793409957859699 0 -0.0024776549485764623 0.00084865479338315595 0 -0.0020467975051080447 0.00075056392862569998 0 -0.0019673936823850539 0.00076025116937007383 0 -0.0017992058015373835 0.0009147851539721974 0 -0.0021521015251684469 0.00073639136346552155 0 -0.0023202255470942588 0.00061793409957859699 0 -0.0019673936823850539 0.00076025116937007383 0 -0.0020467975051080447 0.00075056392862569998 0 -0.0021521015251684469 0.00073639136346552155 0 -0.0019673936823850539 0.00076025116937007383 0 -0.0023202255470942588 0.00061793409957859699 0 -0.0019673936823850539 0.00076025116937007383 0 -0.0018573141740198355 0.00076300038130787569 0 -0.0019673936823850539 0.00076025116937007383 0 -0.0015728932600047249 0.0010728793654901083 0 -0.0018573141740198355 0.00076300038130787569 0 -0.0015728932600047249 0.0010728793654901083 0 -0.0014207068309756725 0.0011286582315487381 0 -0.0018573141740198355 0.00076300038130787569 0 -0.0019673936823850539 0.00076025116937007383 0 -0.0015728932600047249 0.0010728793654901083 0 -0.0017992058015373835 0.0009147851539721974 0 -0.0015728932600047249 0.0010728793654901083 0 -0.0017992058015373835 0.0009147851539721974 0 -0.00118273230761047 0.0014483984623430155 0 -0.0015728932600047249 0.0010728793654901083 0 -0.00118273230761047 0.0014483984623430155 0 -0.0013122039313999425 0.0012161570506370011 0 -0.0015728932600047249 0.0010728793654901083 0 -0.0014207068309756725 0.0011286582315487381 0 -0.0013122039313999425 0.0012161570506370011 0 -0.0014207068309756725 0.0011286582315487381 0 -0.0014283536057379308 0.0011396599132129752 0 -0.0013122039313999425 0.0012161570506370011 0 -0.0019656477854079471 0.00026703679781041827 0 -0.0022314827134550484 2.3577766892390251e-05 0 -0.0020854643832270837 -0.00012516134700088331 0 -0.0017190234789760484 0.00070226446292798183 0 -0.0017662332714515423 0.00052089483997345997 0 -0.0019656477854079471 0.00026703679781041827 0 -0.0018573141740198355 0.00076300038130787569 0 -0.0023348977602743043 0.00055642641074634509 0 -0.0017190234789760484 0.00070226446292798183 0 -0.0018029007490350476 0.00076935561086395685 0 -0.0019656477854079471 0.00026703679781041827 0 -0.0023348977602743043 0.00055642641074634509 0 -0.0023209101426336313 0.00021175044129987221 0 -0.0023348977602743043 0.00055642641074634509 0 -0.0023209101426336313 0.00021175044129987221 0 -0.0025625796320132839 0.00025094057470919842 0 -0.0023209101426336313 0.00021175044129987221 0 -0.0024549885817919622 -2.0350260014033281e-06 0 -0.0025625796320132839 0.00025094057470919842 0 -0.0019656477854079471 0.00026703679781041827 0 -0.0023209101426336313 0.00021175044129987221 0 -0.0022314827134550484 2.3577766892390251e-05 0 -0.0023209101426336313 0.00021175044129987221 0 -0.0022314827134550484 2.3577766892390251e-05 0 -0.0024549885817919622 -2.0350260014033281e-06 0 -0.0022314827134550484 2.3577766892390251e-05 0 -0.0023169991949536159 -0.00022096936091741597 0 -0.0024549885817919622 -2.0350260014033281e-06 0 -0.0023169991949536159 -0.00022096936091741597 0 -0.0020854643832270837 -0.00012516134700088331 0 -0.0021989342516490775 -0.00048199448707173111 0 -0.0023169991949536159 -0.00022096936091741597 0 -0.0024549885817919622 -2.0350260014033281e-06 0 -0.0025090502840603513 -0.00023518059257449683 0 -0.0022314827134550484 2.3577766892390251e-05 0 -0.0023169991949536159 -0.00022096936091741597 0 -0.0020854643832270837 -0.00012516134700088331 0 -0.0014283536057379308 0.0011396599132129752 0 -0.0013390802459460084 0.00097277017318290928 0 -0.0013122039313999425 0.0012161570506370011 0 -0.0013390802459460084 0.00097277017318290928 0 -0.0013901407155145027 0.0008374099295099677 0 -0.0015854399444465324 0.00080737864499663583 0 -0.0017662332714515423 0.00052089483997345997 0 -0.0016979879767068755 -7.3252791478111982e-06 0 -0.0014283536057379308 0.0011396599132129752 0 -0.0013390802459460084 0.00097277017318290928 0 -0.0015854399444465324 0.00080737864499663583 0 -0.0013390802459460084 0.00097277017318290928 0 -0.0012211605134484279 0.00072666070032919954 0 -0.0011193712157178653 0.00096608531229127031 0 -0.0013390802459460084 0.00097277017318290928 0 -0.0012211605134484279 0.00072666070032919954 0 -0.0013901407155145027 0.0008374099295099677 0 -0.0012211605134484279 0.00072666070032919954 0 -0.0013901407155145027 0.0008374099295099677 0 -0.0013866454007454728 0.00055893441683476427 0 -0.0013901407155145027 0.0008374099295099677 0 -0.0015317768757108087 0.00079091719109702073 0 -0.0015854399444465324 0.00080737864499663583 0 -0.0015317768757108087 0.00079091719109702073 0 -0.0016542971375282044 0.00070023470819062473 0 -0.0013866454007454728 0.00055893441683476427 0 -0.0013901407155145027 0.0008374099295099677 0 -0.0015317768757108087 0.00079091719109702073 0 -0.0013866454007454728 0.00055893441683476427 0 -0.00095158242966448907 -0.00031889332751608348 0 -0.00092731114523245508 -0.00040833733533502363 0 -0.0011135693376327182 -0.00041201272097891428 0 -0.0016979879767068755 -7.3252791478111982e-06 0 -0.0014341857400958912 -4.9519582285023697e-05 0 -0.0015317768757108087 0.00079091719109702073 0 -0.0016143178079928218 0.00080919360636630096 0 -0.0016542971375282044 0.00070023470819062473 0 -0.0016913699904328853 5.5152647809899084e-05 0 -0.0016979879767068755 -7.3252791478111982e-06 0 -0.0016979879767068755 -7.3252791478111982e-06 0 -0.0016559339094449042 -0.00022832995398431124 0 -0.0015945677492315046 -6.6263147593101273e-05 0 -0.0016157695464921824 -6.1877800456672696e-05 0 -0.0016052196939454113 -0.00010060948790686038 0 -0.0016559339094449042 -0.00022832995398431124 0 -0.0014341857400958912 -4.9519582285023697e-05 0 -0.0023169991949536159 -0.00022096936091741597 0 -0.0022455884689935785 -0.00047836643407986697 0 -0.0025090502840603513 -0.00023518059257449683 0 -0.0023169991949536159 -0.00022096936091741597 0 -0.0021989342516490775 -0.00048199448707173111 0 -0.0022439286422684564 -0.0004725235026691399 0 -0.0022119676232098084 -0.00025964548191745524 0 -0.0016559339094449042 -0.00022832995398431124 0 -0.00118273230761047 0.0014483984623430155 0 -0.0010666564635077457 0.0011679823507150086 0 -0.0013122039313999425 0.0012161570506370011 0 -0.00026713744376865634 0.0012821720597305988 0 -0.00118273230761047 0.0014483984623430155 0 -0.00058616038313931537 0.00092367337721167982 0 -0.00118273230761047 0.0014483984623430155 0 -0.0010666564635077457 0.0011679823507150086 0 -0.00058616038313931537 0.00092367337721167982 0 -0.0013390802459460084 0.00097277017318290928 0 -0.0013122039313999425 0.0012161570506370011 0 -0.0011193712157178653 0.00096608531229127031 0 -0.0010666564635077457 0.0011679823507150086 0 -0.0013122039313999425 0.0012161570506370011 0 -0.0011193712157178653 0.00096608531229127031 0 -0.0011193712157178653 0.00096608531229127031 0 -0.00058616038313931537 0.00092367337721167982 0 -0.00090821956255539228 0.00058592603829020831 0 -0.0012211605134484279 0.00072666070032919954 0 -0.0011193712157178653 0.00096608531229127031 0 -0.00090821956255539228 0.00058592603829020831 0 -0.0010666564635077457 0.0011679823507150086 0 -0.0011193712157178653 0.00096608531229127031 0 -0.00058616038313931537 0.00092367337721167982 0 3.8626223959100355e-05 0.00043922088751847623 0 -0.00058616038313931537 0.00092367337721167982 0 -0.00046447051055923983 0.00045613590779260794 0 3.8626223959100355e-05 0.00043922088751847623 0 -0.00046447051055923983 0.00045613590779260794 0 -1.0711034575628337e-05 -4.8726088379415989e-05 0 -0.00058616038313931537 0.00092367337721167982 0 -0.00046447051055923983 0.00045613590779260794 0 -0.00090821956255539228 0.00058592603829020831 0 -0.00046447051055923983 0.00045613590779260794 0 -0.00090821956255539228 0.00058592603829020831 0 -0.00064808861912179106 0.00012347276076313189 0 -0.0012211605134484279 0.00072666070032919954 0 -0.00090821956255539228 0.00058592603829020831 0 -0.001126763765732915 0.00029907384650086378 0 -0.00090821956255539228 0.00058592603829020831 0 -0.00064808861912179106 0.00012347276076313189 0 -0.001126763765732915 0.00029907384650086378 0 -0.00086900716808836981 -0.00029898099407324284 0 -0.00064808861912179106 0.00012347276076313189 0 -0.001126763765732915 0.00029907384650086378 0 -0.00086900716808836981 -0.00029898099407324284 0 -0.0004048805747021622 -0.00038651473639063696 0 -0.00064808861912179106 0.00012347276076313189 0 -0.00046447051055923983 0.00045613590779260794 0 -0.00064808861912179106 0.00012347276076313189 0 -1.0711034575628337e-05 -4.8726088379415989e-05 0 -0.0004048805747021622 -0.00038651473639063696 0 -0.00064808861912179106 0.00012347276076313189 0 -1.0711034575628337e-05 -4.8726088379415989e-05 0 -0.00092437638295929457 -0.00040404663061707573 0 -0.00099335224812768363 -0.00063014913130816745 0 -0.00078228427284284452 -0.00094318801044845912 0 -0.0014341857400958912 -4.9519582285023697e-05 0 -0.0010843489880548117 -0.00046541793655579362 0 -0.00092731114523245508 -0.00040833733533502363 0 -0.0011135693376327182 -0.00041201272097891428 0 -0.00099335224812768363 -0.00063014913130816745 0 -0.0011135693376327182 -0.00041201272097891428 0 -0.00099335224812768363 -0.00063014913130816745 0 -0.0012356551400353811 -0.00048936644757569512 0 -0.0014341857400958912 -4.9519582285023697e-05 0 -0.0011571181069483056 -0.00055737997860862999 0 -0.0016542971375282044 0.00070023470819062473 0 -0.0013866454007454728 0.00055893441683476427 0 -0.0014179892105847 -7.5480221401877276e-05 0 -0.0013866454007454728 0.00055893441683476427 0 -0.001126763765732915 0.00029907384650086378 0 -0.0014179892105847 -7.5480221401877276e-05 0 -0.0012211605134484279 0.00072666070032919954 0 -0.0013866454007454728 0.00055893441683476427 0 -0.001126763765732915 0.00029907384650086378 0 -0.00086900716808836981 -0.00029898099407324284 0 -0.001126763765732915 0.00029907384650086378 0 -0.0014179892105847 -7.5480221401877276e-05 0 -0.00099335224812768363 -0.00063014913130816745 0 -0.00078228427284284452 -0.00094318801044845912 0 -0.0011071329647628016 -0.00096549255522221454 0 -0.00099335224812768363 -0.00063014913130816745 0 -0.0011071329647628016 -0.00096549255522221454 0 -0.001413541572988936 -0.00071394739722646519 0 -0.0013532074170332583 -0.0012090105845896321 0 -0.0011071329647628016 -0.00096549255522221454 0 -0.001413541572988936 -0.00071394739722646519 0 -0.0014240214634242349 -0.0012222955276317623 0 -0.0014732610944063801 -0.00066020399806125392 0 -0.001413541572988936 -0.00071394739722646519 0 -0.0012356551400353811 -0.00048936644757569512 0 -0.0014623386020658961 -0.00021157461816076408 0 -0.00099335224812768363 -0.00063014913130816745 0 -0.001413541572988936 -0.00071394739722646519 0 -0.0012356551400353811 -0.00048936644757569512 0 -0.0014732610944063801 -0.00066020399806125392 0 -0.0021710685189143867 -0.00023101637333062939 0 -0.0016534120787575755 -0.00065062883758519401 0 -0.002135306234177852 -0.00061061699483251251 0 -0.0017675425047508505 7.7981214335632566e-06 0 -0.0014935814462069649 -0.0012049687845000184 0 -0.0016534120787575755 -0.00065062883758519401 0 -0.0018708103222959981 -0.0010320893639183754 0 -0.0016534120787575755 -0.00065062883758519401 0 -0.002135306234177852 -0.00061061699483251251 0 -0.0018708103222959981 -0.0010320893639183754 0 -0.002135306234177852 -0.00061061699483251251 0 -0.0022930753066427098 -0.0010040170652925464 0 -0.0024984634353750735 -0.00066132360653783809 0 -0.002135306234177852 -0.00061061699483251251 0 -0.0018708103222959981 -0.0010320893639183754 0 -0.0022930753066427098 -0.0010040170652925464 0 -0.0012081925096641558 -0.00064117695374186947 0 -0.0020427859854155054 -0.00056902184075040036 0 -0.00013790016690497456 -0.00030845672971445778 0 0.00022985453663807863 -0.00032425519825408998 0 -2.5472187962598773e-05 -0.00066654991580870698 0 -0.0034079662977121897 1.2658896038156579e-05 0 -0.0034094766147802738 -0.00018066789731437176 0 -0.0033380798677145368 -0.00018775794799487779 0 -0.0017160648622576834 -0.00030630332384614203 0 -0.0020427859854155054 -0.00056902184075040036 0 -0.0032550132355855348 -0.00032758078033074913 0 -0.0033380798677145368 -0.00018775794799487779 0 -0.0034134633710842248 -0.00022154208604012221 0 -0.0034094766147802738 -0.00018066789731437176 0 -0.0032550132355855348 -0.00032758078033074913 0 -0.0033380798677145368 -0.00018775794799487779 0 -0.0020427859854155054 -0.00056902184075040036 0 -0.00316384397350111 -0.000201986177911909 0 -0.0020427859854155054 -0.00056902184075040036 0 -0.0026050426037756615 -0.00035149342460245761 0 -0.00303142191635275 -0.00092960995643901444 0 -0.0032550132355855348 -0.00032758078033074913 0 -0.0023898948746650275 -0.00017429294442845329 0 -0.002135306234177852 -0.00061061699483251251 0 -0.0024984634353750735 -0.00066132360653783809 0 -0.0023898948746650275 -0.00017429294442845329 0 -0.0032550132355855348 -0.00032758078033074913 0 -0.0023898948746650275 -0.00017429294442845329 0 -0.002627292287431584 0.00015385197922249125 0 -0.0032550132355855348 -0.00032758078033074913 0 -0.0034660142602996151 -7.3698362649724051e-05 0 -0.0034134633710842248 -0.00022154208604012221 0 -0.0032550132355855348 -0.00032758078033074913 0 -0.002627292287431584 0.00015385197922249125 0 -0.0034660142602996151 -7.3698362649724051e-05 0 -0.0034660142602996151 -7.3698362649724051e-05 0 -0.0033378552173017697 -6.0677902343288795e-05 0 -0.0035111580439186412 3.6469182864271847e-05 0 -0.0032232441168141544 -0.00025077150159467395 0 -0.0034660142602996151 -7.3698362649724051e-05 0 -0.0033378552173017697 -6.0677902343288795e-05 0 -0.0029453375047640549 -5.8184841796689467e-05 0 -0.0033839050610753154 -5.9517084667225704e-05 0 -0.0032232441168141544 -0.00025077150159467395 0 -0.0033378552173017697 -6.0677902343288795e-05 0 -0.0030943568495590277 -6.8244739275918402e-05 0 -0.0032232441168141544 -0.00025077150159467395 0 -0.0030943568495590277 -6.8244739275918402e-05 0 -0.0028186982177138267 -0.00035923728030894738 0 -0.0030943568495590277 -6.8244739275918402e-05 0 -0.0028334223979609402 -6.5626181838758038e-05 0 -0.0028186982177138267 -0.00035923728030894738 0 -0.002751560883331033 -4.2659528922349582e-05 0 -0.0025090502840603513 -0.00023518059257449683 0 -0.0027201033680891488 -0.0003786618992568037 0 -0.002751560883331033 -4.2659528922349582e-05 0 -0.0024549885817919622 -2.0350260014033281e-06 0 -0.0025090502840603513 -0.00023518059257449683 0 -0.0028008885428694058 -6.2913941620962923e-05 0 -0.0021710685189143867 -0.00023101637333062939 0 -0.00095158242966448907 -0.00031889332751608348 0 -0.0011135693376327182 -0.00041201272097891428 0 -0.0014623386020658961 -0.00021157461816076408 0 -0.0016559339094449042 -0.00022832995398431124 0 -0.0021710685189143867 -0.00023101637333062939 0 -0.0011135693376327182 -0.00041201272097891428 0 -0.0012356551400353811 -0.00048936644757569512 0 -0.0014623386020658961 -0.00021157461816076408 0 -0.0022455884689935785 -0.00047836643407986697 0 -0.0025090502840603513 -0.00023518059257449683 0 -0.0027201033680891488 -0.0003786618992568037 0 -0.0023898948746650275 -0.00017429294442845329 0 -0.002627292287431584 0.00015385197922249125 0 -0.0017675425047508505 7.7981214335632566e-06 0 -0.002135306234177852 -0.00061061699483251251 0 -0.0023898948746650275 -0.00017429294442845329 0 -0.0017675425047508505 7.7981214335632566e-06 0 -0.0029453375047640549 -5.8184841796689467e-05 0 -0.0021710685189143867 -0.00023101637333062939 0 -0.0027658111488506887 -0.0002017376490983358 0 -0.0026176615613530056 3.3594974434433686e-05 0 -0.0032140317214166404 -0.00022738947875934414 0 -0.004395355912950984 -0.00043933917938191705 0 -0.0046390829800900119 -0.00056354757319192195 0 -0.0021280263555601762 0.0002883239590447722 0 -0.0027658111488506887 -0.0002017376490983358 0 -0.0026176615613530056 3.3594974434433686e-05 0 -0.0029733477121945155 0.00035183011820144318 0 -0.0026176615613530056 3.3594974434433686e-05 0 -0.0030807246429640561 -4.4461785177541305e-05 0 -0.0026176615613530056 3.3594974434433686e-05 0 -0.0030807246429640561 -4.4461785177541305e-05 0 -0.0032140317214166404 -0.00022738947875934414 0 -0.0033035889117970052 -0.00018492097507939175 0 -0.0030807246429640561 -4.4461785177541305e-05 0 -0.0032140317214166404 -0.00022738947875934414 0 -0.0033035889117970052 -0.00018492097507939175 0 -0.0030807246429640561 -4.4461785177541305e-05 0 -0.0032469004836700758 2.3170009349213071e-05 0 -0.0029733477121945155 0.00035183011820144318 0 -0.0030807246429640561 -4.4461785177541305e-05 0 -0.0032469004836700758 2.3170009349213071e-05 0 -0.0033035889117970052 -0.00018492097507939175 0 -0.0032469004836700758 2.3170009349213071e-05 0 -0.0033380798677145368 -0.00018775794799487779 0 -0.0034079662977121897 1.2658896038156579e-05 0 -0.0032469004836700758 2.3170009349213071e-05 0 -0.0033380798677145368 -0.00018775794799487779 0 -0.0033035889117970052 -0.00018492097507939175 0 -0.0033380798677145368 -0.00018775794799487779 0 -0.0034134633710842248 -0.00022154208604012221 0 -0.0034660142602996151 -7.3698362649724051e-05 0 -0.0034134633710842248 -0.00022154208604012221 0 -0.0035316870914918462 -0.00020839586172355804 0 -0.0034660142602996151 -7.3698362649724051e-05 0 -0.0035316870914918462 -0.00020839586172355804 0 -0.0038014239985814844 3.2961386834167033e-05 0 -0.0033035889117970052 -0.00018492097507939175 0 -0.0034134633710842248 -0.00022154208604012221 0 -0.0035316870914918462 -0.00020839586172355804 0 -0.0033035889117970052 -0.00018492097507939175 0 -0.0035316870914918462 -0.00020839586172355804 0 -0.0032140317214166404 -0.00022738947875934414 0 -0.0035316870914918462 -0.00020839586172355804 0 -0.0032140317214166404 -0.00022738947875934414 0 -0.003485730016477681 -0.00023535824575907942 0 -0.0035316870914918462 -0.00020839586172355804 0 -0.003485730016477681 -0.00023535824575907942 0 -0.0041129718268235532 -9.34366098986283e-06 0 -0.0062037953451463358 -0.00061529743461499276 0 -0.0066689235469325888 -0.00059120775945607383 0 -0.0066332146456003754 -0.00010467977879866712 0 -0.0027658111488506887 -0.0002017376490983358 0 -0.0032140317214166404 -0.00022738947875934414 0 -0.003485730016477681 -0.00023535824575907942 0 -0.0065222943352498215 -0.0010059866069626049 0 -0.0062037953451463358 -0.00061529743461499276 0 -0.0066689235469325888 -0.00059120775945607383 0 -0.0046390829800900119 -0.00056354757319192195 0 -0.0048276037728126721 -0.00039117641930709162 0 -0.0062067119614528325 0.00036431810187193513 0 -0.0057499783884932308 -0.00010097989545897776 0 -0.0066332146456003754 -0.00010467977879866712 0 -0.0062037953451463358 -0.00061529743461499276 0 -0.0057499783884932308 -0.00010097989545897776 0 -0.0066332146456003754 -0.00010467977879866712 0 -0.0048276037728126721 -0.00039117641930709162 0 -0.0049139204098426021 1.2000912500924346e-05 0 -0.0062067119614528325 0.00036431810187193513 0 -0.0057499783884932308 -0.00010097989545897776 0 -0.0049080921515193519 0.00063322091416277856 0 -0.0049139204098426021 1.2000912500924346e-05 0 -0.0048656626627282705 0.00065798637127210849 0 -0.0041129718268235532 -9.34366098986283e-06 0 -0.0038014239985814844 3.2961386834167033e-05 0 -0.0041083919277684899 0.00036176708944883585 0 -0.0041129718268235532 -9.34366098986283e-06 0 -0.0041083919277684899 0.00036176708944883585 0 -0.0049080921515193519 0.00063322091416277856 0 -0.0035316870914918462 -0.00020839586172355804 0 -0.0041129718268235532 -9.34366098986283e-06 0 -0.0038014239985814844 3.2961386834167033e-05 0 -0.0034660142602996151 -7.3698362649724051e-05 0 -0.0038014239985814844 3.2961386834167033e-05 0 -0.0035111580439186412 3.6469182864271847e-05 0 -0.0038014239985814844 3.2961386834167033e-05 0 -0.0041083919277684899 0.00036176708944883585 0 -0.0035270935788685137 0.00032340772908702323 0 -0.0041083919277684899 0.00036176708944883585 0 -0.0040883148016860812 0.0010953059118366394 0 -0.0049080921515193519 0.00063322091416277856 0 -0.0041083919277684899 0.00036176708944883585 0 -0.0040883148016860812 0.0010953059118366394 0 -0.0034848943929988835 0.00090614935092958994 0 -0.0040883148016860812 0.0010953059118366394 0 -0.004730750812990756 0.0012936543282862675 0 -0.0049080921515193519 0.00063322091416277856 0 -0.004730750812990756 0.0012936543282862675 0 -0.0049080921515193519 0.00063322091416277856 0 -0.0054202914018917766 0.0014844383674812072 0 -0.0062067119614528325 0.00036431810187193513 0 -0.0049080921515193519 0.00063322091416277856 0 -0.0064051871064897915 0.0010480523484549394 0 -0.0049080921515193519 0.00063322091416277856 0 -0.0064051871064897915 0.0010480523484549394 0 -0.0054202914018917766 0.0014844383674812072 0 -0.0062067119614528325 0.00036431810187193513 0 -0.0064051871064897915 0.0010480523484549394 0 -0.0070223624135977592 0.00058650767148101337 0 -0.0028000935087958969 0.0002632395313941126 0 -0.0030576748586646067 0.00033957350059253316 0 -0.0027007769131414273 0.00050843579358224214 0 -0.0030576748586646067 0.00033957350059253316 0 -0.0027007769131414273 0.00050843579358224214 0 -0.0030233558304170109 0.00070678852779891283 0 -0.0028000935087958969 0.0002632395313941126 0 -0.0030576748586646067 0.00033957350059253316 0 -0.0030304194341962769 0.00012368911428626262 0 -0.0023348977602743043 0.00055642641074634509 0 -0.0027007769131414273 0.00050843579358224214 0 -0.0025625796320132839 0.00025094057470919842 0 -0.0028000935087958969 0.0002632395313941126 0 -0.0027007769131414273 0.00050843579358224214 0 -0.0025625796320132839 0.00025094057470919842 0 -0.002751560883331033 -4.2659528922349582e-05 0 -0.0028000935087958969 0.0002632395313941126 0 -0.0025625796320132839 0.00025094057470919842 0 -0.002751560883331033 -4.2659528922349582e-05 0 -0.0024549885817919622 -2.0350260014033281e-06 0 -0.0025625796320132839 0.00025094057470919842 0 -0.0028008885428694058 -6.2913941620962923e-05 0 -0.0028030234688946752 0.00024171436460529729 0 -0.0028334223979609402 -6.5626181838758038e-05 0 -0.0028000935087958969 0.0002632395313941126 0 -0.0030304194341962769 0.00012368911428626262 0 -0.0030943568495590277 -6.8244739275918402e-05 0 -0.0028334223979609402 -6.5626181838758038e-05 0 -0.0030304194341962769 0.00012368911428626262 0 -0.0030943568495590277 -6.8244739275918402e-05 0 -0.0030304194341962769 0.00012368911428626262 0 -0.0032729843724608612 0.00010586751949676834 0 -0.0033378552173017697 -6.0677902343288795e-05 0 -0.0030943568495590277 -6.8244739275918402e-05 0 -0.0032729843724608612 0.00010586751949676834 0 -0.0030576748586646067 0.00033957350059253316 0 -0.0030304194341962769 0.00012368911428626262 0 -0.0032729843724608612 0.00010586751949676834 0 -0.0038014239985814844 3.2961386834167033e-05 0 -0.0035111580439186412 3.6469182864271847e-05 0 -0.0035270935788685137 0.00032340772908702323 0 -0.0032729843724608612 0.00010586751949676834 0 -0.0035111580439186412 3.6469182864271847e-05 0 -0.0035270935788685137 0.00032340772908702323 0 -0.0033378552173017697 -6.0677902343288795e-05 0 -0.0032729843724608612 0.00010586751949676834 0 -0.0035111580439186412 3.6469182864271847e-05 0 -0.0030576748586646067 0.00033957350059253316 0 -0.0035270935788685137 0.00032340772908702323 0 -0.0030233558304170109 0.00070678852779891283 0 -0.0030576748586646067 0.00033957350059253316 0 -0.0032729843724608612 0.00010586751949676834 0 -0.0035270935788685137 0.00032340772908702323 0 -0.0035270935788685137 0.00032340772908702323 0 -0.0034848943929988835 0.00090614935092958994 0 -0.0030233558304170109 0.00070678852779891283 0 -0.0041083919277684899 0.00036176708944883585 0 -0.0035270935788685137 0.00032340772908702323 0 -0.0034848943929988835 0.00090614935092958994 0 -0.0040883148016860812 0.0010953059118366394 0 -0.0034848943929988835 0.00090614935092958994 0 -0.0034765965132800168 0.0016546169972740227 0 -0.0034848943929988835 0.00090614935092958994 0 -0.0030233558304170109 0.00070678852779891283 0 -0.0027779421900523582 0.0013237155345749798 0 -0.0030233558304170109 0.00070678852779891283 0 -0.0025446326070018965 0.00082389030915658279 0 -0.0027779421900523582 0.0013237155345749798 0 -0.0027007769131414273 0.00050843579358224214 0 -0.0030233558304170109 0.00070678852779891283 0 -0.0025446326070018965 0.00082389030915658279 0 -0.0023348977602743043 0.00055642641074634509 0 -0.0027007769131414273 0.00050843579358224214 0 -0.0025446326070018965 0.00082389030915658279 0 -0.0022254731963330136 0.00098255769226059824 0 -0.0025446326070018965 0.00082389030915658279 0 -0.0027779421900523582 0.0013237155345749798 0 -0.0037427909681442069 0.00032255665466411767 0 -0.0043694931154703185 0.00086082584395870355 0 -0.0048701309121781371 0.00040988496162452752 0 -0.0030091614405918722 0.00067227624881744741 0 -0.0038323578486671819 0.00087158171549023983 0 -0.0043694931154703185 0.00086082584395870355 0 -0.0050481127215646297 0.0011626581988059437 0 -0.0044296843591507722 0.0013583107899361904 0 -0.0043694931154703185 0.00086082584395870355 0 -0.0050481127215646297 0.0011626581988059437 0 -0.0048701309121781371 0.00040988496162452752 0 -0.0050481127215646297 0.0011626581988059437 0 -0.0048701309121781371 0.00040988496162452752 0 -0.0058566358669888312 0.00063518184150776014 0 -0.0034848943929988835 0.00090614935092958994 0 -0.0027779421900523582 0.0013237155345749798 0 -0.0034765965132800168 0.0016546169972740227 0 -0.0038323578486671819 0.00087158171549023983 0 -0.0046759235109459429 0.0011501114683681963 0 -0.0058566358669888312 0.00063518184150776014 0 -0.0063096371641138604 0.0010908809051661382 0 -0.0068937267838312596 0.00096047794003918619 0 -0.0058566358669888312 0.00063518184150776014 0 -0.0063096371641138604 0.0010908809051661382 0 -0.005808390968222216 0.0015085621617063909 0 -0.0046759235109459429 0.0011501114683681963 0 -0.0056814248717472933 0.0015078270274132084 0 -0.0050481127215646297 0.0011626581988059437 0 -0.0058566358669888312 0.00063518184150776014 0 -0.005808390968222216 0.0015085621617063909 0 -0.0063096371641138604 0.0010908809051661382 0 -0.005808390968222216 0.0015085621617063909 0 -0.0064477439790192638 0.0014165364411246842 0 -0.005808390968222216 0.0015085621617063909 0 -0.0064477439790192638 0.0014165364411246842 0 -0.0064627796292232873 0.0017783773557186811 0 -0.0059076894055801604 0.0019516779779751904 0 -0.0064627796292232873 0.0017783773557186811 0 -0.0061371545487750295 0.0022420052804254546 0 -0.005808390968222216 0.0015085621617063909 0 -0.0059076894055801604 0.0019516779779751904 0 -0.0064627796292232873 0.0017783773557186811 0 -0.0067156228787759271 0.001687132711144602 0 -0.0063782282138045007 0.0021713219037119732 0 -0.005808390968222216 0.0015085621617063909 0 -0.0059076894055801604 0.0019516779779751904 0 -0.0054643752247318439 0.0020139089581322151 0 -0.005808390968222216 0.0015085621617063909 0 -0.0054643752247318439 0.0020139089581322151 0 -0.005002147269889584 0.0016566510568634281 0 -0.0054643752247318439 0.0020139089581322151 0 -0.005002147269889584 0.0016566510568634281 0 -0.0047916798997242336 0.002088538743108112 0 -0.004479743863037307 0.0017399415680139987 0 -0.0047916798997242336 0.002088538743108112 0 -0.0041039186740100507 0.0018957412179043925 0 -0.004479743863037307 0.0017399415680139987 0 -0.005002147269889584 0.0016566510568634281 0 -0.0047916798997242336 0.002088538743108112 0 -0.004479743863037307 0.0017399415680139987 0 -0.0044296843591507722 0.0013583107899361904 0 -0.005002147269889584 0.0016566510568634281 0 -0.0050481127215646297 0.0011626581988059437 0 -0.005808390968222216 0.0015085621617063909 0 -0.005002147269889584 0.0016566510568634281 0 -0.0050481127215646297 0.0011626581988059437 0 -0.0044296843591507722 0.0013583107899361904 0 -0.005002147269889584 0.0016566510568634281 0 -0.0067397425649279316 0.0016796944093714077 0 -0.0058726949918840726 0.0022939313403835611 0 -0.0074698353615380462 0.0019121840011342825 0 -0.0064051871064897915 0.0010480523484549394 0 -0.0067397425649279316 0.0016796944093714077 0 -0.0054202914018917766 0.0014844383674812072 0 -0.0067397425649279316 0.0016796944093714077 0 -0.0054202914018917766 0.0014844383674812072 0 -0.0058726949918840726 0.0022939313403835611 0 -0.0054202914018917766 0.0014844383674812072 0 -0.0058726949918840726 0.0022939313403835611 0 -0.0044715356796209875 0.0020576838581512964 0 -0.0067160488302344086 0.0018226269328936815 0 -0.0056814248717472933 0.0015078270274132084 0 -0.0076276047905513081 0.0014032482769237502 0 -0.0068937267838312596 0.00096047794003918619 0 -0.0072197582898553703 0.0014920683592101573 0 -0.0068937267838312596 0.00096047794003918619 0 -0.0069001501465641045 0.001234308833664103 0 -0.0072197582898553703 0.0014920683592101573 0 -0.004730750812990756 0.0012936543282862675 0 -0.0054202914018917766 0.0014844383674812072 0 -0.0044715356796209875 0.0020576838581512964 0 -0.0040883148016860812 0.0010953059118366394 0 -0.004730750812990756 0.0012936543282862675 0 -0.0044715356796209875 0.0020576838581512964 0 -0.0040883148016860812 0.0010953059118366394 0 -0.0034765965132800168 0.0016546169972740227 0 -0.0044715356796209875 0.0020576838581512964 0 -0.0063096371641138604 0.0010908809051661382 0 -0.0068937267838312596 0.00096047794003918619 0 -0.0069001501465641045 0.001234308833664103 0 -0.0063096371641138604 0.0010908809051661382 0 -0.0069001501465641045 0.001234308833664103 0 -0.0064477439790192638 0.0014165364411246842 0 -0.0068906068300462241 0.0012666368435839954 0 -0.0067156228787759271 0.001687132711144602 0 -0.0069001501465641045 0.001234308833664103 0 -0.0064477439790192638 0.0014165364411246842 0 -0.0064627796292232873 0.0017783773557186811 0 -0.0069001501465641045 0.001234308833664103 0 -0.0069115064088757167 0.001699909731507584 0 -0.0070574069182918839 0.0015656059803244213 0 -0.0069115064088757167 0.001699909731507584 0 -0.007034496590030013 0.001885385806718114 0 -0.0068972557155645492 0.0019508359510844759 0 -0.0069115064088757167 0.001699909731507584 0 -0.0071964066271274635 0.0017712223318964294 0 -0.0070574069182918839 0.0015656059803244213 0 -0.0069115064088757167 0.001699909731507584 0 -0.0071964066271274635 0.0017712223318964294 0 -0.007034496590030013 0.001885385806718114 0 -0.0071964066271274635 0.0017712223318964294 0 -0.0072197582898553703 0.0014920683592101573 0 -0.0074826572726672891 0.001689409196627293 0 -0.0071964066271274635 0.0017712223318964294 0 -0.0070574069182918839 0.0015656059803244213 0 -0.0072197582898553703 0.0014920683592101573 0 -0.0069001501465641045 0.001234308833664103 0 -0.0070574069182918839 0.0015656059803244213 0 -0.0072197582898553703 0.0014920683592101573 0 -0.0076276047905513081 0.0014032482769237502 0 -0.0072197582898553703 0.0014920683592101573 0 -0.0074826572726672891 0.001689409196627293 0 -0.0076276047905513081 0.0014032482769237502 0 -0.0074826572726672891 0.001689409196627293 0 -0.0076883530110476708 0.0016019250087135342 0 -0.0074826572726672891 0.001689409196627293 0 -0.0076883530110476708 0.0016019250087135342 0 -0.0075784053150855799 0.0019199651435221961 0 -0.0068530561999407659 0.0017315615870100395 0 -0.0085817665115534084 0.00170969090117924 0 -0.0071964066271274635 0.0017712223318964294 0 -0.0074826572726672891 0.001689409196627293 0 -0.0075784053150855799 0.0019199651435221961 0 -0.0084464701939989551 0.0011748752879436734 0 -0.0079646948817579302 0.0015543589217125616 0 -0.0082424664325111419 0.0011035037662122736 0 -0.0085817665115534084 0.00170969090117924 0 -0.0077339501980617986 0.0015498168057639366 0 -0.0076883530110476708 0.0016019250087135342 0 -0.0075784053150855799 0.0019199651435221961 0 -0.0079646948817579302 0.0015543589217125616 0 -0.0067160488302344086 0.0018226269328936815 0 -0.0073737198332536023 0.0019103289596358003 0 -0.0076276047905513081 0.0014032482769237502 0 -0.0076883530110476708 0.0016019250087135342 0 -0.0074698353615380462 0.0019121840011342825 0 -0.010177359749817481 0.0018260125220014029 0 -0.010054534281026923 0.0017846891770017775 0 -0.0099788142759370379 0.0018802416028160247 0 -0.01017245280046067 0.0020487599628730225 0 -0.010177359749817481 0.0018260125220014029 0 -0.0099788142759370379 0.0018802416028160247 0 -0.0084464701939989551 0.0011748752879436734 0 -0.0082424664325111419 0.0011035037662122736 0 -0.0083368814443185932 0.0013252262129708249 0 -0.0085817665115534084 0.00170969090117924 0 -0.0093488390644037491 0.0015999949939209045 0 -0.01017245280046067 0.0020487599628730225 0 -0.010177359749817481 0.0018260125220014029 0 -0.010428888356610896 0.0019666241744560786 0 -0.010177359749817481 0.0018260125220014029 0 -0.010428888356610896 0.0019666241744560786 0 -0.010444811012079823 0.0017191224360135619 0 -0.0071964066271274635 0.0017712223318964294 0 -0.0071527267376342313 0.0020687076649406515 0 -0.007034496590030013 0.001885385806718114 0 -0.0071964066271274635 0.0017712223318964294 0 -0.0074794890445306758 0.0019141692635905945 0 -0.0071527267376342313 0.0020687076649406515 0 -0.0085817665115534084 0.00170969090117924 0 -0.0082398324911980552 0.0020945711269661012 0 -0.0071527267376342313 0.0020687076649406515 0 -0.007034496590030013 0.001885385806718114 0 -0.0068972557155645492 0.0019508359510844759 0 -0.0082398324911980552 0.0020945711269661012 0 -0.011884704831149962 0.0024044736973097363 0 -0.010428888356610896 0.0019666241744560786 0 -0.010444811012079823 0.0017191224360135619 0 -0.010724892369660637 0.0018495239113693414 0 -0.0071527267376342313 0.0020687076649406515 0 -0.0068972557155645492 0.0019508359510844759 0 -0.006928977086741183 0.0021791242446857137 0 -0.018914561622041776 0.0023915383964123065 0 -0.018006509108398985 0.0018262030574992339 0 -0.018110279782646618 0.0023389898896997536 0 -0.015191304802554713 0.0020650899211515795 0 -0.011884704831149962 0.0024044736973097363 0 -0.018914561622041776 0.0023915383964123065 0 -0.018110279782646618 0.0023389898896997536 0 -0.018291814360815714 0.0028319705250978112 0 -0.018914561622041776 0.0023915383964123065 0 -0.018291814360815714 0.0028319705250978112 0 -0.019061222355881379 0.0031685297155049845 0 -0.018914561622041776 0.0023915383964123065 0 -0.019579237086813684 0.0029450675909234413 0 -0.019061222355881379 0.0031685297155049845 0 -0.010177359749817481 0.0018260125220014029 0 -0.010444811012079823 0.0017191224360135619 0 -0.010169012575852515 0.0016489174335980452 0 -0.015191304802554713 0.0020650899211515795 0 -0.014668261597471312 0.0022599999836623807 0 -0.010169012575852515 0.0016489174335980452 0 -0.0099737567037302133 0.0016898226847901147 0 -0.0099865872023657716 0.001751002593536494 0 -0.010177359749817481 0.0018260125220014029 0 -0.010169012575852515 0.0016489174335980452 0 -0.010054534281026923 0.0017846891770017775 0 -0.010169012575852515 0.0016489174335980452 0 -0.010054534281026923 0.0017846891770017775 0 -0.0099737567037302133 0.0016898226847901147 0 -0.0054759444611965835 0.0027525406622830582 0 -0.0053459425314104827 0.0023738860744808004 0 -0.0055940087218839338 0.0025499340211186947 0 -0.0054759444611965835 0.0027525406622830582 0 -0.0048362716109807552 0.0025331076592203868 0 -0.0053459425314104827 0.0023738860744808004 0 -0.0054759444611965835 0.0027525406622830582 0 -0.0048362716109807552 0.0025331076592203868 0 -0.0048187835129096289 0.0029758370713100528 0 -0.0048362716109807552 0.0025331076592203868 0 -0.0047916798997242336 0.002088538743108112 0 -0.0043043670621575091 0.0022592587819916161 0 -0.0048362716109807552 0.0025331076592203868 0 -0.0047916798997242336 0.002088538743108112 0 -0.0053459425314104827 0.0023738860744808004 0 -0.0054643752247318439 0.0020139089581322151 0 -0.0047916798997242336 0.002088538743108112 0 -0.0053459425314104827 0.0023738860744808004 0 -0.0059076894055801604 0.0019516779779751904 0 -0.0054643752247318439 0.0020139089581322151 0 -0.0057433306666101183 0.0023512356969393115 0 -0.0054643752247318439 0.0020139089581322151 0 -0.0053459425314104827 0.0023738860744808004 0 -0.0057433306666101183 0.0023512356969393115 0 -0.0053459425314104827 0.0023738860744808004 0 -0.0057433306666101183 0.0023512356969393115 0 -0.0055940087218839338 0.0025499340211186947 0 -0.0057433306666101183 0.0023512356969393115 0 -0.0061371545487750295 0.0022420052804254546 0 -0.0059278347380109092 0.0026555692913307781 0 -0.0059076894055801604 0.0019516779779751904 0 -0.0057433306666101183 0.0023512356969393115 0 -0.0061371545487750295 0.0022420052804254546 0 -0.0068972557155645492 0.0019508359510844759 0 -0.0068555368547803218 0.0021409041377229545 0 -0.006928977086741183 0.0021791242446857137 0 -0.0063782282138045007 0.0021713219037119732 0 -0.0078711547206495019 0.0023772144782362213 0 -0.0078711547206495019 0.0023772144782362213 0 -0.011884704831149962 0.0024044736973097363 0 -0.010994342318142284 0.0029204764777197886 0 -0.010488273200222876 0.0026595848585893697 0 -0.011334013415402114 0.0022228655130336681 0 -0.0057433306666101183 0.0023512356969393115 0 -0.0055940087218839338 0.0025499340211186947 0 -0.0058024508722997496 0.0025801581235406043 0 -0.0057433306666101183 0.0023512356969393115 0 -0.0059278347380109092 0.0026555692913307781 0 -0.0058024508722997496 0.0025801581235406043 0 -0.0059596155360797185 0.0026376229702144362 0 -0.0058024508722997496 0.0025801581235406043 0 -0.0057514783531883952 0.002671497957730193 0 -0.0078711547206495019 0.0023772144782362213 0 -0.013018115775735938 0.00250308374143922 0 -0.0059596155360797185 0.0026376229702144362 0 -0.0057514783531883952 0.002671497957730193 0 -0.005920413947514005 0.002840047315148832 0 -0.0078711547206495019 0.0023772144782362213 0 -0.0064293926001676664 0.0020912115062218877 0 -0.0055940087218839338 0.0025499340211186947 0 -0.0058024508722997496 0.0025801581235406043 0 -0.0057514783531883952 0.002671497957730193 0 -0.0054759444611965835 0.0027525406622830582 0 -0.0055940087218839338 0.0025499340211186947 0 -0.0057514783531883952 0.002671497957730193 0 -0.0054759444611965835 0.0027525406622830582 0 -0.0057514783531883952 0.002671497957730193 0 -0.005920413947514005 0.002840047315148832 0 -0.018006509108398985 0.0018262030574992339 0 -0.017535640256996728 0.0020357511368808015 0 -0.018110279782646618 0.0023389898896997536 0 -0.011884704831149962 0.0024044736973097363 0 -0.013018115775735938 0.00250308374143922 0 -0.017535640256996728 0.0020357511368808015 0 -0.018110279782646618 0.0023389898896997536 0 -0.017728331222491844 0.0026170401325649279 0 -0.017728331222491844 0.0026170401325649279 0 -0.018291814360815714 0.0028319705250978112 0 -0.017718301874791727 0.0031040185168224057 0 -0.018110279782646618 0.0023389898896997536 0 -0.017728331222491844 0.0026170401325649279 0 -0.018291814360815714 0.0028319705250978112 0 -0.016901127554244343 0.0025953771811675704 0 -0.017066674243505636 0.0028497247267587006 0 -0.016588563790880615 0.0026756987583782563 0 -0.017535640256996728 0.0020357511368808015 0 -0.017728331222491844 0.0026170401325649279 0 -0.017066674243505636 0.0028497247267587006 0 -0.013018115775735938 0.00250308374143922 0 -0.018003898488678276 0.0023997774854873323 0 -0.017728331222491844 0.0026170401325649279 0 -0.017066674243505636 0.0028497247267587006 0 -0.017718301874791727 0.0031040185168224057 0 -0.017066674243505636 0.0028497247267587006 0 -0.016588563790880615 0.0026756987583782563 0 -0.016597087483584821 0.0031136926349106474 0 -0.013018115775735938 0.00250308374143922 0 -0.010663165204008682 0.003050040665915466 0 -0.0054759444611965835 0.0027525406622830582 0 -0.0054342024736052999 0.0031450373596868687 0 -0.0048187835129096289 0.0029758370713100528 0 -0.0054759444611965835 0.0027525406622830582 0 -0.005920413947514005 0.002840047315148832 0 -0.0054342024736052999 0.0031450373596868687 0 -0.016588563790880615 0.0026756987583782563 0 -0.015650095550584414 0.0030333616911405901 0 -0.016597087483584821 0.0031136926349106474 0 -0.010663165204008682 0.003050040665915466 0 -0.010230556698061388 0.0029858499614802874 0 -0.0054342024736052999 0.0031450373596868687 0 -0.0048187835129096289 0.0029758370713100528 0 -0.0047981380731184223 0.0035276389817969407 0 -0.0048187835129096289 0.0029758370713100528 0 -0.0047981380731184223 0.0035276389817969407 0 -0.0041370785599953649 0.0031097405847858397 0 -0.010230556698061388 0.0029858499614802874 0 -0.0035882345377796724 0.0027840339288331202 0 -0.005120121242600033 0.0036671279250325506 0 -0.0040939921424559631 0.0034736763766384801 0 -0.0043795478846316172 0.002901783582199959 0 -0.005120121242600033 0.0036671279250325506 0 -0.0040939921424559631 0.0034736763766384801 0 -0.0044379587691734364 0.0040073432931296777 0 -0.0035882345377796724 0.0027840339288331202 0 -0.0036870029213231701 0.0025184342448804852 0 -0.0040939921424559631 0.0034736763766384801 0 -0.0043795478846316172 0.002901783582199959 0 -0.0036973491771216628 0.0028168509882530893 0 -0.0043795478846316172 0.002901783582199959 0 -0.003639116743189777 0.0022664066368934354 0 -0.0036973491771216628 0.0028168509882530893 0 -0.0048187835129096289 0.0029758370713100528 0 -0.0041370785599953649 0.0031097405847858397 0 -0.0041372570884250608 0.0026403420607438895 0 -0.0048362716109807552 0.0025331076592203868 0 -0.0041372570884250608 0.0026403420607438895 0 -0.0043043670621575091 0.0022592587819916161 0 -0.0048362716109807552 0.0025331076592203868 0 -0.0048187835129096289 0.0029758370713100528 0 -0.0041372570884250608 0.0026403420607438895 0 -0.0041372570884250608 0.0026403420607438895 0 -0.0036232571592771331 0.002091441644194982 0 -0.0035161433008054663 0.0026079349292863325 0 -0.0041370785599953649 0.0031097405847858397 0 -0.0041372570884250608 0.0026403420607438895 0 -0.0035161433008054663 0.0026079349292863325 0 -0.0041372570884250608 0.0026403420607438895 0 -0.0036232571592771331 0.002091441644194982 0 -0.0043043670621575091 0.0022592587819916161 0 -0.0047916798997242336 0.002088538743108112 0 -0.0043043670621575091 0.0022592587819916161 0 -0.0041039186740100507 0.0018957412179043925 0 -0.0036232571592771331 0.002091441644194982 0 -0.0043043670621575091 0.0022592587819916161 0 -0.0041039186740100507 0.0018957412179043925 0 -0.0028629961477128056 0.0020503750226869458 0 -0.0030201619393999996 0.0019581012057443186 0 -0.0031894205652831364 0.0022715315134559703 0 -0.0030201619393999996 0.0019581012057443186 0 -0.0027082701493589506 0.0018222274643100744 0 -0.0029050021920508677 0.0017691574652936846 0 -0.0028629961477128056 0.0020503750226869458 0 -0.0030201619393999996 0.0019581012057443186 0 -0.0027082701493589506 0.0018222274643100744 0 -0.0028629961477128056 0.0020503750226869458 0 -0.0027455972350726547 0.0020336464878412948 0 -0.0027082701493589506 0.0018222274643100744 0 -0.0030508766426742065 0.0019566521564506659 0 -0.0036870029213231701 0.0025184342448804852 0 -0.0036232571592771331 0.002091441644194982 0 -0.0030201619393999996 0.0019581012057443186 0 -0.0031325750383250713 0.0017228347562966079 0 -0.0036232571592771331 0.002091441644194982 0 -0.0030201619393999996 0.0019581012057443186 0 -0.0035161433008054663 0.0026079349292863325 0 -0.0030201619393999996 0.0019581012057443186 0 -0.0031894205652831364 0.0022715315134559703 0 -0.003639116743189777 0.0022664066368934354 0 -0.0031894205652831364 0.0022715315134559703 0 -0.003639116743189777 0.0022664066368934354 0 -0.0031111405579555868 0.0026646209945849742 0 -0.0028675330403425533 0.0020637004810644829 0 -0.0030309590057373474 0.0024291939825354706 0 -0.0028629961477128056 0.0020503750226869458 0 -0.0031894205652831364 0.0022715315134559703 0 -0.0031111405579555868 0.0026646209945849742 0 -0.0028629961477128056 0.0020503750226869458 0 -0.0028115201445630972 0.0021134028088819349 0 -0.0028925774988381721 0.0021469255098549994 0 -0.0028629961477128056 0.0020503750226869458 0 -0.0028115201445630972 0.0021134028088819349 0 -0.0027455972350726547 0.0020336464878412948 0 -0.0028220419936696999 0.0022133035095312729 0 -0.0028925774988381721 0.0021469255098549994 0 -0.0029588548408430253 0.0022636970520015297 0 -0.0028115201445630972 0.0021134028088819349 0 -0.0028220419936696999 0.0022133035095312729 0 -0.0028925774988381721 0.0021469255098549994 0 -0.0030309590057373474 0.0024291939825354706 0 -0.0028894853048245044 0.0027981387368650854 0 -0.0031111405579555868 0.0026646209945849742 0 -0.0036973491771216628 0.0028168509882530893 0 -0.0034300619721303106 0.0034605882758335666 0 -0.003639116743189777 0.0022664066368934354 0 -0.0031111405579555868 0.0026646209945849742 0 -0.0036973491771216628 0.0028168509882530893 0 -0.0040939921424559631 0.0034736763766384801 0 -0.0036973491771216628 0.0028168509882530893 0 -0.0034300619721303106 0.0034605882758335666 0 -0.0040939921424559631 0.0034736763766384801 0 -0.0034300619721303106 0.0034605882758335666 0 -0.0037905411823700541 0.0043249387730298393 0 -0.0028220419936696999 0.0022133035095312729 0 -0.0029588548408430253 0.0022636970520015297 0 -0.0028453535213827474 0.0023209633865218784 0 -0.0028220419936696999 0.0022133035095312729 0 -0.0027171314848201946 0.0022560460600161481 0 -0.0028453535213827474 0.0023209633865218784 0 -0.0027171314848201946 0.0022560460600161481 0 -0.0025820034415397703 0.0022212195986038123 0 -0.0026405716539590709 0.0023444175866041178 0 -0.0027171314848201946 0.0022560460600161481 0 -0.0026420181390242278 0.0021545426509897506 0 -0.0025820034415397703 0.0022212195986038123 0 -0.0026420181390242278 0.0021545426509897506 0 -0.0025820034415397703 0.0022212195986038123 0 -0.0025406821270823705 0.0020101683032549408 0 -0.0026420181390242278 0.0021545426509897506 0 -0.0027171847348737605 0.0021173631213551461 0 -0.0025406821270823705 0.0020101683032549408 0 -0.0028115201445630972 0.0021134028088819349 0 -0.0028220419936696999 0.0022133035095312729 0 -0.0027171847348737605 0.0021173631213551461 0 -0.0027171314848201946 0.0022560460600161481 0 -0.0026420181390242278 0.0021545426509897506 0 -0.0027171847348737605 0.0021173631213551461 0 -0.0028220419936696999 0.0022133035095312729 0 -0.0027171314848201946 0.0022560460600161481 0 -0.0027171847348737605 0.0021173631213551461 0 -0.0025360420312649742 0.0023756298073762572 0 -0.0025820034415397703 0.0022212195986038123 0 -0.0026405716539590709 0.0023444175866041178 0 -0.0025360420312649742 0.0023756298073762572 0 -0.0025820034415397703 0.0022212195986038123 0 -0.0024296303295556509 0.0021502995029049408 0 -0.0025820034415397703 0.0022212195986038123 0 -0.0024296303295556509 0.0021502995029049408 0 -0.0025406821270823705 0.0020101683032549408 0 -0.0024296303295556509 0.0021502995029049408 0 -0.0023141160214332963 0.0019557595412580224 0 -0.0022313989155483089 0.0021323362915182807 0 -0.0025360420312649742 0.0023756298073762572 0 -0.0024296303295556509 0.0021502995029049408 0 -0.0022313989155483089 0.0021323362915182807 0 -0.0023141160214332963 0.0019557595412580224 0 -0.0024006332006146287 0.0017970204026358659 0 -0.0025406821270823705 0.0020101683032549408 0 -0.0024296303295556509 0.0021502995029049408 0 -0.0023141160214332963 0.0019557595412580224 0 -0.0025406821270823705 0.0020101683032549408 0 -0.0024006332006146287 0.0017970204026358659 0 -0.0025406821270823705 0.0020101683032549408 0 -0.0024890597670154985 0.0017794811311238913 0 -0.0023141160214332963 0.0019557595412580224 0 -0.0021545785022386633 0.0016995242865955067 0 -0.0020988488154820226 0.0019176528354929096 0 -0.0024006332006146287 0.0017970204026358659 0 -0.0021545785022386633 0.0016995242865955067 0 -0.0022546713960781982 0.0016117966830845004 0 -0.0023141160214332963 0.0019557595412580224 0 -0.0024006332006146287 0.0017970204026358659 0 -0.0021545785022386633 0.0016995242865955067 0 -0.0027171847348737605 0.0021173631213551461 0 -0.0027455972350726547 0.0020336464878412948 0 -0.0026144726480340805 0.001912982063071178 0 -0.0028115201445630972 0.0021134028088819349 0 -0.0027171847348737605 0.0021173631213551461 0 -0.0027455972350726547 0.0020336464878412948 0 -0.0027171847348737605 0.0021173631213551461 0 -0.0025406821270823705 0.0020101683032549408 0 -0.0026144726480340805 0.001912982063071178 0 -0.0024890597670154985 0.0017794811311238913 0 -0.0026144726480340805 0.001912982063071178 0 -0.0024667375340877186 0.0016658220947580495 0 -0.0025406821270823705 0.0020101683032549408 0 -0.0024890597670154985 0.0017794811311238913 0 -0.0026144726480340805 0.001912982063071178 0 -0.0027455972350726547 0.0020336464878412948 0 -0.0027082701493589506 0.0018222274643100744 0 -0.0026144726480340805 0.001912982063071178 0 -0.0027082701493589506 0.0018222274643100744 0 -0.0026144726480340805 0.001912982063071178 0 -0.0024667375340877186 0.0016658220947580495 0 -0.0027082701493589506 0.0018222274643100744 0 -0.0024667375340877186 0.0016658220947580495 0 -0.0025166168167162265 0.0014533008591546815 0 -0.0024890597670154985 0.0017794811311238913 0 -0.0024667375340877186 0.0016658220947580495 0 -0.0024210790450256139 0.0016048228412618695 0 -0.0024368637457344556 0.0016543072014824302 0 -0.0022189493550346627 0.0015974050238007763 0 -0.0024667375340877186 0.0016658220947580495 0 -0.002224725537891888 0.0013037622968398522 0 -0.001975343054377771 0.0015895798354523768 0 -0.002224725537891888 0.0013037622968398522 0 -0.0025166168167162265 0.0014533008591546815 0 -0.0025374851561080491 0.0011887300483231155 0 -0.0024667375340877186 0.0016658220947580495 0 -0.002224725537891888 0.0013037622968398522 0 -0.0025166168167162265 0.0014533008591546815 0 -0.0021643543467900592 0.0014541471185460762 0 -0.0022546713960781982 0.0016117966830845004 0 -0.0024210790450256139 0.0016048228412618695 0 -0.0021643543467900592 0.0014541471185460762 0 -0.0021652710619964864 0.0014922809076821759 0 -0.0022546713960781982 0.0016117966830845004 0 -0.002156326889620423 0.0014355459049136931 0 -0.0021652710619964864 0.0014922809076821759 0 -0.0020934598928410634 0.0015584863749981933 0 -0.001793415337143139 0.0014607605293150458 0 -0.0018253451676904973 0.0014712884260668206 0 -0.0021652710619964864 0.0014922809076821759 0 -0.0021644444300838125 0.0015920650189737943 0 -0.0022546713960781982 0.0016117966830845004 0 -0.0021652710619964864 0.0014922809076821759 0 -0.0020934598928410634 0.0015584863749981933 0 -0.0021644444300838125 0.0015920650189737943 0 -0.0021545785022386633 0.0016995242865955067 0 -0.0021644444300838125 0.0015920650189737943 0 -0.0022546713960781982 0.0016117966830845004 0 -0.0021545785022386633 0.0016995242865955067 0 -0.0020934598928410634 0.0015584863749981933 0 -0.0021644444300838125 0.0015920650189737943 0 -0.0024006332006146287 0.0017970204026358659 0 -0.0024890597670154985 0.0017794811311238913 0 -0.0024210790450256139 0.0016048228412618695 0 -0.0024006332006146287 0.0017970204026358659 0 -0.0022546713960781982 0.0016117966830845004 0 -0.0024210790450256139 0.0016048228412618695 0 -0.001793415337143139 0.0014607605293150458 0 -0.0022189493550346627 0.0015974050238007763 0 -0.0016331031831156089 0.0015248797661440959 0 -0.001975343054377771 0.0015895798354523768 0 -0.0018412998969363336 0.0013109120960150163 0 -0.002224725537891888 0.0013037622968398522 0 -0.001975343054377771 0.0015895798354523768 0 -0.0018412998969363336 0.0013109120960150163 0 -0.0016331031831156089 0.0015248797661440959 0 -0.0018412998969363336 0.0013109120960150163 0 -0.0016273122124277762 0.0012013020738436873 0 -0.001793415337143139 0.0014607605293150458 0 -0.0015149540998621446 0.0012041124752959389 0 -0.0018412998969363336 0.0013109120960150163 0 -0.0016273122124277762 0.0012013020738436873 0 -0.0017776965238837702 0.0010248568353635249 0 -0.0018412998969363336 0.0013109120960150163 0 -0.001987719983823211 0.0010978447058412819 0 -0.0017776965238837702 0.0010248568353635249 0 -0.002224725537891888 0.0013037622968398522 0 -0.0018412998969363336 0.0013109120960150163 0 -0.001987719983823211 0.0010978447058412819 0 -0.0017483554266296822 0.00085646177237496443 0 -0.0019245635814993561 0.00091473474423243886 0 -0.0017776965238837702 0.0010248568353635249 0 -0.001987719983823211 0.0010978447058412819 0 -0.0019245635814993561 0.00091473474423243886 0 -0.0017776965238837702 0.0010248568353635249 0 -0.0015149540998621446 0.0012041124752959389 0 -0.0011107845648249946 0.0015594841994832581 0 -0.0016273122124277762 0.0012013020738436873 0 -0.0017776965238837702 0.0010248568353635249 0 -0.0016278991702473088 0.00091989904129410394 0 -0.0017483554266296822 0.00085646177237496443 0 -0.0017776965238837702 0.0010248568353635249 0 -0.0016278991702473088 0.00091989904129410394 0 -0.0018474110430123925 0.00090634271694072324 0 -0.0011107845648249946 0.0015594841994832581 0 -0.002224725537891888 0.0013037622968398522 0 -0.0022242044273000365 0.00098590581788475409 0 -0.0025374851561080491 0.0011887300483231155 0 -0.002224725537891888 0.0013037622968398522 0 -0.001987719983823211 0.0010978447058412819 0 -0.0022242044273000365 0.00098590581788475409 0 -0.0020618447317593451 0.00080173875640309627 0 -0.0019245635814993561 0.00091473474423243886 0 -0.0022242044273000365 0.00098590581788475409 0 -0.0020755722215038447 0.00080255558380956649 0 -0.002208665490413575 0.00097031084179352567 0 -0.001987719983823211 0.0010978447058412819 0 -0.0019245635814993561 0.00091473474423243886 0 -0.0022242044273000365 0.00098590581788475409 0 -0.0022242044273000365 0.00098590581788475409 0 -0.0022632465143767417 0.00084913541174300882 0 -0.0025374851561080491 0.0011887300483231155 0 -0.0020802738367395233 0.00077176121642889546 0 -0.0022242044273000365 0.00098590581788475409 0 -0.0022632465143767417 0.00084913541174300882 0 -0.0022632465143767417 0.00084913541174300882 0 -0.0024776549485764623 0.00084865479338315595 0 -0.0025374851561080491 0.0011887300483231155 0 -0.0021521015251684469 0.00073639136346552155 0 -0.0022632465143767417 0.00084913541174300882 0 -0.0024776549485764623 0.00084865479338315595 0 -0.0025374851561080491 0.0011887300483231155 0 -0.002852373401419929 0.0011451013925390064 0 -0.0029971916957501421 0.0014269543541793747 0 -0.0024776549485764623 0.00084865479338315595 0 -0.0025374851561080491 0.0011887300483231155 0 -0.002852373401419929 0.0011451013925390064 0 -0.002852373401419929 0.0011451013925390064 0 -0.0030311615851588841 0.00090683233697030094 0 -0.0033375944535721882 0.0013092115967506983 0 -0.0023202255470942588 0.00061793409957859699 0 -0.0024776549485764623 0.00084865479338315595 0 -0.0030311615851588841 0.00090683233697030094 0 -0.0024776549485764623 0.00084865479338315595 0 -0.002852373401419929 0.0011451013925390064 0 -0.0030311615851588841 0.00090683233697030094 0 -0.0037427909681442069 0.00032255665466411767 0 -0.0030311615851588841 0.00090683233697030094 0 -0.0038029628947587992 0.0010807538100681964 0 -0.0037427909681442069 0.00032255665466411767 0 -0.0023202255470942588 0.00061793409957859699 0 -0.0030311615851588841 0.00090683233697030094 0 -0.0037427909681442069 0.00032255665466411767 0 -0.0043694931154703185 0.00086082584395870355 0 -0.0038029628947587992 0.0010807538100681964 0 -0.0043694931154703185 0.00086082584395870355 0 -0.0044296843591507722 0.0013583107899361904 0 -0.0038029628947587992 0.0010807538100681964 0 -0.0030311615851588841 0.00090683233697030094 0 -0.0038029628947587992 0.0010807538100681964 0 -0.0033375944535721882 0.0013092115967506983 0 -0.0033375944535721882 0.0013092115967506983 0 -0.0039285466808367305 0.0015168784774471842 0 -0.0035100527018210974 0.0016816849600109942 0 -0.0038029628947587992 0.0010807538100681964 0 -0.0033375944535721882 0.0013092115967506983 0 -0.0039285466808367305 0.0015168784774471842 0 -0.0044296843591507722 0.0013583107899361904 0 -0.0038029628947587992 0.0010807538100681964 0 -0.0039285466808367305 0.0015168784774471842 0 -0.004479743863037307 0.0017399415680139987 0 -0.0044296843591507722 0.0013583107899361904 0 -0.0039285466808367305 0.0015168784774471842 0 -0.004479743863037307 0.0017399415680139987 0 -0.0039285466808367305 0.0015168784774471842 0 -0.0041039186740100507 0.0018957412179043925 0 -0.0036232571592771331 0.002091441644194982 0 -0.0041039186740100507 0.0018957412179043925 0 -0.0035100527018210974 0.0016816849600109942 0 -0.0039285466808367305 0.0015168784774471842 0 -0.0041039186740100507 0.0018957412179043925 0 -0.0035100527018210974 0.0016816849600109942 0 -0.0036232571592771331 0.002091441644194982 0 -0.0035100527018210974 0.0016816849600109942 0 -0.0031325750383250713 0.0017228347562966079 0 -0.0035100527018210974 0.0016816849600109942 0 -0.0031325750383250713 0.0017228347562966079 0 -0.0029971916957501421 0.0014269543541793747 0 -0.0031325750383250713 0.0017228347562966079 0 -0.002779418755735375 0.0015584865801749645 0 -0.0029971916957501421 0.0014269543541793747 0 -0.0030201619393999996 0.0019581012057443186 0 -0.0031325750383250713 0.0017228347562966079 0 -0.0029050021920508677 0.0017691574652936846 0 -0.0027082701493589506 0.0018222274643100744 0 -0.0029050021920508677 0.0017691574652936846 0 -0.002779418755735375 0.0015584865801749645 0 -0.0027082701493589506 0.0018222274643100744 0 -0.0025166168167162265 0.0014533008591546815 0 -0.002779418755735375 0.0015584865801749645 0 -0.0031325750383250713 0.0017228347562966079 0 -0.0029050021920508677 0.0017691574652936846 0 -0.002779418755735375 0.0015584865801749645 0 -0.0025374851561080491 0.0011887300483231155 0 -0.002779418755735375 0.0015584865801749645 0 -0.0029971916957501421 0.0014269543541793747 0 -0.0025166168167162265 0.0014533008591546815 0 -0.0025374851561080491 0.0011887300483231155 0 -0.002779418755735375 0.0015584865801749645 0 -0.0033375944535721882 0.0013092115967506983 0 -0.0035100527018210974 0.0016816849600109942 0 -0.0029971916957501421 0.0014269543541793747 0 -0.002852373401419929 0.0011451013925390064 0 -0.0033375944535721882 0.0013092115967506983 0 -0.0029971916957501421 0.0014269543541793747 0 -0.0073392233794210195 0.0010903519426494379 0 -0.0072350339609950102 0.00088030532299483884 0 -0.0048512981088362746 2.3514805372107531e-06 0 -0.0072350339609950102 0.00088030532299483884 0 -0.0063887011644882729 0.0001425263542707481 0 -0.0073310435229556074 0.00022363307205475658 0 -0.0072350339609950102 0.00088030532299483884 0 -0.0073310435229556074 0.00022363307205475658 0 -0.007847829593705424 0.00061932524191614087 0 -0.0073226309091066399 0.0009961664383347352 0 -0.0072350339609950102 0.00088030532299483884 0 -0.007847829593705424 0.00061932524191614087 0 -0.0063248788429220038 0.0002080453224368793 0 -0.0064197937092076813 0.00033423183279983543 0 -0.0038853164535414372 -0.00015161304397976144 0 -0.0048473181048467274 -7.0244414581135127e-08 0 -0.00411152752920002 -0.00021155959048196467 0 -0.0048512981088362746 2.3514805372107531e-06 0 -0.0063887011644882729 0.0001425263542707481 0 -0.0061119353010533305 -4.2307780193993422e-07 0 -0.0072350339609950102 0.00088030532299483884 0 -0.0048512981088362746 2.3514805372107531e-06 0 -0.0063887011644882729 0.0001425263542707481 0 -0.0063248788429220038 0.0002080453224368793 0 -0.0048486911187904051 3.0292648974632274e-07 0 -0.0063887011644882729 0.0001425263542707481 0 -0.0061119353010533305 -4.2307780193993422e-07 0 -0.0068997935706217369 3.0768855397006308e-06 0 -0.0068997935706217369 3.0768855397006308e-06 0 -0.0073310435229556074 0.00022363307205475658 0 -0.0076336645434988866 -8.423828762221492e-05 0 -0.0063887011644882729 0.0001425263542707481 0 -0.0068997935706217369 3.0768855397006308e-06 0 -0.0073310435229556074 0.00022363307205475658 0 -0.0073310435229556074 0.00022363307205475658 0 -0.0079528293017745444 0.00015383860999179731 0 -0.007847829593705424 0.00061932524191614087 0 -0.0073310435229556074 0.00022363307205475658 0 -0.0076336645434988866 -8.423828762221492e-05 0 -0.0079528293017745444 0.00015383860999179731 0 -0.0076336645434988866 -8.423828762221492e-05 0 -0.0085125083105975444 -6.0415875492986122e-05 0 -0.0079528293017745444 0.00015383860999179731 0 -0.0085125083105975444 -6.0415875492986122e-05 0 -0.0085535509699115435 0.00032694949441384438 0 -0.0079528293017745444 0.00015383860999179731 0 -0.0085535509699115435 0.00032694949441384438 0 -0.0090322711470629154 -5.1185121753636367e-05 0 -0.0091940541527707788 0.00022936116268083937 0 -0.0085125083105975444 -6.0415875492986122e-05 0 -0.0085535509699115435 0.00032694949441384438 0 -0.0090322711470629154 -5.1185121753636367e-05 0 -0.0086480878514795263 0.00054427522221068615 0 -0.0085701543054829687 0.00060078027648017424 0 -0.0085535509699115435 0.00032694949441384438 0 -0.00880490633410538 0.00049990507034823205 0 -0.0091940541527707788 0.00022936116268083937 0 -0.0085535509699115435 0.00032694949441384438 0 -0.00880490633410538 0.00049990507034823205 0 -0.0083020858963560873 0.00081431914620339605 0 -0.0063248788429220038 0.0002080453224368793 0 -0.0085701543054829687 0.00060078027648017424 0 -0.0073226309091066399 0.0009961664383347352 0 -0.007847829593705424 0.00061932524191614087 0 -0.0083020858963560873 0.00081431914620339605 0 -0.0085535509699115435 0.00032694949441384438 0 -0.0079528293017745444 0.00015383860999179731 0 -0.007847829593705424 0.00061932524191614087 0 -0.0085535509699115435 0.00032694949441384438 0 -0.007847829593705424 0.00061932524191614087 0 -0.0083020858963560873 0.00081431914620339605 0 -0.0084358393885311991 0.00043092652822215415 0 -0.0085745338022764333 0.00061869570592094848 0 -0.0083716990873929815 0.00075366396483749431 0 -0.0081739488973914219 0.00042737531743292458 0 -0.0084358393885311991 0.00043092652822215415 0 -0.0083716990873929815 0.00075366396483749431 0 -0.00880490633410538 0.00049990507034823205 0 -0.0086618029442397208 0.00070264186236584675 0 -0.0090241626318597577 0.00054367823730846424 0 -0.00880490633410538 0.00049990507034823205 0 -0.0084358393885311991 0.00043092652822215415 0 -0.0085745338022764333 0.00061869570592094848 0 -0.00880490633410538 0.00049990507034823205 0 -0.0085745338022764333 0.00061869570592094848 0 -0.0086618029442397208 0.00070264186236584675 0 -0.0085745338022764333 0.00061869570592094848 0 -0.0086618029442397208 0.00070264186236584675 0 -0.0083716990873929815 0.00075366396483749431 0 -0.0086618029442397208 0.00070264186236584675 0 -0.0083716990873929815 0.00075366396483749431 0 -0.008276516793260507 0.0010038906574865603 0 -0.0086618029442397208 0.00070264186236584675 0 -0.008276516793260507 0.0010038906574865603 0 -0.00862349817129952 0.00084832271362558656 0 -0.0064699950932638325 0.00020693303557338472 0 -0.0071514648623972627 0.00076320322967138245 0 -0.0046140700234377384 -0.00038463973543714222 0 -0.0035875002813355798 -6.7487616670975649e-05 0 -0.0045645478384551477 0.00026249093069807236 0 -0.0046140700234377384 -0.00038463973543714222 0 -0.0035875002813355798 -6.7487616670975649e-05 0 -0.0040739389066916801 -0.00029617490029481088 0 -0.0035875002813355798 -6.7487616670975649e-05 0 -0.0040739389066916801 -0.00029617490029481088 0 -0.003920861271378218 -0.00018969725072671777 0 -0.0063248788429220038 0.0002080453224368793 0 -0.0064699950932638325 0.00020693303557338472 0 -0.0038853164535414372 -0.00015161304397976144 0 -0.0046140700234377384 -0.00038463973543714222 0 -0.0040739389066916801 -0.00029617490029481088 0 -0.0040739389066916801 -0.00029617490029481088 0 -0.00411152752920002 -0.00021155959048196467 0 -0.003920861271378218 -0.00018969725072671777 0 -0.0038853164535414372 -0.00015161304397976144 0 -0.0040739389066916801 -0.00029617490029481088 0 -0.00411152752920002 -0.00021155959048196467 0 -0.0048473181048467274 -7.0244414581135127e-08 0 -0.003920861271378218 -0.00018969725072671777 0 -0.003363601665221596 -3.0483641215538457e-07 0 -0.0048473181048467274 -7.0244414581135127e-08 0 -0.00411152752920002 -0.00021155959048196467 0 -0.003920861271378218 -0.00018969725072671777 0 -0.0035875002813355798 -6.7487616670975649e-05 0 -0.003920861271378218 -0.00018969725072671777 0 -0.003363601665221596 -3.0483641215538457e-07 0 -0.0035875002813355798 -6.7487616670975649e-05 0 -0.003363601665221596 -3.0483641215538457e-07 0 -0.0026074320197383418 8.4620610997156372e-06 0 -0.003363601665221596 -3.0483641215538457e-07 0 -0.0026074320197383418 8.4620610997156372e-06 0 -0.001877406895298599 6.7008320196841599e-08 0 -0.0035875002813355798 -6.7487616670975649e-05 0 -0.0026074320197383418 8.4620610997156372e-06 0 -0.0018990020577724308 -1.4456797006775168e-05 0 -0.0034781192215339479 -9.6689323856755197e-05 0 -0.003101948602105665 0.00036716521671767974 0 -0.0035875002813355798 -6.7487616670975649e-05 0 -0.0043731051769618154 0.0010138413167469274 0 -0.0045645478384551477 0.00026249093069807236 0 -0.0026074320197383418 8.4620610997156372e-06 0 -0.0018990020577724308 -1.4456797006775168e-05 0 -0.001877406895298599 6.7008320196841599e-08 0 -0.0018990020577724308 -1.4456797006775168e-05 0 -0.001877406895298599 6.7008320196841599e-08 0 -0.001111047131000714 -0.00011181843929733778 0 -0.001877406895298599 6.7008320196841599e-08 0 -0.001111047131000714 -0.00011181843929733778 0 -0.00039142645077908133 -7.1842278434749075e-07 0 -0.003101948602105665 0.00036716521671767974 0 -0.0033288393805671755 0.0014275770357350156 0 -0.0018990020577724308 -1.4456797006775168e-05 0 -0.001111047131000714 -0.00011181843929733778 0 -0.0010341580217180775 -0.00012163606163257637 0 -0.00078944436084128202 -3.1446949968218246e-06 0 -0.001111047131000714 -0.00011181843929733778 0 -0.0010341580217180775 -0.00012163606163257637 0 -0.00030915086096556296 -2.2820299937515832e-05 0 -0.00078944436084128202 -3.1446949968218246e-06 0 -0.001111047131000714 -0.00011181843929733778 0 -0.00030915086096556296 -2.2820299937515832e-05 0 -0.001111047131000714 -0.00011181843929733778 0 -0.00039142645077908133 -7.1842278434749075e-07 0 -0.0061689414551321905 0.0033029980536789221 0 -0.00635381069282523 0.0023511032756159422 0 -0.0074545340320370671 0.0027983797434538694 0 -0.0070335182939500257 0.0040763934703200236 0 -0.0061689414551321905 0.0033029980536789221 0 -0.0074545340320370671 0.0027983797434538694 0 -0.0061689414551321905 0.0033029980536789221 0 -0.0050001223154868017 0.0026139320581005732 0 -0.00635381069282523 0.0023511032756159422 0 -0.00098953890173674114 0.00018043380180299168 0 -0.00078944436084128202 -3.1446949968218246e-06 0 -0.0010341580217180775 -0.00012163606163257637 0 -0.0055383750496370305 0.004473166255348931 0 -0.0061689414551321905 0.0033029980536789221 0 -0.0050001223154868017 0.0026139320581005732 0 -0.0011930137272048152 0.0016706610426838635 0 -0.0033288393805671755 0.0014275770357350156 0 -0.0050001223154868017 0.0026139320581005732 0 -0.00635381069282523 0.0023511032756159422 0 -0.005634942985306029 0.0013367788489788591 0 -0.0043731051769618154 0.0010138413167469274 0 -0.0050001223154868017 0.0026139320581005732 0 -0.005634942985306029 0.0013367788489788591 0 -0.00635381069282523 0.0023511032756159422 0 -0.0076988262046752331 0.0015219865761598255 0 -0.0074545340320370671 0.0027983797434538694 0 -0.00635381069282523 0.0023511032756159422 0 -0.005634942985306029 0.0013367788489788591 0 -0.0076988262046752331 0.0015219865761598255 0 -0.0071514648623972627 0.00076320322967138245 0 -0.0077018869084004172 0.0015443018895273429 0 -0.005634942985306029 0.0013367788489788591 0 -0.0059587274337936647 0.00034897483478434223 0 -0.0076988262046752331 0.0015219865761598255 0 -0.0043731051769618154 0.0010138413167469274 0 -0.005634942985306029 0.0013367788489788591 0 -0.0045645478384551477 0.00026249093069807236 0 -0.005634942985306029 0.0013367788489788591 0 -0.0045645478384551477 0.00026249093069807236 0 -0.0059587274337936647 0.00034897483478434223 0 -0.0046140700234377384 -0.00038463973543714222 0 -0.0045645478384551477 0.00026249093069807236 0 -0.0059587274337936647 0.00034897483478434223 0 -0.008276516793260507 0.0010038906574865603 0 -0.00862349817129952 0.00084832271362558656 0 -0.0076988262046752331 0.0015219865761598255 0 -0.00862349817129952 0.00084832271362558656 0 -0.0091058069353010408 0.00079046129368117075 0 -0.0087554253580875256 0.0010726094779486338 0 -0.0091058069353010408 0.00079046129368117075 0 -0.0087554253580875256 0.0010726094779486338 0 -0.009152879554049342 0.0010218590602280853 0 -0.0087980129624707117 0.0014307122924585801 0 -0.0089100732530594338 0.0016611985896089357 0 -0.009152879554049342 0.0010218590602280853 0 -0.0087554253580875256 0.0010726094779486338 0 -0.0087980129624707117 0.0014307122924585801 0 -0.009152879554049342 0.0010218590602280853 0 -0.00862349817129952 0.00084832271362558656 0 -0.0087554253580875256 0.0010726094779486338 0 -0.0076988262046752331 0.0015219865761598255 0 -0.0087554253580875256 0.0010726094779486338 0 -0.0087980129624707117 0.0014307122924585801 0 -0.0076988262046752331 0.0015219865761598255 0 -0.0087980129624707117 0.0014307122924585801 0 -0.0076988262046752331 0.0015219865761598255 0 -0.0087748642468360068 0.0019095946455359438 0 -0.0076988262046752331 0.0015219865761598255 0 -0.0087748642468360068 0.0019095946455359438 0 -0.0074545340320370671 0.0027983797434538694 0 -0.0087980129624707117 0.0014307122924585801 0 -0.0089100732530594338 0.0016611985896089357 0 -0.0087748642468360068 0.0019095946455359438 0 -0.0089100732530594338 0.0016611985896089357 0 -0.0087748642468360068 0.0019095946455359438 0 -0.0087976375301605288 0.0016556175017283235 0 -0.0087748642468360068 0.0019095946455359438 0 -0.0087420900904419292 0.0015183197834478912 0 -0.0087976375301605288 0.0016556175017283235 0 -0.0084774834011983793 0.0035910790299764892 0 -0.0087748642468360068 0.0019095946455359438 0 -0.0099416704892063765 0.0031456656734154789 0 -0.0035228716415432819 0.0017979892035160704 0 -0.0056267248746649052 0.0018349696928827458 0 -0.0099030510472652815 0.0024447191287772737 0 -0.0056267248746649052 0.0018349696928827458 0 -0.0084774834011983793 0.0035910790299764892 0 -0.0070335182939500257 0.0040763934703200236 0 -0.0074545340320370671 0.0027983797434538694 0 -0.0084774834011983793 0.0035910790299764892 0 -0.0087748642468360068 0.0019095946455359438 0 -0.0074545340320370671 0.0027983797434538694 0 0.00088365068670559173 -0.00048808195175370776 0 0.00024062765060500936 -0.0005266902426996178 0 0.00030179013801556845 -0.0011525461420066306 0 -0.008497312770344493 0.0011393030672812317 0 -0.008433327306336804 0.0015244817955670923 0 -0.0081346031152888659 0.0015392489210459515 0 0.00035152173931502921 0.00058749266041421291 0 -0.0041863237815682819 -4.4475070765862229e-05 0 0.00024062765060500936 -0.0005266902426996178 0 0.00030179013801556845 -0.0011525461420066306 0 -5.9970511440140147e-05 -0.00093558488696075977 0 -0.008497312770344493 0.0011393030672812317 0 -0.0086406975537718662 0.001346675638514219 0 -0.008577195927054122 0.0014551478048484836 0 -0.008497312770344493 0.0011393030672812317 0 -0.008433327306336804 0.0015244817955670923 0 -0.008577195927054122 0.0014551478048484836 0 -0.0087748642468360068 0.0019095946455359438 0 -0.008752204358963343 0.001351516788397624 0 -0.0087420900904419292 0.0015183197834478912 0 0.00035152173931502921 0.00058749266041421291 0 -0.0056267248746649052 0.0018349696928827458 0 -0.008497312770344493 0.0011393030672812317 0 -0.0086406975537718662 0.001346675638514219 0 -0.0087041513312908735 0.0013289490467102202 0 -0.0063032158435539212 0.0016731220268332728 0 -0.0056267248746649052 0.0018349696928827458 0 -0.0086406975537718662 0.001346675638514219 0 -0.008752204358963343 0.001351516788397624 0 -0.0086766729886271505 0.0014215865418240035 0 -0.008752204358963343 0.001351516788397624 0 -0.0087420900904419292 0.0015183197834478912 0 -0.0086766729886271505 0.0014215865418240035 0 -0.0087420900904419292 0.0015183197834478912 0 -0.0086766729886271505 0.0014215865418240035 0 -0.008577195927054122 0.0014551478048484836 0 -0.0086406975537718662 0.001346675638514219 0 -0.0086766729886271505 0.0014215865418240035 0 -0.008577195927054122 0.0014551478048484836 0 -0.0087420900904419292 0.0015183197834478912 0 -0.008577195927054122 0.0014551478048484836 0 -0.0086522298467815815 0.0016217696600053229 0 -0.008433327306336804 0.0015244817955670923 0 -0.008577195927054122 0.0014551478048484836 0 -0.0086522298467815815 0.0016217696600053229 0 -0.0089100732530594338 0.0016611985896089357 0 -0.0086522298467815815 0.0016217696600053229 0 -0.0083357059317966282 0.0019022293498589106 0 -0.0089100732530594338 0.0016611985896089357 0 -0.0094076157977954177 0.0010762836693965125 0 -0.009152879554049342 0.0010218590602280853 0 -0.008433327306336804 0.0015244817955670923 0 -0.0086522298467815815 0.0016217696600053229 0 -0.0083357059317966282 0.0019022293498589106 0 -0.0087059047906023791 0.0016413166226179538 0 -0.0092507343349188115 0.0014774219460819426 0 -0.0089100732530594338 0.0016611985896089357 0 -0.0086522298467815815 0.0016217696600053229 0 -0.0087976375301605288 0.0016556175017283235 0 -0.0087420900904419292 0.0015183197834478912 0 -0.0086522298467815815 0.0016217696600053229 0 -0.0087976375301605288 0.0016556175017283235 0 -0.0092507343349188115 0.0014774219460819426 0 -0.0063851326190701276 0.00071012713363135247 0 -0.0081346031152888659 0.0015392489210459515 0 -0.0083357059317966282 0.0019022293498589106 0 -0.0077073844447537758 0.0019838474648353425 0 -0.008433327306336804 0.0015244817955670923 0 -0.0081346031152888659 0.0015392489210459515 0 -0.0083357059317966282 0.0019022293498589106 0 -0.0094076157977954177 0.0010762836693965125 0 -0.0093932809158292409 0.00079224242909363071 0 -0.0094367290132968112 0.00065246480476017826 0 -0.0093932809158292409 0.00079224242909363071 0 -0.0094321515575676376 0.00060964966886882196 0 -0.0094367290132968112 0.00065246480476017826 0 -0.0094076157977954177 0.0010762836693965125 0 -0.0093932809158292409 0.00079224242909363071 0 -0.009152879554049342 0.0010218590602280853 0 -0.0093932809158292409 0.00079224242909363071 0 -0.009152879554049342 0.0010218590602280853 0 -0.0094279931855867968 0.00071249336789151079 0 -0.0091058069353010408 0.00079046129368117075 0 -0.009152879554049342 0.0010218590602280853 0 -0.0094279931855867968 0.00071249336789151079 0 -0.0093932809158292409 0.00079224242909363071 0 -0.0094279931855867968 0.00071249336789151079 0 -0.0094321515575676376 0.00060964966886882196 0 -0.0094279931855867968 0.00071249336789151079 0 -0.0094321515575676376 0.00060964966886882196 0 -0.0094318313347545209 0.00055704047694730822 0 -0.0094279931855867968 0.00071249336789151079 0 -0.0099226068796092887 0.00053235809042588263 0 -0.0095121820485659491 0.00057589392458455969 0 -0.0094279931855867968 0.00071249336789151079 0 -0.0094381147375002909 0.00051843758269145678 0 -0.0094318313347545209 0.00055704047694730822 0 -0.0094679891842736862 0.00068920330059002249 0 -0.0096776153338139336 0.0005193483002015716 0 -0.0095121820485659491 0.00057589392458455969 0 -0.009458669524382575 0.00040076635808614005 0 -0.0099728337982772242 0.00032607251400016616 0 -0.0099226068796092887 0.00053235809042588263 0 -0.0095121820485659491 0.00057589392458455969 0 -0.0099728337982772242 0.00032607251400016616 0 -0.0091058069353010408 0.00079046129368117075 0 -0.0094279931855867968 0.00071249336789151079 0 -0.0095121820485659491 0.00057589392458455969 0 -0.00862349817129952 0.00084832271362558656 0 -0.0091058069353010408 0.00079046129368117075 0 -0.0090787978835518701 0.00065004228085493282 0 -0.0091058069353010408 0.00079046129368117075 0 -0.0095121820485659491 0.00057589392458455969 0 -0.0090787978835518701 0.00065004228085493282 0 -0.0086618029442397208 0.00070264186236584675 0 -0.00862349817129952 0.00084832271362558656 0 -0.0090787978835518701 0.00065004228085493282 0 -0.0086618029442397208 0.00070264186236584675 0 -0.0090787978835518701 0.00065004228085493282 0 -0.0090241626318597577 0.00054367823730846424 0 -0.0090787978835518701 0.00065004228085493282 0 -0.0090241626318597577 0.00054367823730846424 0 -0.009458669524382575 0.00040076635808614005 0 -0.0095121820485659491 0.00057589392458455969 0 -0.0090787978835518701 0.00065004228085493282 0 -0.009458669524382575 0.00040076635808614005 0 -0.009458669524382575 0.00040076635808614005 0 -0.0091940541527707788 0.00022936116268083937 0 -0.0097949520572165865 -1.4949306261871744e-05 0 -0.009458669524382575 0.00040076635808614005 0 -0.0097949520572165865 -1.4949306261871744e-05 0 -0.0099728337982772242 0.00032607251400016616 0 -0.0090241626318597577 0.00054367823730846424 0 -0.009458669524382575 0.00040076635808614005 0 -0.0091940541527707788 0.00022936116268083937 0 -0.00880490633410538 0.00049990507034823205 0 -0.0090241626318597577 0.00054367823730846424 0 -0.0091940541527707788 0.00022936116268083937 0 -0.0091940541527707788 0.00022936116268083937 0 -0.0097949520572165865 -1.4949306261871744e-05 0 -0.0095875271691642228 -0.00028562382441448333 0 -0.0090322711470629154 -5.1185121753636367e-05 0 -0.0091940541527707788 0.00022936116268083937 0 -0.0095875271691642228 -0.00028562382441448333 0 -0.010035889917505099 0.00031648466958395221 0 -0.010303629700952334 7.8115724329901769e-05 0 -0.0097949520572165865 -1.4949306261871744e-05 0 -0.0099728337982772242 0.00032607251400016616 0 -0.010439779622578827 -0.00030223252026562105 0 -0.0099728337982772242 0.00032607251400016616 0 -0.010170973071706772 0.00048766824564097302 0 -0.010204129779699665 0.00047860681840448797 0 -0.0099226068796092887 0.00053235809042588263 0 -0.0099728337982772242 0.00032607251400016616 0 -0.01012185436894918 0.00037184437827261665 0 -0.0099728337982772242 0.00032607251400016616 0 -0.01012185436894918 0.00037184437827261665 0 -0.010170973071706772 0.00048766824564097302 0 -0.0094457146237646797 0.00061880020992968862 0 -0.0094982210331359153 0.00066382292341238974 0 -0.0093259775738658759 0.00063656006384634227 0 -0.0094457146237646797 0.00061880020992968862 0 -0.0093259775738658759 0.00063656006384634227 0 -0.0093013881816472431 0.00057020787183021879 0 -0.010170973071706772 0.00048766824564097302 0 -0.010097138220059915 0.00055734068374095657 0 -0.010214508648630426 0.00060101925640932688 0 -0.01012185436894918 0.00037184437827261665 0 -0.010170973071706772 0.00048766824564097302 0 -0.010097138220059915 0.00055734068374095657 0 -0.0097775738815708401 0.00051251441440083249 0 -0.0097556131208568694 0.00066364658219621511 0 -0.0094457146237646797 0.00061880020992968862 0 -0.0094982210331359153 0.00066382292341238974 0 -0.0097776969404898689 0.00066264168277989052 0 -0.010097138220059915 0.00055734068374095657 0 -0.0097776969404898689 0.00066264168277989052 0 -0.010214508648630426 0.00060101925640932688 0 -0.01012185436894918 0.00037184437827261665 0 -0.010097138220059915 0.00055734068374095657 0 -0.0097776969404898689 0.00066264168277989052 0 -0.0094982210331359153 0.00066382292341238974 0 -0.0097776969404898689 0.00066264168277989052 0 -0.009485174449419256 0.00073578965013868566 0 -0.0093723987576166661 0.00091630540745298874 0 -0.0090910263931914068 0.00084116578266053008 0 -0.0089073121026339887 0.00099541391377121961 0 -0.0099907447762231563 0.00065023582633994936 0 -0.0092647831876025884 0.00078326679530225994 0 -0.0097776969404898689 0.00066264168277989052 0 -0.009485174449419256 0.00073578965013868566 0 -0.0093723987576166661 0.00091630540745298874 0 -0.009485174449419256 0.00073578965013868566 0 -0.0093723987576166661 0.00091630540745298874 0 -0.0092792741085567891 0.0007561708465948975 0 -0.0093723987576166661 0.00091630540745298874 0 -0.0092792741085567891 0.0007561708465948975 0 -0.0090910263931914068 0.00084116578266053008 0 -0.0092792741085567891 0.0007561708465948975 0 -0.0090910263931914068 0.00084116578266053008 0 -0.0091535352195907839 0.00072109134196000067 0 -0.0094982210331359153 0.00066382292341238974 0 -0.009485174449419256 0.00073578965013868566 0 -0.0092792741085567891 0.0007561708465948975 0 -0.0093723987576166661 0.00091630540745298874 0 -0.0088772468328853042 0.0010341899412432435 0 -0.0089073121026339887 0.00099541391377121961 0 -0.0092647831876025884 0.00078326679530225994 0 -0.0092193989104495996 0.00082874244773038102 0 -0.0090910263931914068 0.00084116578266053008 0 -0.0089073121026339887 0.00099541391377121961 0 -0.0088627708934576402 0.00086237419723939317 0 -0.008864089257834263 0.0010542888268117662 0 -0.0088627708934576402 0.00086237419723939317 0 -0.0085761133081247425 0.00079682206929766839 0 -0.008864089257834263 0.0010542888268117662 0 -0.0089073121026339887 0.00099541391377121961 0 -0.0088627708934576402 0.00086237419723939317 0 -0.0088627708934576402 0.00086237419723939317 0 -0.0087733855124345669 0.00075116187149326869 0 -0.0085761133081247425 0.00079682206929766839 0 -0.0090910263931914068 0.00084116578266053008 0 -0.0089469430343920853 0.00074154596102716283 0 -0.0091535352195907839 0.00072109134196000067 0 -0.0090910263931914068 0.00084116578266053008 0 -0.0088627708934576402 0.00086237419723939317 0 -0.0089469430343920853 0.00074154596102716283 0 -0.0088627708934576402 0.00086237419723939317 0 -0.0087733855124345669 0.00075116187149326869 0 -0.0089469430343920853 0.00074154596102716283 0 -0.0089469430343920853 0.00074154596102716283 0 -0.0091535352195907839 0.00072109134196000067 0 -0.0090862884015919573 0.0006439157007847294 0 -0.0089469430343920853 0.00074154596102716283 0 -0.0087700648628503478 0.00060342616699492755 0 -0.0090862884015919573 0.0006439157007847294 0 -0.0087700648628503478 0.00060342616699492755 0 -0.0090862884015919573 0.0006439157007847294 0 -0.009072240805734693 0.00053788325157851438 0 -0.0087733855124345669 0.00075116187149326869 0 -0.0087700648628503478 0.00060342616699492755 0 -0.0085761133081247425 0.00079682206929766839 0 -0.0087733855124345669 0.00075116187149326869 0 -0.0089469430343920853 0.00074154596102716283 0 -0.0087700648628503478 0.00060342616699492755 0 -0.0094982210331359153 0.00066382292341238974 0 -0.0092792741085567891 0.0007561708465948975 0 -0.0093259775738658759 0.00063656006384634227 0 -0.0093259775738658759 0.00063656006384634227 0 -0.0091535352195907839 0.00072109134196000067 0 -0.0090862884015919573 0.0006439157007847294 0 -0.0092792741085567891 0.0007561708465948975 0 -0.0093259775738658759 0.00063656006384634227 0 -0.0091535352195907839 0.00072109134196000067 0 -0.0093259775738658759 0.00063656006384634227 0 -0.0090862884015919573 0.0006439157007847294 0 -0.009072240805734693 0.00053788325157851438 0 -0.0093259775738658759 0.00063656006384634227 0 -0.0093013881816472431 0.00057020787183021879 0 -0.009072240805734693 0.00053788325157851438 0 -0.0093013881816472431 0.00057020787183021879 0 -0.009072240805734693 0.00053788325157851438 0 -0.0091535083138945695 0.00048050365689242708 0 -0.0093013881816472431 0.00057020787183021879 0 -0.0091535083138945695 0.00048050365689242708 0 -0.0093155280426577853 0.00051003240295989017 0 -0.009072240805734693 0.00053788325157851438 0 -0.0090122742548209567 0.00038558373231663658 0 -0.0091535083138945695 0.00048050365689242708 0 -0.0090122742548209567 0.00038558373231663658 0 -0.0091535083138945695 0.00048050365689242708 0 -0.0091794109003704907 0.00041653619485201968 0 -0.0091535083138945695 0.00048050365689242708 0 -0.0091794109003704907 0.00041653619485201968 0 -0.0093155280426577853 0.00051003240295989017 0 -0.0087700648628503478 0.00060342616699492755 0 -0.0086392323908806821 0.00047324080522919717 0 -0.008826278360071018 0.00044087188678211759 0 -0.0087700648628503478 0.00060342616699492755 0 -0.009072240805734693 0.00053788325157851438 0 -0.008826278360071018 0.00044087188678211759 0 -0.009072240805734693 0.00053788325157851438 0 -0.0090122742548209567 0.00038558373231663658 0 -0.008826278360071018 0.00044087188678211759 0 -0.0090122742548209567 0.00038558373231663658 0 -0.008826278360071018 0.00044087188678211759 0 -0.0088160883426320214 0.00031895386146690846 0 -0.0086392323908806821 0.00047324080522919717 0 -0.008826278360071018 0.00044087188678211759 0 -0.0085426816721459482 0.00034477907661084318 0 -0.008826278360071018 0.00044087188678211759 0 -0.0088160883426320214 0.00031895386146690846 0 -0.0085426816721459482 0.00034477907661084318 0 -0.0085696533759985396 0.00017782539765247803 0 -0.0088160883426320214 0.00031895386146690846 0 -0.0085426816721459482 0.00034477907661084318 0 -0.0085696533759985396 0.00017782539765247803 0 -0.0088160883426320214 0.00031895386146690846 0 -0.0088072584920804269 0.00018671398129096813 0 -0.0088160883426320214 0.00031895386146690846 0 -0.0088072584920804269 0.00018671398129096813 0 -0.0089506543061767772 0.00030464811226820295 0 -0.0090122742548209567 0.00038558373231663658 0 -0.0088160883426320214 0.00031895386146690846 0 -0.0089506543061767772 0.00030464811226820295 0 -0.0088072584920804269 0.00018671398129096813 0 -0.0089506543061767772 0.00030464811226820295 0 -0.0089914156383487688 0.0002553921759634695 0 -0.0089032297640840828 0.00016640298833658668 0 -0.0088072584920804269 0.00018671398129096813 0 -0.0089914156383487688 0.0002553921759634695 0 -0.0089032297640840828 0.00016640298833658668 0 -0.0088072584920804269 0.00018671398129096813 0 -0.0087936600943698054 7.172580475084777e-05 0 -0.0085696533759985396 0.00017782539765247803 0 -0.0088072584920804269 0.00018671398129096813 0 -0.0086186546315069959 2.1256800081900377e-05 0 -0.0085696533759985396 0.00017782539765247803 0 -0.0086186546315069959 2.1256800081900377e-05 0 -0.0084215066081839499 -5.5503460630258514e-06 0 -0.0091794109003704907 0.00041653619485201968 0 -0.0090723108271578683 0.00034437049930277874 0 -0.0091527703260042281 0.00033081479255325032 0 -0.0091794109003704907 0.00041653619485201968 0 -0.0091527703260042281 0.00033081479255325032 0 -0.0092849326836093246 0.00041087806312224218 0 -0.0090122742548209567 0.00038558373231663658 0 -0.0091794109003704907 0.00041653619485201968 0 -0.0090723108271578683 0.00034437049930277874 0 -0.0090122742548209567 0.00038558373231663658 0 -0.0089506543061767772 0.00030464811226820295 0 -0.0090723108271578683 0.00034437049930277874 0 -0.0089506543061767772 0.00030464811226820295 0 -0.0090723108271578683 0.00034437049930277874 0 -0.0089914156383487688 0.0002553921759634695 0 -0.0090723108271578683 0.00034437049930277874 0 -0.0089914156383487688 0.0002553921759634695 0 -0.0091527703260042281 0.00033081479255325032 0 -0.0089914156383487688 0.0002553921759634695 0 -0.0090391089934336744 0.00022585014043170924 0 -0.0091527703260042281 0.00033081479255325032 0 -0.0089032297640840828 0.00016640298833658668 0 -0.0089914156383487688 0.0002553921759634695 0 -0.0090391089934336744 0.00022585014043170924 0 -0.0090391089934336744 0.00022585014043170924 0 -0.0091527703260042281 0.00033081479255325032 0 -0.0091472174575416374 0.00024254876802369503 0 -0.0091527703260042281 0.00033081479255325032 0 -0.0092236761296958739 0.0003398717095486477 0 -0.0091472174575416374 0.00024254876802369503 0 -0.0092236761296958739 0.0003398717095486477 0 -0.0092849326836093246 0.00041087806312224218 0 -0.0092974467850394146 0.00036750469955412833 0 -0.0091527703260042281 0.00033081479255325032 0 -0.0092236761296958739 0.0003398717095486477 0 -0.0092849326836093246 0.00041087806312224218 0 -0.0092849326836093246 0.00041087806312224218 0 -0.009392549806163485 0.00048526909605313011 0 -0.0092974467850394146 0.00036750469955412833 0 -0.009392549806163485 0.00048526909605313011 0 -0.0093975730325411358 0.00047425987294612114 0 -0.0092974467850394146 0.00036750469955412833 0 -0.0092849326836093246 0.00041087806312224218 0 -0.0093155280426577853 0.00051003240295989017 0 -0.009392549806163485 0.00048526909605313011 0 -0.0091794109003704907 0.00041653619485201968 0 -0.0092849326836093246 0.00041087806312224218 0 -0.0093155280426577853 0.00051003240295989017 0 -0.0094457146237646797 0.00061880020992968862 0 -0.0093013881816472431 0.00057020787183021879 0 -0.0093155280426577853 0.00051003240295989017 0 -0.0094457146237646797 0.00061880020992968862 0 -0.0093155280426577853 0.00051003240295989017 0 -0.009392549806163485 0.00048526909605313011 0 -0.0094381147375002909 0.00051843758269145678 0 -0.0094457146237646797 0.00061880020992968862 0 -0.009392549806163485 0.00048526909605313011 0 -0.0096776153338139336 0.0005193483002015716 0 -0.0097775738815708401 0.00051251441440083249 0 -0.0094381147375002909 0.00051843758269145678 0 -0.009392549806163485 0.00048526909605313011 0 -0.0094318313347545209 0.00055704047694730822 0 -0.009392549806163485 0.00048526909605313011 0 -0.0094318313347545209 0.00055704047694730822 0 -0.0093975730325411358 0.00047425987294612114 0 -0.0094321515575676376 0.00060964966886882196 0 -0.0094318313347545209 0.00055704047694730822 0 -0.0093975730325411358 0.00047425987294612114 0 -0.0093975730325411358 0.00047425987294612114 0 -0.0093444251692993124 0.00038982766900102757 0 -0.0094114330151111383 0.00048812423998378663 0 -0.0094321515575676376 0.00060964966886882196 0 -0.0093975730325411358 0.00047425987294612114 0 -0.0094114330151111383 0.00048812423998378663 0 -0.0092236761296958739 0.0003398717095486477 0 -0.0092974467850394146 0.00036750469955412833 0 -0.0091472174575416374 0.00024254876802369503 0 -0.0092974467850394146 0.00036750469955412833 0 -0.0092590919189922891 0.00028948475090454764 0 -0.0091472174575416374 0.00024254876802369503 0 -0.0093975730325411358 0.00047425987294612114 0 -0.0092974467850394146 0.00036750469955412833 0 -0.0093444251692993124 0.00038982766900102757 0 -0.0092974467850394146 0.00036750469955412833 0 -0.0093444251692993124 0.00038982766900102757 0 -0.0092590919189922891 0.00028948475090454764 0 -0.0093444251692993124 0.00038982766900102757 0 -0.0093274107065475943 0.00034387995693176869 0 -0.0094114330151111383 0.00048812423998378663 0 -0.0093444251692993124 0.00038982766900102757 0 -0.0092590919189922891 0.00028948475090454764 0 -0.0093274107065475943 0.00034387995693176869 0 -0.0092590919189922891 0.00028948475090454764 0 -0.0091494928547559851 0.00017542257256075724 0 -0.0091472174575416374 0.00024254876802369503 0 -0.0092590919189922891 0.00028948475090454764 0 -0.0092158509550776709 0.00019688971176176482 0 -0.0093274107065475943 0.00034387995693176869 0 -0.0092590919189922891 0.00028948475090454764 0 -0.0092158509550776709 0.00019688971176176482 0 -0.0091494928547559851 0.00017542257256075724 0 -0.0092948147562135104 0.00027741824193093761 0 -0.0091751384790480766 7.1599564745262291e-05 0 -0.0094050941214453981 0.00041681513876059634 0 -0.0048235113378784084 -0.0010362901557224441 0 -0.0063851326190701276 0.00071012713363135247 0 -0.0091751384790480766 7.1599564745262291e-05 0 -0.0094050941214453981 0.00041681513876059634 0 -0.0094505807355996629 0.00042049047522136186 0 -0.0092158509550776709 0.00019688971176176482 0 -0.0092948147562135104 0.00027741824193093761 0 -0.0091751384790480766 7.1599564745262291e-05 0 -0.0092948147562135104 0.00027741824193093761 0 -0.0093700909045657758 0.00039218731213521275 0 -0.0094050941214453981 0.00041681513876059634 0 -0.0092158509550776709 0.00019688971176176482 0 -0.0092948147562135104 0.00027741824193093761 0 -0.0093274107065475943 0.00034387995693176869 0 -0.0092948147562135104 0.00027741824193093761 0 -0.0093274107065475943 0.00034387995693176869 0 -0.0093700909045657758 0.00039218731213521275 0 -0.0094076157977954177 0.0010762836693965125 0 -0.0094367290132968112 0.00065246480476017826 0 -0.0094292890056587031 0.00057125333071527881 0 -0.0094321515575676376 0.00060964966886882196 0 -0.0094114330151111383 0.00048812423998378663 0 -0.0094367290132968112 0.00065246480476017826 0 -0.0093274107065475943 0.00034387995693176869 0 -0.0093700909045657758 0.00039218731213521275 0 -0.0094114330151111383 0.00048812423998378663 0 -0.0094114330151111383 0.00048812423998378663 0 -0.0094050941214453981 0.00041681513876059634 0 -0.0094367290132968112 0.00065246480476017826 0 -0.0093700909045657758 0.00039218731213521275 0 -0.0094114330151111383 0.00048812423998378663 0 -0.0094050941214453981 0.00041681513876059634 0 -0.0094050941214453981 0.00041681513876059634 0 -0.0094367290132968112 0.00065246480476017826 0 -0.0094292890056587031 0.00057125333071527881 0 -0.0078798431474931541 -8.5565810773602171e-05 0 -0.0063851326190701276 0.00071012713363135247 0 0.00030179013801556845 -0.0011525461420066306 0 -0.00042427589908215524 -0.001650167198303669 0 -0.00029300777837997893 -0.0018553501573247695 0 0.00030179013801556845 -0.0011525461420066306 0 -0.00042427589908215524 -0.001650167198303669 0 -5.9970511440140147e-05 -0.00093558488696075977 0 -0.0041863237815682819 -4.4475070765862229e-05 0 -0.0063851326190701276 0.00071012713363135247 0 -0.00042427589908215524 -0.001650167198303669 0 -0.00029300777837997893 -0.0018553501573247695 0 -0.00096772160736531717 -0.0016149398596516935 0 -0.00096772160736531717 -0.0016149398596516935 0 -0.00094829149179767884 -0.00074420088009053602 0 -0.0018735448934993975 -0.0011239492716683104 0 -0.00096772160736531717 -0.0016149398596516935 0 -0.00067080666062102558 -0.0010396574836605548 0 -0.00094829149179767884 -0.00074420088009053602 0 -0.0013383265873755735 -0.0020708892307049406 0 -0.00029300777837997893 -0.0018553501573247695 0 -0.00096772160736531717 -0.0016149398596516935 0 -0.00042427589908215524 -0.001650167198303669 0 -0.00096772160736531717 -0.0016149398596516935 0 -0.00067080666062102558 -0.0010396574836605548 0 -0.00035823310488326956 -0.00016470917712476903 0 -0.00067080666062102558 -0.0010396574836605548 0 -0.00094829149179767884 -0.00074420088009053602 0 -0.00071613138903959454 -0.00023173265713729272 0 -0.0012529900472316455 -3.5698137203835569e-05 0 -0.00094829149179767884 -0.00074420088009053602 0 -0.00035823310488326956 -0.00016470917712476903 0 -0.00071613138903959454 -0.00023173265713729272 0 -0.00094829149179767884 -0.00074420088009053602 0 -0.00064906627278100667 -0.00035160808159555838 0 -0.00033497319507212514 -0.0015678732613888119 0 -0.00035823310488326956 -0.00016470917712476903 0 -0.00042427589908215524 -0.001650167198303669 0 -0.00067080666062102558 -0.0010396574836605548 0 -0.00036425311821417243 -0.00042059094399136396 0 -0.00042427589908215524 -0.001650167198303669 0 -5.9970511440140147e-05 -0.00093558488696075977 0 -0.00036425311821417243 -0.00042059094399136396 0 0.00024062765060500936 -0.0005266902426996178 0 -5.9970511440140147e-05 -0.00093558488696075977 0 -0.0073527806317506229 -5.4165797511830088e-05 0 -0.0067895985174079255 0.0002808442786642562 0 -0.007077624362875702 -0.00030534851226655203 0 -0.0073527806317506229 -5.4165797511830088e-05 0 -0.0072137559726641659 0.00033012704087333688 0 -0.0067895985174079255 0.0002808442786642562 0 -0.0062887471451758799 0.00053610684159019896 0 -0.0067895985174079255 0.0002808442786642562 0 -0.0066713818823113938 -0.00010856504636418947 0 -0.0012529900472316455 -3.5698137203835569e-05 0 -0.00094829149179767884 -0.00074420088009053602 0 -0.0018735448934993975 -0.0011239492716683104 0 -0.0067895985174079255 0.0002808442786642562 0 -0.0066713818823113938 -0.00010856504636418947 0 -0.007077624362875702 -0.00030534851226655203 0 -0.0020521111081835131 0.00037588835925775658 0 -0.0042938956671491335 -0.00068949271371467058 0 -0.0042938956671491335 -0.00068949271371467058 0 -0.0064633087544004129 -0.0011959558426710411 0 -0.0013383265873755735 -0.0020708892307049406 0 -0.0018735448934993975 -0.0011239492716683104 0 -0.0024947838793390664 -0.0022471975058490617 0 -0.0013383265873755735 -0.0020708892307049406 0 -0.00096772160736531717 -0.0016149398596516935 0 -0.0018735448934993975 -0.0011239492716683104 0 -0.0066713818823113938 -0.00010856504636418947 0 -0.007077624362875702 -0.00030534851226655203 0 -0.0070516360834528089 -0.00069819520086108198 0 -0.0073527806317506229 -5.4165797511830088e-05 0 -0.007077624362875702 -0.00030534851226655203 0 -0.0075011424245042179 -0.00038298301673670598 0 -0.007077624362875702 -0.00030534851226655203 0 -0.0070516360834528089 -0.00069819520086108198 0 -0.0075011424245042179 -0.00038298301673670598 0 -0.0064633087544004129 -0.0011959558426710411 0 -0.0067423407024693651 -0.0011472311961832806 0 -0.0088367246563367738 -0.00038835456221798526 0 -0.0087888613544845774 -0.00029859224156629998 0 -0.0084930784727366756 -0.00031138693545253214 0 -0.0088226854885458499 -0.0002834121011075553 0 -0.0087888613544845774 -0.00029859224156629998 0 -0.0088661128806637908 -0.00015972881389473791 0 -0.0088661128806637908 -0.00015972881389473791 0 -0.0087573625589320182 -0.0001488233674653522 0 -0.0089049250868347089 -4.2557885218534948e-05 0 -0.0087888613544845774 -0.00029859224156629998 0 -0.0088661128806637908 -0.00015972881389473791 0 -0.0087573625589320182 -0.0001488233674653522 0 -0.0087888613544845774 -0.00029859224156629998 0 -0.0087573625589320182 -0.0001488233674653522 0 -0.0086627154228973487 -0.00023589550164705665 0 -0.0087573625589320182 -0.0001488233674653522 0 -0.0086627154228973487 -0.00023589550164705665 0 -0.0086088472175206762 -0.00019325310246550264 0 -0.0087888613544845774 -0.00029859224156629998 0 -0.0086627154228973487 -0.00023589550164705665 0 -0.0084930784727366756 -0.00031138693545253214 0 -0.0086627154228973487 -0.00023589550164705665 0 -0.0084930784727366756 -0.00031138693545253214 0 -0.0086088472175206762 -0.00019325310246550264 0 -0.0091751384790480766 7.1599564745262291e-05 0 -0.0088226854885458499 -0.0002834121011075553 0 -0.0090449332606559549 -8.5543266329657578e-07 0 -0.0048235113378784084 -0.0010362901557224441 0 -0.0064633087544004129 -0.0011959558426710411 0 -0.0088226854885458499 -0.0002834121011075553 0 -0.0088661128806637908 -0.00015972881389473791 0 -0.0090449332606559549 -8.5543266329657578e-07 0 -0.0088661128806637908 -0.00015972881389473791 0 -0.0090449332606559549 -8.5543266329657578e-07 0 -0.0089049250868347089 -4.2557885218534948e-05 0 -0.0092158509550776709 0.00019688971176176482 0 -0.0091751384790480766 7.1599564745262291e-05 0 -0.0090449332606559549 -8.5543266329657578e-07 0 -0.0092158509550776709 0.00019688971176176482 0 -0.0090449332606559549 -8.5543266329657578e-07 0 -0.0091494928547559851 0.00017542257256075724 0 -0.0091494928547559851 0.00017542257256075724 0 -0.0090300414422635495 9.6467113428261693e-05 0 -0.0091472174575416374 0.00024254876802369503 0 -0.0090449332606559549 -8.5543266329657578e-07 0 -0.0091494928547559851 0.00017542257256075724 0 -0.0090300414422635495 9.6467113428261693e-05 0 -0.0090300414422635495 9.6467113428261693e-05 0 -0.0089049250868347089 -4.2557885218534948e-05 0 -0.0088488396257170449 1.4533754366923489e-05 0 -0.0090449332606559549 -8.5543266329657578e-07 0 -0.0090300414422635495 9.6467113428261693e-05 0 -0.0089049250868347089 -4.2557885218534948e-05 0 -0.0090300414422635495 9.6467113428261693e-05 0 -0.0089622218998690311 0.00013224608427330164 0 -0.0088488396257170449 1.4533754366923489e-05 0 -0.0090391089934336744 0.00022585014043170924 0 -0.0089622218998690311 0.00013224608427330164 0 -0.0091472174575416374 0.00024254876802369503 0 -0.0090300414422635495 9.6467113428261693e-05 0 -0.0089622218998690311 0.00013224608427330164 0 -0.0091472174575416374 0.00024254876802369503 0 -0.0089032297640840828 0.00016640298833658668 0 -0.0090391089934336744 0.00022585014043170924 0 -0.0089622218998690311 0.00013224608427330164 0 -0.0086679704745258098 -8.5548241368499543e-05 0 -0.0084894113764334093 -0.00016531071504153288 0 -0.0086186546315069959 2.1256800081900377e-05 0 -0.0084930784727366756 -0.00031138693545253214 0 -0.0084894113764334093 -0.00016531071504153288 0 -0.0086088472175206762 -0.00019325310246550264 0 -0.0086679704745258098 -8.5548241368499543e-05 0 -0.0084894113764334093 -0.00016531071504153288 0 -0.0086088472175206762 -0.00019325310246550264 0 -0.0087573625589320182 -0.0001488233674653522 0 -0.0086679704745258098 -8.5548241368499543e-05 0 -0.0086088472175206762 -0.00019325310246550264 0 -0.0087573625589320182 -0.0001488233674653522 0 -0.0089049250868347089 -4.2557885218534948e-05 0 -0.0088488396257170449 1.4533754366923489e-05 0 -0.0087573625589320182 -0.0001488233674653522 0 -0.0086679704745258098 -8.5548241368499543e-05 0 -0.0088488396257170449 1.4533754366923489e-05 0 -0.0086679704745258098 -8.5548241368499543e-05 0 -0.0088488396257170449 1.4533754366923489e-05 0 -0.0087936600943698054 7.172580475084777e-05 0 -0.0089622218998690311 0.00013224608427330164 0 -0.0088488396257170449 1.4533754366923489e-05 0 -0.0087936600943698054 7.172580475084777e-05 0 -0.0089032297640840828 0.00016640298833658668 0 -0.0089622218998690311 0.00013224608427330164 0 -0.0087936600943698054 7.172580475084777e-05 0 -0.0088072584920804269 0.00018671398129096813 0 -0.0087936600943698054 7.172580475084777e-05 0 -0.0086186546315069959 2.1256800081900377e-05 0 -0.0084894113764334093 -0.00016531071504153288 0 -0.0086186546315069959 2.1256800081900377e-05 0 -0.0084215066081839499 -5.5503460630258514e-06 0 -0.0086679704745258098 -8.5548241368499543e-05 0 -0.0087936600943698054 7.172580475084777e-05 0 -0.0086186546315069959 2.1256800081900377e-05 0 -0.0084894113764334093 -0.00016531071504153288 0 -0.0084215066081839499 -5.5503460630258514e-06 0 -0.0082387477879070602 -0.00026666163189543508 0 -0.0081537690850833795 -0.00013648954229327997 0 -0.0078481565762542893 -0.00034304787353253984 0 -0.0080978238099115585 7.8903611346326603e-05 0 -0.0084215066081839499 -5.5503460630258514e-06 0 -0.0081537690850833795 -0.00013648954229327997 0 -0.0082387477879070602 -0.00026666163189543508 0 -0.0081537690850833795 -0.00013648954229327997 0 -0.0082387477879070602 -0.00026666163189543508 0 -0.0078481565762542893 -0.00034304787353253984 0 -0.0082387477879070602 -0.00026666163189543508 0 -0.0078481565762542893 -0.00034304787353253984 0 -0.0078983285475261351 -0.0005954431352012202 0 -0.0084930784727366756 -0.00031138693545253214 0 -0.0084894113764334093 -0.00016531071504153288 0 -0.0082387477879070602 -0.00026666163189543508 0 -0.0078481565762542893 -0.00034304787353253984 0 -0.0078667244354987623 -0.00063294223273193035 0 -0.0072797068091642056 -0.00036485497326163959 0 -0.0078481565762542893 -0.00034304787353253984 0 -0.0072797068091642056 -0.00036485497326163959 0 -0.0080978238099115585 7.8903611346326603e-05 0 -0.0074070203608418775 -0.00066564460774642053 0 -0.0073059410558824027 -0.00037978056166292626 0 -0.0078481565762542893 -0.00034304787353253984 0 -0.0078667244354987623 -0.00063294223273193035 0 -0.0078983285475261351 -0.0005954431352012202 0 -0.0078667244354987623 -0.00063294223273193035 0 -0.0078983285475261351 -0.0005954431352012202 0 -0.0077471139058902542 -0.00048309441539455626 0 -0.0064633087544004129 -0.0011959558426710411 0 -0.0084780668836958815 -0.00045160097685523876 0 -0.0084930784727366756 -0.00031138693545253214 0 -0.0082387477879070602 -0.00026666163189543508 0 -0.0078983285475261351 -0.0005954431352012202 0 -0.0070516360834528089 -0.00069819520086108198 0 -0.0078983285475261351 -0.0005954431352012202 0 -0.0075011424245042179 -0.00038298301673670598 0 -0.0088367246563367738 -0.00038835456221798526 0 -0.0084930784727366756 -0.00031138693545253214 0 -0.0078983285475261351 -0.0005954431352012202 0 -0.0078983285475261351 -0.0005954431352012202 0 -0.0075011424245042179 -0.00038298301673670598 0 -0.0077471139058902542 -0.00048309441539455626 0 -0.0073527806317506229 -5.4165797511830088e-05 0 -0.0075011424245042179 -0.00038298301673670598 0 -0.00770494637541642 7.0957936528456042e-05 0 -0.0075011424245042179 -0.00038298301673670598 0 -0.0077471139058902542 -0.00048309441539455626 0 -0.00770494637541642 7.0957936528456042e-05 0 -0.0071472310515752714 -0.00086985051389708247 0 -0.0070090770083033448 -0.0010396797056265786 0 -0.0070572380422390044 -0.0010962197318888313 0 -0.0071472310515752714 -0.00086985051389708247 0 -0.0070090770083033448 -0.0010396797056265786 0 -0.0069927194841835853 -0.00094258840055806421 0 -0.0078667244354987623 -0.00063294223273193035 0 -0.0077471139058902542 -0.00048309441539455626 0 -0.00770494637541642 7.0957936528456042e-05 0 -0.0074070203608418775 -0.00066564460774642053 0 -0.0078287053162750479 -0.00061750775646400851 0 -0.0069672279829412547 -0.0011599446219098355 0 -0.0070090770083033448 -0.0010396797056265786 0 -0.0070572380422390044 -0.0010962197318888313 0 -0.0069672279829412547 -0.0011599446219098355 0 -0.0070090770083033448 -0.0010396797056265786 0 -0.0069107400368822857 -0.0011196284211416072 0 -0.0073527806317506229 -5.4165797511830088e-05 0 -0.0072137559726641659 0.00033012704087333688 0 -0.00770494637541642 7.0957936528456042e-05 0 -0.0066949930719230732 -0.0011927664957584096 0 -0.0065222943352498215 -0.0010059866069626049 0 -0.0067863166624879418 -0.0011317733333304433 0 -0.0068408543250932288 -0.0011802119499531656 0 -0.0067863166624879418 -0.0011317733333304433 0 -0.0069107400368822857 -0.0011196284211416072 0 -0.0070090770083033448 -0.0010396797056265786 0 -0.0069107400368822857 -0.0011196284211416072 0 -0.0068856381970694783 -0.0010197871543066262 0 -0.0067863166624879418 -0.0011317733333304433 0 -0.0069107400368822857 -0.0011196284211416072 0 -0.0068856381970694783 -0.0010197871543066262 0 -0.0068856381970694783 -0.0010197871543066262 0 -0.0069927194841835853 -0.00094258840055806421 0 -0.0069141271521891033 -0.00082408741584948802 0 -0.0070090770083033448 -0.0010396797056265786 0 -0.0068856381970694783 -0.0010197871543066262 0 -0.0069927194841835853 -0.00094258840055806421 0 -0.0065222943352498215 -0.0010059866069626049 0 -0.0067863166624879418 -0.0011317733333304433 0 -0.0068856381970694783 -0.0010197871543066262 0 -0.0065222943352498215 -0.0010059866069626049 0 -0.0068856381970694783 -0.0010197871543066262 0 -0.0069141271521891033 -0.00082408741584948802 0 -0.0065222943352498215 -0.0010059866069626049 0 -0.0069141271521891033 -0.00082408741584948802 0 -0.0066689235469325888 -0.00059120775945607383 0 -0.0071472310515752714 -0.00086985051389708247 0 -0.0069141271521891033 -0.00082408741584948802 0 -0.0072797068091642056 -0.00036485497326163959 0 -0.0071472310515752714 -0.00086985051389708247 0 -0.0069927194841835853 -0.00094258840055806421 0 -0.0069141271521891033 -0.00082408741584948802 0 -0.0069141271521891033 -0.00082408741584948802 0 -0.0072797068091642056 -0.00036485497326163959 0 -0.0066689235469325888 -0.00059120775945607383 0 -0.0072797068091642056 -0.00036485497326163959 0 -0.0066689235469325888 -0.00059120775945607383 0 -0.0066332146456003754 -0.00010467977879866712 0 -0.0062067119614528325 0.00036431810187193513 0 -0.0066332146456003754 -0.00010467977879866712 0 -0.0070223624135977592 0.00058650767148101337 0 -0.0066332146456003754 -0.00010467977879866712 0 -0.0075533865071101478 0.00027844653922643597 0 -0.0070223624135977592 0.00058650767148101337 0 -0.0072797068091642056 -0.00036485497326163959 0 -0.0066332146456003754 -0.00010467977879866712 0 -0.0075533865071101478 0.00027844653922643597 0 -0.0072797068091642056 -0.00036485497326163959 0 -0.0075533865071101478 0.00027844653922643597 0 -0.0080978238099115585 7.8903611346326603e-05 0 -0.0085696533759985396 0.00017782539765247803 0 -0.0084215066081839499 -5.5503460630258514e-06 0 -0.0080978238099115585 7.8903611346326603e-05 0 -0.0084215066081839499 -5.5503460630258514e-06 0 -0.0081537690850833795 -0.00013648954229327997 0 -0.0080978238099115585 7.8903611346326603e-05 0 -0.0085696533759985396 0.00017782539765247803 0 -0.0080978238099115585 7.8903611346326603e-05 0 -0.0085426816721459482 0.00034477907661084318 0 -0.0080978238099115585 7.8903611346326603e-05 0 -0.0085426816721459482 0.00034477907661084318 0 -0.0083220511923267192 0.00052499979296826002 0 -0.0086392323908806821 0.00047324080522919717 0 -0.0085426816721459482 0.00034477907661084318 0 -0.0083220511923267192 0.00052499979296826002 0 -0.0087700648628503478 0.00060342616699492755 0 -0.0086392323908806821 0.00047324080522919717 0 -0.0083220511923267192 0.00052499979296826002 0 -0.0075533865071101478 0.00027844653922643597 0 -0.0080978238099115585 7.8903611346326603e-05 0 -0.0083220511923267192 0.00052499979296826002 0 -0.0075533865071101478 0.00027844653922643597 0 -0.0083220511923267192 0.00052499979296826002 0 -0.0079600989380196399 0.0009744983416118269 0 -0.0083220511923267192 0.00052499979296826002 0 -0.0079600989380196399 0.0009744983416118269 0 -0.0085761133081247425 0.00079682206929766839 0 -0.0087700648628503478 0.00060342616699492755 0 -0.0083220511923267192 0.00052499979296826002 0 -0.0085761133081247425 0.00079682206929766839 0 -0.0083588034072010677 0.0011201950011913598 0 -0.0077481765503700176 0.00087603816547382994 0 -0.0079351768932568872 0.0012273000379679187 0 -0.0092647831876025884 0.00078326679530225994 0 -0.0076983598631291039 0.00093477467567868095 0 -0.008864089257834263 0.0010542888268117662 0 -0.0079600989380196399 0.0009744983416118269 0 -0.0085761133081247425 0.00079682206929766839 0 -0.0077481765503700176 0.00087603816547382994 0 -0.0079351768932568872 0.0012273000379679187 0 -0.0076369500427354289 0.0013900901022095998 0 -0.0077481765503700176 0.00087603816547382994 0 -0.0071877263679074477 0.0012482544789872204 0 -0.0076369500427354289 0.0013900901022095998 0 -0.0064051871064897915 0.0010480523484549394 0 -0.0071877263679074477 0.0012482544789872204 0 -0.0070223624135977592 0.00058650767148101337 0 -0.0075533865071101478 0.00027844653922643597 0 -0.0079600989380196399 0.0009744983416118269 0 -0.0070223624135977592 0.00058650767148101337 0 -0.0076983598631291039 0.00093477467567868095 0 -0.0071214385264817383 0.00060831647293694766 0 -0.0077481765503700176 0.00087603816547382994 0 -0.0071877263679074477 0.0012482544789872204 0 -0.0070223624135977592 0.00058650767148101337 0 -0.0067397425649279316 0.0016796944093714077 0 -0.0074036981698799072 0.0017732584974619349 0 -0.0074698353615380462 0.0019121840011342825 0 -0.0064051871064897915 0.0010480523484549394 0 -0.0067397425649279316 0.0016796944093714077 0 -0.0071877263679074477 0.0012482544789872204 0 -0.0067397425649279316 0.0016796944093714077 0 -0.0071877263679074477 0.0012482544789872204 0 -0.0074036981698799072 0.0017732584974619349 0 -0.0071877263679074477 0.0012482544789872204 0 -0.0074036981698799072 0.0017732584974619349 0 -0.0076369500427354289 0.0013900901022095998 0 -0.0076369500427354289 0.0013900901022095998 0 -0.00799629284792161 0.0015072691662269945 0 -0.007626968207212521 0.0018139074122834635 0 -0.0092647831876025884 0.00078326679530225994 0 -0.0092188910371762689 0.00081706703872906682 0 -0.0083588034072010677 0.0011201950011913598 0 -0.0079351768932568872 0.0012273000379679187 0 -0.00799629284792161 0.0015072691662269945 0 -0.0079351768932568872 0.0012273000379679187 0 -0.0076369500427354289 0.0013900901022095998 0 -0.00799629284792161 0.0015072691662269945 0 -0.010409666055191415 0.00017046544600646317 0 -0.010108467582179762 8.9351273352196664e-05 0 -0.010542936962263102 0.00023911771155173808 0 -0.0074036981698799072 0.0017732584974619349 0 -0.0076369500427354289 0.0013900901022095998 0 -0.007626968207212521 0.0018139074122834635 0 -0.0092188910371762689 0.00081706703872906682 0 -0.0088459375190721116 0.00095874868785607379 0 -0.0088459375190721116 0.00095874868785607379 0 -0.0084563384484836017 0.0010299173007933141 0 -0.010108467582179762 8.9351273352196664e-05 0 -0.010003064318533351 0.00044141469371434308 0 -0.0094504058564714791 0.00021165999634780577 0 -0.010108467582179762 8.9351273352196664e-05 0 -0.010408240757880447 0.00032320979207364628 0 -0.010003064318533351 0.00044141469371434308 0 -0.010108467582179762 8.9351273352196664e-05 0 -0.010408240757880447 0.00032320979207364628 0 -0.010542936962263102 0.00023911771155173808 0 -0.010408240757880447 0.00032320979207364628 0 -0.010003064318533351 0.00044141469371434308 0 -0.01047070989838972 0.00066041321503186134 0 -0.010003064318533351 0.00044141469371434308 0 -0.009388219119873838 0.00076856675552877175 0 -0.0097555275620485049 0.00094957351698093896 0 -0.0084563384484836017 0.0010299173007933141 0 -0.0082445991773148573 0.0011277740330687971 0 -0.010003064318533351 0.00044141469371434308 0 -0.0094504058564714791 0.00021165999634780577 0 -0.009388219119873838 0.00076856675552877175 0 -0.0094504058564714791 0.00021165999634780577 0 -0.009388219119873838 0.00076856675552877175 0 -0.0082424664325111419 0.0011035037662122736 0 -0.0074036981698799072 0.0017732584974619349 0 -0.0074575133553103712 0.0017933116772284776 0 -0.0074698353615380462 0.0019121840011342825 0 -0.0074036981698799072 0.0017732584974619349 0 -0.007626968207212521 0.0018139074122834635 0 -0.0074575133553103712 0.0017933116772284776 0 -0.0074575133553103712 0.0017933116772284776 0 -0.0074698353615380462 0.0019121840011342825 0 -0.0079646948817579302 0.0015543589217125616 0 -0.0076883530110476708 0.0016019250087135342 0 -0.0074698353615380462 0.0019121840011342825 0 -0.0079646948817579302 0.0015543589217125616 0 -0.0074575133553103712 0.0017933116772284776 0 -0.0079646948817579302 0.0015543589217125616 0 -0.0082424664325111419 0.0011035037662122736 0 -0.0082424664325111419 0.0011035037662122736 0 -0.0090556122875542454 0.0011657928946528248 0 -0.0083368814443185932 0.0013252262129708249 0 -0.009388219119873838 0.00076856675552877175 0 -0.0082424664325111419 0.0011035037662122736 0 -0.0090556122875542454 0.0011657928946528248 0 -0.009388219119873838 0.00076856675552877175 0 -0.0090556122875542454 0.0011657928946528248 0 -0.0097555275620485049 0.00094957351698093896 0 -0.0090556122875542454 0.0011657928946528248 0 -0.0097954978151878307 0.001614720950008283 0 -0.0097555275620485049 0.00094957351698093896 0 -0.0090556122875542454 0.0011657928946528248 0 -0.0097954978151878307 0.001614720950008283 0 -0.0083368814443185932 0.0013252262129708249 0 -0.009656933653318189 0.0016213501412009447 0 -0.0093488390644037491 0.0015999949939209045 0 -0.010054534281026923 0.0017846891770017775 0 -0.0099788142759370379 0.0018802416028160247 0 -0.0099737567037302133 0.0016898226847901147 0 -0.0097954978151878307 0.001614720950008283 0 -0.0099788142759370379 0.0018802416028160247 0 -0.0099737567037302133 0.0016898226847901147 0 -0.0097954978151878307 0.001614720950008283 0 -0.0099453444763068673 0.0016678108872188403 0 -0.010135759640546764 0.0016444817598506194 0 -0.0097954978151878307 0.001614720950008283 0 -0.0099737567037302133 0.0016898226847901147 0 -0.0099453444763068673 0.0016678108872188403 0 -0.0099453444763068673 0.0016678108872188403 0 -0.010135759640546764 0.0016444817598506194 0 -0.0099956110033603482 0.0017800409460258047 0 -0.0099737567037302133 0.0016898226847901147 0 -0.0099453444763068673 0.0016678108872188403 0 -0.0099956110033603482 0.0017800409460258047 0 -0.0099737567037302133 0.0016898226847901147 0 -0.0099865872023657716 0.001751002593536494 0 -0.0099956110033603482 0.0017800409460258047 0 -0.01061689865159174 0.0015216187186592874 0 -0.010386141929193588 0.0017557266184071686 0 -0.010135759640546764 0.0016444817598506194 0 -0.01061689865159174 0.0015216187186592874 0 -0.010386141929193588 0.0017557266184071686 0 -0.010671663322483557 0.0018381748221512567 0 -0.010135759640546764 0.0016444817598506194 0 -0.010171553774970761 0.0018330098185866106 0 -0.0099956110033603482 0.0017800409460258047 0 -0.010386141929193588 0.0017557266184071686 0 -0.010135759640546764 0.0016444817598506194 0 -0.010171553774970761 0.0018330098185866106 0 -0.0097954978151878307 0.001614720950008283 0 -0.010135759640546764 0.0016444817598506194 0 -0.010406457018798406 0.0013480476249599594 0 -0.01061689865159174 0.0015216187186592874 0 -0.010135759640546764 0.0016444817598506194 0 -0.010406457018798406 0.0013480476249599594 0 -0.01061689865159174 0.0015216187186592874 0 -0.010406457018798406 0.0013480476249599594 0 -0.010931212444465514 0.0012900475401051382 0 -0.010406457018798406 0.0013480476249599594 0 -0.010220845841974054 0.0010967973529925035 0 -0.01078177531551555 0.00093574312249949693 0 -0.0097954978151878307 0.001614720950008283 0 -0.010220845841974054 0.0010967973529925035 0 -0.0097555275620485049 0.00094957351698093896 0 -0.0097954978151878307 0.001614720950008283 0 -0.010406457018798406 0.0013480476249599594 0 -0.010220845841974054 0.0010967973529925035 0 -0.010003064318533351 0.00044141469371434308 0 -0.0097555275620485049 0.00094957351698093896 0 -0.01047070989838972 0.00066041321503186134 0 -0.010220845841974054 0.0010967973529925035 0 -0.0097555275620485049 0.00094957351698093896 0 -0.01047070989838972 0.00066041321503186134 0 -0.010220845841974054 0.0010967973529925035 0 -0.01047070989838972 0.00066041321503186134 0 -0.01078177531551555 0.00093574312249949693 0 -0.01047070989838972 0.00066041321503186134 0 -0.010800759282213775 0.00060749088587722262 0 -0.01078177531551555 0.00093574312249949693 0 -0.010800759282213775 0.00060749088587722262 0 -0.01116006285445501 0.00069431372041524114 0 -0.01078177531551555 0.00093574312249949693 0 -0.010800759282213775 0.00060749088587722262 0 -0.01116006285445501 0.00069431372041524114 0 -0.01092926464601687 0.00041566462840867172 0 -0.01116006285445501 0.00069431372041524114 0 -0.01078177531551555 0.00093574312249949693 0 -0.011297892462158357 0.0010219801241041907 0 -0.01078177531551555 0.00093574312249949693 0 -0.010931212444465514 0.0012900475401051382 0 -0.011297892462158357 0.0010219801241041907 0 -0.010406457018798406 0.0013480476249599594 0 -0.01078177531551555 0.00093574312249949693 0 -0.010931212444465514 0.0012900475401051382 0 -0.011297892462158357 0.0010219801241041907 0 -0.011446900155838784 0.0014003213783676362 0 -0.011747492927039449 0.0011420536508197807 0 -0.010931212444465514 0.0012900475401051382 0 -0.011297892462158357 0.0010219801241041907 0 -0.011446900155838784 0.0014003213783676362 0 -0.011446900155838784 0.0014003213783676362 0 -0.012154244596633924 0.0014520440611577002 0 -0.011544478819784503 0.001803451568656512 0 -0.011446900155838784 0.0014003213783676362 0 -0.011053674005786896 0.0016310313186305297 0 -0.011544478819784503 0.001803451568656512 0 -0.01061689865159174 0.0015216187186592874 0 -0.011053674005786896 0.0016310313186305297 0 -0.010671663322483557 0.0018381748221512567 0 -0.010931212444465514 0.0012900475401051382 0 -0.011446900155838784 0.0014003213783676362 0 -0.011053674005786896 0.0016310313186305297 0 -0.01061689865159174 0.0015216187186592874 0 -0.010931212444465514 0.0012900475401051382 0 -0.011053674005786896 0.0016310313186305297 0 -0.012632308675132521 0.0010781688519437558 0 -0.012154244596633924 0.0014520440611577002 0 -0.012157495818888614 0.0010715332260971685 0 -0.012632308675132521 0.0010781688519437558 0 -0.012157495818888614 0.0010715332260971685 0 -0.012328452501641602 0.00095952562250405202 0 -0.011446900155838784 0.0014003213783676362 0 -0.012154244596633924 0.0014520440611577002 0 -0.011747492927039449 0.0011420536508197807 0 -0.012154244596633924 0.0014520440611577002 0 -0.011747492927039449 0.0011420536508197807 0 -0.012157495818888614 0.0010715332260971685 0 -0.011747492927039449 0.0011420536508197807 0 -0.012157495818888614 0.0010715332260971685 0 -0.011758888939149392 0.0008463863614056081 0 -0.011297892462158357 0.0010219801241041907 0 -0.011747492927039449 0.0011420536508197807 0 -0.011758888939149392 0.0008463863614056081 0 -0.012157495818888614 0.0010715332260971685 0 -0.012328452501641602 0.00095952562250405202 0 -0.011758888939149392 0.0008463863614056081 0 -0.012328452501641602 0.00095952562250405202 0 -0.011758888939149392 0.0008463863614056081 0 -0.01194475282666373 0.00061643912687170193 0 -0.011758888939149392 0.0008463863614056081 0 -0.011329208488449953 0.00054135344878166987 0 -0.01194475282666373 0.00061643912687170193 0 -0.01116006285445501 0.00069431372041524114 0 -0.011758888939149392 0.0008463863614056081 0 -0.011329208488449953 0.00054135344878166987 0 -0.01116006285445501 0.00069431372041524114 0 -0.011297892462158357 0.0010219801241041907 0 -0.011758888939149392 0.0008463863614056081 0 -0.01116006285445501 0.00069431372041524114 0 -0.011329208488449953 0.00054135344878166987 0 -0.01092926464601687 0.00041566462840867172 0 -0.011329208488449953 0.00054135344878166987 0 -0.011039397207992536 0.00027122155130402607 0 -0.01092926464601687 0.00041566462840867172 0 -0.011039397207992536 0.00027122155130402607 0 -0.010585670356640514 0.00024401564509239469 0 -0.010701980197048915 -0.00037502172405880273 0 -0.011329208488449953 0.00054135344878166987 0 -0.011039397207992536 0.00027122155130402607 0 -0.01194475282666373 0.00061643912687170193 0 -0.01108505373852443 0.00037572314280841647 0 -0.011448300585237409 -0.00014790126225138877 0 -0.011039397207992536 0.00027122155130402607 0 -0.010671012488742058 0.00037416937376385986 0 -0.010585670356640514 0.00024401564509239469 0 -0.011039397207992536 0.00027122155130402607 0 -0.010671012488742058 0.00037416937376385986 0 -0.010824710306615573 0.00032288966327900803 0 -0.010671012488742058 0.00037416937376385986 0 -0.010605214696031215 0.00037730408640810898 0 -0.010824710306615573 0.00032288966327900803 0 -0.010671012488742058 0.00037416937376385986 0 -0.010605214696031215 0.00037730408640810898 0 -0.010506964044404196 0.00042049875813675812 0 -0.010824710306615573 0.00032288966327900803 0 -0.0106764586353162 0.00030137581966976901 0 -0.010641181124423912 0.00033209275702572648 0 -0.010605214696031215 0.00037730408640810898 0 -0.010824710306615573 0.00032288966327900803 0 -0.010641181124423912 0.00033209275702572648 0 -0.011039397207992536 0.00027122155130402607 0 -0.010824710306615573 0.00032288966327900803 0 -0.01092926464601687 0.00041566462840867172 0 -0.01092926464601687 0.00041566462840867172 0 -0.010674629395803879 0.00038389833309038045 0 -0.0106764586353162 0.00030137581966976901 0 -0.010800759282213775 0.00060749088587722262 0 -0.01092926464601687 0.00041566462840867172 0 -0.010674629395803879 0.00038389833309038045 0 -0.01047070989838972 0.00066041321503186134 0 -0.010800759282213775 0.00060749088587722262 0 -0.010674629395803879 0.00038389833309038045 0 -0.010408240757880447 0.00032320979207364628 0 -0.01047070989838972 0.00066041321503186134 0 -0.010674629395803879 0.00038389833309038045 0 -0.010674629395803879 0.00038389833309038045 0 -0.0106764586353162 0.00030137581966976901 0 -0.010542936962263102 0.00023911771155173808 0 -0.010408240757880447 0.00032320979207364628 0 -0.010674629395803879 0.00038389833309038045 0 -0.010542936962263102 0.00023911771155173808 0 -0.010824710306615573 0.00032288966327900803 0 -0.01092926464601687 0.00041566462840867172 0 -0.0106764586353162 0.00030137581966976901 0 -0.0106764586353162 0.00030137581966976901 0 -0.010593856026730002 0.00031656353532653799 0 -0.010542936962263102 0.00023911771155173808 0 -0.0106764586353162 0.00030137581966976901 0 -0.010593856026730002 0.00031656353532653799 0 -0.010641181124423912 0.00033209275702572648 0 -0.010409666055191415 0.00017046544600646317 0 -0.010542936962263102 0.00023911771155173808 0 -0.010536196516527473 0.00027855510066757729 0 -0.010593856026730002 0.00031656353532653799 0 -0.010542936962263102 0.00023911771155173808 0 -0.010536196516527473 0.00027855510066757729 0 -0.010518998121330813 0.00027427551450787319 0 -0.010409666055191415 0.00017046544600646317 0 -0.010536196516527473 0.00027855510066757729 0 -0.010550640787920425 0.00039813502015488143 0 -0.010518998121330813 0.00027427551450787319 0 -0.010536196516527473 0.00027855510066757729 0 -0.010593856026730002 0.00031656353532653799 0 -0.010492144908776018 0.00040278074811199313 0 -0.010552064222543921 0.00035154801093858096 0 -0.010593856026730002 0.00031656353532653799 0 -0.010536196516527473 0.00027855510066757729 0 -0.010552064222543921 0.00035154801093858096 0 -0.010550640787920425 0.00039813502015488143 0 -0.010536196516527473 0.00027855510066757729 0 -0.010552064222543921 0.00035154801093858096 0 -0.010550640787920425 0.00039813502015488143 0 -0.010492144908776018 0.00040278074811199313 0 -0.010552064222543921 0.00035154801093858096 0 -0.010550640787920425 0.00039813502015488143 0 -0.010492144908776018 0.00040278074811199313 0 -0.010214508648630426 0.00060101925640932688 0 -0.0099907447762231563 0.00065023582633994936 0 -0.0100963557214673 0.00060205641678305589 0 -0.0097776969404898689 0.00066264168277989052 0 -0.0093723987576166661 0.00091630540745298874 0 -0.010214508648630426 0.00060101925640932688 0 -0.010492144908776018 0.00040278074811199313 0 -0.010214508648630426 0.00060101925640932688 0 -0.010464397134966776 0.00040928491342459773 0 -0.010170973071706772 0.00048766824564097302 0 -0.010214508648630426 0.00060101925640932688 0 -0.010348305687989751 0.00048739859456617483 0 -0.010214508648630426 0.00060101925640932688 0 -0.010348305687989751 0.00048739859456617483 0 -0.010464397134966776 0.00040928491342459773 0 -0.010605214696031215 0.00037730408640810898 0 -0.010348305687989751 0.00048739859456617483 0 -0.010464397134966776 0.00040928491342459773 0 -0.010605214696031215 0.00037730408640810898 0 -0.010348305687989751 0.00048739859456617483 0 -0.010506964044404196 0.00042049875813675812 0 -0.010593856026730002 0.00031656353532653799 0 -0.010641181124423912 0.00033209275702572648 0 -0.010464397134966776 0.00040928491342459773 0 -0.010605214696031215 0.00037730408640810898 0 -0.010641181124423912 0.00033209275702572648 0 -0.010464397134966776 0.00040928491342459773 0 -0.010593856026730002 0.00031656353532653799 0 -0.010492144908776018 0.00040278074811199313 0 -0.010464397134966776 0.00040928491342459773 0 -0.010696189292060234 -0.00090335382305172982 0 -0.010439779622578827 -0.00030223252026562105 0 -0.01015171785155035 -0.00056140220601429993 0 -0.010696189292060234 -0.00090335382305172982 0 -0.01015171785155035 -0.00056140220601429993 0 -0.010310420905819762 -0.00091387252015611917 0 -0.010348305687989751 0.00048739859456617483 0 -0.010400385178154788 0.00044754802775655273 0 -0.010204129779699665 0.00047860681840448797 0 -0.010548063662031787 -0.00019326087832328124 0 -0.010303629700952334 7.8115724329901769e-05 0 -0.010348305687989751 0.00048739859456617483 0 -0.010506964044404196 0.00042049875813675812 0 -0.010400385178154788 0.00044754802775655273 0 -0.010170973071706772 0.00048766824564097302 0 -0.010348305687989751 0.00048739859456617483 0 -0.010204129779699665 0.00047860681840448797 0 -0.0097949520572165865 -1.4949306261871744e-05 0 -0.010439779622578827 -0.00030223252026562105 0 -0.01015171785155035 -0.00056140220601429993 0 -0.0097949520572165865 -1.4949306261871744e-05 0 -0.01015171785155035 -0.00056140220601429993 0 -0.0095875271691642228 -0.00028562382441448333 0 -0.01015171785155035 -0.00056140220601429993 0 -0.0095875271691642228 -0.00028562382441448333 0 -0.0099525957744750065 -0.00076932414894246496 0 -0.0095875271691642228 -0.00028562382441448333 0 -0.0099525957744750065 -0.00076932414894246496 0 -0.0092201297307390132 -0.00046063809242989022 0 -0.0099525957744750065 -0.00076932414894246496 0 -0.0098917189317786793 -0.0010075537361429949 0 -0.0092201297307390132 -0.00046063809242989022 0 -0.01015171785155035 -0.00056140220601429993 0 -0.0099525957744750065 -0.00076932414894246496 0 -0.010310420905819762 -0.00091387252015611917 0 -0.0099525957744750065 -0.00076932414894246496 0 -0.010310420905819762 -0.00091387252015611917 0 -0.010286943331968779 -0.0011341855603866631 0 -0.010310420905819762 -0.00091387252015611917 0 -0.010482955178388702 -0.0011420038716081762 0 -0.010286943331968779 -0.0011341855603866631 0 -0.0099525957744750065 -0.00076932414894246496 0 -0.010286943331968779 -0.0011341855603866631 0 -0.0098917189317786793 -0.0010075537361429949 0 -0.010286943331968779 -0.0011341855603866631 0 -0.010367957387222694 -0.0013808390900089305 0 -0.0098917189317786793 -0.0010075537361429949 0 -0.010367957387222694 -0.0013808390900089305 0 -0.010543746181159833 -0.001302185362718738 0 -0.01074949659685279 -0.0013169953769812956 0 -0.010286943331968779 -0.0011341855603866631 0 -0.010367957387222694 -0.0013808390900089305 0 -0.010543746181159833 -0.001302185362718738 0 -0.010482955178388702 -0.0011420038716081762 0 -0.010286943331968779 -0.0011341855603866631 0 -0.010543746181159833 -0.001302185362718738 0 -0.010482955178388702 -0.0011420038716081762 0 -0.010543746181159833 -0.001302185362718738 0 -0.010667551062383145 -0.0012522673659591432 0 -0.010667551062383145 -0.0012522673659591432 0 -0.010775322585757368 -0.0012310926979835516 0 -0.010742054398190754 -0.0013123569082999127 0 -0.010543746181159833 -0.001302185362718738 0 -0.010667551062383145 -0.0012522673659591432 0 -0.010742054398190754 -0.0013123569082999127 0 -0.010696189292060234 -0.00090335382305172982 0 -0.010310420905819762 -0.00091387252015611917 0 -0.010482955178388702 -0.0011420038716081762 0 -0.010696189292060234 -0.00090335382305172982 0 -0.010482955178388702 -0.0011420038716081762 0 -0.010667551062383145 -0.0012522673659591432 0 -0.010548063662031787 -0.00019326087832328124 0 -0.010602975730606408 -0.00062968710130711881 0 -0.010671012488742058 0.00037416937376385986 0 -0.010400385178154788 0.00044754802775655273 0 -0.010585670356640514 0.00024401564509239469 0 -0.010671012488742058 0.00037416937376385986 0 -0.010506964044404196 0.00042049875813675812 0 -0.010400385178154788 0.00044754802775655273 0 -0.010696189292060234 -0.00090335382305172982 0 -0.010667551062383145 -0.0012522673659591432 0 -0.010775322585757368 -0.0012310926979835516 0 -0.010775322585757368 -0.0012310926979835516 0 -0.010742054398190754 -0.0013123569082999127 0 -0.010780586421583431 -0.0012928653000255363 0 -0.010602975730606408 -0.00062968710130711881 0 -0.011448300585237409 -0.00014790126225138877 0 -0.010944532467176462 -0.0012630065111149684 0 -0.01080614214768443 -0.0012781622586871904 0 -0.010795310505283495 -0.0011794646913832439 0 -0.010742054398190754 -0.0013123569082999127 0 -0.010944532467176462 -0.0012630065111149684 0 -0.01080614214768443 -0.0012781622586871904 0 -0.01080614214768443 -0.0012781622586871904 0 -0.010780586421583431 -0.0012928653000255363 0 -0.010795310505283495 -0.0011794646913832439 0 -0.011448300585237409 -0.00014790126225138877 0 -0.011711072168363066 -0.00017495431480358281 0 -0.012364965537704515 0.0012029641593829909 0 -0.011448300585237409 -0.00014790126225138877 0 -0.010742054398190754 -0.0013123569082999127 0 -0.01080614214768443 -0.0012781622586871904 0 -0.010780586421583431 -0.0012928653000255363 0 -0.012328452501641602 0.00095952562250405202 0 -0.012385629104870063 0.00049271098655632474 0 -0.012615577004310105 0.00090599825517764983 0 -0.012328452501641602 0.00095952562250405202 0 -0.012615577004310105 0.00090599825517764983 0 -0.012628364800220065 0.0010113341938004464 0 -0.010944532467176462 -0.0012630065111149684 0 -0.010795310505283495 -0.0011794646913832439 0 -0.011151607461690497 -0.00104493897554734 0 -0.011711072168363066 -0.00017495431480358281 0 -0.011892710334102543 9.5871793077290069e-05 0 -0.010795310505283495 -0.0011794646913832439 0 -0.011151607461690497 -0.00104493897554734 0 -0.011089331735528953 -0.00075606774448795124 0 -0.012659252708087139 0.00096847522766659554 0 -0.012628364800220065 0.0010113341938004464 0 -0.012728984133749163 0.00087088108124290119 0 -0.012615577004310105 0.00090599825517764983 0 -0.012659252708087139 0.00096847522766659554 0 -0.012628364800220065 0.0010113341938004464 0 -0.012632308675132521 0.0010781688519437558 0 -0.012628364800220065 0.0010113341938004464 0 -0.012728984133749163 0.00087088108124290119 0 -0.012632308675132521 0.0010781688519437558 0 -0.012328452501641602 0.00095952562250405202 0 -0.012628364800220065 0.0010113341938004464 0 -0.012468860916972375 -0.00049682220164783391 0 -0.011807814114098645 -0.0008980344999604433 0 -0.011924465126592815 -0.00047812720611042377 0 -0.012468860916972375 -0.00049682220164783391 0 -0.011807814114098645 -0.0008980344999604433 0 -0.012250554630254066 -0.00068970668274948813 0 -0.01151948966501695 -0.0010094827821057353 0 -0.011833514078312133 -0.00048947878747437217 0 -0.011151607461690497 -0.00104493897554734 0 -0.011230974060072596 -0.0011616237750796579 0 -0.011924465126592815 -0.00047812720611042377 0 -0.011151607461690497 -0.00104493897554734 0 -0.011089331735528953 -0.00075606774448795124 0 -0.011924465126592815 -0.00047812720611042377 0 -0.010944532467176462 -0.0012630065111149684 0 -0.011151607461690497 -0.00104493897554734 0 -0.011230974060072596 -0.0011616237750796579 0 -0.011807814114098645 -0.0008980344999604433 0 -0.012046129249034376 -0.00085919516364103127 0 -0.012250554630254066 -0.00068970668274948813 0 -0.011807814114098645 -0.0008980344999604433 0 -0.011180140001865782 -0.0013788457035458668 0 -0.012046129249034376 -0.00085919516364103127 0 -0.01151948966501695 -0.0010094827821057353 0 -0.010957510700627457 -0.0013622145501277748 0 -0.010742054398190754 -0.0013123569082999127 0 -0.010944532467176462 -0.0012630065111149684 0 -0.01074949659685279 -0.0013169953769812956 0 -0.010944532467176462 -0.0012630065111149684 0 -0.011230974060072596 -0.0011616237750796579 0 -0.01074949659685279 -0.0013169953769812956 0 -0.010543746181159833 -0.001302185362718738 0 -0.010742054398190754 -0.0013123569082999127 0 -0.01074949659685279 -0.0013169953769812956 0 -0.01047333247710438 -0.0013815921997452245 0 -0.010957510700627457 -0.0013622145501277748 0 -0.011180140001865782 -0.0013788457035458668 0 -0.0114807462914681 -0.0012402335892915171 0 -0.010466603339899849 -0.0017714296411572047 0 -0.01176930014298838 -0.0012669156569343428 0 -0.0114807462914681 -0.0012402335892915171 0 -0.010466603339899849 -0.0017714296411572047 0 -0.0084699185655782369 -0.0031517284747408928 0 -0.0088432447502107131 -0.001816170073508469 0 -0.010466603339899849 -0.0017714296411572047 0 -0.01176930014298838 -0.0012669156569343428 0 -0.01249311397744777 -0.0015223545084019042 0 -0.010466603339899849 -0.0017714296411572047 0 -0.010434665941402825 -0.0016144174745582579 0 -0.010504498426363024 -0.0020359508159512401 0 -0.0114807462914681 -0.0012402335892915171 0 -0.012046129249034376 -0.00085919516364103127 0 -0.012181414359114559 -0.00089285478686353342 0 -0.01176930014298838 -0.0012669156569343428 0 -0.012181414359114559 -0.00089285478686353342 0 -0.012291934167722597 -0.0010593556017742083 0 -0.01176930014298838 -0.0012669156569343428 0 -0.0114807462914681 -0.0012402335892915171 0 -0.012181414359114559 -0.00089285478686353342 0 -0.011180140001865782 -0.0013788457035458668 0 -0.0114807462914681 -0.0012402335892915171 0 -0.012046129249034376 -0.00085919516364103127 0 -0.012046129249034376 -0.00085919516364103127 0 -0.012181414359114559 -0.00089285478686353342 0 -0.012885373791101032 -0.00032851813534053194 0 -0.012754304568875857 -0.0004388164186729879 0 -0.012885373791101032 -0.00032851813534053194 0 -0.013317418281256663 -0.00020011718810936484 0 -0.012046129249034376 -0.00085919516364103127 0 -0.012754304568875857 -0.0004388164186729879 0 -0.012885373791101032 -0.00032851813534053194 0 -0.012046129249034376 -0.00085919516364103127 0 -0.012250554630254066 -0.00068970668274948813 0 -0.012754304568875857 -0.0004388164186729879 0 -0.012468860916972375 -0.00049682220164783391 0 -0.012250554630254066 -0.00068970668274948813 0 -0.012754304568875857 -0.0004388164186729879 0 -0.012265512824251992 -9.5303051987780691e-07 0 -0.012233013775106126 -0.00012033915368145687 0 -0.013048113289315199 -0.00015411479268969723 0 -0.012885373791101032 -0.00032851813534053194 0 -0.012233013775106126 -0.00012033915368145687 0 -0.013048113289315199 -0.00015411479268969723 0 -0.012181414359114559 -0.00089285478686353342 0 -0.012885373791101032 -0.00032851813534053194 0 -0.012523092752237728 -0.00078202555522697073 0 -0.012885373791101032 -0.00032851813534053194 0 -0.012484592900581164 4.2764105286391489e-05 0 -0.012233013775106126 -0.00012033915368145687 0 -0.012770106341734835 -0.00033972656070365879 0 -0.01261661096261338 -0.00033116973092253178 0 -0.012484592900581164 4.2764105286391489e-05 0 -0.012233013775106126 -0.00012033915368145687 0 -0.011874204397572396 0.0001796175317293802 0 -0.012233013775106126 -0.00012033915368145687 0 -0.010789161874245371 1.6666635847318942e-06 0 -0.011874204397572396 0.0001796175317293802 0 -0.012265512824251992 -9.5303051987780691e-07 0 -0.012233013775106126 -0.00012033915368145687 0 -0.010789161874245371 1.6666635847318942e-06 0 -0.01078516467517507 4.1694903067117193e-07 0 -0.0098259144276544169 1.7881496268221613e-05 0 -0.0096613556879621906 -2.8119253670548117e-07 0 -0.010789161874245371 1.6666635847318942e-06 0 -0.011874204397572396 0.0001796175317293802 0 -0.01219990101704393 0.0011083473524896585 0 -0.010787326247949605 7.3782309651166018e-07 0 -0.010903171143337227 -0.00039349555683263995 0 -0.012484592900581164 4.2764105286391489e-05 0 -0.011874204397572396 0.0001796175317293802 0 -0.01219990101704393 0.0011083473524896585 0 -0.01261661096261338 -0.00033116973092253178 0 -0.010903171143337227 -0.00039349555683263995 0 -0.012523092752237728 -0.00078202555522697073 0 -0.012508237078080563 -0.001208604621404349 0 -0.012291934167722597 -0.0010593556017742083 0 -0.012181414359114559 -0.00089285478686353342 0 -0.012523092752237728 -0.00078202555522697073 0 -0.012291934167722597 -0.0010593556017742083 0 -0.011844180352274728 -0.0014753769524487473 0 -0.010434665941402825 -0.0016144174745582579 0 -0.01176930014298838 -0.0012669156569343428 0 -0.012291934167722597 -0.0010593556017742083 0 -0.01249311397744777 -0.0015223545084019042 0 -0.012508237078080563 -0.001208604621404349 0 -0.012291934167722597 -0.0010593556017742083 0 -0.012383775797502574 -0.0012889638678067437 0 -0.0093924467294240494 -0.0014601306234744518 0 -0.0095729667902694719 -0.0013405336449924174 0 -0.0090532290397753977 -0.00057243923310691918 0 -0.010903171143337227 -0.00039349555683263995 0 -0.010434665941402825 -0.0016144174745582579 0 -0.010903171143337227 -0.00039349555683263995 0 -0.008835364182312979 -0.00039077566781209967 0 -0.0098259144276544169 1.7881496268221613e-05 0 -0.0096613556879621906 -2.8119253670548117e-07 0 -0.0090400082797723463 -1.6151985628886963e-05 0 -0.0096613556879621906 -2.8119253670548117e-07 0 -0.0090400082797723463 -1.6151985628886963e-05 0 -0.0085353257172236675 -4.4341907743624089e-08 0 -0.0095729667902694719 -0.0013405336449924174 0 -0.0091429856459053944 -0.00050063984517925014 0 -0.0090532290397753977 -0.00057243923310691918 0 -0.0077568861279441997 -0.0013278366067859151 0 -0.0073714323518386977 -1.7224793622270973e-06 0 -0.00807903401155881 -0.00053093346689720398 0 -0.0090400082797723463 -1.6151985628886963e-05 0 -0.0085353257172236675 -4.4341907743624089e-08 0 -0.0073734544174518645 2.1880996385463296e-07 0 -0.0091429856459053944 -0.00050063984517925014 0 -0.0090532290397753977 -0.00057243923310691918 0 -0.0086966060973036052 0.00033390065852455724 0 -0.008835364182312979 -0.00039077566781209967 0 -0.0081903908596460163 0.00012961521455362768 0 -0.0082446484913055 -0.0010023911105006198 0 -0.0081903908596460163 0.00012961521455362768 0 -0.0077568861279441997 -0.0013278366067859151 0 -0.0087868228458352366 -0.0010693473641953306 0 -0.00807903401155881 -0.00053093346689720398 0 -0.010434665941402825 -0.0016144174745582579 0 -0.0082446484913055 -0.0010023911105006198 0 -0.0077568861279441997 -0.0013278366067859151 0 -0.0088432447502107131 -0.001816170073508469 0 -0.0087868228458352366 -0.0010693473641953306 0 -0.0084699185655782369 -0.0031517284747408928 0 -0.0077568861279441997 -0.0013278366067859151 0 -0.0088432447502107131 -0.001816170073508469 0 -0.0088432447502107131 -0.001816170073508469 0 -0.010466603339899849 -0.0017714296411572047 0 -0.0087868228458352366 -0.0010693473641953306 0 -0.010466603339899849 -0.0017714296411572047 0 -0.0098496753931320534 -0.0012229331876005445 0 -0.0087868228458352366 -0.0010693473641953306 0 -0.010367957387222694 -0.0013808390900089305 0 -0.011180140001865782 -0.0013788457035458668 0 -0.010466603339899849 -0.0017714296411572047 0 -0.010367957387222694 -0.0013808390900089305 0 -0.010466603339899849 -0.0017714296411572047 0 -0.0098496753931320534 -0.0012229331876005445 0 -0.0098496753931320534 -0.0012229331876005445 0 -0.0098917189317786793 -0.0010075537361429949 0 -0.0091920507395687103 -0.00080982501421160457 0 -0.010367957387222694 -0.0013808390900089305 0 -0.0098496753931320534 -0.0012229331876005445 0 -0.0098917189317786793 -0.0010075537361429949 0 -0.0098496753931320534 -0.0012229331876005445 0 -0.0087868228458352366 -0.0010693473641953306 0 -0.0091920507395687103 -0.00080982501421160457 0 -0.0087868228458352366 -0.0010693473641953306 0 -0.0091920507395687103 -0.00080982501421160457 0 -0.00807903401155881 -0.00053093346689720398 0 -0.0091920507395687103 -0.00080982501421160457 0 -0.0083090439224832099 -0.00030929787480242754 0 -0.00807903401155881 -0.00053093346689720398 0 -0.0091920507395687103 -0.00080982501421160457 0 -0.0092201297307390132 -0.00046063809242989022 0 -0.0083090439224832099 -0.00030929787480242754 0 -0.0098917189317786793 -0.0010075537361429949 0 -0.0091920507395687103 -0.00080982501421160457 0 -0.0092201297307390132 -0.00046063809242989022 0 -0.0090322711470629154 -5.1185121753636367e-05 0 -0.0095875271691642228 -0.00028562382441448333 0 -0.0092201297307390132 -0.00046063809242989022 0 -0.0085125083105975444 -6.0415875492986122e-05 0 -0.0090322711470629154 -5.1185121753636367e-05 0 -0.0092201297307390132 -0.00046063809242989022 0 -0.0076336645434988866 -8.423828762221492e-05 0 -0.0085125083105975444 -6.0415875492986122e-05 0 -0.0083090439224832099 -0.00030929787480242754 0 -0.0085125083105975444 -6.0415875492986122e-05 0 -0.0092201297307390132 -0.00046063809242989022 0 -0.0083090439224832099 -0.00030929787480242754 0 -0.0076336645434988866 -8.423828762221492e-05 0 -0.0083090439224832099 -0.00030929787480242754 0 -0.0073376408929674043 -0.00021122430117863309 0 -0.0083090439224832099 -0.00030929787480242754 0 -0.0073376408929674043 -0.00021122430117863309 0 -0.00807903401155881 -0.00053093346689720398 0 -0.0068997935706217369 3.0768855397006308e-06 0 -0.0076336645434988866 -8.423828762221492e-05 0 -0.0073376408929674043 -0.00021122430117863309 0 -0.0061119353010533305 -4.2307780193993422e-07 0 -0.0068997935706217369 3.0768855397006308e-06 0 -0.0073376408929674043 -0.00021122430117863309 0 -0.0061119353010533305 -4.2307780193993422e-07 0 -0.0073376408929674043 -0.00021122430117863309 0 -0.0073714323518386977 -1.7224793622270973e-06 0 -0.0073376408929674043 -0.00021122430117863309 0 -0.0073714323518386977 -1.7224793622270973e-06 0 -0.00807903401155881 -0.00053093346689720398 0 -0.01817922876833885 1.6147062804011858e-07 0 -0.018341095901125783 0.00011702794838974989 0 -0.017010806760301984 0.00064811613479077838 0 -0.01817922876833885 1.6147062804011858e-07 0 -0.017010806760301984 0.00064811613479077838 0 -0.016701181683588844 6.2875766068755005e-07 0 -0.01817922876833885 1.6147062804011858e-07 0 -0.018341095901125783 0.00011702794838974989 0 -0.019004858549318507 -3.4360516273135906e-05 0 -0.018341095901125783 0.00011702794838974989 0 -0.018980047228844363 0.00033662920020820772 0 -0.017010806760301984 0.00064811613479077838 0 -0.018341095901125783 0.00011702794838974989 0 -0.018980047228844363 0.00033662920020820772 0 -0.01904418815286231 5.9937647076498909e-05 0 -0.016717797631645825 0.0013840136270055095 0 -0.016431674080698188 0.0010972470500303425 0 -0.017275205831569385 0.0015080532291698674 0 -0.017845012559574512 0.00081386624282197325 0 -0.017155205423564496 0.0006790541254178867 0 -0.016717797631645825 0.0013840136270055095 0 -0.016431674080698188 0.0010972470500303425 0 -0.017010806760301984 0.00064811613479077838 0 -0.017010806760301984 0.00064811613479077838 0 -0.015770468977275433 0.00092885792416067816 0 -0.015566325533234211 0.00060509932476525202 0 -0.017010806760301984 0.00064811613479077838 0 -0.015566325533234211 0.00060509932476525202 0 -0.015596671296407605 0.0002600880631866747 0 -0.016431674080698188 0.0010972470500303425 0 -0.017010806760301984 0.00064811613479077838 0 -0.015770468977275433 0.00092885792416067816 0 -0.016431674080698188 0.0010972470500303425 0 -0.015770468977275433 0.00092885792416067816 0 -0.016302419608080224 0.0011527471068972527 0 -0.015770468977275433 0.00092885792416067816 0 -0.015566325533234211 0.00060509932476525202 0 -0.014923827328840372 0.0011147487504909281 0 -0.017010806760301984 0.00064811613479077838 0 -0.015596671296407605 0.0002600880631866747 0 -0.016701181683588844 6.2875766068755005e-07 0 -0.015596671296407605 0.0002600880631866747 0 -0.016701181683588844 6.2875766068755005e-07 0 -0.015222523176365958 1.9433421290697583e-07 0 -0.015596671296407605 0.0002600880631866747 0 -0.015222523176365958 1.9433421290697583e-07 0 -0.014444293095709106 6.4186412200926155e-05 0 -0.015596671296407605 0.0002600880631866747 0 -0.014444293095709106 6.4186412200926155e-05 0 -0.014640354305070965 0.00024860306203477854 0 -0.014444293095709106 6.4186412200926155e-05 0 -0.01368149139099134 -7.5182451310227091e-05 0 -0.014640354305070965 0.00024860306203477854 0 -0.015222523176365958 1.9433421290697583e-07 0 -0.014444293095709106 6.4186412200926155e-05 0 -0.013744330290944021 6.2851991366975416e-08 0 -0.014444293095709106 6.4186412200926155e-05 0 -0.013744330290944021 6.2851991366975416e-08 0 -0.01368149139099134 -7.5182451310227091e-05 0 -0.01368149139099134 -7.5182451310227091e-05 0 -0.013048113289315199 -0.00015411479268969723 0 -0.013317418281256663 -0.00020011718810936484 0 -0.012885373791101032 -0.00032851813534053194 0 -0.013048113289315199 -0.00015411479268969723 0 -0.013317418281256663 -0.00020011718810936484 0 -0.012265512824251992 -9.5303051987780691e-07 0 -0.013744330290944021 6.2851991366975416e-08 0 -0.013048113289315199 -0.00015411479268969723 0 -0.013744330290944021 6.2851991366975416e-08 0 -0.01368149139099134 -7.5182451310227091e-05 0 -0.013048113289315199 -0.00015411479268969723 0 -0.012754304568875857 -0.0004388164186729879 0 -0.013131696224302353 -0.00020458027330981268 0 -0.013317418281256663 -0.00020011718810936484 0 -0.012468860916972375 -0.00049682220164783391 0 -0.012754304568875857 -0.0004388164186729879 0 -0.013131696224302353 -0.00020458027330981268 0 -0.013131696224302353 -0.00020458027330981268 0 -0.013349132045232533 2.3862887389544628e-05 0 -0.012885542894171957 -0.00018586715300915994 0 -0.012468860916972375 -0.00049682220164783391 0 -0.013131696224302353 -0.00020458027330981268 0 -0.012885542894171957 -0.00018586715300915994 0 -0.013131696224302353 -0.00020458027330981268 0 -0.013317418281256663 -0.00020011718810936484 0 -0.013892363876846232 8.1461495203791979e-05 0 -0.01368149139099134 -7.5182451310227091e-05 0 -0.013892363876846232 8.1461495203791979e-05 0 -0.014640354305070965 0.00024860306203477854 0 -0.01368149139099134 -7.5182451310227091e-05 0 -0.013317418281256663 -0.00020011718810936484 0 -0.013892363876846232 8.1461495203791979e-05 0 -0.013131696224302353 -0.00020458027330981268 0 -0.013892363876846232 8.1461495203791979e-05 0 -0.013349132045232533 2.3862887389544628e-05 0 -0.013892363876846232 8.1461495203791979e-05 0 -0.013349132045232533 2.3862887389544628e-05 0 -0.013817987136586407 0.0002869107698805716 0 -0.013892363876846232 8.1461495203791979e-05 0 -0.013817987136586407 0.0002869107698805716 0 -0.014584574080852692 0.00055063392117860304 0 -0.013817987136586407 0.0002869107698805716 0 -0.014584574080852692 0.00055063392117860304 0 -0.013818417471820244 0.00053247196517656028 0 -0.013892363876846232 8.1461495203791979e-05 0 -0.014584574080852692 0.00055063392117860304 0 -0.014640354305070965 0.00024860306203477854 0 -0.015566325533234211 0.00060509932476525202 0 -0.014584574080852692 0.00055063392117860304 0 -0.014640354305070965 0.00024860306203477854 0 -0.015566325533234211 0.00060509932476525202 0 -0.015596671296407605 0.0002600880631866747 0 -0.014640354305070965 0.00024860306203477854 0 -0.014584574080852692 0.00055063392117860304 0 -0.014923827328840372 0.0011147487504909281 0 -0.013818417471820244 0.00053247196517656028 0 -0.015566325533234211 0.00060509932476525202 0 -0.014584574080852692 0.00055063392117860304 0 -0.014923827328840372 0.0011147487504909281 0 -0.01474607138896635 0.001170686082542279 0 -0.014228035623481792 0.0012828420296085027 0 -0.014923827328840372 0.0011147487504909281 0 -0.012994815931108164 0.00065109439771316791 0 -0.013818417471820244 0.00053247196517656028 0 -0.014923827328840372 0.0011147487504909281 0 -0.015474916111027795 0.0015203702513174263 0 -0.015357689489708174 0.0020311781382038627 0 -0.015627481369873197 0.0015839191798518559 0 -0.015474916111027795 0.0015203702513174263 0 -0.015446035448936775 0.0018699597985519611 0 -0.015474916111027795 0.0015203702513174263 0 -0.015446035448936775 0.0018699597985519611 0 -0.015357689489708174 0.0020311781382038627 0 -0.015446035448936775 0.0018699597985519611 0 -0.015325030806964053 0.0020618570501931021 0 -0.015444433929877814 0.0019142702515518436 0 -0.015627481369873197 0.0015839191798518559 0 -0.015446035448936775 0.0018699597985519611 0 -0.015444433929877814 0.0019142702515518436 0 -0.012994815931108164 0.00065109439771316791 0 -0.012963247401413445 0.00050057102927406169 0 -0.012750249969987562 0.00062667242299470978 0 -0.014228035623481792 0.0012828420296085027 0 -0.01395623923531336 0.0013455792257322005 0 -0.015357689489708174 0.0020311781382038627 0 -0.015201661013672289 0.0020463939239431812 0 -0.015241231426087439 0.0021169311698018361 0 -0.015446035448936775 0.0018699597985519611 0 -0.015325030806964053 0.0020618570501931021 0 -0.015357689489708174 0.0020311781382038627 0 -0.015325030806964053 0.0020618570501931021 0 -0.015357689489708174 0.0020311781382038627 0 -0.015241231426087439 0.0021169311698018361 0 -0.012994815931108164 0.00065109439771316791 0 -0.012963247401413445 0.00050057102927406169 0 -0.013818417471820244 0.00053247196517656028 0 -0.012963247401413445 0.00050057102927406169 0 -0.013818417471820244 0.00053247196517656028 0 -0.013261898103366424 0.00023066528659932063 0 -0.013817987136586407 0.0002869107698805716 0 -0.013818417471820244 0.00053247196517656028 0 -0.013261898103366424 0.00023066528659932063 0 -0.013349132045232533 2.3862887389544628e-05 0 -0.013817987136586407 0.0002869107698805716 0 -0.013261898103366424 0.00023066528659932063 0 -0.013349132045232533 2.3862887389544628e-05 0 -0.013261898103366424 0.00023066528659932063 0 -0.012914259259616225 -4.9087665105433947e-06 0 -0.013349132045232533 2.3862887389544628e-05 0 -0.012914259259616225 -4.9087665105433947e-06 0 -0.012885542894171957 -0.00018586715300915994 0 -0.012667389028425064 8.6416760080792354e-05 0 -0.012914259259616225 -4.9087665105433947e-06 0 -0.012493129564511362 -0.00022383930444910436 0 -0.013261898103366424 0.00023066528659932063 0 -0.012667389028425064 8.6416760080792354e-05 0 -0.012914259259616225 -4.9087665105433947e-06 0 -0.012963247401413445 0.00050057102927406169 0 -0.013261898103366424 0.00023066528659932063 0 -0.012667389028425064 8.6416760080792354e-05 0 -0.012963247401413445 0.00050057102927406169 0 -0.012690865897313889 0.00070878900754207962 0 -0.012750249969987562 0.00062667242299470978 0 -0.012832817784104941 0.00050858537064385381 0 -0.012310308000619205 0.00028372214020167279 0 -0.012963247401413445 0.00050057102927406169 0 -0.012667389028425064 8.6416760080792354e-05 0 -0.011873449618804582 -9.9417425709034431e-05 0 -0.012667389028425064 8.6416760080792354e-05 0 -0.011873449618804582 -9.9417425709034431e-05 0 -0.012493129564511362 -0.00022383930444910436 0 -0.011089331735528953 -0.00075606774448795124 0 -0.011873449618804582 -9.9417425709034431e-05 0 -0.011924465126592815 -0.00047812720611042377 0 -0.011873449618804582 -9.9417425709034431e-05 0 -0.011924465126592815 -0.00047812720611042377 0 -0.012493129564511362 -0.00022383930444910436 0 -0.012468860916972375 -0.00049682220164783391 0 -0.011924465126592815 -0.00047812720611042377 0 -0.012493129564511362 -0.00022383930444910436 0 -0.012468860916972375 -0.00049682220164783391 0 -0.012885542894171957 -0.00018586715300915994 0 -0.012493129564511362 -0.00022383930444910436 0 -0.012914259259616225 -4.9087665105433947e-06 0 -0.012885542894171957 -0.00018586715300915994 0 -0.012493129564511362 -0.00022383930444910436 0 -0.012632308675132521 0.0010781688519437558 0 -0.01408574936626756 0.0014464700349088241 0 -0.012986416498849939 0.0015752561878946466 0 -0.012773046333143112 0.0010549416389891153 0 -0.013393809234383025 0.0011915686846142657 0 -0.01408574936626756 0.0014464700349088241 0 -0.013554470649324961 0.0021109546187278315 0 -0.012986416498849939 0.0015752561878946466 0 -0.011892710334102543 9.5871793077290069e-05 0 -0.012310308000619205 0.00028372214020167279 0 -0.012659252708087139 0.00096847522766659554 0 -0.012690865897313889 0.00070878900754207962 0 -0.012728984133749163 0.00087088108124290119 0 -0.013393809234383025 0.0011915686846142657 0 -0.01395623923531336 0.0013455792257322005 0 -0.012690865897313889 0.00070878900754207962 0 -0.012728984133749163 0.00087088108124290119 0 -0.012750249969987562 0.00062667242299470978 0 -0.01408574936626756 0.0014464700349088241 0 -0.015201661013672289 0.0020463939239431812 0 -0.014349498843551496 0.0020007839078491811 0 -0.015201661013672289 0.0020463939239431812 0 -0.014886344405396514 0.0021905262292604894 0 -0.015241231426087439 0.0021169311698018361 0 -0.015201661013672289 0.0020463939239431812 0 -0.014886344405396514 0.0021905262292604894 0 -0.014349498843551496 0.0020007839078491811 0 -0.014886344405396514 0.0021905262292604894 0 -0.014349498843551496 0.0020007839078491811 0 -0.014531275013765338 0.0022882869108965978 0 -0.014349498843551496 0.0020007839078491811 0 -0.013990228549643166 0.0023138116539272303 0 -0.014531275013765338 0.0022882869108965978 0 -0.01408574936626756 0.0014464700349088241 0 -0.014349498843551496 0.0020007839078491811 0 -0.013554470649324961 0.0021109546187278315 0 -0.014349498843551496 0.0020007839078491811 0 -0.013554470649324961 0.0021109546187278315 0 -0.013990228549643166 0.0023138116539272303 0 -0.013554470649324961 0.0021109546187278315 0 -0.013990228549643166 0.0023138116539272303 0 -0.013447422349675839 0.0025336654531946607 0 -0.014626349907386498 0.0028619159757328908 0 -0.014025018289840634 0.0028775644295859501 0 -0.013281676678148308 0.003664684335128226 0 -0.013990228549643166 0.0023138116539272303 0 -0.013817670189009581 0.0026271135137728935 0 -0.013447422349675839 0.0025336654531946607 0 -0.013817670189009581 0.0026271135137728935 0 -0.014025018289840634 0.0028775644295859501 0 -0.013426495249351371 0.0029025685053513431 0 -0.017105002812405935 0.0016192379180520265 0 -0.015696279262970864 0.0021247493196465475 0 -0.013817670189009581 0.0026271135137728935 0 -0.01424273455228974 0.0025333861963495398 0 -0.014025018289840634 0.0028775644295859501 0 -0.013990228549643166 0.0023138116539272303 0 -0.013817670189009581 0.0026271135137728935 0 -0.01424273455228974 0.0025333861963495398 0 -0.013990228549643166 0.0023138116539272303 0 -0.01424273455228974 0.0025333861963495398 0 -0.014531275013765338 0.0022882869108965978 0 -0.01424273455228974 0.0025333861963495398 0 -0.014531275013765338 0.0022882869108965978 0 -0.014696442656906245 0.0025028872326848667 0 -0.014531275013765338 0.0022882869108965978 0 -0.014696442656906245 0.0025028872326848667 0 -0.014839187689614843 0.0023079653753343443 0 -0.014696442656906245 0.0025028872326848667 0 -0.014839187689614843 0.0023079653753343443 0 -0.014900945268732868 0.0023732358888910285 0 -0.016945816366578381 0.0016886229427389456 0 -0.017105002812405935 0.0016192379180520265 0 -0.014696442656906245 0.0025028872326848667 0 -0.014382900965981684 0.0026962694029058695 0 -0.014626349907386498 0.0028619159757328908 0 -0.014696442656906245 0.0025028872326848667 0 -0.015019667393687467 0.002327338304286419 0 -0.014900945268732868 0.0023732358888910285 0 -0.01424273455228974 0.0025333861963495398 0 -0.014696442656906245 0.0025028872326848667 0 -0.014382900965981684 0.0026962694029058695 0 -0.01424273455228974 0.0025333861963495398 0 -0.014382900965981684 0.0026962694029058695 0 -0.014025018289840634 0.0028775644295859501 0 -0.014382900965981684 0.0026962694029058695 0 -0.014626349907386498 0.0028619159757328908 0 -0.014025018289840634 0.0028775644295859501 0 -0.014025018289840634 0.0028775644295859501 0 -0.013281676678148308 0.003664684335128226 0 -0.013426495249351371 0.0029025685053513431 0 -0.014886344405396514 0.0021905262292604894 0 -0.015241231426087439 0.0021169311698018361 0 -0.015056262909922019 0.0022108652244465948 0 -0.015325030806964053 0.0020618570501931021 0 -0.015241231426087439 0.0021169311698018361 0 -0.015208163498404256 0.0021510032847988528 0 -0.015241231426087439 0.0021169311698018361 0 -0.015208163498404256 0.0021510032847988528 0 -0.015056262909922019 0.0022108652244465948 0 -0.015208163498404256 0.0021510032847988528 0 -0.015056262909922019 0.0022108652244465948 0 -0.015136857206151443 0.0022003852512227418 0 -0.015056262909922019 0.0022108652244465948 0 -0.014839187689614843 0.0023079653753343443 0 -0.015006784992830462 0.002284614081968327 0 -0.015056262909922019 0.0022108652244465948 0 -0.015006784992830462 0.002284614081968327 0 -0.015136857206151443 0.0022003852512227418 0 -0.015006784992830462 0.002284614081968327 0 -0.015103411266978447 0.0022287245802148558 0 -0.015136857206151443 0.0022003852512227418 0 -0.014886344405396514 0.0021905262292604894 0 -0.015056262909922019 0.0022108652244465948 0 -0.014839187689614843 0.0023079653753343443 0 -0.014886344405396514 0.0021905262292604894 0 -0.014531275013765338 0.0022882869108965978 0 -0.014839187689614843 0.0023079653753343443 0 -0.014839187689614843 0.0023079653753343443 0 -0.014900945268732868 0.0023732358888910285 0 -0.015006784992830462 0.002284614081968327 0 -0.015006784992830462 0.002284614081968327 0 -0.015015832417558198 0.0022931777208382788 0 -0.015103411266978447 0.0022287245802148558 0 -0.014900945268732868 0.0023732358888910285 0 -0.015006784992830462 0.002284614081968327 0 -0.015015832417558198 0.0022931777208382788 0 -0.015019667393687467 0.002327338304286419 0 -0.014900945268732868 0.0023732358888910285 0 -0.015015832417558198 0.0022931777208382788 0 -0.015019667393687467 0.002327338304286419 0 -0.015149254689518315 0.0021993654549735822 0 -0.015309365187613905 0.0020570073875754769 0 -0.015019667393687467 0.002327338304286419 0 -0.015015832417558198 0.0022931777208382788 0 -0.015149254689518315 0.0021993654549735822 0 -0.015015832417558198 0.0022931777208382788 0 -0.015149254689518315 0.0021993654549735822 0 -0.015103411266978447 0.0022287245802148558 0 -0.015149254689518315 0.0021993654549735822 0 -0.015309365187613905 0.0020570073875754769 0 -0.01520824756843527 0.0021496268840991589 0 -0.015309365187613905 0.0020570073875754769 0 -0.01520824756843527 0.0021496268840991589 0 -0.015273013304963537 0.0020997986370511683 0 -0.01520824756843527 0.0021496268840991589 0 -0.015136857206151443 0.0022003852512227418 0 -0.015273013304963537 0.0020997986370511683 0 -0.015149254689518315 0.0021993654549735822 0 -0.01520824756843527 0.0021496268840991589 0 -0.015103411266978447 0.0022287245802148558 0 -0.01520824756843527 0.0021496268840991589 0 -0.015103411266978447 0.0022287245802148558 0 -0.015136857206151443 0.0022003852512227418 0 -0.015325030806964053 0.0020618570501931021 0 -0.015273013304963537 0.0020997986370511683 0 -0.015444433929877814 0.0019142702515518436 0 -0.015208163498404256 0.0021510032847988528 0 -0.015136857206151443 0.0022003852512227418 0 -0.015273013304963537 0.0020997986370511683 0 -0.015309365187613905 0.0020570073875754769 0 -0.015273013304963537 0.0020997986370511683 0 -0.015444433929877814 0.0019142702515518436 0 -0.015325030806964053 0.0020618570501931021 0 -0.015208163498404256 0.0021510032847988528 0 -0.015273013304963537 0.0020997986370511683 0 -0.015309365187613905 0.0020570073875754769 0 -0.015444433929877814 0.0019142702515518436 0 -0.015815455654046351 0.0015850140898537514 0 -0.015019667393687467 0.002327338304286419 0 -0.015309365187613905 0.0020570073875754769 0 -0.015815455654046351 0.0015850140898537514 0 -0.017105002812405935 0.0016192379180520265 0 -0.017854571198587344 0.0014084534348369313 0 -0.015627481369873197 0.0015839191798518559 0 -0.015444433929877814 0.0019142702515518436 0 -0.015815455654046351 0.0015850140898537514 0 -0.019584032077762124 -0.00047563807942493035 0 -0.020015415356133555 0.0016126626950968672 0 -0.019195650360170832 0.00069865163986667592 0 -0.019584032077762124 -0.00047563807942493035 0 -0.019195650360170832 0.00069865163986667592 0 -0.018053374483691889 0.00072647042431399659 0 -0.020015415356133555 0.0016126626950968672 0 -0.019195650360170832 0.00069865163986667592 0 -0.018990506223796801 0.0013930153595622325 0 -0.018990506223796801 0.0013930153595622325 0 -0.018277555817746191 0.001835706254185304 0 -0.018053374483691889 0.00072647042431399659 0 -0.019195650360170832 0.00069865163986667592 0 -0.018990506223796801 0.0013930153595622325 0 -0.018053374483691889 0.00072647042431399659 0 -0.020015415356133555 0.0016126626950968672 0 -0.019301412216542434 0.0020754974906793556 0 -0.019701112452760603 0.0028960609237606853 0 -0.018990506223796801 0.0013930153595622325 0 -0.019301412216542434 0.0020754974906793556 0 -0.018277555817746191 0.001835706254185304 0 -0.020015415356133555 0.0016126626950968672 0 -0.018990506223796801 0.0013930153595622325 0 -0.019301412216542434 0.0020754974906793556 0 -0.019301412216542434 0.0020754974906793556 0 -0.019701112452760603 0.0028960609237606853 0 -0.018277555817746191 0.001835706254185304 0 -0.019724843763104238 0.002934733861217861 0 -0.01917503090631539 0.0033310537990896599 0 -0.019701112452760603 0.0028960609237606853 0 -0.020049756929109791 0.0026941447466548342 0 -0.020475252646015029 0.0029341907810050386 0 -0.019701112452760603 0.0028960609237606853 0 -0.017996895946915347 0.0036446376350558868 0 -0.018277555817746191 0.001835706254185304 0 -0.019701112452760603 0.0028960609237606853 0 -0.019887522388997787 0.003005463676078385 0 -0.020049756929109791 0.0026941447466548342 0 -0.020015415356133555 0.0016126626950968672 0 -0.019701112452760603 0.0028960609237606853 0 -0.019887522388997787 0.003005463676078385 0 -0.017854571198587344 0.0014084534348369313 0 -0.018055366798673384 0.0020891594396900796 0 -0.015815455654046351 0.0015850140898537514 0 -0.016193215887079303 0.0012413509138856972 0 -0.015879825901247712 0.001390168581262694 0 -0.015627481369873197 0.0015839191798518559 0 -0.015815455654046351 0.0015850140898537514 0 -0.015879825901247712 0.001390168581262694 0 -0.015627481369873197 0.0015839191798518559 0 -0.015879825901247712 0.001390168581262694 0 -0.015860869570766892 0.0011916468016486097 0 -0.016193215887079303 0.0012413509138856972 0 -0.015879825901247712 0.001390168581262694 0 -0.015860869570766892 0.0011916468016486097 0 -0.015627481369873197 0.0015839191798518559 0 -0.015474916111027795 0.0015203702513174263 0 -0.015860869570766892 0.0011916468016486097 0 -0.015770468977275433 0.00092885792416067816 0 -0.014923827328840372 0.0011147487504909281 0 -0.015860869570766892 0.0011916468016486097 0 -0.014923827328840372 0.0011147487504909281 0 -0.015474916111027795 0.0015203702513174263 0 -0.015860869570766892 0.0011916468016486097 0 -0.015770468977275433 0.00092885792416067816 0 -0.015860869570766892 0.0011916468016486097 0 -0.016302419608080224 0.0011527471068972527 0 -0.015860869570766892 0.0011916468016486097 0 -0.016302419608080224 0.0011527471068972527 0 -0.016548466440990315 0.0012917348407245554 0 -0.016193215887079303 0.0012413509138856972 0 -0.015860869570766892 0.0011916468016486097 0 -0.016548466440990315 0.0012917348407245554 0 -0.016193215887079303 0.0012413509138856972 0 -0.016548466440990315 0.0012917348407245554 0 -0.017067456159373984 0.0015145778363626465 0 -0.016548466440990315 0.0012917348407245554 0 -0.017275205831569385 0.0015080532291698674 0 -0.017067456159373984 0.0015145778363626465 0 -0.016431674080698188 0.0010972470500303425 0 -0.016302419608080224 0.0011527471068972527 0 -0.017275205831569385 0.0015080532291698674 0 -0.016302419608080224 0.0011527471068972527 0 -0.016548466440990315 0.0012917348407245554 0 -0.017275205831569385 0.0015080532291698674 0 -0.016717797631645825 0.0013840136270055095 0 -0.017275205831569385 0.0015080532291698674 0 -0.01773265732183785 0.0011826918272179214 0 -0.018310013396495486 0.0018928584503485875 0 -0.018706767666319037 0.0014469606718566939 0 -0.017067456159373984 0.0015145778363626465 0 -0.0188839694736847 0.0015037435583063973 0 -0.017966675115342681 0.0014780713862968587 0 -0.017275205831569385 0.0015080532291698674 0 -0.017067456159373984 0.0015145778363626465 0 -0.017966675115342681 0.0014780713862968587 0 -0.020098960361816895 0.0021374975527944464 0 -0.019480041794383413 0.0024996567172625396 0 -0.0188839694736847 0.0015037435583063973 0 -0.020098960361816895 0.0021374975527944464 0 -0.020893786475984159 0.0021406312711421483 0 -0.020625442915399667 0.0014453958080675397 0 -0.020098960361816895 0.0021374975527944464 0 -0.020049756929109791 0.0026941447466548342 0 -0.020893786475984159 0.0021406312711421483 0 -0.018055366798673384 0.0020891594396900796 0 -0.018310013396495486 0.0018928584503485875 0 -0.019887522388997787 0.003005463676078385 0 -0.020049756929109791 0.0026941447466548342 0 -0.019480041794383413 0.0024996567172625396 0 -0.020098960361816895 0.0021374975527944464 0 -0.020049756929109791 0.0026941447466548342 0 -0.019480041794383413 0.0024996567172625396 0 -0.020840898809710136 0.0028369229459229289 0 -0.020437800511509403 0.0024489744076383133 0 -0.020279011121228464 0.0030791208101470322 0 -0.020049756929109791 0.0026941447466548342 0 -0.020893786475984159 0.0021406312711421483 0 -0.020475252646015029 0.0029341907810050386 0 -0.020819950903821521 0.0021910952531516638 0 -0.01917503090631539 0.0033310537990896599 0 -0.020840898809710136 0.0028369229459229289 0 -0.020437800511509403 0.0024489744076383133 0 -0.021020211344605792 0.0024639060540423878 0 -0.020437800511509403 0.0024489744076383133 0 -0.021020211344605792 0.0024639060540423878 0 -0.020777306659991824 0.0021908271888734059 0 -0.021020211344605792 0.0024639060540423878 0 -0.021363943516382121 0.0026039448647465369 0 -0.021087640996466091 0.0020592638061486469 0 -0.017903767276643244 0.003380856069480351 0 -0.022063944001406197 0.0020300568291735728 0 -0.021020211344605792 0.0024639060540423878 0 -0.021087640996466091 0.0020592638061486469 0 -0.020777306659991824 0.0021908271888734059 0 -0.021420233705184623 0.0022166155151266014 0 -0.021301658270452283 0.0024684322357470586 0 -0.021087640996466091 0.0020592638061486469 0 -0.017903767276643244 0.003380856069480351 0 -0.013392993100527257 0.0040850986948403386 0 -0.012142735803562963 0.0059070902732045339 0 -0.011993452081755774 0.0052213374538054927 0 -0.011249041539034868 0.0043454979418779231 0 -0.012142735803562963 0.0059070902732045339 0 -0.011993452081755774 0.0052213374538054927 0 -0.013291316733635166 0.0050202447273680487 0 -0.01760211135522019 0.004232641279070126 0 -0.017903767276643244 0.003380856069480351 0 -0.020840898809710136 0.0028369229459229289 0 -0.021020211344605792 0.0024639060540423878 0 -0.021363943516382121 0.0026039448647465369 0 -0.014935241788060863 0.005287340560059855 0 -0.012142735803562963 0.0059070902732045339 0 -0.013291316733635166 0.0050202447273680487 0 -0.014935241788060863 0.005287340560059855 0 -0.013291316733635166 0.0050202447273680487 0 -0.013948649039360534 0.0036145241985040925 0 -0.011993452081755774 0.0052213374538054927 0 -0.013291316733635166 0.0050202447273680487 0 -0.013948649039360534 0.0036145241985040925 0 -0.011993452081755774 0.0052213374538054927 0 -0.012214275748198822 0.0044256060411089803 0 -0.011797812433884268 0.0042797271677215455 0 -0.012025123592897653 0.0051261424013263248 0 -0.013069381339682265 0.0040730406515417025 0 -0.011993452081755774 0.0052213374538054927 0 -0.011797812433884268 0.0042797271677215455 0 -0.011249041539034868 0.0043454979418779231 0 -0.011797812433884268 0.0042797271677215455 0 -0.011694028059756821 0.0038548301099711299 0 -0.012121264301106384 0.0039672793704232075 0 -0.011797812433884268 0.0042797271677215455 0 -0.011694028059756821 0.0038548301099711299 0 -0.011402685791507917 0.0039127371845524492 0 -0.012214275748198822 0.0044256060411089803 0 -0.012121264301106384 0.0039672793704232075 0 -0.012568903699682964 0.0040353127100877491 0 -0.012214275748198822 0.0044256060411089803 0 -0.011797812433884268 0.0042797271677215455 0 -0.012121264301106384 0.0039672793704232075 0 -0.013069381339682265 0.0040730406515417025 0 -0.01431772557440094 0.0030696749591679058 0 -0.012121264301106384 0.0039672793704232075 0 -0.012568903699682964 0.0040353127100877491 0 -0.012549961358906597 0.003581625534501677 0 -0.013948649039360534 0.0036145241985040925 0 -0.016069434932593316 0.0020514127662184132 0 -0.015788142571531938 0.0037381410525283831 0 -0.01760211135522019 0.004232641279070126 0 -0.01917503090631539 0.0033310537990896599 0 -0.014935241788060863 0.005287340560059855 0 -0.015788142571531938 0.0037381410525283831 0 -0.017744856998345181 0.0041999890280427941 0 -0.016069434932593316 0.0020514127662184132 0 -0.015788142571531938 0.0037381410525283831 0 -0.017744856998345181 0.0041999890280427941 0 -0.014935241788060863 0.005287340560059855 0 -0.013948649039360534 0.0036145241985040925 0 -0.015788142571531938 0.0037381410525283831 0 -0.016069434932593316 0.0020514127662184132 0 -0.018277555817746191 0.001835706254185304 0 -0.018053374483691889 0.00072647042431399659 0 -0.01917503090631539 0.0033310537990896599 0 -0.018006426948480907 0.0022571129157424232 0 -0.016069434932593316 0.0020514127662184132 0 -0.017744856998345181 0.0041999890280427941 0 -0.018277555817746191 0.001835706254185304 0 -0.012568903699682964 0.0040353127100877491 0 -0.013281676678148308 0.003664684335128226 0 -0.012549961358906597 0.003581625534501677 0 -0.013281676678148308 0.003664684335128226 0 -0.012549961358906597 0.003581625534501677 0 -0.012901906110142925 0.0031670484194357825 0 -0.01431772557440094 0.0030696749591679058 0 -0.015696279262970864 0.0021247493196465475 0 -0.012549961358906597 0.003581625534501677 0 -0.012462202717791856 0.0030404296151362517 0 -0.011818230430576041 0.0033067834914769045 0 -0.012462202717791856 0.0030404296151362517 0 -0.01200966385993118 0.0024121583432728287 0 -0.011818230430576041 0.0033067834914769045 0 -0.012462202717791856 0.0030404296151362517 0 -0.012901318938709055 0.002585238654522347 0 -0.01200966385993118 0.0024121583432728287 0 -0.012549961358906597 0.003581625534501677 0 -0.012462202717791856 0.0030404296151362517 0 -0.012901906110142925 0.0031670484194357825 0 -0.013281676678148308 0.003664684335128226 0 -0.013426495249351371 0.0029025685053513431 0 -0.012901906110142925 0.0031670484194357825 0 -0.013426495249351371 0.0029025685053513431 0 -0.012901906110142925 0.0031670484194357825 0 -0.012901318938709055 0.002585238654522347 0 -0.012462202717791856 0.0030404296151362517 0 -0.012901906110142925 0.0031670484194357825 0 -0.012901318938709055 0.002585238654522347 0 -0.013426495249351371 0.0029025685053513431 0 -0.012901318938709055 0.002585238654522347 0 -0.013447422349675839 0.0025336654531946607 0 -0.013817670189009581 0.0026271135137728935 0 -0.013426495249351371 0.0029025685053513431 0 -0.013447422349675839 0.0025336654531946607 0 -0.013554470649324961 0.0021109546187278315 0 -0.012901318938709055 0.002585238654522347 0 -0.013447422349675839 0.0025336654531946607 0 -0.013554470649324961 0.0021109546187278315 0 -0.01262520318735205 0.0019890050036293115 0 -0.012986416498849939 0.0015752561878946466 0 -0.013554470649324961 0.0021109546187278315 0 -0.012901318938709055 0.002585238654522347 0 -0.01262520318735205 0.0019890050036293115 0 -0.012901318938709055 0.002585238654522347 0 -0.01262520318735205 0.0019890050036293115 0 -0.01200966385993118 0.0024121583432728287 0 -0.01262520318735205 0.0019890050036293115 0 -0.01200966385993118 0.0024121583432728287 0 -0.012080149354081398 0.001906105398788719 0 -0.012154244596633924 0.0014520440611577002 0 -0.012080149354081398 0.001906105398788719 0 -0.011544478819784503 0.001803451568656512 0 -0.012154244596633924 0.0014520440611577002 0 -0.01262520318735205 0.0019890050036293115 0 -0.012080149354081398 0.001906105398788719 0 -0.012154244596633924 0.0014520440611577002 0 -0.01262520318735205 0.0019890050036293115 0 -0.012986416498849939 0.0015752561878946466 0 -0.012632308675132521 0.0010781688519437558 0 -0.012154244596633924 0.0014520440611577002 0 -0.012986416498849939 0.0015752561878946466 0 -0.011053674005786896 0.0016310313186305297 0 -0.011110128302522121 0.0021823918327320553 0 -0.010671663322483557 0.0018381748221512567 0 -0.011053674005786896 0.0016310313186305297 0 -0.011544478819784503 0.001803451568656512 0 -0.011110128302522121 0.0021823918327320553 0 -0.01200966385993118 0.0024121583432728287 0 -0.012080149354081398 0.001906105398788719 0 -0.011544478819784503 0.001803451568656512 0 -0.01200966385993118 0.0024121583432728287 0 -0.011544478819784503 0.001803451568656512 0 -0.011110128302522121 0.0021823918327320553 0 -0.01200966385993118 0.0024121583432728287 0 -0.011110128302522121 0.0021823918327320553 0 -0.011818230430576041 0.0033067834914769045 0 -0.011818230430576041 0.0033067834914769045 0 -0.011385996489366905 0.0035346253139733044 0 -0.011397290794993421 0.0032099717970553499 0 -0.011110128302522121 0.0021823918327320553 0 -0.011818230430576041 0.0033067834914769045 0 -0.010669491832827328 0.002700792290970679 0 -0.012016739716571837 0.0033972599375616283 0 -0.010496003115111393 0.0027515224268304891 0 -0.012121264301106384 0.0039672793704232075 0 -0.012549961358906597 0.003581625534501677 0 -0.011818230430576041 0.0033067834914769045 0 -0.011694028059756821 0.0038548301099711299 0 -0.012121264301106384 0.0039672793704232075 0 -0.011818230430576041 0.0033067834914769045 0 -0.011694028059756821 0.0038548301099711299 0 -0.011818230430576041 0.0033067834914769045 0 -0.011385996489366905 0.0035346253139733044 0 -0.011694028059756821 0.0038548301099711299 0 -0.011385996489366905 0.0035346253139733044 0 -0.011402685791507917 0.0039127371845524492 0 -0.011385996489366905 0.0035346253139733044 0 -0.011054706256949973 0.0036771714731463501 0 -0.011402685791507917 0.0039127371845524492 0 -0.017347424347991788 0.003813811271864562 0 -0.015678800355395494 0.0036835436033769561 0 -0.011385996489366905 0.0035346253139733044 0 -0.011054706256949973 0.0036771714731463501 0 -0.011048740030693749 0.003321537382736767 0 -0.017347424347991788 0.003813811271864562 0 -0.020887101121444668 0.0043763949556029106 0 -0.020228904543788194 0.0039549785569861513 0 -0.020241997345612554 0.0037039574668295151 0 -0.02019025571040969 0.0039610145585850113 0 -0.020187589028747073 0.0040118783764264265 0 -0.020228904543788194 0.0039549785569861513 0 -0.02019025571040969 0.0039610145585850113 0 -0.011385996489366905 0.0035346253139733044 0 -0.011048740030693749 0.003321537382736767 0 -0.011397290794993421 0.0032099717970553499 0 -0.011110128302522121 0.0021823918327320553 0 -0.010669491832827328 0.002700792290970679 0 -0.010377013120446206 0.0020981465767038695 0 -0.010496003115111393 0.0027515224268304891 0 -0.013000146406620896 0.0032438315431396691 0 -0.010669491832827328 0.002700792290970679 0 -0.010059745362969252 0.002168598520469087 0 -0.010377013120446206 0.0020981465767038695 0 -0.015678800355395494 0.0036835436033769561 0 -0.013000146406620896 0.0032438315431396691 0 -0.011048740030693749 0.003321537382736767 0 -0.011397290794993421 0.0032099717970553499 0 -0.011016886746148194 0.0030245165716825291 0 -0.010059745362969252 0.002168598520469087 0 -0.010062338517755445 0.0020262122569279636 0 -0.010377013120446206 0.0020981465767038695 0 -0.013000146406620896 0.0032438315431396691 0 -0.012329706597574626 0.002418771595630947 0 -0.010386141929193588 0.0017557266184071686 0 -0.010171553774970761 0.0018330098185866106 0 -0.010377013120446206 0.0020981465767038695 0 -0.010062338517755445 0.0020262122569279636 0 -0.010171553774970761 0.0018330098185866106 0 -0.010377013120446206 0.0020981465767038695 0 -0.010062338517755445 0.0020262122569279636 0 -0.010171553774970761 0.0018330098185866106 0 -0.0099956110033603482 0.0017800409460258047 0 -0.010386141929193588 0.0017557266184071686 0 -0.010671663322483557 0.0018381748221512567 0 -0.010377013120446206 0.0020981465767038695 0 -0.011110128302522121 0.0021823918327320553 0 -0.010671663322483557 0.0018381748221512567 0 -0.010377013120446206 0.0020981465767038695 0 -0.010062338517755445 0.0020262122569279636 0 -0.0099865872023657716 0.001751002593536494 0 -0.0099956110033603482 0.0017800409460258047 0 -0.010067105277819944 0.0020777127990615559 0 -0.010062338517755445 0.0020262122569279636 0 -0.0099865872023657716 0.001751002593536494 0 -0.013000146406620896 0.0032438315431396691 0 -0.015455338593475042 0.0026106066675645749 0 -0.020241997345612554 0.0037039574668295151 0 -0.019992635416969537 0.0034064977424862778 0 -0.020061051758073628 0.0037692178196376907 0 -0.020241997345612554 0.0037039574668295151 0 -0.020061051758073628 0.0037692178196376907 0 -0.02019025571040969 0.0039610145585850113 0 -0.019992635416969537 0.0034064977424862778 0 -0.020061051758073628 0.0037692178196376907 0 -0.019886173357645431 0.0037310390459471248 0 -0.020061051758073628 0.0037692178196376907 0 -0.0199396138373985 0.0039914121843769622 0 -0.019886173357645431 0.0037310390459471248 0 -0.020061051758073628 0.0037692178196376907 0 -0.0199396138373985 0.0039914121843769622 0 -0.020063059998679383 0.004048128695211213 0 -0.0199396138373985 0.0039914121843769622 0 -0.020063059998679383 0.004048128695211213 0 -0.019979257541921799 0.0041878411692395038 0 -0.020061051758073628 0.0037692178196376907 0 -0.02019025571040969 0.0039610145585850113 0 -0.020063059998679383 0.004048128695211213 0 -0.02019025571040969 0.0039610145585850113 0 -0.020063059998679383 0.004048128695211213 0 -0.02010761341294693 0.0042210703669083886 0 -0.020246731368199176 0.004259694095074971 0 -0.02019025571040969 0.0039610145585850113 0 -0.02010761341294693 0.0042210703669083886 0 -0.02010761341294693 0.0042210703669083886 0 -0.019979257541921799 0.0041878411692395038 0 -0.019983613967361501 0.004373139202838168 0 -0.0199396138373985 0.0039914121843769622 0 -0.019979257541921799 0.0041878411692395038 0 -0.019846008960104699 0.0042374339788325641 0 -0.020063059998679383 0.004048128695211213 0 -0.02010761341294693 0.0042210703669083886 0 -0.019979257541921799 0.0041878411692395038 0 -0.019979257541921799 0.0041878411692395038 0 -0.019983613967361501 0.004373139202838168 0 -0.019846008960104699 0.0042374339788325641 0 -0.019983613967361501 0.004373139202838168 0 -0.020094419119911281 0.00443273765727379 0 -0.019967086132100589 0.0045468171329160617 0 -0.020094419119911281 0.00443273765727379 0 -0.020034382740572235 0.0045592391449989431 0 -0.019967086132100589 0.0045468171329160617 0 -0.020094419119911281 0.00443273765727379 0 -0.020159686401175665 0.0044820317143558679 0 -0.020034382740572235 0.0045592391449989431 0 -0.020246731368199176 0.004259694095074971 0 -0.02010761341294693 0.0042210703669083886 0 -0.020094419119911281 0.00443273765727379 0 -0.02010761341294693 0.0042210703669083886 0 -0.019983613967361501 0.004373139202838168 0 -0.020094419119911281 0.00443273765727379 0 -0.020246731368199176 0.004259694095074971 0 -0.020094419119911281 0.00443273765727379 0 -0.020159686401175665 0.0044820317143558679 0 -0.017347424347991788 0.003813811271864562 0 -0.018937695317622575 0.0042695860355874415 0 -0.017347424347991788 0.003813811271864562 0 -0.013392993100527257 0.0040850986948403386 0 -0.011797812433884268 0.0042797271677215455 0 -0.011402685791507917 0.0039127371845524492 0 -0.011249041539034868 0.0043454979418779231 0 -0.011054706256949973 0.0036771714731463501 0 -0.011402685791507917 0.0039127371845524492 0 -0.011249041539034868 0.0043454979418779231 0 -0.017542273980827854 0.0039334383742769749 0 -0.017421847497196427 0.0037209091239231227 0 -0.017517460214082962 0.0036854542807581111 0 -0.017421847497196427 0.0037209091239231227 0 -0.017517460214082962 0.0036854542807581111 0 -0.017428108579367826 0.0035736520753233678 0 -0.020159686401175665 0.0044820317143558679 0 -0.020083114932672955 0.0045403830270827391 0 -0.020034382740572235 0.0045592391449989431 0 -0.020159686401175665 0.0044820317143558679 0 -0.020083114932672955 0.0045403830270827391 0 -0.020102835607285142 0.0045589655940533793 0 -0.017305130243570537 0.0034980631671700959 0 -0.017428108579367826 0.0035736520753233678 0 -0.017499049072705369 0.003422201382848062 0 -0.017517460214082962 0.0036854542807581111 0 -0.017428108579367826 0.0035736520753233678 0 -0.017499049072705369 0.003422201382848062 0 -0.018937695317622575 0.0042695860355874415 0 -0.019745181156818854 0.0034134332191761959 0 -0.017305130243570537 0.0034980631671700959 0 -0.017421847497196427 0.0037209091239231227 0 -0.017428108579367826 0.0035736520753233678 0 -0.017903767276643244 0.003380856069480351 0 -0.019745181156818854 0.0034134332191761959 0 -0.021420233705184623 0.0022166155151266014 0 -0.021658082634986919 0.0023239685410695442 0 -0.021624238348613104 0.002034287374944549 0 -0.021420233705184623 0.0022166155151266014 0 -0.021301658270452283 0.0024684322357470586 0 -0.021658082634986919 0.0023239685410695442 0 -0.020083114932672955 0.0045403830270827391 0 -0.020048801290080669 0.0045502024952736768 0 -0.020052939800678949 0.0045685852803088092 0 -0.020083114932672955 0.0045403830270827391 0 -0.020048801290080669 0.0045502024952736768 0 -0.020024388931639429 0.0045538420932924482 0 -0.020083114932672955 0.0045403830270827391 0 -0.020102835607285142 0.0045589655940533793 0 -0.020052939800678949 0.0045685852803088092 0 -0.019745181156818854 0.0034134332191761959 0 -0.019847986214201124 0.0045292513487419118 0 -0.019615800118663408 0.0046013004068748073 0 -0.019766086223876347 0.0045507719653505325 0 -0.019693248025702194 0.0044823701138237944 0 -0.020048801290080669 0.0045502024952736768 0 -0.020052939800678949 0.0045685852803088092 0 -0.02000579494361358 0.0045449857860235454 0 -0.020052939800678949 0.0045685852803088092 0 -0.02000579494361358 0.0045449857860235454 0 -0.019957868196155283 0.0045106507925186633 0 -0.020024388931639429 0.0045538420932924482 0 -0.020009104302093135 0.0045523469792236679 0 -0.020034382740572235 0.0045592391449989431 0 -0.020048801290080669 0.0045502024952736768 0 -0.02000579494361358 0.0045449857860235454 0 -0.020024388931639429 0.0045538420932924482 0 -0.02000579494361358 0.0045449857860235454 0 -0.020024388931639429 0.0045538420932924482 0 -0.020009104302093135 0.0045523469792236679 0 -0.02000579494361358 0.0045449857860235454 0 -0.020009104302093135 0.0045523469792236679 0 -0.019957868196155283 0.0045106507925186633 0 -0.020009104302093135 0.0045523469792236679 0 -0.020028496478891555 0.0045778418762953523 0 -0.020034382740572235 0.0045592391449989431 0 -0.020009104302093135 0.0045523469792236679 0 -0.020028496478891555 0.0045778418762953523 0 -0.02002597251690209 0.0044950089736157071 0 -0.020028496478891555 0.0045778418762953523 0 -0.020034382740572235 0.0045592391449989431 0 -0.020005085292724319 0.0046007727563105137 0 -0.020034382740572235 0.0045592391449989431 0 -0.019967086132100589 0.0045468171329160617 0 -0.020005085292724319 0.0046007727563105137 0 -0.020083114932672955 0.0045403830270827391 0 -0.020024388931639429 0.0045538420932924482 0 -0.020034382740572235 0.0045592391449989431 0 -0.019869042640259189 0.0042573534424044284 0 -0.020020443876904399 0.0041835768759557902 0 -0.019840041373288011 0.004066039282544163 0 -0.019869042640259189 0.0042573534424044284 0 -0.020020443876904399 0.0041835768759557902 0 -0.019964090304193067 0.0043743379342469661 0 -0.019869042640259189 0.0042573534424044284 0 -0.01988032020300837 0.0043976717161210953 0 -0.019786694842510881 0.0043413929727086605 0 -0.019869042640259189 0.0042573534424044284 0 -0.019964090304193067 0.0043743379342469661 0 -0.01988032020300837 0.0043976717161210953 0 -0.019869042640259189 0.0042573534424044284 0 -0.019713064213315364 0.0042017257474708794 0 -0.019840041373288011 0.004066039282544163 0 -0.020020443876904399 0.0041835768759557902 0 -0.020060213960044947 0.0043726354106232747 0 -0.020192783986964054 0.0043368996390214442 0 -0.020020443876904399 0.0041835768759557902 0 -0.020060213960044947 0.0043726354106232747 0 -0.019964090304193067 0.0043743379342469661 0 -0.020060213960044947 0.0043726354106232747 0 -0.02002597251690209 0.0044950089736157071 0 -0.019964090304193067 0.0043743379342469661 0 -0.020028496478891555 0.0045778418762953523 0 -0.02002597251690209 0.0044950089736157071 0 -0.020116493963721883 0.0045062251563556368 0 -0.020060213960044947 0.0043726354106232747 0 -0.02002597251690209 0.0044950089736157071 0 -0.020116493963721883 0.0045062251563556368 0 -0.020009104302093135 0.0045523469792236679 0 -0.02002597251690209 0.0044950089736157071 0 -0.019957868196155283 0.0045106507925186633 0 -0.019957868196155283 0.0045106507925186633 0 -0.019964090304193067 0.0043743379342469661 0 -0.01988032020300837 0.0043976717161210953 0 -0.02002597251690209 0.0044950089736157071 0 -0.019957868196155283 0.0045106507925186633 0 -0.019964090304193067 0.0043743379342469661 0 -0.01988032020300837 0.0043976717161210953 0 -0.019818813555049972 0.0044815205347795012 0 -0.019786694842510881 0.0043413929727086605 0 -0.019766086223876347 0.0045507719653505325 0 -0.019957868196155283 0.0045106507925186633 0 -0.019818813555049972 0.0044815205347795012 0 -0.019957868196155283 0.0045106507925186633 0 -0.01988032020300837 0.0043976717161210953 0 -0.019818813555049972 0.0044815205347795012 0 -0.019847986214201124 0.0045292513487419118 0 -0.01997670089475764 0.0045092357924082687 0 -0.019766086223876347 0.0045507719653505325 0 -0.019818813555049972 0.0044815205347795012 0 -0.019693248025702194 0.0044823701138237944 0 -0.019818813555049972 0.0044815205347795012 0 -0.019693248025702194 0.0044823701138237944 0 -0.019687930822764009 0.0043461480250952967 0 -0.019797032297973319 0.0044579637011291752 0 -0.019697287774746254 0.004325392814046823 0 -0.019818813555049972 0.0044815205347795012 0 -0.019647184476865732 0.0043562790862847695 0 -0.019786694842510881 0.0043413929727086605 0 -0.019615800118663408 0.0046013004068748073 0 -0.019693248025702194 0.0044823701138237944 0 -0.01957937305242664 0.004420611475956209 0 -0.021624238348613104 0.002034287374944549 0 -0.021581422337858321 0.0017507257248876185 0 -0.021411374618418341 0.0019740245564623267 0 -0.019745181156818854 0.0034134332191761959 0 -0.020581237617172999 0.0032175637164706975 0 -0.021420233705184623 0.0022166155151266014 0 -0.021624238348613104 0.002034287374944549 0 -0.021411374618418341 0.0019740245564623267 0 -0.019693248025702194 0.0044823701138237944 0 -0.019687930822764009 0.0043461480250952967 0 -0.01957937305242664 0.004420611475956209 0 -0.020581237617172999 0.0032175637164706975 0 -0.020216324560168128 0.00332356255599021 0 -0.019687930822764009 0.0043461480250952967 0 -0.01957937305242664 0.004420611475956209 0 -0.019546381040726195 0.0042136680270932324 0 -0.019697287774746254 0.004325392814046823 0 -0.020216324560168128 0.00332356255599021 0 -0.020216324560168128 0.00332356255599021 0 -0.021358945852598898 0.0021531491037829549 0 -0.019489816294155759 0.0042177390640483932 0 -0.019713064213315364 0.0042017257474708794 0 -0.019663506755056626 0.0039961499167426367 0 -0.019647184476865732 0.0043562790862847695 0 -0.019489816294155759 0.0042177390640483932 0 -0.019713064213315364 0.0042017257474708794 0 -0.019869042640259189 0.0042573534424044284 0 -0.019786694842510881 0.0043413929727086605 0 -0.019713064213315364 0.0042017257474708794 0 -0.019647184476865732 0.0043562790862847695 0 -0.019786694842510881 0.0043413929727086605 0 -0.019713064213315364 0.0042017257474708794 0 -0.019663506755056626 0.0039961499167426367 0 -0.019812641214725209 0.0037586357377104333 0 -0.019840041373288011 0.004066039282544163 0 -0.019713064213315364 0.0042017257474708794 0 -0.019663506755056626 0.0039961499167426367 0 -0.019840041373288011 0.004066039282544163 0 -0.020682458995681854 0.00282994476576261 0 -0.020730238266432444 0.003086400834559507 0 -0.020776119444842821 0.002903702400562219 0 -0.019489816294155759 0.0042177390640483932 0 -0.019663506755056626 0.0039961499167426367 0 -0.019440662963202949 0.0038806949080859928 0 -0.020216324560168128 0.00332356255599021 0 -0.020878767270529956 0.0032239624837428747 0 -0.019440662963202949 0.0038806949080859928 0 -0.019619322211183343 0.0038110950216934847 0 -0.019519058353743037 0.0036198362818503369 0 -0.020878767270529956 0.0032239624837428747 0 -0.022683733996391797 0.0015606898032933119 0 -0.021903530463102904 0.0030465852167058344 0 -0.0222966424098076 0.0015393705674116626 0 -0.021694745583184207 0.0018210217932549122 0 -0.020878767270529956 0.0032239624837428747 0 -0.022687281302478275 0.0016941954538745049 0 -0.019663506755056626 0.0039961499167426367 0 -0.019440662963202949 0.0038806949080859928 0 -0.019619322211183343 0.0038110950216934847 0 -0.019663506755056626 0.0039961499167426367 0 -0.019619322211183343 0.0038110950216934847 0 -0.019812641214725209 0.0037586357377104333 0 -0.019619322211183343 0.0038110950216934847 0 -0.019812641214725209 0.0037586357377104333 0 -0.019519058353743037 0.0036198362818503369 0 -0.019962728461300112 0.0039357360549700671 0 -0.019812641214725209 0.0037586357377104333 0 -0.019840041373288011 0.004066039282544163 0 -0.019962728461300112 0.0039357360549700671 0 -0.019812641214725209 0.0037586357377104333 0 -0.020023544900624624 0.0036660373309826719 0 -0.020020443876904399 0.0041835768759557902 0 -0.019962728461300112 0.0039357360549700671 0 -0.019840041373288011 0.004066039282544163 0 -0.020020443876904399 0.0041835768759557902 0 -0.019962728461300112 0.0039357360549700671 0 -0.020147166485398181 0.0039036022195997229 0 -0.020147166485398181 0.0039036022195997229 0 -0.020023544900624624 0.0036660373309826719 0 -0.020241846153802499 0.0036470388844807083 0 -0.019962728461300112 0.0039357360549700671 0 -0.020147166485398181 0.0039036022195997229 0 -0.020023544900624624 0.0036660373309826719 0 -0.020023544900624624 0.0036660373309826719 0 -0.020156677213598938 0.0032771862209830423 0 -0.020241846153802499 0.0036470388844807083 0 -0.019812641214725209 0.0037586357377104333 0 -0.020023544900624624 0.0036660373309826719 0 -0.019832162769756072 0.0034631516895456387 0 -0.022233132772613774 0.0019096370191218814 0 -0.022677418397207345 0.001743644014176776 0 -0.024924063946804343 0.00023863706736790548 0 -0.025008496973538321 0.00013470695109627098 0 -0.024960503450672061 9.5504934155713584e-05 0 -0.020023544900624624 0.0036660373309826719 0 -0.019832162769756072 0.0034631516895456387 0 -0.020156677213598938 0.0032771862209830423 0 -0.025008496973538321 0.00013470695109627098 0 -0.02500488708601685 7.4131494888662886e-05 0 -0.025014643166140698 8.904589007024613e-05 0 -0.025008496973538321 0.00013470695109627098 0 -0.024960503450672061 9.5504934155713584e-05 0 -0.02500488708601685 7.4131494888662886e-05 0 -0.024960503450672061 9.5504934155713584e-05 0 -0.025000115512186359 1.8926550548495603e-07 0 -0.024999697440512086 -7.8881665582228207e-08 0 -0.024960503450672061 9.5504934155713584e-05 0 -0.025000115512186359 1.8926550548495603e-07 0 -0.02500488708601685 7.4131494888662886e-05 0 -0.024999924077785184 6.4333276424784118e-09 0 -0.025066822689996431 2.7834757240811588e-05 0 -0.024999999974720702 -7.4872860888771103e-11 0 -0.025000000474917714 6.0724481028849947e-11 0 -0.024999964748871485 1.1311476103861354e-07 0 -0.025000115512186359 1.8926550548495603e-07 0 -0.025015553918392434 6.3832108216491372e-05 0 -0.02500488708601685 7.4131494888662886e-05 0 -0.025015553918392434 6.3832108216491372e-05 0 -0.02500488708601685 7.4131494888662886e-05 0 -0.025014643166140698 8.904589007024613e-05 0 -0.024843173940763432 0.00010861424530943966 0 -0.024999464749636772 6.9674178115189372e-09 0 -0.024972917150880736 0.00030060195883736379 0 -0.024997953021882995 3.6275703931082208e-07 0 -0.025000001924890918 1.3776073172859915e-09 0 -0.02499998836378655 -2.060744454131305e-09 0 -0.024932705369384189 1.0591747681643893e-06 0 -0.024999936811544415 4.1395963243433954e-08 0 -0.024999674819083315 6.220117908604629e-07 0 -0.025217265505380185 -5.6503045099863044e-05 0 -0.024999464749636772 6.9674178115189372e-09 0 -0.025000490626087921 -1.0923784938598257e-09 0 -0.024972917150880736 0.00030060195883736379 0 -0.024924063946804343 0.00023863706736790548 0 -0.024960503450672061 9.5504934155713584e-05 0 -0.024829906419075953 0.00013199433542027494 0 -0.024960503450672061 9.5504934155713584e-05 0 -0.024999697440512086 -7.8881665582228207e-08 0 -0.024829906419075953 0.00013199433542027494 0 -0.024843173940763432 0.00010861424530943966 0 -0.024972917150880736 0.00030060195883736379 0 -0.0246764749000551 0.00023807977303042538 0 -0.024972917150880736 0.00030060195883736379 0 -0.024687751803308004 0.00050916390280215267 0 -0.0246764749000551 0.00023807977303042538 0 -0.025217265505380185 -5.6503045099863044e-05 0 -0.022687281302478275 0.0016941954538745049 0 -0.024972917150880736 0.00030060195883736379 0 -0.024846336937435543 0.00076004720160860581 0 -0.024687751803308004 0.00050916390280215267 0 -0.024924063946804343 0.00023863706736790548 0 -0.024829906419075953 0.00013199433542027494 0 -0.024719063592500388 0.00036223194143718756 0 -0.019812641214725209 0.0037586357377104333 0 -0.019832162769756072 0.0034631516895456387 0 -0.019519058353743037 0.0036198362818503369 0 -0.022233132772613774 0.0019096370191218814 0 -0.022687281302478275 0.0016941954538745049 0 -0.024846336937435543 0.00076004720160860581 0 -0.024715539052495062 0.00082181272491869582 0 -0.024687751803308004 0.00050916390280215267 0 -0.022687281302478275 0.0016941954538745049 0 -0.022683733996391797 0.0015606898032933119 0 -0.022688678916460748 0.0011555268356536019 0 -0.021986339585106082 0.00090292037138687057 0 -0.022560565665588197 0.00034398913845616749 0 -0.022683733996391797 0.0015606898032933119 0 -0.023624229766042185 0.00033099576305566981 0 -0.024999910543438548 -2.7940292922913238e-07 0 -0.024627396779849538 -0.00018416396980794811 0 -0.02499729273731088 -4.8657126338619406e-07 0 -0.022688678916460748 0.0011555268356536019 0 -0.021986339585106082 0.00090292037138687057 0 -0.021520132494870378 0.0016696066955659823 0 -0.021986339585106082 0.00090292037138687057 0 -0.021465007206276737 0.0010282037263711721 0 -0.021520132494870378 0.0016696066955659823 0 -0.021986339585106082 0.00090292037138687057 0 -0.021465007206276737 0.0010282037263711721 0 -0.021704397544592323 0.0002843160087371892 0 -0.023624229766042185 0.00033099576305566981 0 -0.024123254427887254 -6.1636807862329757e-05 0 -0.021704397544592323 0.0002843160087371892 0 -0.022560565665588197 0.00034398913845616749 0 -0.022431907104096524 -0.00047085445716063339 0 -0.021986339585106082 0.00090292037138687057 0 -0.021704397544592323 0.0002843160087371892 0 -0.022560565665588197 0.00034398913845616749 0 -0.024932705369384189 1.0591747681643893e-06 0 -0.024123254427887254 -6.1636807862329757e-05 0 -0.024746407019678535 5.3538297699017498e-05 0 -0.024888310627918377 -4.3643200403901748e-05 0 -0.024729036499823508 -0.00010057197145871402 0 -0.024746407019678535 5.3538297699017498e-05 0 -0.024729036499823508 -0.00010057197145871402 0 -0.024579869525708176 -3.387826657721642e-05 0 -0.023164743016237437 0.00017324630337928364 0 -0.024123254427887254 -6.1636807862329757e-05 0 -0.024888310627918377 -4.3643200403901748e-05 0 -0.024729036499823508 -0.00010057197145871402 0 -0.024999910543438548 -2.7940292922913238e-07 0 -0.024123254427887254 -6.1636807862329757e-05 0 -0.02500025506992952 1.6076726984366898e-07 0 -0.024997953021882995 3.6275703931082208e-07 0 -0.024992170650430121 1.2587978642661784e-06 0 -0.02499998836378655 -2.060744454131305e-09 0 -0.024729036499823508 -0.00010057197145871402 0 -0.024999910543438548 -2.7940292922913238e-07 0 -0.024627396779849538 -0.00018416396980794811 0 -0.024729036499823508 -0.00010057197145871402 0 -0.024427397099038361 -0.00010402694816086441 0 -0.024627396779849538 -0.00018416396980794811 0 -0.024729036499823508 -0.00010057197145871402 0 -0.024427397099038361 -0.00010402694816086441 0 -0.024579869525708176 -3.387826657721642e-05 0 -0.024427397099038361 -0.00010402694816086441 0 -0.024627396779849538 -0.00018416396980794811 0 -0.024004437830246198 -0.0001922528365467372 0 -0.023974708654203356 0.00015295605115559874 0 -0.023239941829230507 0.00017973817049025031 0 -0.024004437830246198 -0.0001922528365467372 0 -0.024427397099038361 -0.00010402694816086441 0 -0.023974708654203356 0.00015295605115559874 0 -0.024004437830246198 -0.0001922528365467372 0 -0.024746407019678535 5.3538297699017498e-05 0 -0.024406242334752411 7.3984834817778669e-05 0 -0.024257452388578054 0.00047870375524359718 0 -0.024427397099038361 -0.00010402694816086441 0 -0.023974708654203356 0.00015295605115559874 0 -0.024406242334752411 7.3984834817778669e-05 0 -0.024746407019678535 5.3538297699017498e-05 0 -0.024579869525708176 -3.387826657721642e-05 0 -0.024406242334752411 7.3984834817778669e-05 0 -0.024427397099038361 -0.00010402694816086441 0 -0.024579869525708176 -3.387826657721642e-05 0 -0.024406242334752411 7.3984834817778669e-05 0 -0.021465007206276737 0.0010282037263711721 0 -0.021704397544592323 0.0002843160087371892 0 -0.021011049173541477 0.0010846829608872699 0 -0.023974708654203356 0.00015295605115559874 0 -0.024406242334752411 7.3984834817778669e-05 0 -0.024257452388578054 0.00047870375524359718 0 -0.023164743016237437 0.00017324630337928364 0 -0.022647649523012205 0.00075047095131369518 0 -0.021465007206276737 0.0010282037263711721 0 -0.021020538156474665 0.0011967027358675537 0 -0.021011049173541477 0.0010846829608872699 0 -0.023974708654203356 0.00015295605115559874 0 -0.023270881253967458 0.00044978176492556121 0 -0.023239941829230507 0.00017973817049025031 0 -0.023974708654203356 0.00015295605115559874 0 -0.023634238705231871 0.00051218763234225115 0 -0.023270881253967458 0.00044978176492556121 0 -0.023974708654203356 0.00015295605115559874 0 -0.024257452388578054 0.00047870375524359718 0 -0.023634238705231871 0.00051218763234225115 0 -0.022647649523012205 0.00075047095131369518 0 -0.021976704417314669 0.0010961191328932244 0 -0.024257452388578054 0.00047870375524359718 0 -0.023634238705231871 0.00051218763234225115 0 -0.023028654231126114 0.0010089175231553175 0 -0.023634238705231871 0.00051218763234225115 0 -0.023270881253967458 0.00044978176492556121 0 -0.023028654231126114 0.0010089175231553175 0 -0.020944999711622943 0.0013249573946157794 0 -0.020970119846037701 0.0012539491407109545 0 -0.020932290286096826 0.0013124396684523012 0 -0.020944999711622943 0.0013249573946157794 0 -0.020970119846037701 0.0012539491407109545 0 -0.021098657105587136 0.0011981666492842252 0 -0.020932290286096826 0.0013124396684523012 0 -0.021070525004368474 0.0013903051708947164 0 -0.020978806337219453 0.0017283804495905153 0 -0.020932290286096826 0.0013124396684523012 0 -0.021006016501707952 0.00130311294725931 0 -0.021070525004368474 0.0013903051708947164 0 -0.021020538156474665 0.0011967027358675537 0 -0.021011049173541477 0.0010846829608872699 0 -0.020944999711622943 0.0013249573946157794 0 -0.020944999711622943 0.0013249573946157794 0 -0.020932290286096826 0.0013124396684523012 0 -0.020987115182009079 0.0012714720314285053 0 -0.021006016501707952 0.00130311294725931 0 -0.020987115182009079 0.0012714720314285053 0 -0.021063073137676795 0.0012560146373291586 0 -0.021020538156474665 0.0011967027358675537 0 -0.020944999711622943 0.0013249573946157794 0 -0.020987115182009079 0.0012714720314285053 0 -0.020932290286096826 0.0013124396684523012 0 -0.021006016501707952 0.00130311294725931 0 -0.020987115182009079 0.0012714720314285053 0 -0.021012616625934653 0.0012274305017104948 0 -0.021255533394871261 0.0017185731560860429 0 -0.021020538156474665 0.0011967027358675537 0 -0.020987115182009079 0.0012714720314285053 0 -0.021063073137676795 0.0012560146373291586 0 -0.021465007206276737 0.0010282037263711721 0 -0.021020538156474665 0.0011967027358675537 0 -0.021520132494870378 0.0016696066955659823 0 -0.021255533394871261 0.0017185731560860429 0 -0.021403924577106385 0.0018114277659832853 0 -0.021006016501707952 0.00130311294725931 0 -0.021063073137676795 0.0012560146373291586 0 -0.021070525004368474 0.0013903051708947164 0 -0.021755202302842235 0.0021366129093902662 0 -0.021729439135782059 0.0019626400693049076 0 -0.021567910028649728 0.0022127696648865259 0 -0.021729439135782059 0.0019626400693049076 0 -0.021430750456882214 0.002096652158300944 0 -0.021567910028649728 0.0022127696648865259 0 -0.022683733996391797 0.0015606898032933119 0 -0.021255533394871261 0.0017185731560860429 0 -0.021755202302842235 0.0021366129093902662 0 -0.021567910028649728 0.0022127696648865259 0 -0.021703130919717161 0.0023267259748691268 0 -0.020878767270529956 0.0032239624837428747 0 -0.021358945852598898 0.0021531491037829549 0 -0.021403924577106385 0.0018114277659832853 0 -0.021358945852598898 0.0021531491037829549 0 -0.021244389320253427 0.0013909942043648811 0 -0.02146173119298821 0.0015847145269555899 0 -0.021222466318911257 0.0016182608999374842 0 -0.021070525004368474 0.0013903051708947164 0 -0.021222466318911257 0.0016182608999374842 0 -0.020978806337219453 0.0017283804495905153 0 -0.021063073137676795 0.0012560146373291586 0 -0.021244389320253427 0.0013909942043648811 0 -0.021070525004368474 0.0013903051708947164 0 -0.021244389320253427 0.0013909942043648811 0 -0.021070525004368474 0.0013903051708947164 0 -0.021222466318911257 0.0016182608999374842 0 -0.021222789078765396 0.0018349817402939035 0 -0.020978806337219453 0.0017283804495905153 0 -0.021087640996466091 0.0020592638061486469 0 -0.021222466318911257 0.0016182608999374842 0 -0.021222789078765396 0.0018349817402939035 0 -0.020978806337219453 0.0017283804495905153 0 -0.021581422337858321 0.0017507257248876185 0 -0.021443084128115578 0.0016390111962314459 0 -0.021401457701524219 0.0017922442001112357 0 -0.021358945852598898 0.0021531491037829549 0 -0.021448382639496329 0.001678535186273954 0 -0.02146173119298821 0.0015847145269555899 0 -0.021222466318911257 0.0016182608999374842 0 -0.021401457701524219 0.0017922442001112357 0 -0.021222789078765396 0.0018349817402939035 0 -0.021401457701524219 0.0017922442001112357 0 -0.021411374618418341 0.0019740245564623267 0 -0.021222466318911257 0.0016182608999374842 0 -0.021222789078765396 0.0018349817402939035 0 -0.021401457701524219 0.0017922442001112357 0 -0.021581422337858321 0.0017507257248876185 0 -0.021401457701524219 0.0017922442001112357 0 -0.021411374618418341 0.0019740245564623267 0 -0.021222789078765396 0.0018349817402939035 0 -0.021411374618418341 0.0019740245564623267 0 -0.021087640996466091 0.0020592638061486469 0 -0.021420233705184623 0.0022166155151266014 0 -0.021411374618418341 0.0019740245564623267 0 -0.021087640996466091 0.0020592638061486469 0 -0.020978806337219453 0.0017283804495905153 0 -0.021087640996466091 0.0020592638061486469 0 -0.020777306659991824 0.0021908271888734059 0 -0.020437800511509403 0.0024489744076383133 0 -0.020777306659991824 0.0021908271888734059 0 -0.020634212387599982 0.001853937721137939 0 -0.020978806337219453 0.0017283804495905153 0 -0.020777306659991824 0.0021908271888734059 0 -0.020634212387599982 0.001853937721137939 0 -0.020893786475984159 0.0021406312711421483 0 -0.021057314649861141 0.0013885480877364824 0 -0.020625442915399667 0.0014453958080675397 0 -0.020819950903821521 0.0021910952531516638 0 -0.020819197964641285 0.0016632323913205556 0 -0.020970119846037701 0.0012539491407109545 0 -0.020932290286096826 0.0013124396684523012 0 -0.021057314649861141 0.0013885480877364824 0 -0.020970119846037701 0.0012539491407109545 0 -0.021057314649861141 0.0013885480877364824 0 -0.020625442915399667 0.0014453958080675397 0 -0.020929181077385669 0.0013291908086222636 0 -0.020819197964641285 0.0016632323913205556 0 -0.020932290286096826 0.0013124396684523012 0 -0.020978806337219453 0.0017283804495905153 0 -0.020634212387599982 0.001853937721137939 0 -0.020057689388056466 0.0011549218291914466 0 -0.020195179060229745 0.00075104249528043857 0 -0.021098657105587136 0.0011981666492842252 0 -0.020057689388056466 0.0011549218291914466 0 -0.020625442915399667 0.0014453958080675397 0 -0.021098657105587136 0.0011981666492842252 0 -0.020970119846037701 0.0012539491407109545 0 -0.020625442915399667 0.0014453958080675397 0 -0.021098657105587136 0.0011981666492842252 0 -0.020098960361816895 0.0021374975527944464 0 -0.020625442915399667 0.0014453958080675397 0 -0.0188839694736847 0.0015037435583063973 0 -0.020057689388056466 0.0011549218291914466 0 -0.020625442915399667 0.0014453958080675397 0 -0.0188839694736847 0.0015037435583063973 0 -0.0188839694736847 0.0015037435583063973 0 -0.017966675115342681 0.0014780713862968587 0 -0.018991741704664361 0.0012182974092203572 0 -0.020057689388056466 0.0011549218291914466 0 -0.0188839694736847 0.0015037435583063973 0 -0.018991741704664361 0.0012182974092203572 0 -0.020000561590587464 0.00021879117305526754 0 -0.020179183564889333 0.00036584544094886472 0 -0.019576700333747438 0.00016886658257112501 0 -0.017275205831569385 0.0015080532291698674 0 -0.017966675115342681 0.0014780713862968587 0 -0.01773265732183785 0.0011826918272179214 0 -0.017966675115342681 0.0014780713862968587 0 -0.01773265732183785 0.0011826918272179214 0 -0.018991741704664361 0.0012182974092203572 0 -0.020179183564889333 0.00036584544094886472 0 -0.020166179590959277 0.00034439527601226908 0 -0.019576700333747438 0.00016886658257112501 0 -0.020000561590587464 0.00021879117305526754 0 -0.020179183564889333 0.00036584544094886472 0 -0.020195179060229745 0.00075104249528043857 0 -0.020322917632966446 0.00029789530837050378 0 -0.020468110466916017 3.6663318459264172e-05 0 -0.020057689388056466 0.0011549218291914466 0 -0.018991741704664361 0.0012182974092203572 0 -0.020195179060229745 0.00075104249528043857 0 -0.018898775420985399 0.00075163856567859479 0 -0.019994268208762905 0.0007112207151391013 0 -0.01773265732183785 0.0011826918272179214 0 -0.018991741704664361 0.0012182974092203572 0 -0.020195179060229745 0.00075104249528043857 0 -0.020195179060229745 0.00075104249528043857 0 -0.020823953236951194 0.00076148533749074586 0 -0.021097392200326293 0.00077747338229029435 0 -0.020195179060229745 0.00075104249528043857 0 -0.020438593073090587 0.00072067209816329314 0 -0.020823953236951194 0.00076148533749074586 0 -0.020179183564889333 0.00036584544094886472 0 -0.020195179060229745 0.00075104249528043857 0 -0.020438593073090587 0.00072067209816329314 0 -0.020438593073090587 0.00072067209816329314 0 -0.020579130471916014 0.00077274388963791943 0 -0.020519370578681664 0.00057940359112273023 0 -0.020179183564889333 0.00036584544094886472 0 -0.020438593073090587 0.00072067209816329314 0 -0.020519370578681664 0.00057940359112273023 0 -0.020823953236951194 0.00076148533749074586 0 -0.020647774627364918 0.00041107206736731432 0 -0.020579130471916014 0.00077274388963791943 0 -0.020438593073090587 0.00072067209816329314 0 -0.020823953236951194 0.00076148533749074586 0 -0.020579130471916014 0.00077274388963791943 0 -0.020823953236951194 0.00076148533749074586 0 -0.021097392200326293 0.00077747338229029435 0 -0.021587536824085766 0.00055015247835251259 0 -0.021097392200326293 0.00077747338229029435 0 -0.021098657105587136 0.0011981666492842252 0 -0.022152303527866644 0.00064253463080525119 0 -0.021097392200326293 0.00077747338229029435 0 -0.022152303527866644 0.00064253463080525119 0 -0.021587536824085766 0.00055015247835251259 0 -0.020195179060229745 0.00075104249528043857 0 -0.021097392200326293 0.00077747338229029435 0 -0.021098657105587136 0.0011981666492842252 0 -0.021976704417314669 0.0010961191328932244 0 -0.021282203975220852 0.0012095152273202221 0 -0.023028654231126114 0.0010089175231553175 0 -0.021098657105587136 0.0011981666492842252 0 -0.022152303527866644 0.00064253463080525119 0 -0.023270881253967458 0.00044978176492556121 0 -0.023028654231126114 0.0010089175231553175 0 -0.022152303527866644 0.00064253463080525119 0 -0.023270881253967458 0.00044978176492556121 0 -0.022152303527866644 0.00064253463080525119 0 -0.023239941829230507 0.00017973817049025031 0 -0.022152303527866644 0.00064253463080525119 0 -0.022427217005186333 0.00035702403195569422 0 -0.023239941829230507 0.00017973817049025031 0 -0.022427217005186333 0.00035702403195569422 0 -0.022728133154102773 4.6839406167575617e-05 0 -0.021587536824085766 0.00055015247835251259 0 -0.022152303527866644 0.00064253463080525119 0 -0.022427217005186333 0.00035702403195569422 0 -0.021587536824085766 0.00055015247835251259 0 -0.022427217005186333 0.00035702403195569422 0 -0.022728133154102773 4.6839406167575617e-05 0 -0.023239941829230507 0.00017973817049025031 0 -0.022728133154102773 4.6839406167575617e-05 0 -0.023239941829230507 0.00017973817049025031 0 -0.024004437830246198 -0.0001922528365467372 0 -0.022728133154102773 4.6839406167575617e-05 0 -0.024004437830246198 -0.0001922528365467372 0 -0.024223104401518102 -0.00041841106074391233 0 -0.024627396779849538 -0.00018416396980794811 0 -0.024004437830246198 -0.0001922528365467372 0 -0.024223104401518102 -0.00041841106074391233 0 -0.022728133154102773 4.6839406167575617e-05 0 -0.024223104401518102 -0.00041841106074391233 0 -0.021598339823899436 -0.00068066279948487778 0 -0.02406740151651356 -0.00042527372666483583 0 -0.023264221841770467 -0.00037686913876169349 0 -0.024223104401518102 -0.00041841106074391233 0 -0.02499729273731088 -4.8657126338619406e-07 0 -0.024846870638142237 -0.00011658589294791729 0 -0.024627396779849538 -0.00018416396980794811 0 -0.024223104401518102 -0.00041841106074391233 0 -0.02499729273731088 -4.8657126338619406e-07 0 -0.02499729273731088 -4.8657126338619406e-07 0 -0.025000775343288907 1.3062910869195436e-07 0 -0.024846870638142237 -0.00011658589294791729 0 -0.023264221841770467 -0.00037686913876169349 0 -0.02248343530110038 -2.1725289292975069e-05 0 -0.025000775343288907 1.3062910869195436e-07 0 -0.024846870638142237 -0.00011658589294791729 0 -0.024810657868793141 1.8603628456096135e-05 0 -0.021293061662745784 0.00023178308764030482 0 -0.020647774627364918 0.00041107206736731432 0 -0.020653791261089405 -0.00040569101661959829 0 -0.021598339823899436 -0.00068066279948487778 0 -0.021293061662745784 0.00023178308764030482 0 -0.020653791261089405 -0.00040569101661959829 0 -0.022728133154102773 4.6839406167575617e-05 0 -0.021598339823899436 -0.00068066279948487778 0 -0.021293061662745784 0.00023178308764030482 0 -0.020823953236951194 0.00076148533749074586 0 -0.021293061662745784 0.00023178308764030482 0 -0.021587536824085766 0.00055015247835251259 0 -0.022728133154102773 4.6839406167575617e-05 0 -0.021293061662745784 0.00023178308764030482 0 -0.021587536824085766 0.00055015247835251259 0 -0.020823953236951194 0.00076148533749074586 0 -0.021293061662745784 0.00023178308764030482 0 -0.020647774627364918 0.00041107206736731432 0 -0.025000775343288907 1.3062910869195436e-07 0 -0.024997257516053344 -9.0125081533804105e-07 0 -0.024327769300173524 7.7047295392516982e-06 0 -0.021657968107772037 1.9251416523178086e-05 0 -0.021821568938106911 5.7419866376779482e-05 0 -0.021776737302660141 -8.5886871716622345e-05 0 -0.021821568938106911 5.7419866376779482e-05 0 -0.022024934746070261 -8.4645569512574768e-05 0 -0.021776737302660141 -8.5886871716622345e-05 0 -0.023193069143238428 3.3424962723220246e-05 0 -0.023167836966110897 6.1520147478276953e-05 0 -0.021821568938106911 5.7419866376779482e-05 0 -0.021734028407858982 0.00018807643264811706 0 -0.021977551863528989 0.00012657113277954299 0 -0.021064238173085628 0.00019207819301347899 0 -0.02248343530110038 -2.1725289292975069e-05 0 -0.021657968107772037 1.9251416523178086e-05 0 -0.021734028407858982 0.00018807643264811706 0 -0.021670326676915146 0.00020473915913504331 0 -0.021657968107772037 1.9251416523178086e-05 0 -0.021821568938106911 5.7419866376779482e-05 0 -0.021734028407858982 0.00018807643264811706 0 -0.023193069143238428 3.3424962723220246e-05 0 -0.02248343530110038 -2.1725289292975069e-05 0 -0.025000775343288907 1.3062910869195436e-07 0 -0.024736345828494818 4.9376006921726155e-05 0 -0.024810657868793141 1.8603628456096135e-05 0 -0.025000775343288907 1.3062910869195436e-07 0 -0.024736345828494818 4.9376006921726155e-05 0 -0.024327769300173524 7.7047295392516982e-06 0 -0.024997257516053344 -9.0125081533804105e-07 0 -0.024327769300173524 7.7047295392516982e-06 0 -0.022620200271278538 1.4738553525329231e-06 0 -0.023167836966110897 6.1520147478276953e-05 0 -0.022394045262813297 4.8210757406789713e-05 0 -0.021977551863528989 0.00012657113277954299 0 -0.022228097621749918 6.0435768712512962e-05 0 -0.022024934746070261 -8.4645569512574768e-05 0 -0.021821568938106911 5.7419866376779482e-05 0 -0.021977551863528989 0.00012657113277954299 0 -0.022024934746070261 -8.4645569512574768e-05 0 -0.022394045262813297 4.8210757406789713e-05 0 -0.021258315238339539 4.2571260433809111e-05 0 -0.022613236475677943 1.4811160848831238e-06 0 -0.021136459100462746 -3.7799949441181719e-07 0 -0.020523618324941095 0.00031311875119557382 0 -0.021136459100462746 -3.7799949441181719e-07 0 -0.019753027464561878 -0.00012663175640223627 0 -0.020523618324941095 0.00031311875119557382 0 -0.021136459100462746 -3.7799949441181719e-07 0 -0.019753027464561878 -0.00012663175640223627 0 -0.019657912219555145 -1.8908028751246227e-07 0 -0.021258315238339539 4.2571260433809111e-05 0 -0.020655602489133489 -0.00013312867676393053 0 -0.019753027464561878 -0.00012663175640223627 0 -0.020523618324941095 0.00031311875119557382 0 -0.019456544375619569 6.4641585582223912e-05 0 -0.022024934746070261 -8.4645569512574768e-05 0 -0.021776737302660141 -8.5886871716622345e-05 0 -0.021832074265175635 -0.00022371553846754424 0 -0.021064238173085628 0.00019207819301347899 0 -0.021152006822277268 0.00031141761047568333 0 -0.021776737302660141 -8.5886871716622345e-05 0 -0.02164652304169357 -0.00016916091209339312 0 -0.021832074265175635 -0.00022371553846754424 0 -0.021657968107772037 1.9251416523178086e-05 0 -0.021776737302660141 -8.5886871716622345e-05 0 -0.02164652304169357 -0.00016916091209339312 0 -0.02164652304169357 -0.00016916091209339312 0 -0.021832074265175635 -0.00022371553846754424 0 -0.021637144370991204 -0.00036090372925644466 0 -0.019456544375619569 6.4641585582223912e-05 0 -0.019333465766255938 -0.00012401090424054182 0 -0.019341714967326343 -0.00017387085256522698 0 -0.020655602489133489 -0.00013312867676393053 0 -0.020468110466916017 3.6663318459264172e-05 0 -0.021152006822277268 0.00031141761047568333 0 -0.020468110466916017 3.6663318459264172e-05 0 -0.019753027464561878 -0.00012663175640223627 0 -0.019456544375619569 6.4641585582223912e-05 0 -0.019333465766255938 -0.00012401090424054182 0 -0.019753027464561878 -0.00012663175640223627 0 -0.019333465766255938 -0.00012401090424054182 0 -0.019141219403970927 -0.00010927722070066906 0 -0.019333465766255938 -0.00012401090424054182 0 -0.019141219403970927 -0.00010927722070066906 0 -0.019273192484230345 -8.5438238172645456e-05 0 -0.020468110466916017 3.6663318459264172e-05 0 -0.019489283577707645 0.00024870711087539543 0 -0.019341714967326343 -0.00017387085256522698 0 -0.019273192484230345 -8.5438238172645456e-05 0 -0.019576700333747438 0.00016886658257112501 0 -0.019333465766255938 -0.00012401090424054182 0 -0.019341714967326343 -0.00017387085256522698 0 -0.019273192484230345 -8.5438238172645456e-05 0 -0.019273192484230345 -8.5438238172645456e-05 0 -0.019576700333747438 0.00016886658257112501 0 -0.01904418815286231 5.9937647076498909e-05 0 -0.017845012559574512 0.00081386624282197325 0 -0.018898775420985399 0.00075163856567859479 0 -0.018980047228844363 0.00033662920020820772 0 -0.019576700333747438 0.00016886658257112501 0 -0.01904418815286231 5.9937647076498909e-05 0 -0.018980047228844363 0.00033662920020820772 0 -0.020000561590587464 0.00021879117305526754 0 -0.019576700333747438 0.00016886658257112501 0 -0.018341095901125783 0.00011702794838974989 0 -0.019141219403970927 -0.00010927722070066906 0 -0.01904418815286231 5.9937647076498909e-05 0 -0.019141219403970927 -0.00010927722070066906 0 -0.019273192484230345 -8.5438238172645456e-05 0 -0.01904418815286231 5.9937647076498909e-05 0 -0.018341095901125783 0.00011702794838974989 0 -0.019141219403970927 -0.00010927722070066906 0 -0.019004858549318507 -3.4360516273135906e-05 0 -0.01817922876833885 1.6147062804011858e-07 0 -0.019004858549318507 -3.4360516273135906e-05 0 -0.019657912219555145 -1.8908028751246227e-07 0 -0.019753027464561878 -0.00012663175640223627 0 -0.019004858549318507 -3.4360516273135906e-05 0 -0.019657912219555145 -1.8908028751246227e-07 0 -0.019753027464561878 -0.00012663175640223627 0 -0.019141219403970927 -0.00010927722070066906 0 -0.019004858549318507 -3.4360516273135906e-05 0 -0.01684096842166188 0.0038632923185767253 0 -0.017243597276789886 0.0037413862804472802 0 -0.017418519337034161 0.0041289142712065676 0 -0.018641889256749016 0.0029790562835880128 0 -0.018426702081165366 0.0030116352048224202 0 -0.020510809481761171 0.0021321373222262891 0 -0.019902654893562306 0.001827197738373828 0 -0.020188176713580343 0.001592857344630472 0 -0.020510809481761171 0.0021321373222262891 0 -0.020609511310530567 0.0015249762564702382 0 -0.02094991043281404 0.0018991942721703341 0 -0.020510809481761171 0.0021321373222262891 0 -0.020188176713580343 0.001592857344630472 0 -0.020609511310530567 0.0015249762564702382 0 -0.01684096842166188 0.0038632923185767253 0 -0.016976935916894302 0.0033856071628734913 0 -0.016625144632572163 0.0035277960458965463 0 -0.01684096842166188 0.0038632923185767253 0 -0.016287187645304388 0.0035942617191391311 0 -0.016625144632572163 0.0035277960458965463 0 -0.01684096842166188 0.0038632923185767253 0 -0.017243597276789886 0.0037413862804472802 0 -0.016976935916894302 0.0033856071628734913 0 -0.017243597276789886 0.0037413862804472802 0 -0.017635042368172767 0.0035751444939441253 0 -0.017771612283403699 0.0039202355763386827 0 -0.017243597276789886 0.0037413862804472802 0 -0.017635042368172767 0.0035751444939441253 0 -0.016976935916894302 0.0033856071628734913 0 -0.01763602625789986 0.0035784765125877792 0 -0.017771612283403699 0.0039202355763386827 0 -0.018146547795293143 0.0037280422901579116 0 -0.015619350330222659 0.0048674173572246906 0 -0.016495896327496463 0.0051478663263091187 0 -0.016351226329503733 0.0049649766890329516 0 -0.016567272600733578 0.004314997215601862 0 -0.016980369378475826 0.00474670629049374 0 -0.016567272600733578 0.004314997215601862 0 -0.01767227564684877 0.0037974812284704089 0 -0.017771612283403699 0.0039202355763386827 0 -0.017418519337034161 0.0041289142712065676 0 -0.018003302158058794 0.00439070660670067 0 -0.017771612283403699 0.0039202355763386827 0 -0.018003302158058794 0.00439070660670067 0 -0.018093107235708512 0.0040651156856604757 0 -0.017243597276789886 0.0037413862804472802 0 -0.017771612283403699 0.0039202355763386827 0 -0.017418519337034161 0.0041289142712065676 0 -0.019902654893562306 0.001827197738373828 0 -0.019827945794287968 0.0015483211214927027 0 -0.020188176713580343 0.001592857344630472 0 -0.019827945794287968 0.0015483211214927027 0 -0.019312977958565691 0.0015512291393825345 0 -0.019949150649267614 0.0012583588093396062 0 -0.019902654893562306 0.001827197738373828 0 -0.019827945794287968 0.0015483211214927027 0 -0.019312977958565691 0.0015512291393825345 0 -0.019827945794287968 0.0015483211214927027 0 -0.019949150649267614 0.0012583588093396062 0 -0.020188176713580343 0.001592857344630472 0 -0.018426702081165366 0.0030116352048224202 0 -0.019949516453736736 0.0024712452889666136 0 -0.019949516453736736 0.0024712452889666136 0 -0.021665708786043385 0.0012781752817692031 0 -0.02197325301485455 0.0020046122134913702 0 -0.023033353064347065 0.001557024309795356 0 -0.021860130286382375 0.0016143356408687369 0 -0.024686258953712539 0.00067079238067292127 0 -0.024505894381573676 0.00079560027159965036 0 -0.024603351565981486 0.00065171517680563977 0 -0.024505894381573676 0.00079560027159965036 0 -0.024517742675585284 0.00068699695079849966 0 -0.024603351565981486 0.00065171517680563977 0 -0.023795090405934041 0.00092306183475758974 0 -0.023206979468597837 0.0012272848985625398 0 -0.023033353064347065 0.001557024309795356 0 -0.022921243934327498 0.0011777045284968471 0 -0.021860130286382375 0.0016143356408687369 0 -0.021665708786043385 0.0012781752817692031 0 -0.022306916087764167 0.0010516050112311082 0 -0.019949150649267614 0.0012583588093396062 0 -0.020352904698624118 0.0012825509988090736 0 -0.020616886072774412 0.00094390453208988351 0 -0.023033353064347065 0.001557024309795356 0 -0.022921243934327498 0.0011777045284968471 0 -0.024086199140136641 0.0011116586430531112 0 -0.019949150649267614 0.0012583588093396062 0 -0.020352904698624118 0.0012825509988090736 0 -0.020188176713580343 0.001592857344630472 0 -0.020352904698624118 0.0012825509988090736 0 -0.020188176713580343 0.001592857344630472 0 -0.020609511310530567 0.0015249762564702382 0 -0.020352904698624118 0.0012825509988090736 0 -0.020609511310530567 0.0015249762564702382 0 -0.020589919668009979 0.0012437727684862306 0 -0.020609511310530567 0.0015249762564702382 0 -0.020780574250359743 0.0012215485071873152 0 -0.021009065506695977 0.0014274793047173442 0 -0.020609511310530567 0.0015249762564702382 0 -0.020780574250359743 0.0012215485071873152 0 -0.020589919668009979 0.0012437727684862306 0 -0.020780574250359743 0.0012215485071873152 0 -0.020589919668009979 0.0012437727684862306 0 -0.020616886072774412 0.00094390453208988351 0 -0.020352904698624118 0.0012825509988090736 0 -0.020589919668009979 0.0012437727684862306 0 -0.020616886072774412 0.00094390453208988351 0 -0.020780574250359743 0.0012215485071873152 0 -0.020616886072774412 0.00094390453208988351 0 -0.020957910338938714 0.00096501796435869141 0 -0.020957910338938714 0.00096501796435869141 0 -0.021116853780126427 0.0010658136611093481 0 -0.02131853581881616 0.00062585078215546871 0 -0.020780574250359743 0.0012215485071873152 0 -0.021116853780126427 0.0010658136611093481 0 -0.021009065506695977 0.0014274793047173442 0 -0.020780574250359743 0.0012215485071873152 0 -0.020957910338938714 0.00096501796435869141 0 -0.021116853780126427 0.0010658136611093481 0 -0.021116853780126427 0.0010658136611093481 0 -0.021347655843419817 0.001260746045387966 0 -0.021009065506695977 0.0014274793047173442 0 -0.021116853780126427 0.0010658136611093481 0 -0.021398482210482819 0.00094810144814603723 0 -0.02131853581881616 0.00062585078215546871 0 -0.021398482210482819 0.00094810144814603723 0 -0.021671918821302698 0.0010508608683312635 0 -0.02153000742533254 0.00079884596221899704 0 -0.021398482210482819 0.00094810144814603723 0 -0.021347655843419817 0.001260746045387966 0 -0.021671918821302698 0.0010508608683312635 0 -0.021116853780126427 0.0010658136611093481 0 -0.021398482210482819 0.00094810144814603723 0 -0.021347655843419817 0.001260746045387966 0 -0.021347655843419817 0.001260746045387966 0 -0.021625511554110285 0.0015289115196574336 0 -0.02125718032879903 0.0015865858204571492 0 -0.021347655843419817 0.001260746045387966 0 -0.021625511554110285 0.0015289115196574336 0 -0.021671918821302698 0.0010508608683312635 0 -0.021625511554110285 0.0015289115196574336 0 -0.02125718032879903 0.0015865858204571492 0 -0.021333904179328882 0.001886935786106756 0 -0.02125718032879903 0.0015865858204571492 0 -0.021009065506695977 0.0014274793047173442 0 -0.02094991043281404 0.0018991942721703341 0 -0.020609511310530567 0.0015249762564702382 0 -0.021009065506695977 0.0014274793047173442 0 -0.02094991043281404 0.0018991942721703341 0 -0.021347655843419817 0.001260746045387966 0 -0.02125718032879903 0.0015865858204571492 0 -0.021009065506695977 0.0014274793047173442 0 -0.022437731740903952 0.0012519431078334019 0 -0.022052664920594666 0.00094453460004984826 0 -0.022438922866635343 0.00073699003988974567 0 -0.022437731740903952 0.0012519431078334019 0 -0.022052664920594666 0.00094453460004984826 0 -0.022024584443760167 0.0013824952156802177 0 -0.022052664920594666 0.00094453460004984826 0 -0.021671918821302698 0.0010508608683312635 0 -0.022024584443760167 0.0013824952156802177 0 -0.022052664920594666 0.00094453460004984826 0 -0.021671918821302698 0.0010508608683312635 0 -0.021743902052212126 0.00064897173300043122 0 -0.021625511554110285 0.0015289115196574336 0 -0.021671918821302698 0.0010508608683312635 0 -0.022024584443760167 0.0013824952156802177 0 -0.021625511554110285 0.0015289115196574336 0 -0.022024584443760167 0.0013824952156802177 0 -0.021994101639498248 0.0017594351706439523 0 -0.022437731740903952 0.0012519431078334019 0 -0.022024584443760167 0.0013824952156802177 0 -0.022320517577255641 0.0016028118752800164 0 -0.022024584443760167 0.0013824952156802177 0 -0.022320517577255641 0.0016028118752800164 0 -0.021994101639498248 0.0017594351706439523 0 -0.022320517577255641 0.0016028118752800164 0 -0.021994101639498248 0.0017594351706439523 0 -0.022313785787639401 0.0021501787625127977 0 -0.021994101639498248 0.0017594351706439523 0 -0.021868206054746979 0.0023182073644510987 0 -0.022313785787639401 0.0021501787625127977 0 -0.021625511554110285 0.0015289115196574336 0 -0.021704326664285806 0.0019642681404025207 0 -0.021994101639498248 0.0017594351706439523 0 -0.021704326664285806 0.0019642681404025207 0 -0.021994101639498248 0.0017594351706439523 0 -0.021868206054746979 0.0023182073644510987 0 -0.021868206054746979 0.0023182073644510987 0 -0.022313785787639401 0.0021501787625127977 0 -0.021775676656304324 0.0027805579769896462 0 -0.022542107988226694 0.0021737422099860869 0 -0.016831309562024836 0.0031207782541686569 0 -0.021319523547877688 0.0024581965700394871 0 -0.020734353033439373 0.0037448115400193363 0 -0.022020579212991442 0.0030671843843006379 0 -0.02094991043281404 0.0018991942721703341 0 -0.021333904179328882 0.001886935786106756 0 -0.021136901790437691 0.002452640046705935 0 -0.02125718032879903 0.0015865858204571492 0 -0.02094991043281404 0.0018991942721703341 0 -0.021333904179328882 0.001886935786106756 0 -0.021625511554110285 0.0015289115196574336 0 -0.021704326664285806 0.0019642681404025207 0 -0.021333904179328882 0.001886935786106756 0 -0.021704326664285806 0.0019642681404025207 0 -0.021868206054746979 0.0023182073644510987 0 -0.021136901790437691 0.002452640046705935 0 -0.021704326664285806 0.0019642681404025207 0 -0.021333904179328882 0.001886935786106756 0 -0.021136901790437691 0.002452640046705935 0 -0.020510809481761171 0.0021321373222262891 0 -0.02094991043281404 0.0018991942721703341 0 -0.021136901790437691 0.002452640046705935 0 -0.018641889256749016 0.0029790562835880128 0 -0.01910938678233268 0.0030851886777561212 0 -0.016287187645304388 0.0035942617191391311 0 -0.016337069311236393 0.0032136092559581849 0 -0.016625144632572163 0.0035277960458965463 0 -0.011918306777292659 0.0038798757428877067 0 -0.016831309562024836 0.0031207782541686569 0 -0.016287187645304388 0.0035942617191391311 0 -0.016337069311236393 0.0032136092559581849 0 -0.015781404452375164 0.0033464496087917176 0 -0.010023798421766072 0.003443441153926093 0 -0.012958931350470446 0.0027427870192685061 0 -0.012535168196466343 0.0032903046272441398 0 -0.01910938678233268 0.0030851886777561212 0 -0.016831309562024836 0.0031207782541686569 0 -0.021868206054746979 0.0023182073644510987 0 -0.021136901790437691 0.002452640046705935 0 -0.021775676656304324 0.0027805579769896462 0 -0.011574940977627587 0.0039040213831514578 0 -0.010023798421766072 0.003443441153926093 0 -0.012535168196466343 0.0032903046272441398 0 -0.005763958626232287 0.0030350544304915319 0 -0.0053524550604216129 0.0030068389642322283 0 -0.005763958626232287 0.0030350544304915319 0 -0.011918306777292659 0.0038798757428877067 0 -0.0027217050341514998 0.0024094872257642238 0 -0.0027908357183923259 0.0024388459445836542 0 -0.0027335994853525743 0.002404796721653257 0 -0.0071758798083047465 0.0039671386678752857 0 -0.0081491055502622162 0.0034812728682874776 0 -0.0080136185825181207 0.0042277228771955043 0 -0.0081491055502622162 0.0034812728682874776 0 -0.0080136185825181207 0.0042277228771955043 0 -0.0092874405701195359 0.0040010438607467873 0 -0.015118408498653771 0.0020300327610268858 0 -0.019450983662125606 0.0023320740750354188 0 -0.021319523547877688 0.0024581965700394871 0 -0.020734353033439373 0.0037448115400193363 0 -0.020155915563795566 0.0037727746818279791 0 -0.015118408498653771 0.0020300327610268858 0 -0.012350404134939036 0.0020244233954442681 0 -0.010879992828082788 0.0020244221139441138 0 -0.011112959934673107 0.0019038705821589389 0 -0.0099210660747312863 0.0013602503692262125 0 -0.020734353033439373 0.0037448115400193363 0 -0.020261976879327469 0.003825066231599018 0 -0.020155915563795566 0.0037727746818279791 0 -0.013400377916051949 0.0029449707802219065 0 -0.013138197721680905 0.0028210687650190676 0 -0.012535168196466343 0.0032903046272441398 0 -0.0098674333030490512 0.0022392630582299153 0 -0.014993717160725013 0.0029083349936793348 0 -0.014993717160725013 0.0029083349936793348 0 -0.016831309562024836 0.0031207782541686569 0 -0.014341935601746462 0.0020899473939050696 0 -0.012683922108470115 0.0029601051036540942 0 -0.011859729708575987 0.0025781760634176355 0 -0.015118408498653771 0.0020300327610268858 0 -0.0098674333030490512 0.0022392630582299153 0 -0.015118408498653771 0.0020300327610268858 0 -0.014993717160725013 0.0029083349936793348 0 -0.013138197721680905 0.0028210687650190676 0 -0.012956835535817775 0.0027356082317108047 0 -0.012535168196466343 0.0032903046272441398 0 -0.016831309562024836 0.0031207782541686569 0 -0.014672707605677232 0.0040573040655355851 0 -0.0027217050341514998 0.0024094872257642238 0 -0.0027530969688375302 0.0023412783022639695 0 -0.0026883029874735548 0.0023866703728309645 0 -0.011574940977627587 0.0039040213831514578 0 -0.013400377916051949 0.0029449707802219065 0 -0.012535168196466343 0.0032903046272441398 0 -0.005763958626232287 0.0030350544304915319 0 -0.0098674333030490512 0.0022392630582299153 0 -0.005763958626232287 0.0030350544304915319 0 -0.0015819204322872903 0.002043920318398413 0 -0.0032486691657144387 0.0024185270620136834 0 -0.0029275721674457021 0.002555139377001745 0 -0.0027530969688375302 0.0023412783022639695 0 -0.0098674333030490512 0.0022392630582299153 0 -0.005716143734320606 0.0017542558644708438 0 -0.0029275721674457021 0.002555139377001745 0 -0.0027530969688375302 0.0023412783022639695 0 -0.0027090511514545551 0.0023243653815890461 0 -0.0027530969688375302 0.0023412783022639695 0 -0.0026935090583456531 0.0023482871677351471 0 -0.0027090511514545551 0.0023243653815890461 0 -0.0027530969688375302 0.0023412783022639695 0 -0.0026523973275779139 0.002367237613432121 0 -0.0026935090583456531 0.0023482871677351471 0 -0.0027530969688375302 0.0023412783022639695 0 -0.0026883029874735548 0.0023866703728309645 0 -0.0026523973275779139 0.002367237613432121 0 -0.0025360420312649742 0.0023756298073762572 0 -0.0026405716539590709 0.0023444175866041178 0 -0.0026523973275779139 0.002367237613432121 0 -0.0026883029874735548 0.0023866703728309645 0 -0.0026405716539590709 0.0023444175866041178 0 -0.0026523973275779139 0.002367237613432121 0 -0.0025360420312649742 0.0023756298073762572 0 -0.0026523973275779139 0.002367237613432121 0 -0.0026935090583456531 0.0023482871677351471 0 -0.0027908357183923259 0.0024388459445836542 0 -0.0027335994853525743 0.002404796721653257 0 -0.0027466282288097412 0.0023716802737566906 0 -0.0027908357183923259 0.0024388459445836542 0 -0.0027466282288097412 0.0023716802737566906 0 -0.0029035623264442112 0.0024238933984408978 0 -0.0026883029874735548 0.0023866703728309645 0 -0.0027335994853525743 0.002404796721653257 0 -0.0027466282288097412 0.0023716802737566906 0 -0.0027217050341514998 0.0024094872257642238 0 -0.0026883029874735548 0.0023866703728309645 0 -0.0027335994853525743 0.002404796721653257 0 -0.0027171314848201946 0.0022560460600161481 0 -0.0026405716539590709 0.0023444175866041178 0 -0.0027466282288097412 0.0023716802737566906 0 -0.0026883029874735548 0.0023866703728309645 0 -0.0026405716539590709 0.0023444175866041178 0 -0.0027466282288097412 0.0023716802737566906 0 -0.0027171314848201946 0.0022560460600161481 0 -0.0027466282288097412 0.0023716802737566906 0 -0.0028453535213827474 0.0023209633865218784 0 -0.0027466282288097412 0.0023716802737566906 0 -0.0028453535213827474 0.0023209633865218784 0 -0.0029035623264442112 0.0024238933984408978 0 -0.0028453535213827474 0.0023209633865218784 0 -0.0030308026515341812 0.0023798893525116653 0 -0.0029035623264442112 0.0024238933984408978 0 -0.0028894853048245044 0.0027981387368650854 0 -0.0074864773511992494 0.0027447311198423811 0 -0.0029588548408430253 0.0022636970520015297 0 -0.0028453535213827474 0.0023209633865218784 0 -0.0030308026515341812 0.0023798893525116653 0 -0.010090685972350383 0.0024786893364576916 0 -0.009770120560910478 0.0033087045529269789 0 -0.010594114637886835 0.0037688094422247795 0 -0.009770120560910478 0.0033087045529269789 0 -0.0091126831876169601 0.0029864139228929702 0 -0.0092874405701195359 0.0040010438607467873 0 -0.010090685972350383 0.0024786893364576916 0 -0.009770120560910478 0.0033087045529269789 0 -0.0091126831876169601 0.0029864139228929702 0 -0.0074864773511992494 0.0027447311198423811 0 -0.0059021673469749642 0.0027185118987976082 0 -0.0053524550604216129 0.0030068389642322283 0 -0.0059021673469749642 0.0027185118987976082 0 -0.011918306777292659 0.0038798757428877067 0 -0.010675051858826621 0.003891010979090114 0 -0.0081491055502622162 0.0034812728682874776 0 -0.0091126831876169601 0.0029864139228929702 0 -0.0092874405701195359 0.0040010438607467873 0 -0.013352441807298341 0.0037059978255596015 0 -0.013673960939148492 0.0045612967841179861 0 -0.014901696397372492 0.0034192036841258211 0 -0.009770120560910478 0.0033087045529269789 0 -0.0092874405701195359 0.0040010438607467873 0 -0.010594114637886835 0.0037688094422247795 0 -0.010675051858826621 0.003891010979090114 0 -0.013973345803551767 0.004074710347523677 0 -0.011918306777292659 0.0038798757428877067 0 -0.015784427513767515 0.003984385527171082 0 -0.011805165034384635 0.0039891059003949866 0 -0.013352441807298341 0.0037059978255596015 0 -0.013673960939148492 0.0045612967841179861 0 -0.016337069311236393 0.0032136092559581849 0 -0.016976935916894302 0.0033856071628734913 0 -0.016625144632572163 0.0035277960458965463 0 -0.015619350330222659 0.0048674173572246906 0 -0.016033686306117789 0.0045683815757815343 0 -0.016351226329503733 0.0049649766890329516 0 -0.015619350330222659 0.0048674173572246906 0 -0.016033686306117789 0.0045683815757815343 0 -0.01581339350172203 0.0041899900994682481 0 -0.016033686306117789 0.0045683815757815343 0 -0.01581339350172203 0.0041899900994682481 0 -0.016211425605642159 0.0042440249199952448 0 -0.015619350330222659 0.0048674173572246906 0 -0.015290089189927357 0.0039220398058149213 0 -0.01581339350172203 0.0041899900994682481 0 -0.016567272600733578 0.004314997215601862 0 -0.013973345803551767 0.004074710347523677 0 -0.015540923207324902 0.0051217731568545897 0 -0.013673960939148492 0.0045612967841179861 0 -0.014901696397372492 0.0034192036841258211 0 -0.016567272600733578 0.004314997215601862 0 -0.015784427513767515 0.003984385527171082 0 -0.013973345803551767 0.004074710347523677 0 -0.016454099975170347 0.0037276902569481755 0 -0.015290089189927357 0.0039220398058149213 0 -0.01581339350172203 0.0041899900994682481 0 -0.016261118163844145 0.0037145669406141025 0 -0.01581339350172203 0.0041899900994682481 0 -0.016211425605642159 0.0042440249199952448 0 -0.016261118163844145 0.0037145669406141025 0 -0.01386548686078453 0.0042756905490478215 0 -0.015311008785913675 0.0028078032716771623 0 -0.016261118163844145 0.0037145669406141025 0 -0.0074864773511992494 0.0027447311198423811 0 -0.013973345803551767 0.004074710347523677 0 -0.01386548686078453 0.0042756905490478215 0 -0.015311008785913675 0.0028078032716771623 0 -0.014161261442287859 0.0028426312001324791 0 -0.013153582063121868 0.0024365252311655153 0 -0.01386548686078453 0.0042756905490478215 0 -0.014161261442287859 0.0028426312001324791 0 -0.0040939921424559631 0.0034736763766384801 0 -0.0037905411823700541 0.0043249387730298393 0 -0.0044379587691734364 0.0040073432931296777 0 -0.0074864773511992494 0.0027447311198423811 0 -0.0094911427478442927 0.0028671100600794011 0 -0.013153582063121868 0.0024365252311655153 0 -0.014161261442287859 0.0028426312001324791 0 -0.014313692454965823 0.0018657977705039809 0 -0.015433757070968565 0.0013221515282047991 0 -0.015311008785913675 0.0028078032716771623 0 -0.016592804333029062 0.0027914808041625428 0 -0.015433757070968565 0.0013221515282047991 0 -0.015311008785913675 0.0028078032716771623 0 -0.014313692454965823 0.0018657977705039809 0 -0.015311008785913675 0.0028078032716771623 0 -0.014161261442287859 0.0028426312001324791 0 -0.014313692454965823 0.0018657977705039809 0 -0.010230556698061388 0.0029858499614802874 0 -0.0094911427478442927 0.0028671100600794011 0 -0.015650095550584414 0.0030333616911405901 0 -0.016462365380364434 0.0035761423841035051 0 -0.016597087483584821 0.0031136926349106474 0 -0.010230556698061388 0.0029858499614802874 0 -0.017237624340868073 0.0033481329829922104 0 -0.016592804333029062 0.0027914808041625428 0 -0.016261118163844145 0.0037145669406141025 0 -0.017266768160754065 0.003939746850871788 0 -0.015311008785913675 0.0028078032716771623 0 -0.016592804333029062 0.0027914808041625428 0 -0.016261118163844145 0.0037145669406141025 0 -0.017237624340868073 0.0033481329829922104 0 -0.016969802837503045 0.0037420061865066378 0 -0.016462365380364434 0.0035761423841035051 0 -0.01709330911227611 0.003473077576546572 0 -0.017266768160754065 0.003939746850871788 0 -0.017066674243505636 0.0028497247267587006 0 -0.01709330911227611 0.003473077576546572 0 -0.016597087483584821 0.0031136926349106474 0 -0.016462365380364434 0.0035761423841035051 0 -0.01709330911227611 0.003473077576546572 0 -0.016597087483584821 0.0031136926349106474 0 -0.017066674243505636 0.0028497247267587006 0 -0.01709330911227611 0.003473077576546572 0 -0.017718301874791727 0.0031040185168224057 0 -0.01709330911227611 0.003473077576546572 0 -0.017718301874791727 0.0031040185168224057 0 -0.017742160293482183 0.0035039087709302879 0 -0.018291814360815714 0.0028319705250978112 0 -0.017718301874791727 0.0031040185168224057 0 -0.01846408183508241 0.0034856621327712142 0 -0.017718301874791727 0.0031040185168224057 0 -0.017742160293482183 0.0035039087709302879 0 -0.01846408183508241 0.0034856621327712142 0 -0.018157945465248938 0.0039116789505143279 0 -0.01846408183508241 0.0034856621327712142 0 -0.018794783761518965 0.003963921144395372 0 -0.017742160293482183 0.0035039087709302879 0 -0.018157945465248938 0.0039116789505143279 0 -0.01846408183508241 0.0034856621327712142 0 -0.017742160293482183 0.0035039087709302879 0 -0.018157945465248938 0.0039116789505143279 0 -0.017266768160754065 0.003939746850871788 0 -0.01709330911227611 0.003473077576546572 0 -0.017742160293482183 0.0035039087709302879 0 -0.017266768160754065 0.003939746850871788 0 -0.018157945465248938 0.0039116789505143279 0 -0.017945311115555699 0.0043017797454866676 0 -0.017266768160754065 0.003939746850871788 0 -0.018157945465248938 0.0039116789505143279 0 -0.018601630746091551 0.0042495428950009755 0 -0.017945311115555699 0.0043017797454866676 0 -0.018157945465248938 0.0039116789505143279 0 -0.018601630746091551 0.0042495428950009755 0 -0.018794783761518965 0.003963921144395372 0 -0.018601630746091551 0.0042495428950009755 0 -0.018680496705067533 0.0045887204813744517 0 -0.017945311115555699 0.0043017797454866676 0 -0.018601630746091551 0.0042495428950009755 0 -0.018680496705067533 0.0045887204813744517 0 -0.019252635839334051 0.0046287373190335469 0 -0.017945311115555699 0.0043017797454866676 0 -0.017483645899271101 0.004778117722512118 0 -0.018203873873528634 0.0048414984458323516 0 -0.018680496705067533 0.0045887204813744517 0 -0.017945311115555699 0.0043017797454866676 0 -0.018203873873528634 0.0048414984458323516 0 -0.017945311115555699 0.0043017797454866676 0 -0.017483645899271101 0.004778117722512118 0 -0.01727794865898933 0.0043708239613166463 0 -0.017483645899271101 0.004778117722512118 0 -0.01727794865898933 0.0043708239613166463 0 -0.016926168161348593 0.0046377340099373133 0 -0.01727794865898933 0.0043708239613166463 0 -0.016926168161348593 0.0046377340099373133 0 -0.016746608335524396 0.0042267734610273626 0 -0.017483645899271101 0.004778117722512118 0 -0.016926168161348593 0.0046377340099373133 0 -0.016985197136091191 0.0049767388915579651 0 -0.016926168161348593 0.0046377340099373133 0 -0.016667893569557567 0.004865056101140337 0 -0.016985197136091191 0.0049767388915579651 0 -0.016926168161348593 0.0046377340099373133 0 -0.01645172687203713 0.0045912689760529059 0 -0.016667893569557567 0.004865056101140337 0 -0.016033686306117789 0.0045683815757815343 0 -0.01645172687203713 0.0045912689760529059 0 -0.016351226329503733 0.0049649766890329516 0 -0.01645172687203713 0.0045912689760529059 0 -0.016351226329503733 0.0049649766890329516 0 -0.016667893569557567 0.004865056101140337 0 -0.016033686306117789 0.0045683815757815343 0 -0.01645172687203713 0.0045912689760529059 0 -0.016211425605642159 0.0042440249199952448 0 -0.01645172687203713 0.0045912689760529059 0 -0.016746608335524396 0.0042267734610273626 0 -0.016211425605642159 0.0042440249199952448 0 -0.016926168161348593 0.0046377340099373133 0 -0.01645172687203713 0.0045912689760529059 0 -0.016746608335524396 0.0042267734610273626 0 -0.016746608335524396 0.0042267734610273626 0 -0.016261118163844145 0.0037145669406141025 0 -0.017266768160754065 0.003939746850871788 0 -0.016746608335524396 0.0042267734610273626 0 -0.016211425605642159 0.0042440249199952448 0 -0.016261118163844145 0.0037145669406141025 0 -0.017945311115555699 0.0043017797454866676 0 -0.01727794865898933 0.0043708239613166463 0 -0.017266768160754065 0.003939746850871788 0 -0.01727794865898933 0.0043708239613166463 0 -0.016746608335524396 0.0042267734610273626 0 -0.017266768160754065 0.003939746850871788 0 -0.019992635416969537 0.0034064977424862778 0 -0.019886173357645431 0.0037310390459471248 0 -0.019632901694736783 0.0035162019291479409 0 -0.019886173357645431 0.0037310390459471248 0 -0.019632901694736783 0.0035162019291479409 0 -0.019721349259673102 0.0039205799027199617 0 -0.019579237086813684 0.0029450675909234413 0 -0.019992635416969537 0.0034064977424862778 0 -0.019632901694736783 0.0035162019291479409 0 -0.014668261597471312 0.0022599999836623807 0 -0.015455338593475042 0.0026106066675645749 0 -0.019579237086813684 0.0029450675909234413 0 -0.019632901694736783 0.0035162019291479409 0 -0.019061222355881379 0.0031685297155049845 0 -0.019632901694736783 0.0035162019291479409 0 -0.019285811026210832 0.0037980445977127825 0 -0.019721349259673102 0.0039205799027199617 0 -0.019632901694736783 0.0035162019291479409 0 -0.019285811026210832 0.0037980445977127825 0 -0.019061222355881379 0.0031685297155049845 0 -0.019285811026210832 0.0037980445977127825 0 -0.019061222355881379 0.0031685297155049845 0 -0.01846408183508241 0.0034856621327712142 0 -0.018291814360815714 0.0028319705250978112 0 -0.019061222355881379 0.0031685297155049845 0 -0.01846408183508241 0.0034856621327712142 0 -0.019285811026210832 0.0037980445977127825 0 -0.01846408183508241 0.0034856621327712142 0 -0.018794783761518965 0.003963921144395372 0 -0.018601630746091551 0.0042495428950009755 0 -0.018794783761518965 0.003963921144395372 0 -0.019266451079958575 0.0042707315134236333 0 -0.018601630746091551 0.0042495428950009755 0 -0.019266451079958575 0.0042707315134236333 0 -0.019252635839334051 0.0046287373190335469 0 -0.019266451079958575 0.0042707315134236333 0 -0.019688373435274104 0.0044148696322950003 0 -0.019590865234622841 0.0045994110147984258 0 -0.019266451079958575 0.0042707315134236333 0 -0.019590865234622841 0.0045994110147984258 0 -0.019252635839334051 0.0046287373190335469 0 -0.019285811026210832 0.0037980445977127825 0 -0.019266451079958575 0.0042707315134236333 0 -0.019592297801886337 0.004148453903881447 0 -0.019285811026210832 0.0037980445977127825 0 -0.018794783761518965 0.003963921144395372 0 -0.019266451079958575 0.0042707315134236333 0 -0.019285811026210832 0.0037980445977127825 0 -0.019592297801886337 0.004148453903881447 0 -0.019721349259673102 0.0039205799027199617 0 -0.019592297801886337 0.004148453903881447 0 -0.019846008960104699 0.0042374339788325641 0 -0.019688373435274104 0.0044148696322950003 0 -0.019266451079958575 0.0042707315134236333 0 -0.019592297801886337 0.004148453903881447 0 -0.019688373435274104 0.0044148696322950003 0 -0.019592297801886337 0.004148453903881447 0 -0.019846008960104699 0.0042374339788325641 0 -0.019721349259673102 0.0039205799027199617 0 -0.0199396138373985 0.0039914121843769622 0 -0.019886173357645431 0.0037310390459471248 0 -0.019721349259673102 0.0039205799027199617 0 -0.0199396138373985 0.0039914121843769622 0 -0.019846008960104699 0.0042374339788325641 0 -0.019721349259673102 0.0039205799027199617 0 -0.019967086132100589 0.0045468171329160617 0 -0.019826002588194978 0.0045871714668938978 0 -0.019952488507319052 0.0046494291641530116 0 -0.019967086132100589 0.0045468171329160617 0 -0.01987049795660091 0.004456648655917674 0 -0.019826002588194978 0.0045871714668938978 0 -0.019846008960104699 0.0042374339788325641 0 -0.01987049795660091 0.004456648655917674 0 -0.019688373435274104 0.0044148696322950003 0 -0.019983613967361501 0.004373139202838168 0 -0.019846008960104699 0.0042374339788325641 0 -0.01987049795660091 0.004456648655917674 0 -0.019983613967361501 0.004373139202838168 0 -0.019967086132100589 0.0045468171329160617 0 -0.01987049795660091 0.004456648655917674 0 -0.019688373435274104 0.0044148696322950003 0 -0.019826002588194978 0.0045871714668938978 0 -0.019590865234622841 0.0045994110147984258 0 -0.01987049795660091 0.004456648655917674 0 -0.019688373435274104 0.0044148696322950003 0 -0.019826002588194978 0.0045871714668938978 0 -0.019826002588194978 0.0045871714668938978 0 -0.01980041738632668 0.0046802482921463303 0 -0.019952488507319052 0.0046494291641530116 0 -0.019612331883195156 0.0047233485655936436 0 -0.01980041738632668 0.0046802482921463303 0 -0.019837443370331973 0.0046957859800359526 0 -0.019826002588194978 0.0045871714668938978 0 -0.01980041738632668 0.0046802482921463303 0 -0.019590865234622841 0.0045994110147984258 0 -0.019612331883195156 0.0047233485655936436 0 -0.01980041738632668 0.0046802482921463303 0 -0.019590865234622841 0.0045994110147984258 0 -0.019612331883195156 0.0047233485655936436 0 -0.019590865234622841 0.0045994110147984258 0 -0.019252635839334051 0.0046287373190335469 0 -0.019612331883195156 0.0047233485655936436 0 -0.019252635839334051 0.0046287373190335469 0 -0.019212281569235243 0.0049712837844420009 0 -0.019612331883195156 0.0047233485655936436 0 -0.019590788415132388 0.0047497529366343112 0 -0.019212281569235243 0.0049712837844420009 0 -0.019612331883195156 0.0047233485655936436 0 -0.019590788415132388 0.0047497529366343112 0 -0.019837443370331973 0.0046957859800359526 0 -0.019590788415132388 0.0047497529366343112 0 -0.019837443370331973 0.0046957859800359526 0 -0.019794704915116479 0.0046603330168866353 0 -0.019837443370331973 0.0046957859800359526 0 -0.02004530068413541 0.004658853477046883 0 -0.020056586064887718 0.0046713224252172142 0 -0.019837443370331973 0.0046957859800359526 0 -0.02004530068413541 0.004658853477046883 0 -0.02002086434717151 0.0046274325976637257 0 -0.019837443370331973 0.0046957859800359526 0 -0.019794704915116479 0.0046603330168866353 0 -0.02002086434717151 0.0046274325976637257 0 -0.020340433391281037 0.004659446419181792 0 -0.02004530068413541 0.004658853477046883 0 -0.02002086434717151 0.0046274325976637257 0 -0.020340433391281037 0.004659446419181792 0 -0.02002086434717151 0.0046274325976637257 0 -0.020316767414643441 0.0046887521244466665 0 -0.020340433391281037 0.004659446419181792 0 -0.020190989470925326 0.004660670509475065 0 -0.02004530068413541 0.004658853477046883 0 -0.020190989470925326 0.004660670509475065 0 -0.02004530068413541 0.004658853477046883 0 -0.020056586064887718 0.0046713224252172142 0 -0.020190989470925326 0.004660670509475065 0 -0.020056586064887718 0.0046713224252172142 0 -0.020217629018692802 0.0046379020210571267 0 -0.020340433391281037 0.004659446419181792 0 -0.020190989470925326 0.004660670509475065 0 -0.020217629018692802 0.0046379020210571267 0 -0.020056586064887718 0.0046713224252172142 0 -0.020217629018692802 0.0046379020210571267 0 -0.020068360846201266 0.0046554024909136347 0 -0.020056586064887718 0.0046713224252172142 0 -0.019945088848837458 0.0046778834184887201 0 -0.020068360846201266 0.0046554024909136347 0 -0.019837443370331973 0.0046957859800359526 0 -0.020056586064887718 0.0046713224252172142 0 -0.019945088848837458 0.0046778834184887201 0 -0.01980041738632668 0.0046802482921463303 0 -0.019837443370331973 0.0046957859800359526 0 -0.019945088848837458 0.0046778834184887201 0 -0.019945088848837458 0.0046778834184887201 0 -0.019952488507319052 0.0046494291641530116 0 -0.020068360846201266 0.0046554024909136347 0 -0.01980041738632668 0.0046802482921463303 0 -0.019945088848837458 0.0046778834184887201 0 -0.019952488507319052 0.0046494291641530116 0 -0.019952488507319052 0.0046494291641530116 0 -0.020068360846201266 0.0046554024909136347 0 -0.020058193364928836 0.0046178438530089386 0 -0.020217629018692802 0.0046379020210571267 0 -0.020068360846201266 0.0046554024909136347 0 -0.020196332090145055 0.0045857559869258088 0 -0.020068360846201266 0.0046554024909136347 0 -0.020058193364928836 0.0046178438530089386 0 -0.020196332090145055 0.0045857559869258088 0 -0.020058193364928836 0.0046178438530089386 0 -0.020116493963721883 0.0045062251563556368 0 -0.020196332090145055 0.0045857559869258088 0 -0.020028496478891555 0.0045778418762953523 0 -0.020058193364928836 0.0046178438530089386 0 -0.020005085292724319 0.0046007727563105137 0 -0.020028496478891555 0.0045778418762953523 0 -0.020058193364928836 0.0046178438530089386 0 -0.020116493963721883 0.0045062251563556368 0 -0.019952488507319052 0.0046494291641530116 0 -0.020058193364928836 0.0046178438530089386 0 -0.020005085292724319 0.0046007727563105137 0 -0.019967086132100589 0.0045468171329160617 0 -0.019952488507319052 0.0046494291641530116 0 -0.020005085292724319 0.0046007727563105137 0 -0.017234536277822472 0.0060143468342441506 0 -0.016592878806551584 0.0051600648815675228 0 -0.016962583791150555 0.0052999978172427265 0 -0.017234536277822472 0.0060143468342441506 0 -0.017284828896374504 0.0053005339862121723 0 -0.018074805716101504 0.0056678635343683339 0 -0.017234536277822472 0.0060143468342441506 0 -0.016962583791150555 0.0052999978172427265 0 -0.017284828896374504 0.0053005339862121723 0 -0.020341874322281191 0.0046964895909992711 0 -0.019943020725963087 0.0048755568544295762 0 -0.020192330474891385 0.0044992961646255578 0 -0.018518125325470494 0.0041783642719370583 0 -0.018093107235708512 0.0040651156856604757 0 -0.018146547795293143 0.0037280422901579116 0 -0.018003302158058794 0.00439070660670067 0 -0.018518125325470494 0.0041783642719370583 0 -0.018093107235708512 0.0040651156856604757 0 -0.019005290556750248 0.0044351780430864005 0 -0.016980369378475826 0.00474670629049374 0 -0.017771612283403699 0.0039202355763386827 0 -0.018093107235708512 0.0040651156856604757 0 -0.018146547795293143 0.0037280422901579116 0 -0.017234536277822472 0.0060143468342441506 0 -0.016592878806551584 0.0051600648815675228 0 -0.016507744987909363 0.005134760964068597 0 -0.016592878806551584 0.0051600648815675228 0 -0.016713080672010786 0.0050792417318500137 0 -0.016962583791150555 0.0052999978172427265 0 -0.016935931055146378 0.004753752324473305 0 -0.016980369378475826 0.00474670629049374 0 -0.016980369378475826 0.00474670629049374 0 -0.016778867465189574 0.0047741076944600221 0 -0.016513029949518948 0.0051418045587445088 0 -0.016351226329503733 0.0049649766890329516 0 -0.016667893569557567 0.004865056101140337 0 -0.016713080672010786 0.0050792417318500137 0 -0.016985197136091191 0.0049767388915579651 0 -0.016962583791150555 0.0052999978172427265 0 -0.016513029949518948 0.0051418045587445088 0 -0.016713080672010786 0.0050792417318500137 0 -0.016667893569557567 0.004865056101140337 0 -0.016592878806551584 0.0051600648815675228 0 -0.016513029949518948 0.0051418045587445088 0 -0.016713080672010786 0.0050792417318500137 0 -0.016713080672010786 0.0050792417318500137 0 -0.016667893569557567 0.004865056101140337 0 -0.016985197136091191 0.0049767388915579651 0 -0.016985197136091191 0.0049767388915579651 0 -0.016962583791150555 0.0052999978172427265 0 -0.017284828896374504 0.0053005339862121723 0 -0.017483645899271101 0.004778117722512118 0 -0.017284828896374504 0.0053005339862121723 0 -0.017753230496207396 0.0051385901896307045 0 -0.017483645899271101 0.004778117722512118 0 -0.016985197136091191 0.0049767388915579651 0 -0.017284828896374504 0.0053005339862121723 0 -0.017284828896374504 0.0053005339862121723 0 -0.017753230496207396 0.0051385901896307045 0 -0.018074805716101504 0.0056678635343683339 0 -0.017483645899271101 0.004778117722512118 0 -0.018203873873528634 0.0048414984458323516 0 -0.017753230496207396 0.0051385901896307045 0 -0.018203873873528634 0.0048414984458323516 0 -0.017753230496207396 0.0051385901896307045 0 -0.018074805716101504 0.0056678635343683339 0 -0.018203873873528634 0.0048414984458323516 0 -0.019212281569235243 0.0049712837844420009 0 -0.018074805716101504 0.0056678635343683339 0 -0.018680496705067533 0.0045887204813744517 0 -0.019252635839334051 0.0046287373190335469 0 -0.019212281569235243 0.0049712837844420009 0 -0.018680496705067533 0.0045887204813744517 0 -0.018203873873528634 0.0048414984458323516 0 -0.019212281569235243 0.0049712837844420009 0 -0.019212281569235243 0.0049712837844420009 0 -0.019726475900130193 0.0046880480032674421 0 -0.019943020725963087 0.0048755568544295762 0 -0.019241616617594885 0.0050215277111372303 0 -0.018914906191741482 0.0053039118305857986 0 -0.019590788415132388 0.0047497529366343112 0 -0.019212281569235243 0.0049712837844420009 0 -0.019726475900130193 0.0046880480032674421 0 -0.019590788415132388 0.0047497529366343112 0 -0.019726475900130193 0.0046880480032674421 0 -0.019794704915116479 0.0046603330168866353 0 -0.019726475900130193 0.0046880480032674421 0 -0.019943020725963087 0.0048755568544295762 0 -0.020192330474891385 0.0044992961646255578 0 -0.019005290556750248 0.0044351780430864005 0 -0.018914906191741482 0.0053039118305857986 0 -0.019726475900130193 0.0046880480032674421 0 -0.019842334808787377 0.0046239085493575936 0 -0.019913751756498545 0.0046314283042712869 0 -0.019205029393294961 0.0049719467194913915 0 -0.021347092568391384 0.0035698987612035275 0 -0.022203104637892768 0.0025407872654163205 0 -0.021347092568391384 0.0035698987612035275 0 -0.019842334808787377 0.0046239085493575936 0 -0.019898685717637872 0.0046192204883026911 0 -0.019913751756498545 0.0046314283042712869 0 -0.019726475900130193 0.0046880480032674421 0 -0.019794704915116479 0.0046603330168866353 0 -0.019842334808787377 0.0046239085493575936 0 -0.019794704915116479 0.0046603330168866353 0 -0.019842334808787377 0.0046239085493575936 0 -0.02002086434717151 0.0046274325976637257 0 -0.019842334808787377 0.0046239085493575936 0 -0.02002086434717151 0.0046274325976637257 0 -0.019898685717637872 0.0046192204883026911 0 -0.02002086434717151 0.0046274325976637257 0 -0.019898685717637872 0.0046192204883026911 0 -0.020316767414643441 0.0046887521244466665 0 -0.024214982228231808 0.00076241054932369074 0 -0.024314202097294641 0.0007513904250787927 0 -0.024295890376989638 0.0009071927032687654 0 -0.024214982228231808 0.00076241054932369074 0 -0.024314202097294641 0.0007513904250787927 0 -0.02428422784058569 0.0006393018706552598 0 -0.024314202097294641 0.0007513904250787927 0 -0.024390135287917319 0.00077762515601339198 0 -0.024295890376989638 0.0009071927032687654 0 -0.024390135287917319 0.00077762515601339198 0 -0.024453728904937872 0.00071797651572807141 0 -0.024388958512497762 0.00068439958288957897 0 -0.024314202097294641 0.0007513904250787927 0 -0.024390135287917319 0.00077762515601339198 0 -0.024388958512497762 0.00068439958288957897 0 -0.021347092568391384 0.0035698987612035275 0 -0.022507612332008309 0.001670172227900811 0 -0.020548167470332997 0.0031502729977290049 0 -0.020476814641492893 0.0030526870973128064 0 -0.020677225143149815 0.0029611929661637936 0 -0.024390135287917319 0.00077762515601339198 0 -0.024295890376989638 0.0009071927032687654 0 -0.024436022408478187 0.00083777778032234022 0 -0.019005290556750248 0.0044351780430864005 0 -0.021347092568391384 0.0035698987612035275 0 -0.019949516453736736 0.0024712452889666136 0 -0.019005290556750248 0.0044351780430864005 0 -0.020806979438825011 0.0030278769212267746 0 -0.020548167470332997 0.0031502729977290049 0 -0.020677225143149815 0.0029611929661637936 0 -0.022507612332008309 0.001670172227900811 0 -0.023206979468597837 0.0012272848985625398 0 -0.02197325301485455 0.0020046122134913702 0 -0.021511684221890339 0.0017610365732221662 0 -0.021860130286382375 0.0016143356408687369 0 -0.019949516453736736 0.0024712452889666136 0 -0.022507612332008309 0.001670172227900811 0 -0.024390135287917319 0.00077762515601339198 0 -0.024505894381573676 0.00079560027159965036 0 -0.024453728904937872 0.00071797651572807141 0 -0.024390135287917319 0.00077762515601339198 0 -0.024436022408478187 0.00083777778032234022 0 -0.024505894381573676 0.00079560027159965036 0 -0.024505894381573676 0.00079560027159965036 0 -0.024453728904937872 0.00071797651572807141 0 -0.024517742675585284 0.00068699695079849966 0 -0.024453728904937872 0.00071797651572807141 0 -0.024517742675585284 0.00068699695079849966 0 -0.024472056739839057 0.00065054790432461033 0 -0.024517742675585284 0.00068699695079849966 0 -0.024472056739839057 0.00065054790432461033 0 -0.024554557461792019 0.00060175401929404078 0 -0.024472056739839057 0.00065054790432461033 0 -0.024451883808361545 0.00056479032463386701 0 -0.024388958512497762 0.00068439958288957897 0 -0.024472056739839057 0.00065054790432461033 0 -0.024451883808361545 0.00056479032463386701 0 -0.024554557461792019 0.00060175401929404078 0 -0.024453728904937872 0.00071797651572807141 0 -0.024472056739839057 0.00065054790432461033 0 -0.024388958512497762 0.00068439958288957897 0 -0.024534810065245292 0.00052251605818797689 0 -0.024451883808361545 0.00056479032463386701 0 -0.024554557461792019 0.00060175401929404078 0 -0.024451883808361545 0.00056479032463386701 0 -0.024516827890745271 0.00045683609020747161 0 -0.024433492267040644 0.00044205627321941798 0 -0.024534810065245292 0.00052251605818797689 0 -0.024451883808361545 0.00056479032463386701 0 -0.024516827890745271 0.00045683609020747161 0 -0.024451883808361545 0.00056479032463386701 0 -0.02428422784058569 0.0006393018706552598 0 -0.024348006105845216 0.00051084678070702021 0 -0.024451883808361545 0.00056479032463386701 0 -0.024348006105845216 0.00051084678070702021 0 -0.024433492267040644 0.00044205627321941798 0 -0.024314202097294641 0.0007513904250787927 0 -0.024388958512497762 0.00068439958288957897 0 -0.02428422784058569 0.0006393018706552598 0 -0.024451883808361545 0.00056479032463386701 0 -0.024388958512497762 0.00068439958288957897 0 -0.02428422784058569 0.0006393018706552598 0 -0.019898685717637872 0.0046192204883026911 0 -0.020271973228497008 0.0048800569790375357 0 -0.020316767414643441 0.0046887521244466665 0 -0.024214982228231808 0.00076241054932369074 0 -0.02428422784058569 0.0006393018706552598 0 -0.024125398595977888 0.00064295442455209731 0 -0.022203104637892768 0.0025407872654163205 0 -0.021485501741857291 0.0033124752629870992 0 -0.021485501741857291 0.0033124752629870992 0 -0.020542642896407642 0.0049540959694755454 0 -0.021485501741857291 0.0033124752629870992 0 -0.023160342700314515 0.0020282073453039731 0 -0.02428422784058569 0.0006393018706552598 0 -0.024125398595977888 0.00064295442455209731 0 -0.024205651281116892 0.00047741539352717159 0 -0.021243699182402424 0.0047690115284608802 0 -0.021827566933213461 0.0039168078769531278 0 -0.021017059283595412 0.0044749672362610288 0 -0.02428422784058569 0.0006393018706552598 0 -0.024348006105845216 0.00051084678070702021 0 -0.024205651281116892 0.00047741539352717159 0 -0.024348006105845216 0.00051084678070702021 0 -0.024336950190012956 0.00041699686068959099 0 -0.024205651281116892 0.00047741539352717159 0 -0.024336950190012956 0.00041699686068959099 0 -0.024205651281116892 0.00047741539352717159 0 -0.024312201335861171 0.00034457850125199874 0 -0.023160342700314515 0.0020282073453039731 0 -0.023276626996000551 0.0018219185577999565 0 -0.022273929757040269 0.0032822123008584875 0 -0.021596081983458887 0.0034762520855700575 0 -0.022142139359544458 0.0029651683110971739 0 -0.021827566933213461 0.0039168078769531278 0 -0.022273929757040269 0.0032822123008584875 0 -0.021596081983458887 0.0034762520855700575 0 -0.024336950190012956 0.00041699686068959099 0 -0.024401842856631151 0.00033119189678580989 0 -0.024431621823070442 0.00036091498393402225 0 -0.024336950190012956 0.00041699686068959099 0 -0.024312201335861171 0.00034457850125199874 0 -0.024401842856631151 0.00033119189678580989 0 -0.024401842856631151 0.00033119189678580989 0 -0.024431621823070442 0.00036091498393402225 0 -0.024473937341765811 0.00028087541381770968 0 -0.024431621823070442 0.00036091498393402225 0 -0.024506683522863358 0.00036455570878178079 0 -0.024473937341765811 0.00028087541381770968 0 -0.024506683522863358 0.00036455570878178079 0 -0.024473937341765811 0.00028087541381770968 0 -0.024597930038340678 0.00027057459352875191 0 -0.024506683522863358 0.00036455570878178079 0 -0.024516827890745271 0.00045683609020747161 0 -0.024584214097348733 0.00038148144429187865 0 -0.024506683522863358 0.00036455570878178079 0 -0.024516827890745271 0.00045683609020747161 0 -0.024433492267040644 0.00044205627321941798 0 -0.024336950190012956 0.00041699686068959099 0 -0.024431621823070442 0.00036091498393402225 0 -0.024433492267040644 0.00044205627321941798 0 -0.024348006105845216 0.00051084678070702021 0 -0.024336950190012956 0.00041699686068959099 0 -0.024433492267040644 0.00044205627321941798 0 -0.024431621823070442 0.00036091498393402225 0 -0.024506683522863358 0.00036455570878178079 0 -0.024433492267040644 0.00044205627321941798 0 -0.020020443876904399 0.0041835768759557902 0 -0.020192783986964054 0.0043368996390214442 0 -0.020303018017585134 0.0040817909953063808 0 -0.020192783986964054 0.0043368996390214442 0 -0.020116493963721883 0.0045062251563556368 0 -0.020335995065787777 0.0043970159793998266 0 -0.020060213960044947 0.0043726354106232747 0 -0.020192783986964054 0.0043368996390214442 0 -0.020116493963721883 0.0045062251563556368 0 -0.020196332090145055 0.0045857559869258088 0 -0.020335995065787777 0.0043970159793998266 0 -0.020405858543159319 0.0045699539058972468 0 -0.020116493963721883 0.0045062251563556368 0 -0.020196332090145055 0.0045857559869258088 0 -0.020335995065787777 0.0043970159793998266 0 -0.020192783986964054 0.0043368996390214442 0 -0.020335995065787777 0.0043970159793998266 0 -0.020303018017585134 0.0040817909953063808 0 -0.020335995065787777 0.0043970159793998266 0 -0.020638543092225837 0.0041343613556296529 0 -0.020303018017585134 0.0040817909953063808 0 -0.020335995065787777 0.0043970159793998266 0 -0.0207038143316709 0.004380240188017857 0 -0.020405858543159319 0.0045699539058972468 0 -0.020335995065787777 0.0043970159793998266 0 -0.0207038143316709 0.004380240188017857 0 -0.020638543092225837 0.0041343613556296529 0 -0.0207038143316709 0.004380240188017857 0 -0.021172072402561075 0.0040492128788208416 0 -0.020638543092225837 0.0041343613556296529 0 -0.020217629018692802 0.0046379020210571267 0 -0.020196332090145055 0.0045857559869258088 0 -0.020405858543159319 0.0045699539058972468 0 -0.020340433391281037 0.004659446419181792 0 -0.020217629018692802 0.0046379020210571267 0 -0.020405858543159319 0.0045699539058972468 0 -0.0207038143316709 0.004380240188017857 0 -0.020405858543159319 0.0045699539058972468 0 -0.020624997912473391 0.0045969708510605941 0 -0.020340433391281037 0.004659446419181792 0 -0.020405858543159319 0.0045699539058972468 0 -0.020624997912473391 0.0045969708510605941 0 -0.020340433391281037 0.004659446419181792 0 -0.020624997912473391 0.0045969708510605941 0 -0.020316767414643441 0.0046887521244466665 0 -0.020737896453959227 0.0045706507947053778 0 -0.020624997912473391 0.0045969708510605941 0 -0.021017059283595412 0.0044749672362610288 0 -0.020737896453959227 0.0045706507947053778 0 -0.020624997912473391 0.0045969708510605941 0 -0.020316767414643441 0.0046887521244466665 0 -0.021485501741857291 0.0033124752629870992 0 -0.02141765256349764 0.0041860532888197176 0 -0.021827566933213461 0.0039168078769531278 0 -0.021017059283595412 0.0044749672362610288 0 -0.021172072402561075 0.0040492128788208416 0 -0.0207038143316709 0.004380240188017857 0 -0.020624997912473391 0.0045969708510605941 0 -0.021017059283595412 0.0044749672362610288 0 -0.0207038143316709 0.004380240188017857 0 -0.021017059283595412 0.0044749672362610288 0 -0.021172072402561075 0.0040492128788208416 0 -0.021827566933213461 0.0039168078769531278 0 -0.021172072402561075 0.0040492128788208416 0 -0.021596081983458887 0.0034762520855700575 0 -0.021172072402561075 0.0040492128788208416 0 -0.021596081983458887 0.0034762520855700575 0 -0.020638543092225837 0.0041343613556296529 0 -0.021596081983458887 0.0034762520855700575 0 -0.020638543092225837 0.0041343613556296529 0 -0.021016348889021926 0.0034804388025836907 0 -0.020689390273773863 0.0041350249412429813 0 -0.020801193310052847 0.0036318391725646054 0 -0.020638543092225837 0.0041343613556296529 0 -0.020586553754922996 0.0037944395125178256 0 -0.020303018017585134 0.0040817909953063808 0 -0.020586553754922996 0.0037944395125178256 0 -0.020350609704627112 0.0038322435446236755 0 -0.020303018017585134 0.0040817909953063808 0 -0.020147166485398181 0.0039036022195997229 0 -0.020350609704627112 0.0038322435446236755 0 -0.020303018017585134 0.0040817909953063808 0 -0.020147166485398181 0.0039036022195997229 0 -0.020350609704627112 0.0038322435446236755 0 -0.020241846153802499 0.0036470388844807083 0 -0.020020443876904399 0.0041835768759557902 0 -0.020147166485398181 0.0039036022195997229 0 -0.020303018017585134 0.0040817909953063808 0 -0.020156677213598938 0.0032771862209830423 0 -0.020561413136100139 0.0034480467075047507 0 -0.020527727548375698 0.0030793539598531752 0 -0.020156677213598938 0.0032771862209830423 0 -0.020241846153802499 0.0036470388844807083 0 -0.020561413136100139 0.0034480467075047507 0 -0.020350609704627112 0.0038322435446236755 0 -0.020241846153802499 0.0036470388844807083 0 -0.020561413136100139 0.0034480467075047507 0 -0.020586553754922996 0.0037944395125178256 0 -0.020350609704627112 0.0038322435446236755 0 -0.020561413136100139 0.0034480467075047507 0 -0.020801193310052847 0.0036318391725646054 0 -0.020611188536977909 0.0031891579410015512 0 -0.020611188536977909 0.0031891579410015512 0 -0.022379964437165022 0.0011694351398672054 0 -0.021024795039836223 0.0026488867385681008 0 -0.022145131011339608 0.0028534152846813165 0 -0.021798970213189665 0.001730662563067714 0 -0.021016348889021926 0.0034804388025836907 0 -0.021024795039836223 0.0026488867385681008 0 -0.022145131011339608 0.0028534152846813165 0 -0.021596081983458887 0.0034762520855700575 0 -0.021016348889021926 0.0034804388025836907 0 -0.022145131011339608 0.0028534152846813165 0 -0.021596081983458887 0.0034762520855700575 0 -0.022145131011339608 0.0028534152846813165 0 -0.022142139359544458 0.0029651683110971739 0 -0.022145131011339608 0.0028534152846813165 0 -0.022142139359544458 0.0029651683110971739 0 -0.022208491929983764 0.0026944134295569817 0 -0.022145131011339608 0.0028534152846813165 0 -0.023381540156423228 0.0011679735339432569 0 -0.024498323364953088 0.0018039861212270452 0 -0.022145131011339608 0.0028534152846813165 0 -0.023381540156423228 0.0011679735339432569 0 -0.021798970213189665 0.001730662563067714 0 -0.022327163623218384 0.0027709173770327136 0 -0.023186804891278369 0.0023591939463640625 0 -0.023699921753711772 0.00034161098501750046 0 -0.024999605318747911 -9.3833469417391007e-08 0 -0.023381540156423228 0.0011679735339432569 0 -0.022462157448528683 0.00022783973162706015 0 -0.024996810585633533 -1.0718610313696179e-06 0 -0.024999988200263713 2.3341348581198567e-09 0 -0.02499636195393851 1.2302370624876001e-06 0 -0.02499999889742132 -7.1465009359921907e-10 0 -0.024999988200263713 2.3341348581198567e-09 0 -0.02499636195393851 1.2302370624876001e-06 0 -0.024998378161889774 8.865130578463705e-07 0 -0.023699921753711772 0.00034161098501750046 0 -0.022379964437165022 0.0011694351398672054 0 -0.023381540156423228 0.0011679735339432569 0 -0.022462157448528683 0.00022783973162706015 0 -0.021798970213189665 0.001730662563067714 0 -0.022462157448528683 0.00022783973162706015 0 -0.021798970213189665 0.001730662563067714 0 -0.020676861939306092 0.0010561146310262028 0 -0.021024795039836223 0.0026488867385681008 0 -0.021798970213189665 0.001730662563067714 0 -0.020676861939306092 0.0010561146310262028 0 -0.023720996528579872 0.00050953232290568726 0 -0.023515051485799174 0.00061173828960638457 0 -0.023495356168853759 0.00047792191149823731 0 -0.023699921753711772 0.00034161098501750046 0 -0.024645063563291179 0.00022042401203931173 0 -0.024999988200263713 2.3341348581198567e-09 0 -0.024999996065654121 1.5305584371931328e-09 0 -0.024998378161889774 8.865130578463705e-07 0 -0.024999443579415786 1.7436240722050939e-07 0 -0.024645063563291179 0.00022042401203931173 0 -0.022379964437165022 0.0011694351398672054 0 -0.024645063563291179 0.00022042401203931173 0 -0.025066822689996431 2.7834757240811588e-05 0 -0.024645063563291179 0.00022042401203931173 0 -0.024999964748871485 1.1311476103861354e-07 0 -0.0249999967148372 2.0705265981880481e-09 0 -0.024999394015871333 6.7159109745131975e-07 0 -0.025000000474917714 6.0724481028849947e-11 0 -0.024999964748871485 1.1311476103861354e-07 0 -0.0249999967148372 2.0705265981880481e-09 0 -0.025015553918392434 6.3832108216491372e-05 0 -0.025016630437728952 8.7368185168842927e-05 0 -0.025014643166140698 8.904589007024613e-05 0 -0.025011633084806643 9.8827088445081358e-05 0 -0.025016630437728952 8.7368185168842927e-05 0 -0.025014643166140698 8.904589007024613e-05 0 -0.022677418397207345 0.001743644014176776 0 -0.022379964437165022 0.0011694351398672054 0 -0.025008496973538321 0.00013470695109627098 0 -0.025011633084806643 9.8827088445081358e-05 0 -0.025014643166140698 8.904589007024613e-05 0 -0.024603669908771185 0.00016199007601559542 0 -0.024853485217442416 0.00021471867051623962 0 -0.024440799149503714 0.0002848453209372028 0 -0.024603669908771185 0.00016199007601559542 0 -0.024853485217442416 0.00021471867051623962 0 -0.024764098552504814 7.169371776719352e-05 0 -0.024518905580016983 0.00016854892386805901 0 -0.024473937341765811 0.00028087541381770968 0 -0.024597930038340678 0.00027057459352875191 0 -0.024682917492009189 0.00018817094950813901 0 -0.024460735222133604 0.00027775176829789396 0 -0.024401842856631151 0.00033119189678580989 0 -0.024473937341765811 0.00028087541381770968 0 -0.024440799149503714 0.0002848453209372028 0 -0.024518905580016983 0.00016854892386805901 0 -0.024473937341765811 0.00028087541381770968 0 -0.024440799149503714 0.0002848453209372028 0 -0.024312201335861171 0.00034457850125199874 0 -0.024440799149503714 0.0002848453209372028 0 -0.024430360053346617 0.00022563210503811961 0 -0.024312201335861171 0.00034457850125199874 0 -0.024401842856631151 0.00033119189678580989 0 -0.024440799149503714 0.0002848453209372028 0 -0.023276626996000551 0.0018219185577999565 0 -0.023353223340320729 0.0016387195272878582 0 -0.022273929757040269 0.0032822123008584875 0 -0.022142139359544458 0.0029651683110971739 0 -0.022452840902736117 0.002833012005354857 0 -0.022142139359544458 0.0029651683110971739 0 -0.022208491929983764 0.0026944134295569817 0 -0.022452840902736117 0.002833012005354857 0 -0.024603669908771185 0.00016199007601559542 0 -0.024430360053346617 0.00022563210503811961 0 -0.024577782536457177 1.4770930677039875e-05 0 -0.022208491929983764 0.0026944134295569817 0 -0.022452840902736117 0.002833012005354857 0 -0.022605533513812642 0.002398947013690313 0 -0.024603669908771185 0.00016199007601559542 0 -0.024440799149503714 0.0002848453209372028 0 -0.024430360053346617 0.00022563210503811961 0 -0.023353223340320729 0.0016387195272878582 0 -0.024334098232986427 0.00075245526844779738 0 -0.023186804891278369 0.0023591939463640625 0 -0.024334098232986427 0.00075245526844779738 0 -0.023381540156423228 0.0011679735339432569 0 -0.024498323364953088 0.0018039861212270452 0 -0.024725189077061505 0.0006152392845581023 0 -0.024498323364953088 0.0018039861212270452 0 -0.02535952087424866 0.00067201048894613414 0 -0.024725189077061505 0.0006152392845581023 0 -0.023381540156423228 0.0011679735339432569 0 -0.024725189077061505 0.0006152392845581023 0 -0.024996810585633533 -1.0718610313696179e-06 0 -0.024725189077061505 0.0006152392845581023 0 -0.024996810585633533 -1.0718610313696179e-06 0 -0.025000624287866188 4.8650390059232906e-07 0 -0.02535952087424866 0.00067201048894613414 0 -0.024725189077061505 0.0006152392845581023 0 -0.025000624287866188 4.8650390059232906e-07 0 -0.02535952087424866 0.00067201048894613414 0 -0.025000624287866188 4.8650390059232906e-07 0 -0.02500047762121857 2.8925912981378466e-08 0 -0.024334098232986427 0.00075245526844779738 0 -0.025000382898583352 -3.9524497570088364e-07 0 -0.024980785168960521 2.7186963649478414e-05 0 -0.024999967294632636 7.4120783127820893e-09 0 -0.025001934145260054 7.2545709527382651e-06 0 -0.024999967294632636 7.4120783127820893e-09 0 -0.025001934145260054 7.2545709527382651e-06 0 -0.025000024794366197 1.5802380150975311e-09 0 -0.024334098232986427 0.00075245526844779738 0 -0.024999416402671462 -7.9858921887713527e-05 0 -0.024603669908771185 0.00016199007601559542 0 -0.024577782536457177 1.4770930677039875e-05 0 -0.024764098552504814 7.169371776719352e-05 0 -0.024577782536457177 1.4770930677039875e-05 0 -0.024794470301767908 -3.0173167909787864e-05 0 -0.024764098552504814 7.169371776719352e-05 0 -0.024794470301767908 -3.0173167909787864e-05 0 -0.024764098552504814 7.169371776719352e-05 0 -0.024952442237498481 3.4529119295089711e-05 0 -0.024853485217442416 0.00021471867051623962 0 -0.024764098552504814 7.169371776719352e-05 0 -0.024952442237498481 3.4529119295089711e-05 0 -0.024794470301767908 -3.0173167909787864e-05 0 -0.024999631985567303 -1.8379440013578251e-07 0 -0.024952442237498481 3.4529119295089711e-05 0 -0.024999416402671462 -7.9858921887713527e-05 0 -0.024999835211841851 6.4245062278734777e-08 0 -0.024999631985567303 -1.8379440013578251e-07 0 -0.025000070384162996 6.4508013804522526e-08 0 -0.024952442237498481 3.4529119295089711e-05 0 -0.025000070384162996 6.4508013804522526e-08 0 -0.024990031450159107 3.2718649020651642e-05 0 -0.024952442237498481 3.4529119295089711e-05 0 -0.024990031450159107 3.2718649020651642e-05 0 -0.024952442237498481 3.4529119295089711e-05 0 -0.025000607699286092 7.3226223654071344e-05 0 -0.024999921844837222 1.6338668146291393e-08 0 -0.024940644327516078 2.1342679666593327e-05 0 -0.024973965212495092 1.7514496620926523e-05 0 -0.024999921844837222 1.6338668146291393e-08 0 -0.024973965212495092 1.7514496620926523e-05 0 -0.024999978956370978 9.3430942037625865e-09 0 -0.025000070384162996 6.4508013804522526e-08 0 -0.024990031450159107 3.2718649020651642e-05 0 -0.024999921844837222 1.6338668146291393e-08 0 -0.024990031450159107 3.2718649020651642e-05 0 -0.024999921844837222 1.6338668146291393e-08 0 -0.024940644327516078 2.1342679666593327e-05 0 -0.02493321589461537 2.5678826563825886e-05 0 -0.024849049034292026 7.5232835644605285e-05 0 -0.024990031450159107 3.2718649020651642e-05 0 -0.024940644327516078 2.1342679666593327e-05 0 -0.025000607699286092 7.3226223654071344e-05 0 -0.024940644327516078 2.1342679666593327e-05 0 -0.024973965212495092 1.7514496620926523e-05 0 -0.024943967341181341 8.2038537070622705e-05 0 -0.024940644327516078 2.1342679666593327e-05 0 -0.024943967341181341 8.2038537070622705e-05 0 -0.024834723299863033 0.00015039265027134464 0 -0.024940644327516078 2.1342679666593327e-05 0 -0.024834723299863033 0.00015039265027134464 0 -0.024703442195586116 6.7556346525040692e-05 0 -0.024834723299863033 0.00015039265027134464 0 -0.024791603246379149 0.00027113308934178739 0 -0.024879529909257136 0.00019439681427673087 0 -0.024834723299863033 0.00015039265027134464 0 -0.024724793043316456 0.00022649571491927266 0 -0.024791603246379149 0.00027113308934178739 0 -0.024943967341181341 8.2038537070622705e-05 0 -0.024834723299863033 0.00015039265027134464 0 -0.024879529909257136 0.00019439681427673087 0 -0.024682917492009189 0.00018817094950813901 0 -0.024849049034292026 7.5232835644605285e-05 0 -0.024853485217442416 0.00021471867051623962 0 -0.024952442237498481 3.4529119295089711e-05 0 -0.025000607699286092 7.3226223654071344e-05 0 -0.024703442195586116 6.7556346525040692e-05 0 -0.024724793043316456 0.00022649571491927266 0 -0.024597930038340678 0.00027057459352875191 0 -0.024834723299863033 0.00015039265027134464 0 -0.024703442195586116 6.7556346525040692e-05 0 -0.024724793043316456 0.00022649571491927266 0 -0.024518905580016983 0.00016854892386805901 0 -0.024703442195586116 6.7556346525040692e-05 0 -0.024597930038340678 0.00027057459352875191 0 -0.024506683522863358 0.00036455570878178079 0 -0.024597930038340678 0.00027057459352875191 0 -0.024584214097348733 0.00038148144429187865 0 -0.024597930038340678 0.00027057459352875191 0 -0.024584214097348733 0.00038148144429187865 0 -0.024686013168395651 0.00035523655148044674 0 -0.024584214097348733 0.00038148144429187865 0 -0.024686013168395651 0.00035523655148044674 0 -0.024614918330188293 0.00046849280149503228 0 -0.024516827890745271 0.00045683609020747161 0 -0.024584214097348733 0.00038148144429187865 0 -0.024614918330188293 0.00046849280149503228 0 -0.024686013168395651 0.00035523655148044674 0 -0.024614918330188293 0.00046849280149503228 0 -0.024708245006398157 0.00047012309997804768 0 -0.024686013168395651 0.00035523655148044674 0 -0.024780194294871844 0.00037857147966000867 0 -0.024708245006398157 0.00047012309997804768 0 -0.024724793043316456 0.00022649571491927266 0 -0.024597930038340678 0.00027057459352875191 0 -0.024686013168395651 0.00035523655148044674 0 -0.024724793043316456 0.00022649571491927266 0 -0.024686013168395651 0.00035523655148044674 0 -0.024791603246379149 0.00027113308934178739 0 -0.024791603246379149 0.00027113308934178739 0 -0.024879529909257136 0.00019439681427673087 0 -0.024842823256554406 0.00028766437183572478 0 -0.024879529909257136 0.00019439681427673087 0 -0.024842823256554406 0.00028766437183572478 0 -0.024910518478935918 0.00023524824415530296 0 -0.024842823256554406 0.00028766437183572478 0 -0.024855996306828939 0.00037731976475414227 0 -0.024780194294871844 0.00037857147966000867 0 -0.024842823256554406 0.00028766437183572478 0 -0.024855996306828939 0.00037731976475414227 0 -0.024910518478935918 0.00023524824415530296 0 -0.024791603246379149 0.00027113308934178739 0 -0.024842823256554406 0.00028766437183572478 0 -0.024780194294871844 0.00037857147966000867 0 -0.024686013168395651 0.00035523655148044674 0 -0.024791603246379149 0.00027113308934178739 0 -0.024780194294871844 0.00037857147966000867 0 -0.024780194294871844 0.00037857147966000867 0 -0.024786262162674714 0.00047799271846589442 0 -0.024708245006398157 0.00047012309997804768 0 -0.024855996306828939 0.00037731976475414227 0 -0.024780194294871844 0.00037857147966000867 0 -0.024786262162674714 0.00047799271846589442 0 -0.024786262162674714 0.00047799271846589442 0 -0.024703779101837433 0.00053967490360173496 0 -0.024708245006398157 0.00047012309997804768 0 -0.024855996306828939 0.00037731976475414227 0 -0.024854542006232702 0.00046654931906859779 0 -0.024891487713705959 0.0004159118883801181 0 -0.024855996306828939 0.00037731976475414227 0 -0.024786262162674714 0.00047799271846589442 0 -0.024854542006232702 0.00046654931906859779 0 -0.024086199140136641 0.0011116586430531112 0 -0.023986112411907467 0.00076938477334934302 0 -0.024995572212463534 0.00069225631828963535 0 -0.024854542006232702 0.00046654931906859779 0 -0.02483342036037962 0.00054180917410951259 0 -0.024931830231904029 0.00047914065613712556 0 -0.024786262162674714 0.00047799271846589442 0 -0.024854542006232702 0.00046654931906859779 0 -0.02483342036037962 0.00054180917410951259 0 -0.023795090405934041 0.00092306183475758974 0 -0.024411449823664895 0.00066094144220097664 0 -0.024686258953712539 0.00067079238067292127 0 -0.02483342036037962 0.00054180917410951259 0 -0.024742677706735536 0.00056557109392586856 0 -0.024786262162674714 0.00047799271846589442 0 -0.02483342036037962 0.00054180917410951259 0 -0.024742677706735536 0.00056557109392586856 0 -0.022921243934327498 0.0011777045284968471 0 -0.024086199140136641 0.0011116586430531112 0 -0.023986112411907467 0.00076938477334934302 0 -0.024786262162674714 0.00047799271846589442 0 -0.024742677706735536 0.00056557109392586856 0 -0.024703779101837433 0.00053967490360173496 0 -0.024686258953712539 0.00067079238067292127 0 -0.024742677706735536 0.00056557109392586856 0 -0.024682495637659393 0.00059816382719839775 0 -0.024742677706735536 0.00056557109392586856 0 -0.024682495637659393 0.00059816382719839775 0 -0.024703779101837433 0.00053967490360173496 0 -0.024682495637659393 0.00059816382719839775 0 -0.024703779101837433 0.00053967490360173496 0 -0.024647674144472578 0.00055568092022136267 0 -0.024686258953712539 0.00067079238067292127 0 -0.024682495637659393 0.00059816382719839775 0 -0.024603351565981486 0.00065171517680563977 0 -0.024682495637659393 0.00059816382719839775 0 -0.024647674144472578 0.00055568092022136267 0 -0.024603351565981486 0.00065171517680563977 0 -0.024647674144472578 0.00055568092022136267 0 -0.024603351565981486 0.00065171517680563977 0 -0.024554557461792019 0.00060175401929404078 0 -0.024517742675585284 0.00068699695079849966 0 -0.024603351565981486 0.00065171517680563977 0 -0.024554557461792019 0.00060175401929404078 0 -0.024647674144472578 0.00055568092022136267 0 -0.024554557461792019 0.00060175401929404078 0 -0.024614918330188293 0.00046849280149503228 0 -0.024534810065245292 0.00052251605818797689 0 -0.024554557461792019 0.00060175401929404078 0 -0.024614918330188293 0.00046849280149503228 0 -0.024534810065245292 0.00052251605818797689 0 -0.024516827890745271 0.00045683609020747161 0 -0.024614918330188293 0.00046849280149503228 0 -0.024647674144472578 0.00055568092022136267 0 -0.024614918330188293 0.00046849280149503228 0 -0.024708245006398157 0.00047012309997804768 0 -0.024703779101837433 0.00053967490360173496 0 -0.024647674144472578 0.00055568092022136267 0 -0.024708245006398157 0.00047012309997804768 0 -0.025341767930229016 0.00047833174429009811 0 -0.025045769813433268 0.00037932604017030722 0 -0.025150749640966263 0.00029760529627526506 0 -0.023586847158820527 0.00033853088352033738 0 -0.025224789284929956 0.00026948095453087172 0 -0.022324529643893781 0.00053713815971391586 0 -0.022614062267651468 0.00084808938577048598 0 -0.02280673322910759 0.00032616206956249147 0 -0.024918302175935481 -6.252781380245734e-05 0 -0.024898331290641222 7.6146815306445953e-06 0 -0.024824484722030287 -8.5782176138687511e-05 0 -0.023586847158820527 0.00033853088352033738 0 -0.023818726711472255 0.00010327605661480631 0 -0.022052664920594666 0.00094453460004984826 0 -0.022029146277107656 0.00032241542608572318 0 -0.022438922866635343 0.00073699003988974567 0 -0.023586847158820527 0.00033853088352033738 0 -0.022330401137054225 0.0007177940031611429 0 -0.022029146277107656 0.00032241542608572318 0 -0.021743902052212126 0.00064897173300043122 0 -0.02131853581881616 0.00062585078215546871 0 -0.022052664920594666 0.00094453460004984826 0 -0.022029146277107656 0.00032241542608572318 0 -0.021743902052212126 0.00064897173300043122 0 -0.023586847158820527 0.00033853088352033738 0 -0.023177327317702143 0.00066342113484009631 0 -0.021671918821302698 0.0010508608683312635 0 -0.021743902052212126 0.00064897173300043122 0 -0.02153000742533254 0.00079884596221899704 0 -0.021743902052212126 0.00064897173300043122 0 -0.02153000742533254 0.00079884596221899704 0 -0.02131853581881616 0.00062585078215546871 0 -0.021398482210482819 0.00094810144814603723 0 -0.02153000742533254 0.00079884596221899704 0 -0.02131853581881616 0.00062585078215546871 0 -0.023986112411907467 0.00076938477334934302 0 -0.024995572212463534 0.00069225631828963535 0 -0.024931830231904029 0.00047914065613712556 0 -0.024411449823664895 0.00066094144220097664 0 -0.024901194888841828 0.00048425488906482251 0 -0.022306916087764167 0.0010516050112311082 0 -0.023177327317702143 0.00066342113484009631 0 -0.020616886072774412 0.00094390453208988351 0 -0.020957910338938714 0.00096501796435869141 0 -0.02131853581881616 0.00062585078215546871 0 -0.024854542006232702 0.00046654931906859779 0 -0.024931830231904029 0.00047914065613712556 0 -0.024891487713705959 0.0004159118883801181 0 -0.024931830231904029 0.00047914065613712556 0 -0.024891487713705959 0.0004159118883801181 0 -0.024928521465079147 0.00034029754974251246 0 -0.024931830231904029 0.00047914065613712556 0 -0.025045769813433268 0.00037932604017030722 0 -0.024928521465079147 0.00034029754974251246 0 -0.024855996306828939 0.00037731976475414227 0 -0.024891487713705959 0.0004159118883801181 0 -0.024928521465079147 0.00034029754974251246 0 -0.024995572212463534 0.00069225631828963535 0 -0.024931830231904029 0.00047914065613712556 0 -0.025045769813433268 0.00037932604017030722 0 -0.025341767930229016 0.00047833174429009811 0 -0.024995572212463534 0.00069225631828963535 0 -0.025045769813433268 0.00037932604017030722 0 -0.025045769813433268 0.00037932604017030722 0 -0.025150749640966263 0.00029760529627526506 0 -0.024993630126484971 0.00016216238322881566 0 -0.02497175684568988 2.1731093567749485e-05 0 -0.024993630126484971 0.00016216238322881566 0 -0.024979524051799897 0.00011862203191719063 0 -0.025045769813433268 0.00037932604017030722 0 -0.024928521465079147 0.00034029754974251246 0 -0.024993630126484971 0.00016216238322881566 0 -0.025224789284929956 0.00026948095453087172 0 -0.024950449675439763 0.0001030675457906635 0 -0.024928521465079147 0.00034029754974251246 0 -0.024910518478935918 0.00023524824415530296 0 -0.024993630126484971 0.00016216238322881566 0 -0.024855996306828939 0.00037731976475414227 0 -0.024928521465079147 0.00034029754974251246 0 -0.024910518478935918 0.00023524824415530296 0 -0.024910518478935918 0.00023524824415530296 0 -0.024993630126484971 0.00016216238322881566 0 -0.024969153974051802 0.00012960389349602356 0 -0.024879529909257136 0.00019439681427673087 0 -0.024910518478935918 0.00023524824415530296 0 -0.024969153974051802 0.00012960389349602356 0 -0.024993630126484971 0.00016216238322881566 0 -0.024979524051799897 0.00011862203191719063 0 -0.024969153974051802 0.00012960389349602356 0 -0.024979524051799897 0.00011862203191719063 0 -0.024943741899814423 7.4091422600145259e-05 0 -0.024971624052360371 9.7708165883637156e-05 0 -0.024943741899814423 7.4091422600145259e-05 0 -0.024919049733801348 7.0317099556852343e-05 0 -0.024971624052360371 9.7708165883637156e-05 0 -0.02497175684568988 2.1731093567749485e-05 0 -0.024979524051799897 0.00011862203191719063 0 -0.024943741899814423 7.4091422600145259e-05 0 -0.024918302175935481 -6.252781380245734e-05 0 -0.02497175684568988 2.1731093567749485e-05 0 -0.024898331290641222 7.6146815306445953e-06 0 -0.02497175684568988 2.1731093567749485e-05 0 -0.024943741899814423 7.4091422600145259e-05 0 -0.024898331290641222 7.6146815306445953e-06 0 -0.024943741899814423 7.4091422600145259e-05 0 -0.024898331290641222 7.6146815306445953e-06 0 -0.024919049733801348 7.0317099556852343e-05 0 -0.024898331290641222 7.6146815306445953e-06 0 -0.024842124975037197 -9.2704670584166218e-06 0 -0.024865700715026397 3.2246639196574809e-05 0 -0.024898331290641222 7.6146815306445953e-06 0 -0.024919049733801348 7.0317099556852343e-05 0 -0.024865700715026397 3.2246639196574809e-05 0 -0.024919049733801348 7.0317099556852343e-05 0 -0.024871703615411189 6.6502849510828742e-05 0 -0.024865700715026397 3.2246639196574809e-05 0 -0.024939777241370854 8.0051968555848964e-05 0 -0.024871703615411189 6.6502849510828742e-05 0 -0.024905614259650186 7.5823948292833929e-05 0 -0.024939777241370854 8.0051968555848964e-05 0 -0.024919049733801348 7.0317099556852343e-05 0 -0.024871703615411189 6.6502849510828742e-05 0 -0.024939777241370854 8.0051968555848964e-05 0 -0.024919049733801348 7.0317099556852343e-05 0 -0.024971624052360371 9.7708165883637156e-05 0 -0.024939777241370854 8.0051968555848964e-05 0 -0.024971624052360371 9.7708165883637156e-05 0 -0.024970311876693012 7.7392951993117632e-05 0 -0.024970311876693012 7.7392951993117632e-05 0 -0.024951368806911955 7.1683959759710018e-05 0 -0.024977345298553368 5.2259791488376334e-05 0 -0.024939777241370854 8.0051968555848964e-05 0 -0.024970311876693012 7.7392951993117632e-05 0 -0.024951368806911955 7.1683959759710018e-05 0 -0.024951368806911955 7.1683959759710018e-05 0 -0.024927538596555561 7.1028677154556073e-05 0 -0.024905614259650186 7.5823948292833929e-05 0 -0.024939777241370854 8.0051968555848964e-05 0 -0.024951368806911955 7.1683959759710018e-05 0 -0.024905614259650186 7.5823948292833929e-05 0 -0.024943967341181341 8.2038537070622705e-05 0 -0.024969153974051802 0.00012960389349602356 0 -0.024970315383172945 8.5758298536732107e-05 0 -0.024943967341181341 8.2038537070622705e-05 0 -0.024879529909257136 0.00019439681427673087 0 -0.024969153974051802 0.00012960389349602356 0 -0.024979524051799897 0.00011862203191719063 0 -0.024971624052360371 9.7708165883637156e-05 0 -0.024969153974051802 0.00012960389349602356 0 -0.024971624052360371 9.7708165883637156e-05 0 -0.024969153974051802 0.00012960389349602356 0 -0.024970315383172945 8.5758298536732107e-05 0 -0.024971624052360371 9.7708165883637156e-05 0 -0.024970311876693012 7.7392951993117632e-05 0 -0.024970315383172945 8.5758298536732107e-05 0 -0.024970311876693012 7.7392951993117632e-05 0 -0.024970315383172945 8.5758298536732107e-05 0 -0.024981265873774479 4.3440699431683101e-05 0 -0.024943967341181341 8.2038537070622705e-05 0 -0.024970315383172945 8.5758298536732107e-05 0 -0.024981265873774479 4.3440699431683101e-05 0 -0.024973965212495092 1.7514496620926523e-05 0 -0.024943967341181341 8.2038537070622705e-05 0 -0.024981265873774479 4.3440699431683101e-05 0 -0.024970311876693012 7.7392951993117632e-05 0 -0.024981265873774479 4.3440699431683101e-05 0 -0.024977345298553368 5.2259791488376334e-05 0 -0.024981265873774479 4.3440699431683101e-05 0 -0.024987563452830375 2.8083286328940459e-05 0 -0.024977345298553368 5.2259791488376334e-05 0 -0.024987563452830375 2.8083286328940459e-05 0 -0.024999978956370978 9.3430942037625865e-09 0 -0.02499995059883435 5.1543082883390778e-08 0 -0.024981265873774479 4.3440699431683101e-05 0 -0.024987563452830375 2.8083286328940459e-05 0 -0.024999978956370978 9.3430942037625865e-09 0 -0.024973965212495092 1.7514496620926523e-05 0 -0.024981265873774479 4.3440699431683101e-05 0 -0.024999978956370978 9.3430942037625865e-09 0 -0.024966511104221201 5.5696545152988618e-05 0 -0.024946495868047723 6.1657862879482475e-05 0 -0.024927538596555561 7.1028677154556073e-05 0 -0.024951368806911955 7.1683959759710018e-05 0 -0.024966511104221201 5.5696545152988618e-05 0 -0.024927538596555561 7.1028677154556073e-05 0 -0.024951368806911955 7.1683959759710018e-05 0 -0.024966511104221201 5.5696545152988618e-05 0 -0.024977345298553368 5.2259791488376334e-05 0 -0.024987563452830375 2.8083286328940459e-05 0 -0.024977345298553368 5.2259791488376334e-05 0 -0.024983832726714301 3.5492907242601877e-05 0 -0.024966511104221201 5.5696545152988618e-05 0 -0.024977345298553368 5.2259791488376334e-05 0 -0.024983832726714301 3.5492907242601877e-05 0 -0.024983832726714301 3.5492907242601877e-05 0 -0.02499995059883435 5.1543082883390778e-08 0 -0.024984820501937972 3.3527523311024349e-05 0 -0.024987563452830375 2.8083286328940459e-05 0 -0.024983832726714301 3.5492907242601877e-05 0 -0.02499995059883435 5.1543082883390778e-08 0 -0.02499995059883435 5.1543082883390778e-08 0 -0.024984820501937972 3.3527523311024349e-05 0 -0.024999988925455394 3.1757268658278541e-08 0 -0.024966511104221201 5.5696545152988618e-05 0 -0.024983832726714301 3.5492907242601877e-05 0 -0.024984820501937972 3.3527523311024349e-05 0 -0.024966511104221201 5.5696545152988618e-05 0 -0.024946495868047723 6.1657862879482475e-05 0 -0.024984820501937972 3.3527523311024349e-05 0 -0.024984820501937972 3.3527523311024349e-05 0 -0.024999988925455394 3.1757268658278541e-08 0 -0.025002995883886537 4.3867015335251666e-06 0 -0.024946495868047723 6.1657862879482475e-05 0 -0.024984820501937972 3.3527523311024349e-05 0 -0.024914363860463588 8.6771257265390428e-05 0 -0.024971008263327904 3.7125067525790496e-05 0 -0.024965590911354793 4.3643058375979522e-05 0 -0.024999988925455394 3.1757268658278541e-08 0 -0.025002995883886537 4.3867015335251666e-06 0 -0.025000013634133653 -8.7963291799463102e-09 0 -0.024914363860463588 8.6771257265390428e-05 0 -0.024910874757123277 7.2895276300652834e-05 0 -0.024896790931733026 8.4645715217546659e-05 0 -0.024946495868047723 6.1657862879482475e-05 0 -0.024914363860463588 8.6771257265390428e-05 0 -0.024910874757123277 7.2895276300652834e-05 0 -0.024910874757123277 7.2895276300652834e-05 0 -0.024886832509424393 7.9901456234225874e-05 0 -0.024896790931733026 8.4645715217546659e-05 0 -0.024910874757123277 7.2895276300652834e-05 0 -0.024886832509424393 7.9901456234225874e-05 0 -0.024884378013175966 7.6311489197969414e-05 0 -0.024946495868047723 6.1657862879482475e-05 0 -0.024927538596555561 7.1028677154556073e-05 0 -0.024910874757123277 7.2895276300652834e-05 0 -0.024927538596555561 7.1028677154556073e-05 0 -0.024910874757123277 7.2895276300652834e-05 0 -0.024884378013175966 7.6311489197969414e-05 0 -0.024886832509424393 7.9901456234225874e-05 0 -0.024889026956243687 8.7869400500465821e-05 0 -0.024852882527071796 8.1451816544153951e-05 0 -0.024741418261205971 0.00015084162565762857 0 -0.024730417741062553 0.00012855334990976327 0 -0.024745136936155841 9.852794202793061e-05 0 -0.024891623314430292 8.1557002135982965e-05 0 -0.024779985557573683 9.4363830972323806e-05 0 -0.024886832509424393 7.9901456234225874e-05 0 -0.024889026956243687 8.7869400500465821e-05 0 -0.024896790931733026 8.4645715217546659e-05 0 -0.024914363860463588 8.6771257265390428e-05 0 -0.024889026956243687 8.7869400500465821e-05 0 -0.024896790931733026 8.4645715217546659e-05 0 -0.025002995883886537 4.3867015335251666e-06 0 -0.025000229349598873 9.9345072154554847e-07 0 -0.025000013634133653 -8.7963291799463102e-09 0 -0.024965590911354793 4.3643058375979522e-05 0 -0.024891623314430292 8.1557002135982965e-05 0 -0.024891623314430292 8.1557002135982965e-05 0 -0.024999930013272945 -1.5727243126490769e-08 0 -0.024891623314430292 8.1557002135982965e-05 0 -0.024863727764122021 3.618153803274238e-05 0 -0.024999410663342322 4.3435254606103475e-07 0 -0.024999998602399723 6.2558669792723696e-10 0 -0.024999999332123452 1.3663319694388531e-10 0 -0.024999410663342322 4.3435254606103475e-07 0 -0.024999999332123452 1.3663319694388531e-10 0 -0.024999443111016924 3.5795965419004489e-07 0 -0.024741418261205971 0.00015084162565762857 0 -0.024701124374014106 0.00014519341171328711 0 -0.024706375042305197 0.00013277130393083724 0 -0.024999999332123452 1.3663319694388531e-10 0 -0.024999999535244809 2.5891327072467461e-10 0 -0.024999443111016924 3.5795965419004489e-07 0 -0.024999986569391477 -5.4540237883463944e-08 0 -0.024863727764122021 3.618153803274238e-05 0 -0.024683347275959666 -7.1230625528450299e-06 0 -0.024679920526726996 -2.1197067828853162e-07 0 -0.024692565816829548 -3.9970425469101614e-06 0 -0.024286305847755364 -7.0975696444406083e-05 0 -0.02433966566366828 -4.1755189208024617e-05 0 -0.024377737359735984 -0.00011021226083771155 0 -0.024606408778435961 7.8718711317970265e-05 0 -0.024503269462874563 -4.7048343459280155e-05 0 -0.024863727764122021 3.618153803274238e-05 0 -0.024606408778435961 7.8718711317970265e-05 0 -0.024286305847755364 -7.0975696444406083e-05 0 -0.02433966566366828 -4.1755189208024617e-05 0 -0.024308894620167529 4.5220711210988886e-06 0 -0.024741418261205971 0.00015084162565762857 0 -0.024706375042305197 0.00013277130393083724 0 -0.024730417741062553 0.00012855334990976327 0 -0.024606408778435961 7.8718711317970265e-05 0 -0.024752291942933862 0.00012167924276093566 0 -0.024606408778435961 7.8718711317970265e-05 0 -0.024495331574083696 7.0502638736950034e-05 0 -0.024696689628020317 0.00013476123238349814 0 -0.024730417741062553 0.00012855334990976327 0 -0.024713672527087588 9.6756105490897749e-05 0 -0.024730417741062553 0.00012855334990976327 0 -0.024713672527087588 9.6756105490897749e-05 0 -0.024745136936155841 9.852794202793061e-05 0 -0.024713672527087588 9.6756105490897749e-05 0 -0.024722123791511098 5.1472087565163926e-05 0 -0.024745136936155841 9.852794202793061e-05 0 -0.024286305847755364 -7.0975696444406083e-05 0 -0.024282721526192694 5.7894146992483735e-05 0 -0.024308894620167529 4.5220711210988886e-06 0 -0.024303836275730815 4.7131290646160751e-05 0 -0.024345756683493095 1.1439666913076428e-05 0 -0.024303649741984325 5.0999100421197532e-05 0 -0.02433966566366828 -4.1755189208024617e-05 0 -0.024308894620167529 4.5220711210988886e-06 0 -0.024345756683493095 1.1439666913076428e-05 0 -0.024308894620167529 4.5220711210988886e-06 0 -0.024303836275730815 4.7131290646160751e-05 0 -0.024345756683493095 1.1439666913076428e-05 0 -0.024282721526192694 5.7894146992483735e-05 0 -0.024308894620167529 4.5220711210988886e-06 0 -0.024303836275730815 4.7131290646160751e-05 0 -0.024282721526192694 5.7894146992483735e-05 0 -0.024303836275730815 4.7131290646160751e-05 0 -0.024285783655794164 8.3334782247592533e-05 0 -0.024303836275730815 4.7131290646160751e-05 0 -0.024285783655794164 8.3334782247592533e-05 0 -0.024303649741984325 5.0999100421197532e-05 0 -0.024285783655794164 8.3334782247592533e-05 0 -0.024303649741984325 5.0999100421197532e-05 0 -0.024137933147874192 3.2913452210151101e-05 0 -0.024285783655794164 8.3334782247592533e-05 0 -0.024398526876202375 9.9650698852481089e-05 0 -0.024353819270209194 4.7694247506198148e-05 0 -0.024495331574083696 7.0502638736950034e-05 0 -0.024568665182071091 5.9246733381673683e-05 0 -0.024282721526192694 5.7894146992483735e-05 0 -0.024285783655794164 8.3334782247592533e-05 0 -0.024398526876202375 9.9650698852481089e-05 0 -0.024722123791511098 5.1472087565163926e-05 0 -0.024745136936155841 9.852794202793061e-05 0 -0.024707927604211522 1.7509058255154923e-05 0 -0.024810218935213579 5.5907299788902394e-05 0 -0.024852602445184783 7.202482416948674e-05 0 -0.024852882527071796 8.1451816544153951e-05 0 -0.024810218935213579 5.5907299788902394e-05 0 -0.024852882527071796 8.1451816544153951e-05 0 -0.024707927604211522 1.7509058255154923e-05 0 -0.024779985557573683 9.4363830972323806e-05 0 -0.024726816824150937 1.2284579630600024e-05 0 -0.024810218935213579 5.5907299788902394e-05 0 -0.024871703615411189 6.6502849510828742e-05 0 -0.024781776166060379 2.3473131481048336e-05 0 -0.024871703615411189 6.6502849510828742e-05 0 -0.024852602445184783 7.202482416948674e-05 0 -0.024905614259650186 7.5823948292833929e-05 0 -0.024810218935213579 5.5907299788902394e-05 0 -0.024871703615411189 6.6502849510828742e-05 0 -0.024852602445184783 7.202482416948674e-05 0 -0.024852602445184783 7.202482416948674e-05 0 -0.024905614259650186 7.5823948292833929e-05 0 -0.024884378013175966 7.6311489197969414e-05 0 -0.024927538596555561 7.1028677154556073e-05 0 -0.024905614259650186 7.5823948292833929e-05 0 -0.024884378013175966 7.6311489197969414e-05 0 -0.024886832509424393 7.9901456234225874e-05 0 -0.024884378013175966 7.6311489197969414e-05 0 -0.024852882527071796 8.1451816544153951e-05 0 -0.024852602445184783 7.202482416948674e-05 0 -0.024884378013175966 7.6311489197969414e-05 0 -0.024852882527071796 8.1451816544153951e-05 0 -0.024793199212000634 -2.4234194832603713e-07 0 -0.024860841366058414 2.6523490102974562e-05 0 -0.024894972622005584 -2.5942739638421592e-05 0 -0.024791695138394042 -5.6137777358831576e-05 0 -0.024793199212000634 -2.4234194832603713e-07 0 -0.024894972622005584 -2.5942739638421592e-05 0 -0.02499986606700819 -6.7348151657847272e-08 0 -0.02495972594933522 -4.0246507429484391e-05 0 -0.024959438132322476 -2.3913339639411067e-05 0 -0.024932084550891052 -5.1983306752828258e-05 0 -0.024851253904393175 -7.3121121908120026e-05 0 -0.02499986606700819 -6.7348151657847272e-08 0 -0.02495972594933522 -4.0246507429484391e-05 0 -0.025005833643925036 -6.2477285503591622e-06 0 -0.024791695138394042 -5.6137777358831576e-05 0 -0.02495972594933522 -4.0246507429484391e-05 0 -0.024699764014811155 -0.00015265271716273651 0 -0.024791695138394042 -5.6137777358831576e-05 0 -0.02495972594933522 -4.0246507429484391e-05 0 -0.024894972622005584 -2.5942739638421592e-05 0 -0.024699764014811155 -0.00015265271716273651 0 -0.02462407248948701 -9.8496372245075476e-05 0 -0.024530636291896984 -0.00014340485079515384 0 -0.02499986606700819 -6.7348151657847272e-08 0 -0.025005833643925036 -6.2477285503591622e-06 0 -0.02500004960393484 1.0122457534960683e-08 0 -0.024791695138394042 -5.6137777358831576e-05 0 -0.024635091987583978 -3.3630058919927905e-05 0 -0.024793199212000634 -2.4234194832603713e-07 0 -0.02462407248948701 -9.8496372245075476e-05 0 -0.024635091987583978 -3.3630058919927905e-05 0 -0.024553709072869891 -8.7383096119269933e-05 0 -0.024791695138394042 -5.6137777358831576e-05 0 -0.02462407248948701 -9.8496372245075476e-05 0 -0.024635091987583978 -3.3630058919927905e-05 0 -0.024791695138394042 -5.6137777358831576e-05 0 -0.024699764014811155 -0.00015265271716273651 0 -0.02462407248948701 -9.8496372245075476e-05 0 -0.024635091987583978 -3.3630058919927905e-05 0 -0.024498805585019531 -5.0845147410317871e-05 0 -0.024553709072869891 -8.7383096119269933e-05 0 -0.024498805585019531 -5.0845147410317871e-05 0 -0.02449858745354299 -0.00014407302676243519 0 -0.024420191165801759 -4.9019315625295057e-05 0 -0.024498805585019531 -5.0845147410317871e-05 0 -0.024553709072869891 -8.7383096119269933e-05 0 -0.02449858745354299 -0.00014407302676243519 0 -0.02462407248948701 -9.8496372245075476e-05 0 -0.024553709072869891 -8.7383096119269933e-05 0 -0.024530636291896984 -0.00014340485079515384 0 -0.024553709072869891 -8.7383096119269933e-05 0 -0.024530636291896984 -0.00014340485079515384 0 -0.02449858745354299 -0.00014407302676243519 0 -0.025005833643925036 -6.2477285503591622e-06 0 -0.02500004960393484 1.0122457534960683e-08 0 -0.024999008614265895 -8.2609739771330002e-08 0 -0.024851253904393175 -7.3121121908120026e-05 0 -0.024730986434640011 -5.8146421030224467e-05 0 -0.024699764014811155 -0.00015265271716273651 0 -0.024530636291896984 -0.00014340485079515384 0 -0.024495129447033831 -0.00015189390085001381 0 -0.024655765377850431 -7.1397518964040125e-05 0 -0.024730986434640011 -5.8146421030224467e-05 0 -0.024863727764122021 3.618153803274238e-05 0 -0.024730986434640011 -5.8146421030224467e-05 0 -0.024683347275959666 -7.1230625528450299e-06 0 -0.024705175915563864 -7.7944968910130277e-06 0 -0.024692565816829548 -3.9970425469101614e-06 0 -0.024999970308941646 -4.696161505160744e-09 0 -0.024998658983686989 4.0304882177445859e-07 0 -0.024999008614265895 -8.2609739771330002e-08 0 -0.024999970308941646 -4.696161505160744e-09 0 -0.02500004960393484 1.0122457534960683e-08 0 -0.024999008614265895 -8.2609739771330002e-08 0 -0.024730986434640011 -5.8146421030224467e-05 0 -0.024503269462874563 -4.7048343459280155e-05 0 -0.02449858745354299 -0.00014407302676243519 0 -0.024377737359735984 -0.00011021226083771155 0 -0.024420191165801759 -4.9019315625295057e-05 0 -0.02433966566366828 -4.1755189208024617e-05 0 -0.024377737359735984 -0.00011021226083771155 0 -0.024420191165801759 -4.9019315625295057e-05 0 -0.02433966566366828 -4.1755189208024617e-05 0 -0.024420191165801759 -4.9019315625295057e-05 0 -0.024345756683493095 1.1439666913076428e-05 0 -0.024420191165801759 -4.9019315625295057e-05 0 -0.024345756683493095 1.1439666913076428e-05 0 -0.024469803255868821 1.0421460088198799e-05 0 -0.024345756683493095 1.1439666913076428e-05 0 -0.024303649741984325 5.0999100421197532e-05 0 -0.024469803255868821 1.0421460088198799e-05 0 -0.024303649741984325 5.0999100421197532e-05 0 -0.024469803255868821 1.0421460088198799e-05 0 -0.024417106047127345 0.00011670584220613779 0 -0.024469803255868821 1.0421460088198799e-05 0 -0.02461845033354124 8.4425233236371384e-05 0 -0.024417106047127345 0.00011670584220613779 0 -0.024498805585019531 -5.0845147410317871e-05 0 -0.024420191165801759 -4.9019315625295057e-05 0 -0.024469803255868821 1.0421460088198799e-05 0 -0.024635091987583978 -3.3630058919927905e-05 0 -0.024498805585019531 -5.0845147410317871e-05 0 -0.024469803255868821 1.0421460088198799e-05 0 -0.024635091987583978 -3.3630058919927905e-05 0 -0.024669831356010953 2.4557074908660958e-05 0 -0.024793199212000634 -2.4234194832603713e-07 0 -0.024469803255868821 1.0421460088198799e-05 0 -0.024669831356010953 2.4557074908660958e-05 0 -0.02461845033354124 8.4425233236371384e-05 0 -0.024635091987583978 -3.3630058919927905e-05 0 -0.024469803255868821 1.0421460088198799e-05 0 -0.024669831356010953 2.4557074908660958e-05 0 -0.024669831356010953 2.4557074908660958e-05 0 -0.02461845033354124 8.4425233236371384e-05 0 -0.024761733358276306 6.0354364634826522e-05 0 -0.024761733358276306 6.0354364634826522e-05 0 -0.024736450184191561 0.00012767087812236719 0 -0.024841270104165182 0.00010914395961020154 0 -0.02461845033354124 8.4425233236371384e-05 0 -0.024761733358276306 6.0354364634826522e-05 0 -0.024736450184191561 0.00012767087812236719 0 -0.024669831356010953 2.4557074908660958e-05 0 -0.024761733358276306 6.0354364634826522e-05 0 -0.024793199212000634 -2.4234194832603713e-07 0 -0.024761733358276306 6.0354364634826522e-05 0 -0.024793199212000634 -2.4234194832603713e-07 0 -0.024860841366058414 2.6523490102974562e-05 0 -0.024746748907682633 0.00020918854588258796 0 -0.024635061299028226 0.00034869524252300536 0 -0.024768015164462559 0.00029011882946834732 0 -0.024746748907682633 0.00020918854588258796 0 -0.024601899256551107 0.00019953328329101863 0 -0.024635061299028226 0.00034869524252300536 0 -0.024746748907682633 0.00020918854588258796 0 -0.024736450184191561 0.00012767087812236719 0 -0.024601899256551107 0.00019953328329101863 0 -0.024746748907682633 0.00020918854588258796 0 -0.024736450184191561 0.00012767087812236719 0 -0.024841270104165182 0.00010914395961020154 0 -0.02461845033354124 8.4425233236371384e-05 0 -0.024601899256551107 0.00019953328329101863 0 -0.024417106047127345 0.00011670584220613779 0 -0.02461845033354124 8.4425233236371384e-05 0 -0.024736450184191561 0.00012767087812236719 0 -0.024601899256551107 0.00019953328329101863 0 -0.024601899256551107 0.00019953328329101863 0 -0.024454168348393729 0.0003432847039759129 0 -0.024635061299028226 0.00034869524252300536 0 -0.024601899256551107 0.00019953328329101863 0 -0.024417106047127345 0.00011670584220613779 0 -0.024454168348393729 0.0003432847039759129 0 -0.024417106047127345 0.00011670584220613779 0 -0.024258102742332498 0.00023770574983794282 0 -0.024454168348393729 0.0003432847039759129 0 -0.024417106047127345 0.00011670584220613779 0 -0.024258102742332498 0.00023770574983794282 0 -0.024137933147874192 3.2913452210151101e-05 0 -0.024303649741984325 5.0999100421197532e-05 0 -0.024417106047127345 0.00011670584220613779 0 -0.024137933147874192 3.2913452210151101e-05 0 -0.024258102742332498 0.00023770574983794282 0 -0.024183878939783125 0.00049192780096351065 0 -0.023948645324388246 0.0003054331692447459 0 -0.024183878939783125 0.00049192780096351065 0 -0.024210841704983489 0.00086114922461586526 0 -0.02393369659184157 0.00077088487024755251 0 -0.024210841704983489 0.00086114922461586526 0 -0.02393369659184157 0.00077088487024755251 0 -0.024010113413056425 0.0011231231449934955 0 -0.024183878939783125 0.00049192780096351065 0 -0.024210841704983489 0.00086114922461586526 0 -0.02448990670331375 0.00053373083226981714 0 -0.024210841704983489 0.00086114922461586526 0 -0.02448990670331375 0.00053373083226981714 0 -0.024530129863141448 0.0007190611600525655 0 -0.024018860173502105 0.00084042798516695272 0 -0.024986278444605159 0.00090761942737208328 0 -0.024258102742332498 0.00023770574983794282 0 -0.024183878939783125 0.00049192780096351065 0 -0.024454168348393729 0.0003432847039759129 0 -0.024183878939783125 0.00049192780096351065 0 -0.02448990670331375 0.00053373083226981714 0 -0.024454168348393729 0.0003432847039759129 0 -0.02448990670331375 0.00053373083226981714 0 -0.024454168348393729 0.0003432847039759129 0 -0.024635061299028226 0.00034869524252300536 0 -0.02448990670331375 0.00053373083226981714 0 -0.024635061299028226 0.00034869524252300536 0 -0.024642396429263205 0.00045219829878547933 0 -0.024530129863141448 0.0007190611600525655 0 -0.024611764975452401 0.00058560587030364469 0 -0.024706467891766268 0.00064628439210619377 0 -0.02448990670331375 0.00053373083226981714 0 -0.024530129863141448 0.0007190611600525655 0 -0.024611764975452401 0.00058560587030364469 0 -0.02448990670331375 0.00053373083226981714 0 -0.024642396429263205 0.00045219829878547933 0 -0.024611764975452401 0.00058560587030364469 0 -0.024642396429263205 0.00045219829878547933 0 -0.024611764975452401 0.00058560587030364469 0 -0.024719990345122921 0.00044869819507030093 0 -0.024611764975452401 0.00058560587030364469 0 -0.024719990345122921 0.00044869819507030093 0 -0.024706467891766268 0.00064628439210619377 0 -0.024719990345122921 0.00044869819507030093 0 -0.024706467891766268 0.00064628439210619377 0 -0.024848686099842636 0.00070320238175263265 0 -0.024779419304009363 0.0007220117546584792 0 -0.022927888587667956 0.00067835736328509773 0 -0.024719990345122921 0.00044869819507030093 0 -0.024745996706676487 0.00038057130907216528 0 -0.024759789979383079 0.00037132841631656654 0 -0.024719990345122921 0.00044869819507030093 0 -0.024738241376480265 0.00037397964121645697 0 -0.024759789979383079 0.00037132841631656654 0 -0.024635061299028226 0.00034869524252300536 0 -0.024738241376480265 0.00037397964121645697 0 -0.024768015164462559 0.00029011882946834732 0 -0.024635061299028226 0.00034869524252300536 0 -0.024642396429263205 0.00045219829878547933 0 -0.024738241376480265 0.00037397964121645697 0 -0.024642396429263205 0.00045219829878547933 0 -0.024719990345122921 0.00044869819507030093 0 -0.024738241376480265 0.00037397964121645697 0 -0.023945451768136578 2.1752061590574266e-05 0 -0.023818726711472255 0.00010327605661480631 0 -0.02466537824549208 -3.0265662632689142e-05 0 -0.024511709468656964 -0.00010427857205051422 0 -0.024824484722030287 -8.5782176138687511e-05 0 -0.023386322187042213 0.00010579888419071979 0 -0.023096462852003709 0.00042085128195297998 0 -0.02280673322910759 0.00032616206956249147 0 -0.02466537824549208 -3.0265662632689142e-05 0 -0.024482233199356596 1.0527758859980506e-05 0 -0.024511709468656964 -0.00010427857205051422 0 -0.023386322187042213 0.00010579888419071979 0 -0.023096462852003709 0.00042085128195297998 0 -0.023327395974029809 0.00036210180316601138 0 -0.024898331290641222 7.6146815306445953e-06 0 -0.024842124975037197 -9.2704670584166218e-06 0 -0.024824484722030287 -8.5782176138687511e-05 0 -0.02466537824549208 -3.0265662632689142e-05 0 -0.024842124975037197 -9.2704670584166218e-06 0 -0.024824484722030287 -8.5782176138687511e-05 0 -0.02466537824549208 -3.0265662632689142e-05 0 -0.024842124975037197 -9.2704670584166218e-06 0 -0.024781776166060379 2.3473131481048336e-05 0 -0.024842124975037197 -9.2704670584166218e-06 0 -0.024781776166060379 2.3473131481048336e-05 0 -0.024865700715026397 3.2246639196574809e-05 0 -0.024871703615411189 6.6502849510828742e-05 0 -0.024781776166060379 2.3473131481048336e-05 0 -0.024865700715026397 3.2246639196574809e-05 0 -0.024398526876202375 9.9650698852481089e-05 0 -0.02466537824549208 -3.0265662632689142e-05 0 -0.024482233199356596 1.0527758859980506e-05 0 -0.024568665182071091 5.9246733381673683e-05 0 -0.024656176217987096 -3.93423085002042e-05 0 -0.024722123791511098 5.1472087565163926e-05 0 -0.02466537824549208 -3.0265662632689142e-05 0 -0.024707927604211522 1.7509058255154923e-05 0 -0.024810218935213579 5.5907299788902394e-05 0 -0.024781776166060379 2.3473131481048336e-05 0 -0.024707927604211522 1.7509058255154923e-05 0 -0.02466537824549208 -3.0265662632689142e-05 0 -0.024781776166060379 2.3473131481048336e-05 0 -0.024707927604211522 1.7509058255154923e-05 0 -0.024112207657141858 2.02441787236628e-05 0 -0.023945451768136578 2.1752061590574266e-05 0 -0.024353819270209194 4.7694247506198148e-05 0 -0.024137933147874192 3.2913452210151101e-05 0 -0.024511709468656964 -0.00010427857205051422 0 -0.024398526876202375 9.9650698852481089e-05 0 -0.024353819270209194 4.7694247506198148e-05 0 -0.024482233199356596 1.0527758859980506e-05 0 -0.024353819270209194 4.7694247506198148e-05 0 -0.024482233199356596 1.0527758859980506e-05 0 -0.024511709468656964 -0.00010427857205051422 0 -0.024285783655794164 8.3334782247592533e-05 0 -0.024353819270209194 4.7694247506198148e-05 0 -0.024137933147874192 3.2913452210151101e-05 0 -0.024258102742332498 0.00023770574983794282 0 -0.024137933147874192 3.2913452210151101e-05 0 -0.023948645324388246 0.0003054331692447459 0 -0.024137933147874192 3.2913452210151101e-05 0 -0.023948645324388246 0.0003054331692447459 0 -0.023386322187042213 0.00010579888419071979 0 -0.023948645324388246 0.0003054331692447459 0 -0.023386322187042213 0.00010579888419071979 0 -0.02356387712552677 0.00041385518090096009 0 -0.023386322187042213 0.00010579888419071979 0 -0.02356387712552677 0.00041385518090096009 0 -0.023327395974029809 0.00036210180316601138 0 -0.02356387712552677 0.00041385518090096009 0 -0.02378580745507641 0.00055398406862180538 0 -0.023488868721038624 0.00073725292135252746 0 -0.02356387712552677 0.00041385518090096009 0 -0.02329093142439758 0.00055521372312216787 0 -0.023327395974029809 0.00036210180316601138 0 -0.02356387712552677 0.00041385518090096009 0 -0.023488868721038624 0.00073725292135252746 0 -0.02329093142439758 0.00055521372312216787 0 -0.024183878939783125 0.00049192780096351065 0 -0.023948645324388246 0.0003054331692447459 0 -0.02378580745507641 0.00055398406862180538 0 -0.024183878939783125 0.00049192780096351065 0 -0.02378580745507641 0.00055398406862180538 0 -0.02393369659184157 0.00077088487024755251 0 -0.023948645324388246 0.0003054331692447459 0 -0.02356387712552677 0.00041385518090096009 0 -0.02378580745507641 0.00055398406862180538 0 -0.02378580745507641 0.00055398406862180538 0 -0.02393369659184157 0.00077088487024755251 0 -0.023488868721038624 0.00073725292135252746 0 -0.02393369659184157 0.00077088487024755251 0 -0.023488868721038624 0.00073725292135252746 0 -0.023606602864243556 0.0010678255377757052 0 -0.023488868721038624 0.00073725292135252746 0 -0.023200768613806298 0.00092869401871099118 0 -0.023606602864243556 0.0010678255377757052 0 -0.023488868721038624 0.00073725292135252746 0 -0.02329093142439758 0.00055521372312216787 0 -0.023200768613806298 0.00092869401871099118 0 -0.022977216264103432 0.00071373562225166801 0 -0.02329093142439758 0.00055521372312216787 0 -0.023200768613806298 0.00092869401871099118 0 -0.022977216264103432 0.00071373562225166801 0 -0.02329093142439758 0.00055521372312216787 0 -0.023096462852003709 0.00042085128195297998 0 -0.02329093142439758 0.00055521372312216787 0 -0.023096462852003709 0.00042085128195297998 0 -0.023327395974029809 0.00036210180316601138 0 -0.022977216264103432 0.00071373562225166801 0 -0.023096462852003709 0.00042085128195297998 0 -0.02280673322910759 0.00032616206956249147 0 -0.022614062267651468 0.00084808938577048598 0 -0.022977216264103432 0.00071373562225166801 0 -0.02280673322910759 0.00032616206956249147 0 -0.022614062267651468 0.00084808938577048598 0 -0.022977216264103432 0.00071373562225166801 0 -0.022868107741140214 0.0011635422091464231 0 -0.022330401137054225 0.0007177940031611429 0 -0.02291255566191204 0.0011820749321800076 0 -0.022437731740903952 0.0012519431078334019 0 -0.022438922866635343 0.00073699003988974567 0 -0.022868107741140214 0.0011635422091464231 0 -0.023207939709643681 0.00092201950630792207 0 -0.022452688199464998 0.0015728146917535278 0 -0.022977216264103432 0.00071373562225166801 0 -0.022868107741140214 0.0011635422091464231 0 -0.023200768613806298 0.00092869401871099118 0 -0.022868107741140214 0.0011635422091464231 0 -0.023200768613806298 0.00092869401871099118 0 -0.02283904224060725 0.0014841800754876995 0 -0.023200768613806298 0.00092869401871099118 0 -0.022356904822203434 0.0015165421125164032 0 -0.023210123097645141 0.0015557028563577074 0 -0.022356904822203434 0.0015165421125164032 0 -0.022725158798359194 0.0019356500078707528 0 -0.023210123097645141 0.0015557028563577074 0 -0.022437731740903952 0.0012519431078334019 0 -0.022868107741140214 0.0011635422091464231 0 -0.02283904224060725 0.0014841800754876995 0 -0.022437731740903952 0.0012519431078334019 0 -0.022320517577255641 0.0016028118752800164 0 -0.02283904224060725 0.0014841800754876995 0 -0.022542107988226694 0.0021737422099860869 0 -0.022452688199464998 0.0015728146917535278 0 -0.022320517577255641 0.0016028118752800164 0 -0.022313785787639401 0.0021501787625127977 0 -0.02283904224060725 0.0014841800754876995 0 -0.021319523547877688 0.0024581965700394871 0 -0.022356904822203434 0.0015165421125164032 0 -0.022315596048515508 0.0022603817780876569 0 -0.022356904822203434 0.0015165421125164032 0 -0.022315596048515508 0.0022603817780876569 0 -0.022725158798359194 0.0019356500078707528 0 -0.022315596048515508 0.0022603817780876569 0 -0.022725158798359194 0.0019356500078707528 0 -0.022993048192181419 0.002432447233469632 0 -0.022725158798359194 0.0019356500078707528 0 -0.022993048192181419 0.002432447233469632 0 -0.023210123097645141 0.0015557028563577074 0 -0.022315596048515508 0.0022603817780876569 0 -0.022993048192181419 0.002432447233469632 0 -0.022020579212991442 0.0030671843843006379 0 -0.015920077526880131 0.0016458579703205333 0 -0.015857517802402403 0.0016810937668733977 0 -0.015785961291271276 0.0016729481275771813 0 -0.019335429640240057 0.0020783809221212248 0 -0.019450983662125606 0.0023320740750354188 0 -0.015857517802402403 0.0016810937668733977 0 -0.015892133965319383 0.0016540977418808671 0 -0.01587776462403119 0.0016691571621489207 0 -0.015920077526880131 0.0016458579703205333 0 -0.015857517802402403 0.0016810937668733977 0 -0.015892133965319383 0.0016540977418808671 0 -0.021319523547877688 0.0024581965700394871 0 -0.022315596048515508 0.0022603817780876569 0 -0.022020579212991442 0.0030671843843006379 0 -0.015731606298300657 0.0015882685554087347 0 -0.01581588483411776 0.0016248600401246537 0 -0.015856627840420013 0.001595690241157744 0 -0.012678331000580523 0.0015798904730232512 0 -0.012728136913072025 0.0015711809029029494 0 -0.01271568851291846 0.001553132875843675 0 -0.014756227462257345 0.0013768275742110996 0 -0.013753009660449976 0.0018490532151027392 0 -0.015758367587921249 0.0016146881695870709 0 -0.015837757570747443 0.0016974616377437588 0 -0.01574335442938346 0.0017056867812496141 0 -0.015758367587921249 0.0016146881695870709 0 -0.01581588483411776 0.0016248600401246537 0 -0.015837757570747443 0.0016974616377437588 0 -0.015758367587921249 0.0016146881695870709 0 -0.015718721535828206 0.0015323727337887847 0 -0.015634228334161726 0.0016379841721977715 0 -0.015758367587921249 0.0016146881695870709 0 -0.01574335442938346 0.0017056867812496141 0 -0.015634228334161726 0.0016379841721977715 0 -0.015758367587921249 0.0016146881695870709 0 -0.015731606298300657 0.0015882685554087347 0 -0.01581588483411776 0.0016248600401246537 0 -0.015205717379747434 0.0016781257666197195 0 -0.014756227462257345 0.0013768275742110996 0 -0.015920077526880131 0.0016458579703205333 0 -0.015882644628471582 0.0016498680660440611 0 -0.015837757570747443 0.0016974616377437588 0 -0.013753009660449976 0.0018490532151027392 0 -0.014262490133192789 0.0020518044668468684 0 -0.015856627840420013 0.001595690241157744 0 -0.015876557875310532 0.0016353666396571045 0 -0.015850060363743167 0.0016274167498000769 0 -0.015876557875310532 0.0016353666396571045 0 -0.015850060363743167 0.0016274167498000769 0 -0.015856208460750185 0.0016492296214574819 0 -0.01581588483411776 0.0016248600401246537 0 -0.015856627840420013 0.001595690241157744 0 -0.015850060363743167 0.0016274167498000769 0 -0.01581588483411776 0.0016248600401246537 0 -0.015850060363743167 0.0016274167498000769 0 -0.015856208460750185 0.0016492296214574819 0 -0.015873290698860187 0.0016392986592915978 0 -0.015876557875310532 0.0016353666396571045 0 -0.01587776462403119 0.0016691571621489207 0 -0.015876557875310532 0.0016353666396571045 0 -0.015892133965319383 0.0016540977418808671 0 -0.015882644628471582 0.0016498680660440611 0 -0.013753009660449976 0.0018490532151027392 0 -0.013020166089218755 0.0019033999366114961 0 -0.015876557875310532 0.0016353666396571045 0 -0.015892133965319383 0.0016540977418808671 0 -0.01587776462403119 0.0016691571621489207 0 -0.015920077526880131 0.0016458579703205333 0 -0.015892133965319383 0.0016540977418808671 0 -0.015882644628471582 0.0016498680660440611 0 -0.015882644628471582 0.0016498680660440611 0 -0.015837757570747443 0.0016974616377437588 0 -0.015856208460750185 0.0016492296214574819 0 -0.01581588483411776 0.0016248600401246537 0 -0.015837757570747443 0.0016974616377437588 0 -0.015856208460750185 0.0016492296214574819 0 -0.015876557875310532 0.0016353666396571045 0 -0.015882644628471582 0.0016498680660440611 0 -0.015856208460750185 0.0016492296214574819 0 -0.019335429640240057 0.0020783809221212248 0 -0.019734509519242893 0.0018619358479001209 0 -0.015920077526880131 0.0016458579703205333 0 -0.015837757570747443 0.0016974616377437588 0 -0.015804003947754372 0.0018093674893070596 0 -0.022993048192181419 0.002432447233469632 0 -0.023684169731111811 0.0019212824795605216 0 -0.023210123097645141 0.0015557028563577074 0 -0.015837757570747443 0.0016974616377437588 0 -0.015804003947754372 0.0018093674893070596 0 -0.01574335442938346 0.0017056867812496141 0 -0.015804003947754372 0.0018093674893070596 0 -0.01574335442938346 0.0017056867812496141 0 -0.015612977484326994 0.001773918132338913 0 -0.023684169731111811 0.0019212824795605216 0 -0.023765078857582729 0.0014374245377078254 0 -0.023210123097645141 0.0015557028563577074 0 -0.023684169731111811 0.0019212824795605216 0 -0.023765078857582729 0.0014374245377078254 0 -0.024174134690287664 0.0014850847182862254 0 -0.023765078857582729 0.0014374245377078254 0 -0.023210123097645141 0.0015557028563577074 0 -0.023606602864243556 0.0010678255377757052 0 -0.023200768613806298 0.00092869401871099118 0 -0.023210123097645141 0.0015557028563577074 0 -0.023606602864243556 0.0010678255377757052 0 -0.023765078857582729 0.0014374245377078254 0 -0.023606602864243556 0.0010678255377757052 0 -0.024010113413056425 0.0011231231449934955 0 -0.02393369659184157 0.00077088487024755251 0 -0.023606602864243556 0.0010678255377757052 0 -0.024010113413056425 0.0011231231449934955 0 -0.024210841704983489 0.00086114922461586526 0 -0.024010113413056425 0.0011231231449934955 0 -0.024295212865567982 0.0011307547175462137 0 -0.024010113413056425 0.0011231231449934955 0 -0.024295212865567982 0.0011307547175462137 0 -0.024174134690287664 0.0014850847182862254 0 -0.024210841704983489 0.00086114922461586526 0 -0.024462319583069801 0.0010261466345848087 0 -0.024295212865567982 0.0011307547175462137 0 -0.024462319583069801 0.0010261466345848087 0 -0.024295212865567982 0.0011307547175462137 0 -0.024460262271236592 0.0011671741371296911 0 -0.015862097536766092 0.0018156590402378429 0 -0.015453488362647191 0.0019048919474776178 0 -0.016045420138669227 0.0014096995617089918 0 -0.024295212865567982 0.0011307547175462137 0 -0.024174134690287664 0.0014850847182862254 0 -0.024460262271236592 0.0011671741371296911 0 -0.019885865866064629 0.0016615413792292863 0 -0.019934088192743359 0.0013852252542002346 0 -0.015862097536766092 0.0018156590402378429 0 -0.015453488362647191 0.0019048919474776178 0 -0.015440197973838927 0.0019921840520580325 0 -0.023765078857582729 0.0014374245377078254 0 -0.024010113413056425 0.0011231231449934955 0 -0.024174134690287664 0.0014850847182862254 0 -0.016818852666389928 0.0010132260873708878 0 -0.016664295450350506 0.0014007854774502296 0 -0.016045420138669227 0.0014096995617089918 0 -0.024530129863141448 0.0007190611600525655 0 -0.024706467891766268 0.00064628439210619377 0 -0.024763622099615946 0.00067785026906766986 0 -0.016664295450350506 0.0014007854774502296 0 -0.016948977591784015 0.0015743699620336105 0 -0.017027229360390073 0.0011950945084140906 0 -0.016818852666389928 0.0010132260873708878 0 -0.016664295450350506 0.0014007854774502296 0 -0.017027229360390073 0.0011950945084140906 0 -0.024706467891766268 0.00064628439210619377 0 -0.024848686099842636 0.00070320238175263265 0 -0.024800533930067072 0.00072697215098110576 0 -0.022313976033423211 0.00096326578464170365 0 -0.020153822703034455 0.00054286492940183414 0 -0.021808054169309549 0.0014757607457432339 0 -0.022332230559435198 0.0012057339068670177 0 -0.021048223435373593 0.00020916469846908508 0 -0.022927888587667956 0.00067835736328509773 0 -0.022313976033423211 0.00096326578464170365 0 -0.023967431426592429 0.0013629591130348928 0 -0.022313976033423211 0.00096326578464170365 0 -0.022313976033423211 0.00096326578464170365 0 -0.019934088192743359 0.0013852252542002346 0 -0.024462319583069801 0.0010261466345848087 0 -0.024556269232788405 0.0010575728653085213 0 -0.024460262271236592 0.0011671741371296911 0 -0.024986278444605159 0.00090761942737208328 0 -0.022313976033423211 0.00096326578464170365 0 -0.016664295450350506 0.0014007854774502296 0 -0.016045420138669227 0.0014096995617089918 0 -0.016357325267937418 0.0016800491693596744 0 -0.015862097536766092 0.0018156590402378429 0 -0.016045420138669227 0.0014096995617089918 0 -0.016357325267937418 0.0016800491693596744 0 -0.015862097536766092 0.0018156590402378429 0 -0.016357325267937418 0.0016800491693596744 0 -0.016146353757006411 0.002142743881010563 0 -0.016357325267937418 0.0016800491693596744 0 -0.016553067543076647 0.0019457604474288031 0 -0.016146353757006411 0.002142743881010563 0 -0.016664295450350506 0.0014007854774502296 0 -0.016357325267937418 0.0016800491693596744 0 -0.016732288744109276 0.0017043876434552543 0 -0.016357325267937418 0.0016800491693596744 0 -0.016553067543076647 0.0019457604474288031 0 -0.016732288744109276 0.0017043876434552543 0 -0.016732288744109276 0.0017043876434552543 0 -0.016797902236579072 0.0019197274365770655 0 -0.017028714214901802 0.0018650449258397692 0 -0.016732288744109276 0.0017043876434552543 0 -0.016948977591784015 0.0015743699620336105 0 -0.017028714214901802 0.0018650449258397692 0 -0.016553067543076647 0.0019457604474288031 0 -0.016732288744109276 0.0017043876434552543 0 -0.016797902236579072 0.0019197274365770655 0 -0.016664295450350506 0.0014007854774502296 0 -0.016732288744109276 0.0017043876434552543 0 -0.016948977591784015 0.0015743699620336105 0 -0.014846254155036204 0.0021681697868602173 0 -0.015244317454868287 0.002124855789355441 0 -0.013397856979029234 0.0020684268701567287 0 -0.013112491523039064 0.0021228477003012976 0 -0.014277219174459645 0.0021525875704430596 0 -0.016553067543076647 0.0019457604474288031 0 -0.016874321077350003 0.0021651285169803445 0 -0.016146353757006411 0.002142743881010563 0 -0.013397856979029234 0.0020684268701567287 0 -0.013185581913991629 0.0019436598264007563 0 -0.013267142458693539 0.0018382007926871764 0 -0.013397856979029234 0.0020684268701567287 0 -0.013185581913991629 0.0019436598264007563 0 -0.013112491523039064 0.0021228477003012976 0 -0.016797902236579072 0.0019197274365770655 0 -0.016874321077350003 0.0021651285169803445 0 -0.017028714214901802 0.0018650449258397692 0 -0.016553067543076647 0.0019457604474288031 0 -0.016797902236579072 0.0019197274365770655 0 -0.016874321077350003 0.0021651285169803445 0 -0.013397856979029234 0.0020684268701567287 0 -0.014147326455812292 0.0017096526158342457 0 -0.014277219174459645 0.0021525875704430596 0 -0.014277219174459645 0.0021525875704430596 0 -0.014581619092464498 0.0014342135559898752 0 -0.015111759846434633 0.0016808285197040999 0 -0.014147326455812292 0.0017096526158342457 0 -0.014277219174459645 0.0021525875704430596 0 -0.014581619092464498 0.0014342135559898752 0 -0.013397856979029234 0.0020684268701567287 0 -0.014147326455812292 0.0017096526158342457 0 -0.014292999315474295 0.0012036546887357095 0 -0.014147326455812292 0.0017096526158342457 0 -0.014581619092464498 0.0014342135559898752 0 -0.014292999315474295 0.0012036546887357095 0 -0.014581619092464498 0.0014342135559898752 0 -0.014292999315474295 0.0012036546887357095 0 -0.014714269310463128 0.0011366722207292027 0 -0.013397856979029234 0.0020684268701567287 0 -0.013387577568892257 0.0017599265193926493 0 -0.013267142458693539 0.0018382007926871764 0 -0.013280280028697748 0.0021531928379763497 0 -0.014212089069092985 0.0012792710720533652 0 -0.013387577568892257 0.0017599265193926493 0 -0.013267142458693539 0.0018382007926871764 0 -0.013253169555106574 0.0016799027132865677 0 -0.013267142458693539 0.0018382007926871764 0 -0.01311745037885504 0.0017454730894356299 0 -0.013076854120304311 0.0018579887073748899 0 -0.013267142458693539 0.0018382007926871764 0 -0.01311745037885504 0.0017454730894356299 0 -0.013253169555106574 0.0016799027132865677 0 -0.013185581913991629 0.0019436598264007563 0 -0.013267142458693539 0.0018382007926871764 0 -0.013076854120304311 0.0018579887073748899 0 -0.015804003947754372 0.0018093674893070596 0 -0.015453488362647191 0.0019048919474776178 0 -0.015612977484326994 0.001773918132338913 0 -0.019734509519242893 0.0018619358479001209 0 -0.019885865866064629 0.0016615413792292863 0 -0.015453488362647191 0.0019048919474776178 0 -0.015612977484326994 0.001773918132338913 0 -0.015440197973838927 0.0019921840520580325 0 -0.015463427477161007 0.0017280690533083918 0 -0.015612977484326994 0.001773918132338913 0 -0.015440197973838927 0.0019921840520580325 0 -0.015463427477161007 0.0017280690533083918 0 -0.015612977484326994 0.001773918132338913 0 -0.015634228334161726 0.0016379841721977715 0 -0.01574335442938346 0.0017056867812496141 0 -0.015612977484326994 0.001773918132338913 0 -0.015634228334161726 0.0016379841721977715 0 -0.014277219174459645 0.0021525875704430596 0 -0.015440197973838927 0.0019921840520580325 0 -0.015111759846434633 0.0016808285197040999 0 -0.015244317454868287 0.002124855789355441 0 -0.01540386287881829 0.0020329608386730627 0 -0.015862097536766092 0.0018156590402378429 0 -0.016146353757006411 0.002142743881010563 0 -0.015440197973838927 0.0019921840520580325 0 -0.015463427477161007 0.0017280690533083918 0 -0.015440197973838927 0.0019921840520580325 0 -0.015111759846434633 0.0016808285197040999 0 -0.014581619092464498 0.0014342135559898752 0 -0.015111759846434633 0.0016808285197040999 0 -0.015412304861450427 0.0014473917154597942 0 -0.015463427477161007 0.0017280690533083918 0 -0.015111759846434633 0.0016808285197040999 0 -0.015412304861450427 0.0014473917154597942 0 -0.014581619092464498 0.0014342135559898752 0 -0.014903432192319049 0.0012952335401526869 0 -0.014714269310463128 0.0011366722207292027 0 -0.014592752840809534 0.0014465921308806499 0 -0.015243635720688644 0.0013600562441177914 0 -0.01522957279202089 0.0012283314938288923 0 -0.014903432192319049 0.0012952335401526869 0 -0.014982734406968254 0.00092976552827968523 0 -0.015718721535828206 0.0015323727337887847 0 -0.015412304861450427 0.0014473917154597942 0 -0.015634228334161726 0.0016379841721977715 0 -0.014756227462257345 0.0013768275742110996 0 -0.015243635720688644 0.0013600562441177914 0 -0.015463427477161007 0.0017280690533083918 0 -0.015412304861450427 0.0014473917154597942 0 -0.015634228334161726 0.0016379841721977715 0 -0.014756227462257345 0.0013768275742110996 0 -0.011992071740634032 0.0017668320703130224 0 -0.011992071740634032 0.0017668320703130224 0 -0.0085851713326024499 0.0022504739738864986 0 -0.014292999315474295 0.0012036546887357095 0 -0.014714269310463128 0.0011366722207292027 0 -0.014694432920002297 0.00084639875052442911 0 -0.014903432192319049 0.0012952335401526869 0 -0.014982734406968254 0.00092976552827968523 0 -0.014714269310463128 0.0011366722207292027 0 -0.011992071740634032 0.0017668320703130224 0 -0.011664247609776199 0.0016840905440612798 0 -0.014982734406968254 0.00092976552827968523 0 -0.014714269310463128 0.0011366722207292027 0 -0.014694432920002297 0.00084639875052442911 0 -0.011037979196658913 0.0020713837943405512 0 -0.010399702954050852 0.0019338982042981835 0 -0.010651163978946592 0.0016261502316004953 0 -0.007915074839923578 0.0030345355107737246 0 -0.007325121615648229 0.0029397443112950052 0 -0.0071559677632827765 0.0021857037376727694 0 -0.0085851713326024499 0.0022504739738864986 0 -0.0059671274927794553 0.0021156558425178143 0 -0.011664247609776199 0.0016840905440612798 0 -0.0085851713326024499 0.0022504739738864986 0 -0.007608073168964666 0.0034128915802845044 0 -0.007915074839923578 0.0030345355107737246 0 -0.007325121615648229 0.0029397443112950052 0 -0.0094015323776585683 0.0020980844296731335 0 -0.0094729562390429498 0.0018694121500007362 0 -0.0097165133854305048 0.0018702267399353662 0 -0.0085851713326024499 0.0022504739738864986 0 -0.0072444219407507299 0.0014748383723541738 0 -0.0092376217283990144 0.0019157186479537547 0 -0.0094729562390429498 0.0018694121500007362 0 -0.0095271676543526706 0.0015416328680490422 0 -0.0094015323776585683 0.0020980844296731335 0 -0.0092376217283990144 0.0019157186479537547 0 -0.0094729562390429498 0.0018694121500007362 0 -0.013253169555106574 0.0016799027132865677 0 -0.013308892902029249 0.0015023954297334655 0 -0.013080100666035563 0.0016075616761734293 0 -0.01311745037885504 0.0017454730894356299 0 -0.013253169555106574 0.0016799027132865677 0 -0.013080100666035563 0.0016075616761734293 0 -0.014212089069092985 0.0012792710720533652 0 -0.011664247609776199 0.0016840905440612798 0 -0.013387577568892257 0.0017599265193926493 0 -0.013508925223181837 0.001561366698630391 0 -0.013367139149752233 0.0016257926955683118 0 -0.013508925223181837 0.001561366698630391 0 -0.013367139149752233 0.0016257926955683118 0 -0.013308892902029249 0.0015023954297334655 0 -0.013253169555106574 0.0016799027132865677 0 -0.013367139149752233 0.0016257926955683118 0 -0.013308892902029249 0.0015023954297334655 0 -0.013387577568892257 0.0017599265193926493 0 -0.013253169555106574 0.0016799027132865677 0 -0.013367139149752233 0.0016257926955683118 0 -0.007608073168964666 0.0034128915802845044 0 -0.007325121615648229 0.0029397443112950052 0 -0.0065401271965935467 0.0031549116716928145 0 -0.011664247609776199 0.0016840905440612798 0 -0.010002930790518684 0.0023688084966031198 0 -0.007325121615648229 0.0029397443112950052 0 -0.0069243513003445474 0.0027750901652538965 0 -0.0065401271965935467 0.0031549116716928145 0 -0.007325121615648229 0.0029397443112950052 0 -0.0069243513003445474 0.0027750901652538965 0 -0.0071559677632827765 0.0021857037376727694 0 -0.0069243513003445474 0.0027750901652538965 0 -0.0063850660253488324 0.0027684069794530028 0 -0.0071559677632827765 0.0021857037376727694 0 -0.0069243513003445474 0.0027750901652538965 0 -0.0065401271965935467 0.0031549116716928145 0 -0.0063850660253488324 0.0027684069794530028 0 -0.0060611984029918936 0.0025828173567505335 0 -0.0063482683106253924 0.0026179341215934729 0 -0.0059970287379773838 0.002836951644559195 0 -0.0065401271965935467 0.0031549116716928145 0 -0.0063850660253488324 0.0027684069794530028 0 -0.0058387560439434388 0.0029188391794680245 0 -0.013308892902029249 0.0015023954297334655 0 -0.013033584672314994 0.0014254791232506312 0 -0.013080100666035563 0.0016075616761734293 0 -0.0063850660253488324 0.0027684069794530028 0 -0.0063482683106253924 0.0026179341215934729 0 -0.0058387560439434388 0.0029188391794680245 0 -0.0056565933686373747 0.0030123292230905137 0 -0.0080490628221329564 0.0023550560831750388 0 -0.010002930790518684 0.0023688084966031198 0 -0.0080490628221329564 0.0023550560831750388 0 -0.0060611984029918936 0.0025828173567505335 0 -0.0062128769595532563 0.0024163737148577432 0 -0.0059082599532946983 0.0024048707956544168 0 -0.0060611984029918936 0.0025828173567505335 0 -0.0063482683106253924 0.0026179341215934729 0 -0.0062128769595532563 0.0024163737148577432 0 -0.0062128769595532563 0.0024163737148577432 0 -0.0066495781421711383 0.0025324788422803435 0 -0.0063404959522693899 0.0022306543339794664 0 -0.0059671274927794553 0.0021156558425178143 0 -0.0049679523750609722 0.0020527163489896397 0 -0.0063482683106253924 0.0026179341215934729 0 -0.0062128769595532563 0.0024163737148577432 0 -0.0066495781421711383 0.0025324788422803435 0 -0.0063850660253488324 0.0027684069794530028 0 -0.0063482683106253924 0.0026179341215934729 0 -0.0066495781421711383 0.0025324788422803435 0 -0.0066273354979664249 0.0026095240434293177 0 -0.0059671274927794553 0.0021156558425178143 0 -0.0039805470425720805 0.0021679948168427184 0 -0.0037844946851574622 0.001954017700150358 0 -0.0039953277834672771 0.0017911004340028451 0 -0.0063404959522693899 0.0022306543339794664 0 -0.0059924203274709575 0.0022068673629993076 0 -0.0060349985716118479 0.0019544653082027895 0 -0.0049679523750609722 0.0020527163489896397 0 -0.0050270285817510182 0.0019796564013784788 0 -0.0062128769595532563 0.0024163737148577432 0 -0.0063404959522693899 0.0022306543339794664 0 -0.0059924203274709575 0.0022068673629993076 0 -0.0062128769595532563 0.0024163737148577432 0 -0.0059924203274709575 0.0022068673629993076 0 -0.0059082599532946983 0.0024048707956544168 0 -0.0063738361588632064 0.0018482066686518754 0 -0.0063009468087743886 0.0019133488136152373 0 -0.0063518089026721675 0.0019022455355873385 0 -0.0063009468087743886 0.0019133488136152373 0 -0.0063518089026721675 0.0019022455355873385 0 -0.0063121549690344078 0.0019558047096645565 0 -0.0059671274927794553 0.0021156558425178143 0 -0.0038471028808238251 0.0018359075819476627 0 -0.0064080598315253891 0.0019031393263503667 0 -0.0063518089026721675 0.0019022455355873385 0 -0.0063121549690344078 0.0019558047096645565 0 -0.0063738361588632064 0.0018482066686518754 0 -0.0064080598315253891 0.0019031393263503667 0 -0.0063518089026721675 0.0019022455355873385 0 -0.0039805470425720805 0.0021679948168427184 0 -0.0042957243589565866 0.0019434912860467582 0 -0.0039953277834672771 0.0017911004340028451 0 -0.0038471028808238251 0.0018359075819476627 0 -0.0023864495454694349 0.0018459468409559128 0 -0.0015124961917057148 0.0021848226665840613 0 -0.0013907490197792808 0.0019584914537528341 0 -0.0010505407021551417 0.0019010953758550897 0 -0.0038471028808238251 0.0018359075819476627 0 -0.0019085580490434723 0.0015965842002122412 0 -0.0015227837746318283 0.0021908104729448678 0 -0.0015772900462847409 0.0020120455819684518 0 -0.0013907490197792808 0.0019584914537528341 0 -0.0054242444469830156 0.002062907607232723 0 -0.0051048190611980744 0.0014661210629911051 0 -0.0057158329834233806 0.001707008155314672 0 -0.0072444219407507299 0.0014748383723541738 0 -0.0038471028808238251 0.0018359075819476627 0 -0.0038471028808238251 0.0018359075819476627 0 -0.0050412597866731895 0.001843404911260185 0 -0.0015227837746318283 0.0021908104729448678 0 -0.0015772900462847409 0.0020120455819684518 0 -0.0018119811842096827 0.0019956628824167443 0 -0.0038471028808238251 0.0018359075819476627 0 -0.002549153073269046 0.0021653909128388988 0 -0.0050412597866731895 0.001843404911260185 0 -0.0021085880282410868 0.0024136586598916062 0 -0.0041600331177017863 0.0017533852230564449 0 -0.0034730014390702431 0.0022136690756331821 0 -0.003537237296954444 0.0015047289717198091 0 -0.0034730014390702431 0.0022136690756331821 0 -0.003537237296954444 0.0015047289717198091 0 -0.0025896518637974052 0.0026322781562319727 0 -0.0073809310305556017 0.0006480617384856792 0 -0.0076332630633641606 0.00033534629441695 0 -0.0078142572805510371 0.0014345623279758107 0 -0.0076332630633641606 0.00033534629441695 0 -0.008771213505226751 0.00084608178403446945 0 -0.0078142572805510371 0.0014345623279758107 0 -0.0072444219407507299 0.0014748383723541738 0 -0.0087398429067378474 0.0016498794232037417 0 -0.0072444219407507299 0.0014748383723541738 0 -0.0050412597866731895 0.001843404911260185 0 -0.0050412597866731895 0.001843404911260185 0 -0.0060035400214324859 0.0015431385557512468 0 -0.0030932044721540338 0.0023525603615346417 0 -0.0028800923202691765 0.0022934742119097768 0 -0.002900644180424614 0.0023797141807658075 0 -0.0030932044721540338 0.0023525603615346417 0 -0.0029323315407202523 0.0024316015371418768 0 -0.0029301875108473756 0.0025191905392898083 0 -0.0030932044721540338 0.0023525603615346417 0 -0.002900644180424614 0.0023797141807658075 0 -0.0029323315407202523 0.0024316015371418768 0 -0.002900644180424614 0.0023797141807658075 0 -0.0029323315407202523 0.0024316015371418768 0 -0.002846412980469198 0.0024398977931142938 0 -0.002846412980469198 0.0024398977931142938 0 -0.0027882715236261747 0.0023603301424760044 0 -0.0027468508465403317 0.0024709633632592994 0 -0.002900644180424614 0.0023797141807658075 0 -0.002846412980469198 0.0024398977931142938 0 -0.0027882715236261747 0.0023603301424760044 0 -0.0027882715236261747 0.0023603301424760044 0 -0.0026935090583456531 0.0023482871677351471 0 -0.0027468508465403317 0.0024709633632592994 0 -0.0025360420312649742 0.0023756298073762572 0 -0.0026935090583456531 0.0023482871677351471 0 -0.0027468508465403317 0.0024709633632592994 0 -0.0027882715236261747 0.0023603301424760044 0 -0.0026935090583456531 0.0023482871677351471 0 -0.0027090511514545551 0.0023243653815890461 0 -0.0028800923202691765 0.0022934742119097768 0 -0.0027882715236261747 0.0023603301424760044 0 -0.0027090511514545551 0.0023243653815890461 0 -0.0028800923202691765 0.0022934742119097768 0 -0.002900644180424614 0.0023797141807658075 0 -0.0027882715236261747 0.0023603301424760044 0 -0.008771213505226751 0.00084608178403446945 0 -0.0092205406175799014 0.0016670995851412105 0 -0.0085794335973588057 0.0015994570873627833 0 -0.0060035400214324859 0.0015431385557512468 0 -0.005716143734320606 0.0017542558644708438 0 -0.008771213505226751 0.00084608178403446945 0 -0.0092205406175799014 0.0016670995851412105 0 -0.0099210660747312863 0.0013602503692262125 0 -0.0092205406175799014 0.0016670995851412105 0 -0.0099210660747312863 0.0013602503692262125 0 -0.0098981433667574992 0.0022003648637384525 0 -0.015560678336957538 0.0017964084199694999 0 -0.015785961291271276 0.0016729481275771813 0 -0.015771825078608432 0.0017370826809076925 0 -0.010879992828082788 0.0020244221139441138 0 -0.0099210660747312863 0.0013602503692262125 0 -0.0098981433667574992 0.0022003648637384525 0 -0.015857517802402403 0.0016810937668733977 0 -0.015785961291271276 0.0016729481275771813 0 -0.015771825078608432 0.0017370826809076925 0 -0.0092205406175799014 0.0016670995851412105 0 -0.0089491173142099874 0.0023748692190908452 0 -0.0085794335973588057 0.0015994570873627833 0 -0.0092205406175799014 0.0016670995851412105 0 -0.0098981433667574992 0.0022003648637384525 0 -0.0089491173142099874 0.0023748692190908452 0 -0.015857517802402403 0.0016810937668733977 0 -0.015771825078608432 0.0017370826809076925 0 -0.015886469088991495 0.0016798099331253162 0 -0.012350404134939036 0.0020244233954442681 0 -0.013020166089218755 0.0019033999366114961 0 -0.015219918628806388 0.0020950511964797042 0 -0.013020166089218755 0.0019033999366114961 0 -0.013020166089218755 0.0019033999366114961 0 -0.010662603176447131 0.0017204361041095611 0 -0.008252875616810873 0.0022290310326124403 0 -0.0078142572805510371 0.0014345623279758107 0 -0.0085794335973588057 0.0015994570873627833 0 -0.0089491173142099874 0.0023748692190908452 0 -0.008252875616810873 0.0022290310326124403 0 -0.0085794335973588057 0.0015994570873627833 0 -0.012273449501456923 0.0021777190927123745 0 -0.013067357479887834 0.0020316640265542066 0 -0.012084352186029691 0.0018184119675995637 0 -0.013753009660449976 0.0018490532151027392 0 -0.010662603176447131 0.0017204361041095611 0 -0.010662603176447131 0.0017204361041095611 0 -0.0087398429067378474 0.0016498794232037417 0 -0.011992071740634032 0.0017668320703130224 0 -0.010662603176447131 0.0017204361041095611 0 -0.0094015323776585683 0.0020980844296731335 0 -0.0099026787293347712 0.0022004671542912241 0 -0.0097165133854305048 0.0018702267399353662 0 -0.012678331000580523 0.0015798904730232512 0 -0.012631356955118743 0.0015337880924581886 0 -0.01271568851291846 0.001553132875843675 0 -0.0094729562390429498 0.0018694121500007362 0 -0.0095271676543526706 0.0015416328680490422 0 -0.0097165133854305048 0.0018702267399353662 0 -0.008771213505226751 0.00084608178403446945 0 -0.0078142572805510371 0.0014345623279758107 0 -0.0085794335973588057 0.0015994570873627833 0 -0.015558566670973903 0.00070736033970273022 0 -0.016183122428590661 0.00076981944133746845 0 -0.01592061389518222 0.0014267610892296795 0 -0.015558566670973903 0.00070736033970273022 0 -0.016183122428590661 0.00076981944133746845 0 -0.015708103153960814 0.00026381173701404276 0 -0.015558566670973903 0.00070736033970273022 0 -0.014889740179771203 0.00082112834217131858 0 -0.01592061389518222 0.0014267610892296795 0 -0.015558566670973903 0.00070736033970273022 0 -0.014889740179771203 0.00082112834217131858 0 -0.015156613759838724 0.00039240594493876951 0 -0.015558566670973903 0.00070736033970273022 0 -0.015156613759838724 0.00039240594493876951 0 -0.015708103153960814 0.00026381173701404276 0 -0.015708103153960814 0.00026381173701404276 0 -0.015806764629690721 -0.0002950654030824633 0 -0.015294934786990349 -0.00018532179232764236 0 -0.015156613759838724 0.00039240594493876951 0 -0.01485696704694177 -0.00013877230926323563 0 -0.015294934786990349 -0.00018532179232764236 0 -0.015156613759838724 0.00039240594493876951 0 -0.015708103153960814 0.00026381173701404276 0 -0.015294934786990349 -0.00018532179232764236 0 -0.015708103153960814 0.00026381173701404276 0 -0.016569724941580009 0.0002093084163159631 0 -0.015806764629690721 -0.0002950654030824633 0 -0.020130119902453086 -0.00038605977382555979 0 -0.019147616049893668 -0.0008480390992601695 0 -0.016183122428590661 0.00076981944133746845 0 -0.015708103153960814 0.00026381173701404276 0 -0.016569724941580009 0.0002093084163159631 0 -0.023509168141668459 -0.0010487643033798217 0 -0.023519843422743207 -0.0012557864201054646 0 -0.023824564368493891 -0.0011632178175413714 0 -0.023509168141668459 -0.0010487643033798217 0 -0.023736604760429471 -0.0009509325859634114 0 -0.023824564368493891 -0.0011632178175413714 0 -0.020130119902453086 -0.00038605977382555979 0 -0.020304177495919933 7.7982665494133868e-07 0 -0.016183122428590661 0.00076981944133746845 0 -0.017351131585401313 0.00079026698553003288 0 -0.016625376153895491 0.0013082026816697966 0 -0.016183122428590661 0.00076981944133746845 0 -0.016569724941580009 0.0002093084163159631 0 -0.017351131585401313 0.00079026698553003288 0 -0.016625376153895491 0.0013082026816697966 0 -0.016877069689653208 0.0019376583598861817 0 -0.01592061389518222 0.0014267610892296795 0 -0.015459170150530747 0.0015299646550008929 0 -0.015327801067539362 0.001146766311735558 0 -0.016183122428590661 0.00076981944133746845 0 -0.016625376153895491 0.0013082026816697966 0 -0.01592061389518222 0.0014267610892296795 0 -0.017351131585401313 0.00079026698553003288 0 -0.016625376153895491 0.0013082026816697966 0 -0.017517880092645412 0.0017665556199211998 0 -0.016625376153895491 0.0013082026816697966 0 -0.016877069689653208 0.0019376583598861817 0 -0.017517880092645412 0.0017665556199211998 0 -0.016877069689653208 0.0019376583598861817 0 -0.017517880092645412 0.0017665556199211998 0 -0.017822135801394124 0.002455017360472754 0 -0.015459170150530747 0.0015299646550008929 0 -0.017649813310490436 0.00024071942927634364 0 -0.014501578981360968 0.00083684172970181856 0 -0.014608400802822852 0.00083760088502291843 0 -0.01466611220777761 0.00092523882143235692 0 -0.014501578981360968 0.00083684172970181856 0 -0.014608400802822852 0.00083760088502291843 0 -0.014521329780997461 0.0007902247522348693 0 -0.014608400802822852 0.00083760088502291843 0 -0.01466611220777761 0.00092523882143235692 0 -0.014770113525202437 0.00089947030875951555 0 -0.014880892513018868 0.00084781724301475161 0 -0.015327801067539362 0.001146766311735558 0 -0.014889740179771203 0.00082112834217131858 0 -0.01466611220777761 0.00092523882143235692 0 -0.014770113525202437 0.00089947030875951555 0 -0.0057343302542197461 0.0028556930588008286 0 -0.0056791061175179361 0.0028903625083874641 0 -0.0059930272798034727 0.0031222702830198358 0 -0.014608400802822852 0.00083760088502291843 0 -0.014770113525202437 0.00089947030875951555 0 -0.014626224583235736 0.0007764976054765256 0 -0.010711926270755621 0.0019378910338670107 0 -0.007545575352944772 0.0020162591952767785 0 -0.0048094354107109157 0.0023404371813775019 0 -0.0048633322324410618 0.0021705254340435914 0 -0.0047178749880205434 0.0020581845924548853 0 -0.0048633322324410618 0.0021705254340435914 0 -0.0050018498474439527 0.0021651954636419057 0 -0.0048633066061922721 0.0020290402279509001 0 -0.0048094354107109157 0.0023404371813775019 0 -0.0048633322324410618 0.0021705254340435914 0 -0.0049317583303813643 0.0022665872675810927 0 -0.0048633322324410618 0.0021705254340435914 0 -0.0049317583303813643 0.0022665872675810927 0 -0.0050018498474439527 0.0021651954636419057 0 -0.0049317583303813643 0.0022665872675810927 0 -0.0050376687558902735 0.0023085452409368984 0 -0.0050585265220747209 0.00241069511765771 0 -0.0048094354107109157 0.0023404371813775019 0 -0.0049317583303813643 0.0022665872675810927 0 -0.0050585265220747209 0.00241069511765771 0 -0.0050376687558902735 0.0023085452409368984 0 -0.0052093228064878641 0.0023581894358876659 0 -0.0051657808984519639 0.0024428133478811452 0 -0.0050376687558902735 0.0023085452409368984 0 -0.0051191728181940671 0.0022608553321635796 0 -0.0052093228064878641 0.0023581894358876659 0 -0.0050376687558902735 0.0023085452409368984 0 -0.0051191728181940671 0.0022608553321635796 0 -0.0050018498474439527 0.0021651954636419057 0 -0.0049317583303813643 0.0022665872675810927 0 -0.0050376687558902735 0.0023085452409368984 0 -0.0050018498474439527 0.0021651954636419057 0 -0.0050018498474439527 0.0021651954636419057 0 -0.0052004039930924296 0.0021962107403950973 0 -0.0050169595651834821 0.0020312250629509914 0 -0.0051191728181940671 0.0022608553321635796 0 -0.0050018498474439527 0.0021651954636419057 0 -0.0052004039930924296 0.0021962107403950973 0 -0.0052004039930924296 0.0021962107403950973 0 -0.005353760743422583 0.0021458004853657561 0 -0.0051760186011456429 0.0020186847909358426 0 -0.0052004039930924296 0.0021962107403950973 0 -0.005353760743422583 0.0021458004853657561 0 -0.0053636647195688626 0.0023126876275609545 0 -0.005353760743422583 0.0021458004853657561 0 -0.0053636647195688626 0.0023126876275609545 0 -0.0055291243757756041 0.0022951411004528532 0 -0.0051191728181940671 0.0022608553321635796 0 -0.0052004039930924296 0.0021962107403950973 0 -0.0052093228064878641 0.0023581894358876659 0 -0.0053636647195688626 0.0023126876275609545 0 -0.0052093228064878641 0.0023581894358876659 0 -0.0053539362893266261 0.0024463860314021218 0 -0.0052004039930924296 0.0021962107403950973 0 -0.0053636647195688626 0.0023126876275609545 0 -0.0052093228064878641 0.0023581894358876659 0 -0.0052093228064878641 0.0023581894358876659 0 -0.005295531727078447 0.0025062796989878066 0 -0.0051657808984519639 0.0024428133478811452 0 -0.0052093228064878641 0.0023581894358876659 0 -0.0053539362893266261 0.0024463860314021218 0 -0.005295531727078447 0.0025062796989878066 0 -0.0053539362893266261 0.0024463860314021218 0 -0.005295531727078447 0.0025062796989878066 0 -0.0053664241263652098 0.0025280949267934951 0 -0.0053636647195688626 0.0023126876275609545 0 -0.0053539362893266261 0.0024463860314021218 0 -0.0054969313146352641 0.0024709884576195589 0 -0.0053539362893266261 0.0024463860314021218 0 -0.005436115871812728 0.0025524295799341261 0 -0.0054969313146352641 0.0024709884576195589 0 -0.0053539362893266261 0.0024463860314021218 0 -0.005436115871812728 0.0025524295799341261 0 -0.0053664241263652098 0.0025280949267934951 0 -0.005436115871812728 0.0025524295799341261 0 -0.0053664241263652098 0.0025280949267934951 0 -0.005383217977384917 0.0025902684408190295 0 -0.005295531727078447 0.0025062796989878066 0 -0.0053828023626751806 0.0026556350601476004 0 -0.005383217977384917 0.0025902684408190295 0 -0.005295531727078447 0.0025062796989878066 0 -0.0053664241263652098 0.0025280949267934951 0 -0.005383217977384917 0.0025902684408190295 0 -0.005295531727078447 0.0025062796989878066 0 -0.0051657808984519639 0.0024428133478811452 0 -0.0053828023626751806 0.0026556350601476004 0 -0.010711926270755621 0.0019378910338670107 0 -0.0099006272361752516 0.0017805611839904767 0 -0.0051657808984519639 0.0024428133478811452 0 -0.0050585265220747209 0.00241069511765771 0 -0.0053828023626751806 0.0026556350601476004 0 -0.0048657658646463851 0.00259521104306001 0 -0.0054780170291056918 0.0026725435475552727 0 -0.0057343302542197461 0.0028556930588008286 0 -0.0054717488876431684 0.0026242339594620646 0 -0.0053828023626751806 0.0026556350601476004 0 -0.014889740179771203 0.00082112834217131858 0 -0.014770113525202437 0.00089947030875951555 0 -0.01481652908455546 0.00074968256106134202 0 -0.0048094354107109157 0.0023404371813775019 0 -0.0050585265220747209 0.00241069511765771 0 -0.0053828023626751806 0.0026556350601476004 0 -0.0057343302542197461 0.0028556930588008286 0 -0.0056791061175179361 0.0028903625083874641 0 -0.0053828023626751806 0.0026556350601476004 0 -0.0050376687558902735 0.0023085452409368984 0 -0.0051657808984519639 0.0024428133478811452 0 -0.0050585265220747209 0.00241069511765771 0 -0.0059924203274709575 0.0022068673629993076 0 -0.0057289688138036894 0.0022413231197662043 0 -0.0059082599532946983 0.0024048707956544168 0 -0.0059924203274709575 0.0022068673629993076 0 -0.0057289688138036894 0.0022413231197662043 0 -0.0057486852412193404 0.0020049149396960558 0 -0.0057289688138036894 0.0022413231197662043 0 -0.0055291243757756041 0.0022951411004528532 0 -0.0056861936495630734 0.0024854551616078978 0 -0.0057289688138036894 0.0022413231197662043 0 -0.0055291243757756041 0.0022951411004528532 0 -0.0055407202651786107 0.0020954623104535021 0 -0.0057289688138036894 0.0022413231197662043 0 -0.0057486852412193404 0.0020049149396960558 0 -0.0055407202651786107 0.0020954623104535021 0 -0.005353760743422583 0.0021458004853657561 0 -0.0055291243757756041 0.0022951411004528532 0 -0.0055407202651786107 0.0020954623104535021 0 -0.0053636647195688626 0.0023126876275609545 0 -0.0055291243757756041 0.0022951411004528532 0 -0.0054969313146352641 0.0024709884576195589 0 -0.0055291243757756041 0.0022951411004528532 0 -0.0054969313146352641 0.0024709884576195589 0 -0.0056861936495630734 0.0024854551616078978 0 -0.005436115871812728 0.0025524295799341261 0 -0.0054969313146352641 0.0024709884576195589 0 -0.0055925665580777587 0.0027076688708987345 0 -0.0056861936495630734 0.0024854551616078978 0 -0.005844478695886458 0.0026017560351628182 0 -0.0055925665580777587 0.0027076688708987345 0 -0.0054969313146352641 0.0024709884576195589 0 -0.0056861936495630734 0.0024854551616078978 0 -0.0055925665580777587 0.0027076688708987345 0 -0.0057289688138036894 0.0022413231197662043 0 -0.0056861936495630734 0.0024854551616078978 0 -0.0059082599532946983 0.0024048707956544168 0 -0.0056861936495630734 0.0024854551616078978 0 -0.005844478695886458 0.0026017560351628182 0 -0.0059082599532946983 0.0024048707956544168 0 -0.0060611984029918936 0.0025828173567505335 0 -0.005844478695886458 0.0026017560351628182 0 -0.0059082599532946983 0.0024048707956544168 0 -0.0060922840430656603 0.0025746611927536444 0 -0.0057284320901597723 0.0025254637024399455 0 -0.005801542111260165 0.0027410997564675421 0 -0.0080490628221329564 0.0023550560831750388 0 -0.0052808664989695718 0.0025859389589898995 0 -0.0080490628221329564 0.0023550560831750388 0 -0.0095069288928726764 0.0020393586882918504 0 -0.005844478695886458 0.0026017560351628182 0 -0.0059970287379773838 0.002836951644559195 0 -0.0055925665580777587 0.0027076688708987345 0 -0.0060611984029918936 0.0025828173567505335 0 -0.005844478695886458 0.0026017560351628182 0 -0.0059970287379773838 0.002836951644559195 0 -0.0057284320901597723 0.0025254637024399455 0 -0.0056339903641025235 0.0027069382649573272 0 -0.005801542111260165 0.0027410997564675421 0 -0.0057284320901597723 0.0025254637024399455 0 -0.0056339903641025235 0.0027069382649573272 0 -0.0055274424366561405 0.0026623225408330792 0 -0.012746933803007785 0.0017184487981695058 0 -0.012802886415100159 0.0015640203543437075 0 -0.01253513952468175 0.0017243617577066917 0 -0.0056339903641025235 0.0027069382649573272 0 -0.005801542111260165 0.0027410997564675421 0 -0.0055874942561057435 0.0028311271482127508 0 -0.0095069288928726764 0.0020393586882918504 0 -0.0092420786120457152 0.0021804734320105996 0 -0.012746933803007785 0.0017184487981695058 0 -0.012802886415100159 0.0015640203543437075 0 -0.012912186096763562 0.0017556621615266281 0 -0.012802886415100159 0.0015640203543437075 0 -0.013080100666035563 0.0016075616761734293 0 -0.012912186096763562 0.0017556621615266281 0 -0.013033584672314994 0.0014254791232506312 0 -0.012802886415100159 0.0015640203543437075 0 -0.013080100666035563 0.0016075616761734293 0 -0.01311745037885504 0.0017454730894356299 0 -0.013080100666035563 0.0016075616761734293 0 -0.012912186096763562 0.0017556621615266281 0 -0.0054717488876431684 0.0026242339594620646 0 -0.0053828023626751806 0.0026556350601476004 0 -0.0054706017159450076 0.002663980356040983 0 -0.014889740179771203 0.00082112834217131858 0 -0.015156613759838724 0.00039240594493876951 0 -0.01481652908455546 0.00074968256106134202 0 -0.0052808664989695718 0.0025859389589898995 0 -0.0055649585704398031 0.0026148564673083505 0 -0.005436115871812728 0.0025524295799341261 0 -0.0055925665580777587 0.0027076688708987345 0 -0.005383217977384917 0.0025902684408190295 0 -0.0053828023626751806 0.0026556350601476004 0 -0.005383217977384917 0.0025902684408190295 0 -0.00547224393904981 0.0026325224712040033 0 -0.0057284320901597723 0.0025254637024399455 0 -0.005383217977384917 0.0025902684408190295 0 -0.00547224393904981 0.0026325224712040033 0 -0.0057284320901597723 0.0025254637024399455 0 -0.00547224393904981 0.0026325224712040033 0 -0.0055274424366561405 0.0026623225408330792 0 -0.00547224393904981 0.0026325224712040033 0 -0.0055274424366561405 0.0026623225408330792 0 -0.0054706017159450076 0.002663980356040983 0 -0.0053828023626751806 0.0026556350601476004 0 -0.00547224393904981 0.0026325224712040033 0 -0.0054706017159450076 0.002663980356040983 0 -0.0054706017159450076 0.002663980356040983 0 -0.0055174333568318006 0.0027058557289759769 0 -0.0055356531036608175 0.0027426736407251424 0 -0.0055174333568318006 0.0027058557289759769 0 -0.0055614953036198112 0.0027262914391079063 0 -0.0055356531036608175 0.0027426736407251424 0 -0.0055274424366561405 0.0026623225408330792 0 -0.0054706017159450076 0.002663980356040983 0 -0.0055174333568318006 0.0027058557289759769 0 -0.0056339903641025235 0.0027069382649573272 0 -0.0055274424366561405 0.0026623225408330792 0 -0.0055174333568318006 0.0027058557289759769 0 -0.0065252162395971662 0.0019439031802659858 0 -0.0092420786120457152 0.0021804734320105996 0 -0.0056339903641025235 0.0027069382649573272 0 -0.0055174333568318006 0.0027058557289759769 0 -0.0055874942561057435 0.0028311271482127508 0 -0.01481652908455546 0.00074968256106134202 0 -0.01485696704694177 -0.00013877230926323563 0 -0.014383731138200058 -0.00030408191254676107 0 -0.0054717488876431684 0.0026242339594620646 0 -0.0054706017159450076 0.002663980356040983 0 -0.0055356531036608175 0.0027426736407251424 0 -0.015156613759838724 0.00039240594493876951 0 -0.01481652908455546 0.00074968256106134202 0 -0.01485696704694177 -0.00013877230926323563 0 -0.0099006272361752516 0.0017805611839904767 0 -0.011234003843343233 0.00048249641632747598 0 -0.01485696704694177 -0.00013877230926323563 0 -0.014773180228035582 -0.00052469206633000789 0 -0.015294934786990349 -0.00018532179232764236 0 -0.014660799355350083 -0.00079516229925294445 0 -0.015387768689868936 -0.00013670820111213571 0 -0.014773180228035582 -0.00052469206633000789 0 -0.014595619035837304 -0.00043557442211357656 0 -0.01443441810174759 -0.00074896727256601643 0 -0.01485696704694177 -0.00013877230926323563 0 -0.014773180228035582 -0.00052469206633000789 0 -0.014595619035837304 -0.00043557442211357656 0 -0.01344676788979832 -0.00059689322030645584 0 -0.011234003843343233 0.00048249641632747598 0 -0.01485696704694177 -0.00013877230926323563 0 -0.014595619035837304 -0.00043557442211357656 0 -0.014383731138200058 -0.00030408191254676107 0 -0.013020723298043274 0.0010193301244368741 0 -0.013271767598321644 0.0011755898053621855 0 -0.013212357758813353 0.0014204856496583009 0 -0.011234003843343233 0.00048249641632747598 0 -0.016818440106269469 0.00015750523136734879 0 -0.014595619035837304 -0.00043557442211357656 0 -0.014461166165420553 -0.00034725345850123015 0 -0.01443441810174759 -0.00074896727256601643 0 -0.0092420786120457152 0.0021804734320105996 0 -0.011234003843343233 0.00048249641632747598 0 -0.013274579571554529 0.00084874435077827602 0 -0.013020723298043274 0.0010193301244368741 0 -0.013271767598321644 0.0011755898053621855 0 -0.013274579571554529 0.00084874435077827602 0 -0.013271767598321644 0.0011755898053621855 0 -0.0135123626894093 0.0012037689584654121 0 -0.014461166165420553 -0.00034725345850123015 0 -0.01443441810174759 -0.00074896727256601643 0 -0.014318275503471643 -0.00075113231491060991 0 -0.018312885271951674 -8.848906870397625e-05 0 -0.016818440106269469 0.00015750523136734879 0 -0.013271767598321644 0.0011755898053621855 0 -0.013212357758813353 0.0014204856496583009 0 -0.013451589742501472 0.0014312911655626316 0 -0.016818440106269469 0.00015750523136734879 0 -0.016681101751215347 0.0013346326031140612 0 -0.018586660197396514 0.0007794174493157102 0 -0.018720485316689399 0.00068832525301460291 0 -0.018677874409029217 0.00084826343474963802 0 -0.018540944761760859 0.00067839593195513843 0 -0.018586660197396514 0.0007794174493157102 0 -0.018720485316689399 0.00068832525301460291 0 -0.016818440106269469 0.00015750523136734879 0 -0.020221999279049142 0.00067946798184445069 0 -0.024899654764785239 -0.00025838787962107005 0 -0.024895647528295803 -0.00026307753881771897 0 -0.024893489635773113 -0.00025786785113200554 0 -0.020436054471789814 0.00073101611413189862 0 -0.020221999279049142 0.00067946798184445069 0 -0.024899654764785239 -0.00025838787962107005 0 -0.024894270081065102 -0.00026195326409237947 0 -0.024908453993759381 -0.00025427340973209673 0 -0.020221999279049142 0.00067946798184445069 0 -0.020792675671809778 0.00046070040263691885 0 -0.024871232396071814 -0.00028099014754659116 0 -0.024893489635773113 -0.00025786785113200554 0 -0.024888678999820928 -0.00025151232494781503 0 -0.018312885271951674 -8.848906870397625e-05 0 -0.020221999279049142 0.00067946798184445069 0 -0.024871232396071814 -0.00028099014754659116 0 -0.024895647528295803 -0.00026307753881771897 0 -0.024893489635773113 -0.00025786785113200554 0 -0.017966654237908174 -0.00044729257626527114 0 -0.018768945724269875 -0.00041450160636688005 0 -0.019132372185596675 0.00046410039986426367 0 -0.018312885271951674 -8.848906870397625e-05 0 -0.021187229328910078 -0.0012526891505095193 0 -0.015211811925534113 -0.00041840778010374466 0 -0.015143981121760538 -0.00048777900635513574 0 -0.015321136523728142 -0.00054084014650440139 0 -0.024871232396071814 -0.00028099014754659116 0 -0.024865682853800711 -0.00026190414309641767 0 -0.024835141736765941 -0.00030593513772680421 0 -0.024871232396071814 -0.00028099014754659116 0 -0.024865682853800711 -0.00026190414309641767 0 -0.024888678999820928 -0.00025151232494781503 0 -0.014660799355350083 -0.00079516229925294445 0 -0.018312885271951674 -8.848906870397625e-05 0 -0.013185581913991629 0.0019436598264007563 0 -0.013076854120304311 0.0018579887073748899 0 -0.01303739991052209 0.0019696227459157921 0 -0.013076854120304311 0.0018579887073748899 0 -0.012953255039231285 0.0019145458742985378 0 -0.01303739991052209 0.0019696227459157921 0 -0.01311745037885504 0.0017454730894356299 0 -0.013076854120304311 0.0018579887073748899 0 -0.012912186096763562 0.0017556621615266281 0 -0.012912186096763562 0.0017556621615266281 0 -0.012953255039231285 0.0019145458742985378 0 -0.012831244348462792 0.0019171187221398121 0 -0.012953255039231285 0.0019145458742985378 0 -0.012831244348462792 0.0019171187221398121 0 -0.012946581369436289 0.0019987621676474275 0 -0.013076854120304311 0.0018579887073748899 0 -0.012912186096763562 0.0017556621615266281 0 -0.012953255039231285 0.0019145458742985378 0 -0.012831244348462792 0.0019171187221398121 0 -0.012729232449168215 0.0018287260497588534 0 -0.012709715137045283 0.0019391651344958327 0 -0.012912186096763562 0.0017556621615266281 0 -0.012831244348462792 0.0019171187221398121 0 -0.012729232449168215 0.0018287260497588534 0 -0.012746933803007785 0.0017184487981695058 0 -0.012912186096763562 0.0017556621615266281 0 -0.012729232449168215 0.0018287260497588534 0 -0.012746933803007785 0.0017184487981695058 0 -0.01253513952468175 0.0017243617577066917 0 -0.012729232449168215 0.0018287260497588534 0 -0.01253513952468175 0.0017243617577066917 0 -0.012729232449168215 0.0018287260497588534 0 -0.012691478127345588 0.0019573333706403755 0 -0.0092420786120457152 0.0021804734320105996 0 -0.014067902090427091 0.0016973628907516174 0 -0.013378503110497793 0.0020418588089231799 0 -0.014067902090427091 0.0016973628907516174 0 -0.016681101751215347 0.0013346326031140612 0 -0.015976910415337327 0.0017261576710337464 0 -0.014067902090427091 0.0016973628907516174 0 -0.016681101751215347 0.0013346326031140612 0 -0.013271767598321644 0.0011755898053621855 0 -0.0135123626894093 0.0012037689584654121 0 -0.013451589742501472 0.0014312911655626316 0 -0.015405114805564729 0.0015855751853168984 0 -0.01537285474110074 0.0017045125031545335 0 -0.015483785954045473 0.0017097866676986416 0 -0.018622013970438951 0.00085485886082681793 0 -0.01869295504751611 0.00094686974510216056 0 -0.018577870664216206 0.0010186381814455596 0 -0.016681101751215347 0.0013346326031140612 0 -0.020792675671809778 0.00046070040263691885 0 -0.018622013970438951 0.00085485886082681793 0 -0.01869295504751611 0.00094686974510216056 0 -0.018786719408414695 0.00086109669762341227 0 -0.01869295504751611 0.00094686974510216056 0 -0.018785151942233382 0.0010533913947019216 0 -0.018577870664216206 0.0010186381814455596 0 -0.015976910415337327 0.0017261576710337464 0 -0.018185660565622742 0.0015177061239755173 0 -0.01869295504751611 0.00094686974510216056 0 -0.018786719408414695 0.00086109669762341227 0 -0.018785151942233382 0.0010533913947019216 0 -0.012831244348462792 0.0019171187221398121 0 -0.012709715137045283 0.0019391651344958327 0 -0.012802823005566262 0.0020744532005775762 0 -0.012831244348462792 0.0019171187221398121 0 -0.012802823005566262 0.0020744532005775762 0 -0.012946581369436289 0.0019987621676474275 0 -0.014067902090427091 0.0016973628907516174 0 -0.015976910415337327 0.0017261576710337464 0 -0.014846254155036204 0.0021681697868602173 0 -0.015976910415337327 0.0017261576710337464 0 -0.016874321077350003 0.0021651285169803445 0 -0.017549245240931842 0.0021761537631778062 0 -0.017028714214901802 0.0018650449258397692 0 -0.013112491523039064 0.0021228477003012976 0 -0.012802823005566262 0.0020744532005775762 0 -0.012946581369436289 0.0019987621676474275 0 -0.012953255039231285 0.0019145458742985378 0 -0.012946581369436289 0.0019987621676474275 0 -0.01303739991052209 0.0019696227459157921 0 -0.013185581913991629 0.0019436598264007563 0 -0.013112491523039064 0.0021228477003012976 0 -0.01303739991052209 0.0019696227459157921 0 -0.013112491523039064 0.0021228477003012976 0 -0.012946581369436289 0.0019987621676474275 0 -0.01303739991052209 0.0019696227459157921 0 -0.017549245240931842 0.0021761537631778062 0 -0.017028714214901802 0.0018650449258397692 0 -0.017283266306323323 0.001700801163717064 0 -0.016948977591784015 0.0015743699620336105 0 -0.017283266306323323 0.001700801163717064 0 -0.017027229360390073 0.0011950945084140906 0 -0.018185660565622742 0.0015177061239755173 0 -0.020153822703034455 0.00054286492940183414 0 -0.016948977591784015 0.0015743699620336105 0 -0.017028714214901802 0.0018650449258397692 0 -0.017283266306323323 0.001700801163717064 0 -0.018988707621765639 0.0011659194819238835 0 -0.018880214505133282 0.0012465536193027346 0 -0.01919064379345449 0.0014660049286624594 0 -0.022226883989669731 0.00037991984584808742 0 -0.022435744323177381 0.00028950523190148577 0 -0.022526342745363175 0.00061851042972953956 0 -0.018880214505133282 0.0012465536193027346 0 -0.018785151942233382 0.0010533913947019216 0 -0.018577870664216206 0.0010186381814455596 0 -0.018988707621765639 0.0011659194819238835 0 -0.018880214505133282 0.0012465536193027346 0 -0.018785151942233382 0.0010533913947019216 0 -0.018786719408414695 0.00086109669762341227 0 -0.018988707621765639 0.0011659194819238835 0 -0.018785151942233382 0.0010533913947019216 0 -0.020619160619066382 0.00087652651726537222 0 -0.020792675671809778 0.00046070040263691885 0 -0.023494074797912191 0.00020200009973284747 0 -0.024487208442392654 -0.00018609454039816346 0 -0.022435744323177381 0.00028950523190148577 0 -0.02227934897836659 6.2467752494999035e-05 0 -0.022712321327426815 9.7072031266667296e-05 0 -0.024806608534845603 0.00035666611451393865 0 -0.024928099231390621 0.00034907255440285784 0 -0.024851865439890233 0.00026531803539750335 0 -0.022226883989669731 0.00037991984584808742 0 -0.022435744323177381 0.00028950523190148577 0 -0.02227934897836659 6.2467752494999035e-05 0 -0.022226883989669731 0.00037991984584808742 0 -0.02227934897836659 6.2467752494999035e-05 0 -0.021930168991472921 0.00014841005493738355 0 -0.021852178464571041 1.5715908828700534e-05 0 -0.02227934897836659 6.2467752494999035e-05 0 -0.021930168991472921 0.00014841005493738355 0 -0.022927888587667956 0.00067835736328509773 0 -0.023494074797912191 0.00020200009973284747 0 -0.020619160619066382 0.00087652651726537222 0 -0.020153822703034455 0.00054286492940183414 0 -0.022927888587667956 0.00067835736328509773 0 -0.020153822703034455 0.00054286492940183414 0 -0.024891946957005855 -0.0002316706350296806 0 -0.024900789137786442 -0.00017305549506414962 0 -0.024916050049589432 -0.00019528413423922691 0 -0.024891946957005855 -0.0002316706350296806 0 -0.024907636695359663 -0.00022300466439631285 0 -0.024916050049589432 -0.00019528413423922691 0 -0.024891946957005855 -0.0002316706350296806 0 -0.024878366506459467 -0.0002132560518951489 0 -0.024900789137786442 -0.00017305549506414962 0 -0.024891946957005855 -0.0002316706350296806 0 -0.024878366506459467 -0.0002132560518951489 0 -0.024865682853800711 -0.00026190414309641767 0 -0.024878366506459467 -0.0002132560518951489 0 -0.024865682853800711 -0.00026190414309641767 0 -0.024852996274515409 -0.00023165736528703569 0 -0.024891946957005855 -0.0002316706350296806 0 -0.024865682853800711 -0.00026190414309641767 0 -0.024888678999820928 -0.00025151232494781503 0 -0.024891946957005855 -0.0002316706350296806 0 -0.024888678999820928 -0.00025151232494781503 0 -0.024907636695359663 -0.00022300466439631285 0 -0.024893489635773113 -0.00025786785113200554 0 -0.024888678999820928 -0.00025151232494781503 0 -0.024913983243642482 -0.00022857007809671791 0 -0.024913983243642482 -0.00022857007809671791 0 -0.024908453993759381 -0.00025427340973209673 0 -0.024967440891159494 -0.00015460895237397556 0 -0.020792675671809778 0.00046070040263691885 0 -0.024487208442392654 -0.00018609454039816346 0 -0.022435744323177381 0.00028950523190148577 0 -0.022526342745363175 0.00061851042972953956 0 -0.022712321327426815 9.7072031266667296e-05 0 -0.024888678999820928 -0.00025151232494781503 0 -0.024913983243642482 -0.00022857007809671791 0 -0.024907636695359663 -0.00022300466439631285 0 -0.024899654764785239 -0.00025838787962107005 0 -0.024893489635773113 -0.00025786785113200554 0 -0.024913983243642482 -0.00022857007809671791 0 -0.024899654764785239 -0.00025838787962107005 0 -0.024913983243642482 -0.00022857007809671791 0 -0.024908453993759381 -0.00025427340973209673 0 -0.024913983243642482 -0.00022857007809671791 0 -0.024907636695359663 -0.00022300466439631285 0 -0.024933983688483329 -0.00018993239498396307 0 -0.024907636695359663 -0.00022300466439631285 0 -0.024933983688483329 -0.00018993239498396307 0 -0.024916050049589432 -0.00019528413423922691 0 -0.024913983243642482 -0.00022857007809671791 0 -0.024933983688483329 -0.00018993239498396307 0 -0.024967440891159494 -0.00015460895237397556 0 -0.024933983688483329 -0.00018993239498396307 0 -0.024967026774418977 -0.00015184106449894237 0 -0.024967440891159494 -0.00015460895237397556 0 -0.024933983688483329 -0.00018993239498396307 0 -0.024967026774418977 -0.00015184106449894237 0 -0.024930142587215393 -0.00016583587111437532 0 -0.024967026774418977 -0.00015184106449894237 0 -0.024996330389955773 -0.00014943241772790076 0 -0.024912896524014676 -6.1691056412021555e-05 0 -0.024646260360769386 -0.00017211116647437735 0 -0.024487208442392654 -0.00018609454039816346 0 -0.024930142587215393 -0.00016583587111437532 0 -0.024900789137786442 -0.00017305549506414962 0 -0.024912896524014676 -6.1691056412021555e-05 0 -0.024967026774418977 -0.00015184106449894237 0 -0.024930142587215393 -0.00016583587111437532 0 -0.024912896524014676 -6.1691056412021555e-05 0 -0.024930142587215393 -0.00016583587111437532 0 -0.024900789137786442 -0.00017305549506414962 0 -0.024916050049589432 -0.00019528413423922691 0 -0.024933983688483329 -0.00018993239498396307 0 -0.024930142587215393 -0.00016583587111437532 0 -0.024916050049589432 -0.00019528413423922691 0 -0.024878366506459467 -0.0002132560518951489 0 -0.024900789137786442 -0.00017305549506414962 0 -0.02487013925351084 -0.00014565577347210951 0 -0.024900789137786442 -0.00017305549506414962 0 -0.02487013925351084 -0.00014565577347210951 0 -0.024912896524014676 -6.1691056412021555e-05 0 -0.02487013925351084 -0.00014565577347210951 0 -0.02484678845826431 -0.00011785887589479889 0 -0.02483300218640341 -0.00018197248007271948 0 -0.02487013925351084 -0.00014565577347210951 0 -0.02483300218640341 -0.00018197248007271948 0 -0.024852996274515409 -0.00023165736528703569 0 -0.024878366506459467 -0.0002132560518951489 0 -0.02487013925351084 -0.00014565577347210951 0 -0.024852996274515409 -0.00023165736528703569 0 -0.02483300218640341 -0.00018197248007271948 0 -0.024788915402766426 -0.00022418752444374875 0 -0.024817636265450627 -0.00011518151363077594 0 -0.02483300218640341 -0.00018197248007271948 0 -0.024819979460046757 -0.00025322759554071198 0 -0.024788915402766426 -0.00022418752444374875 0 -0.02484678845826431 -0.00011785887589479889 0 -0.02483300218640341 -0.00018197248007271948 0 -0.024817636265450627 -0.00011518151363077594 0 -0.024819979460046757 -0.00025322759554071198 0 -0.024798957965926679 -0.00030953773775062489 0 -0.024788915402766426 -0.00022418752444374875 0 -0.024819979460046757 -0.00025322759554071198 0 -0.024798957965926679 -0.00030953773775062489 0 -0.024828466780444924 -0.00029390796278683728 0 -0.024865682853800711 -0.00026190414309641767 0 -0.024852996274515409 -0.00023165736528703569 0 -0.024828466780444924 -0.00029390796278683728 0 -0.024819979460046757 -0.00025322759554071198 0 -0.024852996274515409 -0.00023165736528703569 0 -0.024828466780444924 -0.00029390796278683728 0 -0.02483300218640341 -0.00018197248007271948 0 -0.024819979460046757 -0.00025322759554071198 0 -0.024852996274515409 -0.00023165736528703569 0 -0.021187229328910078 -0.0012526891505095193 0 -0.024601129079366176 -0.00088384464593990568 0 -0.024865682853800711 -0.00026190414309641767 0 -0.024828466780444924 -0.00029390796278683728 0 -0.024835141736765941 -0.00030593513772680421 0 -0.024828466780444924 -0.00029390796278683728 0 -0.024835141736765941 -0.00030593513772680421 0 -0.024799854305593224 -0.00037163943885649037 0 -0.024798957965926679 -0.00030953773775062489 0 -0.024828466780444924 -0.00029390796278683728 0 -0.024799854305593224 -0.00037163943885649037 0 -0.022765174437082456 -0.0015180416770481857 0 -0.023293260575795446 -0.0014894110365320378 0 -0.023170235808699337 -0.0012239770337646792 0 -0.023293260575795446 -0.0014894110365320378 0 -0.023170235808699337 -0.0012239770337646792 0 -0.023519843422743207 -0.0012557864201054646 0 -0.015321136523728142 -0.00054084014650440139 0 -0.015806764629690721 -0.0002950654030824633 0 -0.015362740687967643 -0.00035615287903963344 0 -0.021187229328910078 -0.0012526891505095193 0 -0.019147616049893668 -0.0008480390992601695 0 -0.015806764629690721 -0.0002950654030824633 0 -0.015294934786990349 -0.00018532179232764236 0 -0.015362740687967643 -0.00035615287903963344 0 -0.015211811925534113 -0.00041840778010374466 0 -0.015294934786990349 -0.00018532179232764236 0 -0.015362740687967643 -0.00035615287903963344 0 -0.015211811925534113 -0.00041840778010374466 0 -0.015321136523728142 -0.00054084014650440139 0 -0.015362740687967643 -0.00035615287903963344 0 -0.023519843422743207 -0.0012557864201054646 0 -0.023695238862089445 -0.0013953428032022078 0 -0.023824564368493891 -0.0011632178175413714 0 -0.023509168141668459 -0.0010487643033798217 0 -0.023170235808699337 -0.0012239770337646792 0 -0.023519843422743207 -0.0012557864201054646 0 -0.024601129079366176 -0.00088384464593990568 0 -0.024066582095024842 -0.00095288267447516664 0 -0.024799854305593224 -0.00037163943885649037 0 -0.024706695383587926 -0.00049312985196291572 0 -0.024755335382023343 -0.00033719050246262849 0 -0.023293260575795446 -0.0014894110365320378 0 -0.023519843422743207 -0.0012557864201054646 0 -0.023695238862089445 -0.0013953428032022078 0 -0.024798957965926679 -0.00030953773775062489 0 -0.024799854305593224 -0.00037163943885649037 0 -0.024755335382023343 -0.00033719050246262849 0 -0.024755335382023343 -0.00033719050246262849 0 -0.02470599549322415 -0.00024785513526100385 0 -0.024611369601654959 -0.00038830994149267509 0 -0.024706695383587926 -0.00049312985196291572 0 -0.024755335382023343 -0.00033719050246262849 0 -0.024611369601654959 -0.00038830994149267509 0 -0.024755335382023343 -0.00033719050246262849 0 -0.024788915402766426 -0.00022418752444374875 0 -0.02470599549322415 -0.00024785513526100385 0 -0.024798957965926679 -0.00030953773775062489 0 -0.024755335382023343 -0.00033719050246262849 0 -0.024788915402766426 -0.00022418752444374875 0 -0.024788915402766426 -0.00022418752444374875 0 -0.02470599549322415 -0.00024785513526100385 0 -0.024748453387498492 -8.9107589643196898e-05 0 -0.02470599549322415 -0.00024785513526100385 0 -0.024748453387498492 -8.9107589643196898e-05 0 -0.024598590625294976 -0.00020038925779857934 0 -0.024748453387498492 -8.9107589643196898e-05 0 -0.024785380606191936 2.2438030270418714e-05 0 -0.024693710589767791 1.3456217461414001e-05 0 -0.024748453387498492 -8.9107589643196898e-05 0 -0.024599520609822761 -7.2890725683387529e-05 0 -0.024693710589767791 1.3456217461414001e-05 0 -0.024748453387498492 -8.9107589643196898e-05 0 -0.024817904842173159 -1.6556039703244929e-05 0 -0.024785380606191936 2.2438030270418714e-05 0 -0.024748453387498492 -8.9107589643196898e-05 0 -0.024817636265450627 -0.00011518151363077594 0 -0.024817904842173159 -1.6556039703244929e-05 0 -0.024788915402766426 -0.00022418752444374875 0 -0.024748453387498492 -8.9107589643196898e-05 0 -0.024817636265450627 -0.00011518151363077594 0 -0.024817636265450627 -0.00011518151363077594 0 -0.024867695898384251 -2.6928399967969437e-05 0 -0.024817904842173159 -1.6556039703244929e-05 0 -0.02487013925351084 -0.00014565577347210951 0 -0.02484678845826431 -0.00011785887589479889 0 -0.024867695898384251 -2.6928399967969437e-05 0 -0.02484678845826431 -0.00011785887589479889 0 -0.024817636265450627 -0.00011518151363077594 0 -0.024867695898384251 -2.6928399967969437e-05 0 -0.02487013925351084 -0.00014565577347210951 0 -0.024867695898384251 -2.6928399967969437e-05 0 -0.024912896524014676 -6.1691056412021555e-05 0 -0.024867695898384251 -2.6928399967969437e-05 0 -0.02487205626221493 4.7982614328227254e-05 0 -0.024914497843740582 8.4473586339333967e-05 0 -0.024867695898384251 -2.6928399967969437e-05 0 -0.02487205626221493 4.7982614328227254e-05 0 -0.024817904842173159 -1.6556039703244929e-05 0 -0.02485043631989339 7.2924524899876787e-05 0 -0.024916496341936385 9.878970784255919e-05 0 -0.024884963878129971 0.00010320965242100721 0 -0.02487205626221493 4.7982614328227254e-05 0 -0.024817904842173159 -1.6556039703244929e-05 0 -0.02485043631989339 7.2924524899876787e-05 0 -0.02487205626221493 4.7982614328227254e-05 0 -0.02485043631989339 7.2924524899876787e-05 0 -0.024916496341936385 9.878970784255919e-05 0 -0.02487205626221493 4.7982614328227254e-05 0 -0.024914497843740582 8.4473586339333967e-05 0 -0.024916496341936385 9.878970784255919e-05 0 -0.02485043631989339 7.2924524899876787e-05 0 -0.024787995706163128 7.0704258774177169e-05 0 -0.024861962955433286 7.7696958089441085e-05 0 -0.024787995706163128 7.0704258774177169e-05 0 -0.024785380606191936 2.2438030270418714e-05 0 -0.024693710589767791 1.3456217461414001e-05 0 -0.02485043631989339 7.2924524899876787e-05 0 -0.024787995706163128 7.0704258774177169e-05 0 -0.024785380606191936 2.2438030270418714e-05 0 -0.024817904842173159 -1.6556039703244929e-05 0 -0.02485043631989339 7.2924524899876787e-05 0 -0.024785380606191936 2.2438030270418714e-05 0 -0.024738241376480265 0.00037397964121645697 0 -0.024768015164462559 0.00029011882946834732 0 -0.024806500149696924 0.00029231683158046008 0 -0.024738241376480265 0.00037397964121645697 0 -0.024806500149696924 0.00029231683158046008 0 -0.024759789979383079 0.00037132841631656654 0 -0.024768015164462559 0.00029011882946834732 0 -0.024806500149696924 0.00029231683158046008 0 -0.024833015907478193 0.00020574579483472101 0 -0.024806500149696924 0.00029231683158046008 0 -0.024759789979383079 0.00037132841631656654 0 -0.024779534957589548 0.00034899090156651961 0 -0.024745996706676487 0.00038057130907216528 0 -0.024806608534845603 0.00035666611451393865 0 -0.024779534957589548 0.00034899090156651961 0 -0.024745996706676487 0.00038057130907216528 0 -0.024759789979383079 0.00037132841631656654 0 -0.024779534957589548 0.00034899090156651961 0 -0.024806500149696924 0.00029231683158046008 0 -0.024779534957589548 0.00034899090156651961 0 -0.024851865439890233 0.00026531803539750335 0 -0.024806608534845603 0.00035666611451393865 0 -0.024779534957589548 0.00034899090156651961 0 -0.024851865439890233 0.00026531803539750335 0 -0.024806500149696924 0.00029231683158046008 0 -0.024851865439890233 0.00026531803539750335 0 -0.024883837783844988 0.00018530802498170176 0 -0.024806500149696924 0.00029231683158046008 0 -0.024883837783844988 0.00018530802498170176 0 -0.024833015907478193 0.00020574579483472101 0 -0.024883837783844988 0.00018530802498170176 0 -0.024952829025955012 0.00011069505658706417 0 -0.024922150951626844 0.0001229274228288838 0 -0.024851865439890233 0.00026531803539750335 0 -0.024883837783844988 0.00018530802498170176 0 -0.024952829025955012 0.00011069505658706417 0 -0.024996330389955773 -0.00014943241772790076 0 -0.024912896524014676 -6.1691056412021555e-05 0 -0.024952829025955012 0.00011069505658706417 0 -0.024928099231390621 0.00034907255440285784 0 -0.024851865439890233 0.00026531803539750335 0 -0.024952829025955012 0.00011069505658706417 0 -0.024487208442392654 -0.00018609454039816346 0 -0.025039634818952185 0.00019982437387787362 0 -0.024867695898384251 -2.6928399967969437e-05 0 -0.024912896524014676 -6.1691056412021555e-05 0 -0.024952829025955012 0.00011069505658706417 0 -0.024867695898384251 -2.6928399967969437e-05 0 -0.024914497843740582 8.4473586339333967e-05 0 -0.024952829025955012 0.00011069505658706417 0 -0.024914497843740582 8.4473586339333967e-05 0 -0.024952829025955012 0.00011069505658706417 0 -0.024922150951626844 0.0001229274228288838 0 -0.024914497843740582 8.4473586339333967e-05 0 -0.024916496341936385 9.878970784255919e-05 0 -0.024922150951626844 0.0001229274228288838 0 -0.024916496341936385 9.878970784255919e-05 0 -0.024896258708139433 0.00013755444779210753 0 -0.024913334976083772 9.4397032986488416e-05 0 -0.024916496341936385 9.878970784255919e-05 0 -0.024922150951626844 0.0001229274228288838 0 -0.024896258708139433 0.00013755444779210753 0 -0.024883837783844988 0.00018530802498170176 0 -0.024922150951626844 0.0001229274228288838 0 -0.024896258708139433 0.00013755444779210753 0 -0.024883837783844988 0.00018530802498170176 0 -0.024896258708139433 0.00013755444779210753 0 -0.024833015907478193 0.00020574579483472101 0 -0.024896258708139433 0.00013755444779210753 0 -0.024841270104165182 0.00010914395961020154 0 -0.024833015907478193 0.00020574579483472101 0 -0.024896258708139433 0.00013755444779210753 0 -0.024841270104165182 0.00010914395961020154 0 -0.024913334976083772 9.4397032986488416e-05 0 -0.024746748907682633 0.00020918854588258796 0 -0.024841270104165182 0.00010914395961020154 0 -0.024833015907478193 0.00020574579483472101 0 -0.024746748907682633 0.00020918854588258796 0 -0.024768015164462559 0.00029011882946834732 0 -0.024833015907478193 0.00020574579483472101 0 -0.024860841366058414 2.6523490102974562e-05 0 -0.024916605913087822 4.7192219910369941e-05 0 -0.024940445204185278 -7.8965189294407748e-06 0 -0.024761733358276306 6.0354364634826522e-05 0 -0.024841270104165182 0.00010914395961020154 0 -0.024860841366058414 2.6523490102974562e-05 0 -0.024841270104165182 0.00010914395961020154 0 -0.024860841366058414 2.6523490102974562e-05 0 -0.024916605913087822 4.7192219910369941e-05 0 -0.024841270104165182 0.00010914395961020154 0 -0.024916605913087822 4.7192219910369941e-05 0 -0.024913334976083772 9.4397032986488416e-05 0 -0.024915074358903399 4.9691732273278834e-05 0 -0.024942731827907485 6.5230829712063185e-05 0 -0.024916605913087822 4.7192219910369941e-05 0 -0.024974950135550473 3.8425712090764764e-05 0 -0.02497145233028155 6.0583569428099983e-06 0 -0.024916605913087822 4.7192219910369941e-05 0 -0.024913334976083772 9.4397032986488416e-05 0 -0.024917645292045782 9.5309503677093175e-05 0 -0.024916496341936385 9.878970784255919e-05 0 -0.024917645292045782 9.5309503677093175e-05 0 -0.024884963878129971 0.00010320965242100721 0 -0.024916496341936385 9.878970784255919e-05 0 -0.024913334976083772 9.4397032986488416e-05 0 -0.024917645292045782 9.5309503677093175e-05 0 -0.024974950135550473 3.8425712090764764e-05 0 -0.02497145233028155 6.0583569428099983e-06 0 -0.024980710723327016 2.5418544730280346e-05 0 -0.024999982559833638 1.2423519624194353e-08 0 -0.02497145233028155 6.0583569428099983e-06 0 -0.024980710723327016 2.5418544730280346e-05 0 -0.024999982559833638 1.2423519624194353e-08 0 -0.02497145233028155 6.0583569428099983e-06 0 -0.024999894833482649 -4.0591703452315533e-08 0 -0.024916605913087822 4.7192219910369941e-05 0 -0.02497145233028155 6.0583569428099983e-06 0 -0.024940445204185278 -7.8965189294407748e-06 0 -0.02497145233028155 6.0583569428099983e-06 0 -0.024940445204185278 -7.8965189294407748e-06 0 -0.024999894833482649 -4.0591703452315533e-08 0 -0.024940445204185278 -7.8965189294407748e-06 0 -0.024999894833482649 -4.0591703452315533e-08 0 -0.024959438132322476 -2.3913339639411067e-05 0 -0.02499986606700819 -6.7348151657847272e-08 0 -0.024999894833482649 -4.0591703452315533e-08 0 -0.024959438132322476 -2.3913339639411067e-05 0 -0.02495972594933522 -4.0246507429484391e-05 0 -0.024959438132322476 -2.3913339639411067e-05 0 -0.024894972622005584 -2.5942739638421592e-05 0 -0.024860841366058414 2.6523490102974562e-05 0 -0.024940445204185278 -7.8965189294407748e-06 0 -0.024894972622005584 -2.5942739638421592e-05 0 -0.024940445204185278 -7.8965189294407748e-06 0 -0.024959438132322476 -2.3913339639411067e-05 0 -0.024894972622005584 -2.5942739638421592e-05 0 -0.024861962955433286 7.7696958089441085e-05 0 -0.024948877278626626 4.8593193075835268e-05 0 -0.024902203238706847 7.3674903184635628e-05 0 -0.024861962955433286 7.7696958089441085e-05 0 -0.024902203238706847 7.3674903184635628e-05 0 -0.02479752711017974 9.7795565251015233e-05 0 -0.024787995706163128 7.0704258774177169e-05 0 -0.024861962955433286 7.7696958089441085e-05 0 -0.02479752711017974 9.7795565251015233e-05 0 -0.024869714210062191 7.5884042034276308e-05 0 -0.02492003560929875 7.1918402145475379e-05 0 -0.02485043631989339 7.2924524899876787e-05 0 -0.024861962955433286 7.7696958089441085e-05 0 -0.024884963878129971 0.00010320965242100721 0 -0.024942731827907485 6.5230829712063185e-05 0 -0.02492003560929875 7.1918402145475379e-05 0 -0.024974950135550473 3.8425712090764764e-05 0 -0.024954195269130727 3.8040191833953258e-05 0 -0.024980710723327016 2.5418544730280346e-05 0 -0.024954195269130727 3.8040191833953258e-05 0 -0.024948877278626626 4.8593193075835268e-05 0 -0.024980710723327016 2.5418544730280346e-05 0 -0.024861962955433286 7.7696958089441085e-05 0 -0.024954195269130727 3.8040191833953258e-05 0 -0.024948877278626626 4.8593193075835268e-05 0 -0.024948877278626626 4.8593193075835268e-05 0 -0.024980710723327016 2.5418544730280346e-05 0 -0.024999958470412944 2.7375361142060407e-08 0 -0.024999982559833638 1.2423519624194353e-08 0 -0.024980710723327016 2.5418544730280346e-05 0 -0.024999958470412944 2.7375361142060407e-08 0 -0.024948877278626626 4.8593193075835268e-05 0 -0.024999958470412944 2.7375361142060407e-08 0 -0.024999921069114646 3.9461794169375203e-08 0 -0.024948877278626626 4.8593193075835268e-05 0 -0.024999921069114646 3.9461794169375203e-08 0 -0.024902203238706847 7.3674903184635628e-05 0 -0.024999921069114646 3.9461794169375203e-08 0 -0.024902203238706847 7.3674903184635628e-05 0 -0.024999868589651458 6.2948619622985517e-08 0 -0.024999868589651458 6.2948619622985517e-08 0 -0.024900502736101116 7.123380196541282e-05 0 -0.024999816280330732 6.3948085216371352e-08 0 -0.024902203238706847 7.3674903184635628e-05 0 -0.024900502736101116 7.123380196541282e-05 0 -0.024792910384332584 0.00011998055441809315 0 -0.024902203238706847 7.3674903184635628e-05 0 -0.024999868589651458 6.2948619622985517e-08 0 -0.024900502736101116 7.123380196541282e-05 0 -0.024902203238706847 7.3674903184635628e-05 0 -0.024792910384332584 0.00011998055441809315 0 -0.02479752711017974 9.7795565251015233e-05 0 -0.024792910384332584 0.00011998055441809315 0 -0.024652748181079261 0.00015775420477047566 0 -0.024683530401680993 0.00010125701637958783 0 -0.024792910384332584 0.00011998055441809315 0 -0.02479752711017974 9.7795565251015233e-05 0 -0.024683530401680993 0.00010125701637958783 0 -0.024652748181079261 0.00015775420477047566 0 -0.024775799861356602 0.00013858921555564503 0 -0.024529527543969063 0.0002086295695946689 0 -0.024792910384332584 0.00011998055441809315 0 -0.024652748181079261 0.00015775420477047566 0 -0.024775799861356602 0.00013858921555564503 0 -0.024900502736101116 7.123380196541282e-05 0 -0.024775799861356602 0.00013858921555564503 0 -0.024999816280330732 6.3948085216371352e-08 0 -0.024900502736101116 7.123380196541282e-05 0 -0.024792910384332584 0.00011998055441809315 0 -0.024775799861356602 0.00013858921555564503 0 -0.024775799861356602 0.00013858921555564503 0 -0.024999816280330732 6.3948085216371352e-08 0 -0.024999738600935836 1.0683026591530939e-07 0 -0.024999738600935836 1.0683026591530939e-07 0 -0.024999629550366397 9.1100154199313911e-08 0 -0.024802153023159003 0.00011137692607063375 0 -0.024999629550366397 9.1100154199313911e-08 0 -0.024802153023159003 0.00011137692607063375 0 -0.024820798615536772 9.0561172098523301e-05 0 -0.024775799861356602 0.00013858921555564503 0 -0.024802153023159003 0.00011137692607063375 0 -0.024538955701385461 0.00023653749394093732 0 -0.024775799861356602 0.00013858921555564503 0 -0.024999738600935836 1.0683026591530939e-07 0 -0.024802153023159003 0.00011137692607063375 0 -0.024999700769585253 -1.7273620097345053e-07 0 -0.024011624027358128 0.0004836378504478116 0 -0.024999460687261926 4.6055282114752762e-07 0 -0.024999844203043253 5.7475073816335908e-08 0 -0.024820798615536772 9.0561172098523301e-05 0 -0.02474268632770624 0.00016279319908377006 0 -0.024999750294163615 2.0526979664098566e-07 0 -0.024397904169312527 0.00034638697605249161 0 -0.024999629550366397 9.1100154199313911e-08 0 -0.024999844203043253 5.7475073816335908e-08 0 -0.024820798615536772 9.0561172098523301e-05 0 -0.024802153023159003 0.00011137692607063375 0 -0.024820798615536772 9.0561172098523301e-05 0 -0.024528230576984271 0.00023814006959989672 0 -0.024820798615536772 9.0561172098523301e-05 0 -0.02474268632770624 0.00016279319908377006 0 -0.024528230576984271 0.00023814006959989672 0 -0.02474268632770624 0.00016279319908377006 0 -0.024528230576984271 0.00023814006959989672 0 -0.024312846685811105 0.00032926681921475461 0 -0.024397904169312527 0.00034638697605249161 0 -0.023975101638542943 0.00043190623547173751 0 -0.024528230576984271 0.00023814006959989672 0 -0.024238725199947027 0.00034410636682611961 0 -0.024538955701385461 0.00023653749394093732 0 -0.024528230576984271 0.00023814006959989672 0 -0.024238725199947027 0.00034410636682611961 0 -0.024312846685811105 0.00032926681921475461 0 -0.024775799861356602 0.00013858921555564503 0 -0.024538955701385461 0.00023653749394093732 0 -0.024529527543969063 0.0002086295695946689 0 -0.024802153023159003 0.00011137692607063375 0 -0.024528230576984271 0.00023814006959989672 0 -0.024538955701385461 0.00023653749394093732 0 -0.024238725199947027 0.00034410636682611961 0 -0.024538955701385461 0.00023653749394093732 0 -0.024204072342126914 0.00028675692678075559 0 -0.024538955701385461 0.00023653749394093732 0 -0.024529527543969063 0.0002086295695946689 0 -0.024204072342126914 0.00028675692678075559 0 -0.024529527543969063 0.0002086295695946689 0 -0.024380703138517274 0.00019128757904417776 0 -0.024204072342126914 0.00028675692678075559 0 -0.024204072342126914 0.00028675692678075559 0 -0.024278706989611057 9.3825877938656145e-05 0 -0.023967737434938515 6.1623787723514146e-05 0 -0.024204072342126914 0.00028675692678075559 0 -0.023673030532354075 0.0002208215363361206 0 -0.023967737434938515 6.1623787723514146e-05 0 -0.024380703138517274 0.00019128757904417776 0 -0.024204072342126914 0.00028675692678075559 0 -0.024278706989611057 9.3825877938656145e-05 0 -0.024238725199947027 0.00034410636682611961 0 -0.024204072342126914 0.00028675692678075559 0 -0.023620816412512798 0.0004490038432708736 0 -0.024204072342126914 0.00028675692678075559 0 -0.023620816412512798 0.0004490038432708736 0 -0.023673030532354075 0.0002208215363361206 0 -0.024238725199947027 0.00034410636682611961 0 -0.024312846685811105 0.00032926681921475461 0 -0.023620816412512798 0.0004490038432708736 0 -0.023975101638542943 0.00043190623547173751 0 -0.02368801032387647 0.00041645932307238915 0 -0.023620816412512798 0.0004490038432708736 0 -0.023673030532354075 0.0002208215363361206 0 -0.02310180071952329 0.00026331062846042384 0 -0.023673030532354075 0.0002208215363361206 0 -0.023269576355270168 1.2291773231447137e-05 0 -0.02310180071952329 0.00026331062846042384 0 -0.023673030532354075 0.0002208215363361206 0 -0.023660126036567603 3.3376934490326023e-05 0 -0.023967737434938515 6.1623787723514146e-05 0 -0.023660126036567603 3.3376934490326023e-05 0 -0.023269576355270168 1.2291773231447137e-05 0 -0.023712478607073068 -0.00020035897706961018 0 -0.023673030532354075 0.0002208215363361206 0 -0.023660126036567603 3.3376934490326023e-05 0 -0.023269576355270168 1.2291773231447137e-05 0 -0.023269576355270168 1.2291773231447137e-05 0 -0.02310180071952329 0.00026331062846042384 0 -0.0227924225067581 3.1117326238645914e-05 0 -0.024278706989611057 9.3825877938656145e-05 0 -0.023967737434938515 6.1623787723514146e-05 0 -0.024093902712094613 -0.0002016003892853804 0 -0.023967737434938515 6.1623787723514146e-05 0 -0.024093902712094613 -0.0002016003892853804 0 -0.023712478607073068 -0.00020035897706961018 0 -0.023660126036567603 3.3376934490326023e-05 0 -0.023967737434938515 6.1623787723514146e-05 0 -0.023712478607073068 -0.00020035897706961018 0 -0.024278706989611057 9.3825877938656145e-05 0 -0.024305047376112793 -8.0941232783883867e-05 0 -0.0245234694172125 3.0204693924265228e-05 0 -0.024278706989611057 9.3825877938656145e-05 0 -0.024305047376112793 -8.0941232783883867e-05 0 -0.024093902712094613 -0.0002016003892853804 0 -0.024305047376112793 -8.0941232783883867e-05 0 -0.024283175899328633 -0.00022847361001781269 0 -0.024093902712094613 -0.0002016003892853804 0 -0.024305047376112793 -8.0941232783883867e-05 0 -0.024448665808206524 -0.00011177738103665863 0 -0.0245234694172125 3.0204693924265228e-05 0 -0.024305047376112793 -8.0941232783883867e-05 0 -0.024448665808206524 -0.00011177738103665863 0 -0.024283175899328633 -0.00022847361001781269 0 -0.024448665808206524 -0.00011177738103665863 0 -0.024599520609822761 -7.2890725683387529e-05 0 -0.024598590625294976 -0.00020038925779857934 0 -0.024748453387498492 -8.9107589643196898e-05 0 -0.024599520609822761 -7.2890725683387529e-05 0 -0.024598590625294976 -0.00020038925779857934 0 -0.024599520609822761 -7.2890725683387529e-05 0 -0.024693710589767791 1.3456217461414001e-05 0 -0.0245234694172125 3.0204693924265228e-05 0 -0.024448665808206524 -0.00011177738103665863 0 -0.024599520609822761 -7.2890725683387529e-05 0 -0.0245234694172125 3.0204693924265228e-05 0 -0.024693710589767791 1.3456217461414001e-05 0 -0.0245234694172125 3.0204693924265228e-05 0 -0.024683530401680993 0.00010125701637958783 0 -0.024787995706163128 7.0704258774177169e-05 0 -0.024693710589767791 1.3456217461414001e-05 0 -0.024683530401680993 0.00010125701637958783 0 -0.024787995706163128 7.0704258774177169e-05 0 -0.02479752711017974 9.7795565251015233e-05 0 -0.024683530401680993 0.00010125701637958783 0 -0.024278706989611057 9.3825877938656145e-05 0 -0.0245234694172125 3.0204693924265228e-05 0 -0.024495126270667789 0.00014565778796222958 0 -0.024652748181079261 0.00015775420477047566 0 -0.024683530401680993 0.00010125701637958783 0 -0.024495126270667789 0.00014565778796222958 0 -0.024529527543969063 0.0002086295695946689 0 -0.024380703138517274 0.00019128757904417776 0 -0.024495126270667789 0.00014565778796222958 0 -0.024652748181079261 0.00015775420477047566 0 -0.024529527543969063 0.0002086295695946689 0 -0.024495126270667789 0.00014565778796222958 0 -0.024380703138517274 0.00019128757904417776 0 -0.024278706989611057 9.3825877938656145e-05 0 -0.024495126270667789 0.00014565778796222958 0 -0.0245234694172125 3.0204693924265228e-05 0 -0.024683530401680993 0.00010125701637958783 0 -0.024495126270667789 0.00014565778796222958 0 -0.024998696822277552 4.743493603563985e-07 0 -0.022920918340393667 0.0002448098673781421 0 -0.021437478408425338 0.00017445154146662276 0 -0.024998696822277552 4.743493603563985e-07 0 -0.024204961830663646 0.00013986425734691509 0 -0.024998151510602914 1.3426628862829757e-07 0 -0.024998696822277552 4.743493603563985e-07 0 -0.024204961830663646 0.00013986425734691509 0 -0.022920918340393667 0.0002448098673781421 0 -0.024204961830663646 0.00013986425734691509 0 -0.024998151510602914 1.3426628862829757e-07 0 -0.023956801807516959 0.00022751642804042156 0 -0.024204961830663646 0.00013986425734691509 0 -0.023956801807516959 0.00022751642804042156 0 -0.022920918340393667 0.0002448098673781421 0 -0.022920918340393667 0.0002448098673781421 0 -0.023258581859368875 0.00033679572213409425 0 -0.022592096114501751 0.00033697557072794878 0 -0.023956801807516959 0.00022751642804042156 0 -0.022920918340393667 0.0002448098673781421 0 -0.023258581859368875 0.00033679572213409425 0 -0.023258581859368875 0.00033679572213409425 0 -0.023754913857002357 0.00026409839573359714 0 -0.023143928640521151 0.00048994402912171868 0 -0.023813005609891653 0.00042744972954913355 0 -0.023284304705434408 0.00047207812264988934 0 -0.023754913857002357 0.00026409839573359714 0 -0.024105169481901619 0.00019733130712233584 0 -0.023143928640521151 0.00048994402912171868 0 -0.023754913857002357 0.00026409839573359714 0 -0.024393496648110802 0.00017294409659624266 0 -0.024105169481901619 0.00019733130712233584 0 -0.023956801807516959 0.00022751642804042156 0 -0.023258581859368875 0.00033679572213409425 0 -0.023754913857002357 0.00026409839573359714 0 -0.023956801807516959 0.00022751642804042156 0 -0.023754913857002357 0.00026409839573359714 0 -0.024393496648110802 0.00017294409659624266 0 -0.024998151510602914 1.3426628862829757e-07 0 -0.024393496648110802 0.00017294409659624266 0 -0.024999275467980305 2.7004978856431705e-07 0 -0.024998151510602914 1.3426628862829757e-07 0 -0.023956801807516959 0.00022751642804042156 0 -0.024393496648110802 0.00017294409659624266 0 -0.024393496648110802 0.00017294409659624266 0 -0.024704723099956669 0.00011509002775548668 0 -0.024105169481901619 0.00019733130712233584 0 -0.024393496648110802 0.00017294409659624266 0 -0.024999275467980305 2.7004978856431705e-07 0 -0.024704723099956669 0.00011509002775548668 0 -0.024999275467980305 2.7004978856431705e-07 0 -0.024999912808397525 -6.3552005922404801e-08 0 -0.024704723099956669 0.00011509002775548668 0 -0.024999676686511443 1.3958388641415467e-08 0 -0.024373180885013522 0.00024853901534324993 0 -0.024011624027358128 0.0004836378504478116 0 -0.024999460687261926 4.6055282114752762e-07 0 -0.02404417452037268 0.0004540982581455439 0 -0.024011624027358128 0.0004836378504478116 0 -0.02404417452037268 0.0004540982581455439 0 -0.02354409377508427 0.00060000626161254775 0 -0.024011624027358128 0.0004836378504478116 0 -0.023651010172278726 0.00058722792299198163 0 -0.02354409377508427 0.00060000626161254775 0 -0.024373180885013522 0.00024853901534324993 0 -0.023813005609891653 0.00042744972954913355 0 -0.02354409377508427 0.00060000626161254775 0 -0.023392204634107534 0.0005827128778107388 0 -0.023143928640521151 0.00048994402912171868 0 -0.023651010172278726 0.00058722792299198163 0 -0.02354409377508427 0.00060000626161254775 0 -0.023392204634107534 0.0005827128778107388 0 -0.023620816412512798 0.0004490038432708736 0 -0.023392204634107534 0.0005827128778107388 0 -0.023075674068679101 0.00054943375784022698 0 -0.023651010172278726 0.00058722792299198163 0 -0.023620816412512798 0.0004490038432708736 0 -0.023392204634107534 0.0005827128778107388 0 -0.023392204634107534 0.0005827128778107388 0 -0.023075674068679101 0.00054943375784022698 0 -0.023143928640521151 0.00048994402912171868 0 -0.023075674068679101 0.00054943375784022698 0 -0.022804850334896914 0.00044268065201414188 0 -0.022480384385431467 0.00056315820628896022 0 -0.023620816412512798 0.0004490038432708736 0 -0.02310180071952329 0.00026331062846042384 0 -0.022804850334896914 0.00044268065201414188 0 -0.023620816412512798 0.0004490038432708736 0 -0.023075674068679101 0.00054943375784022698 0 -0.022804850334896914 0.00044268065201414188 0 -0.02310180071952329 0.00026331062846042384 0 -0.0227924225067581 3.1117326238645914e-05 0 -0.022350008575576737 0.00023506097746167219 0 -0.022350008575576737 0.00023506097746167219 0 -0.022804850334896914 0.00044268065201414188 0 -0.022096904558746269 0.00043199293054541662 0 -0.02310180071952329 0.00026331062846042384 0 -0.022350008575576737 0.00023506097746167219 0 -0.022804850334896914 0.00044268065201414188 0 -0.022096904558746269 0.00043199293054541662 0 -0.022034765000761375 0.00067430406303915899 0 -0.022480384385431467 0.00056315820628896022 0 -0.022804850334896914 0.00044268065201414188 0 -0.022096904558746269 0.00043199293054541662 0 -0.022480384385431467 0.00056315820628896022 0 -0.022096904558746269 0.00043199293054541662 0 -0.021287796410822676 0.00040604258332525877 0 -0.021650145644246537 6.4921507667981652e-05 0 -0.022350008575576737 0.00023506097746167219 0 -0.022096904558746269 0.00043199293054541662 0 -0.021650145644246537 6.4921507667981652e-05 0 -0.021287796410822676 0.00040604258332525877 0 -0.020313783849690854 0.00032723922584661892 0 -0.020657937721152542 6.9760108216324014e-05 0 -0.021287796410822676 0.00040604258332525877 0 -0.022034765000761375 0.00067430406303915899 0 -0.02105733146956917 0.00087058193138650237 0 -0.022096904558746269 0.00043199293054541662 0 -0.021287796410822676 0.00040604258332525877 0 -0.022034765000761375 0.00067430406303915899 0 -0.022034765000761375 0.00067430406303915899 0 -0.022701638364712833 0.00058275897909309941 0 -0.022754098062680569 0.00053498613683554571 0 -0.022034765000761375 0.00067430406303915899 0 -0.022754098062680569 0.00053498613683554571 0 -0.02105733146956917 0.00087058193138650237 0 -0.023075674068679101 0.00054943375784022698 0 -0.022480384385431467 0.00056315820628896022 0 -0.022701638364712833 0.00058275897909309941 0 -0.022034765000761375 0.00067430406303915899 0 -0.022480384385431467 0.00056315820628896022 0 -0.022701638364712833 0.00058275897909309941 0 -0.023075674068679101 0.00054943375784022698 0 -0.023143928640521151 0.00048994402912171868 0 -0.022701638364712833 0.00058275897909309941 0 -0.023143928640521151 0.00048994402912171868 0 -0.022701638364712833 0.00058275897909309941 0 -0.022754098062680569 0.00053498613683554571 0 -0.023258581859368875 0.00033679572213409425 0 -0.023143928640521151 0.00048994402912171868 0 -0.022754098062680569 0.00053498613683554571 0 -0.024998696822277552 4.743493603563985e-07 0 -0.019459205016611612 6.8254043966790949e-07 0 -0.021437478408425338 0.00017445154146662276 0 -0.023258581859368875 0.00033679572213409425 0 -0.022754098062680569 0.00053498613683554571 0 -0.022592096114501751 0.00033697557072794878 0 -0.022920918340393667 0.0002448098673781421 0 -0.022592096114501751 0.00033697557072794878 0 -0.021437478408425338 0.00017445154146662276 0 -0.022592096114501751 0.00033697557072794878 0 -0.022225427581562453 2.9217140644438568e-05 0 -0.021437478408425338 0.00017445154146662276 0 -0.022567191369293194 0.00053266720961093019 0 -0.021628895524795261 0.00041569217040732421 0 -0.022754098062680569 0.00053498613683554571 0 -0.022592096114501751 0.00033697557072794878 0 -0.022225427581562453 2.9217140644438568e-05 0 -0.021287796410822676 0.00040604258332525877 0 -0.02105733146956917 0.00087058193138650237 0 -0.020313783849690854 0.00032723922584661892 0 -0.020313783849690854 0.00032723922584661892 0 -0.019683773095140408 0.00053327571340929046 0 -0.019564395193604815 3.8538827938861807e-05 0 -0.02105733146956917 0.00087058193138650237 0 -0.020313783849690854 0.00032723922584661892 0 -0.019683773095140408 0.00053327571340929046 0 -0.021628895524795261 0.00041569217040732421 0 -0.02022394261693956 0.00019702319767072693 0 -0.022225427581562453 2.9217140644438568e-05 0 -0.020768519642691444 -0.00022659099130457796 0 -0.021437478408425338 0.00017445154146662276 0 -0.020768519642691444 -0.00022659099130457796 0 -0.019459205016611612 6.8254043966790949e-07 0 -0.018841417011078911 1.2369852086613959e-05 0 -0.020768519642691444 -0.00022659099130457796 0 -0.019459205016611612 6.8254043966790949e-07 0 -0.021437478408425338 0.00017445154146662276 0 -0.02022394261693956 0.00019702319767072693 0 -0.019057699209960109 -4.2581627092120245e-06 0 -0.019459205016611612 6.8254043966790949e-07 0 -0.018841417011078911 1.2369852086613959e-05 0 -0.015255572034815297 -1.5384160420228245e-06 0 -0.017607501229609503 -7.3748903048485206e-05 0 -0.018841417011078911 1.2369852086613959e-05 0 -0.015255572034815297 -1.5384160420228245e-06 0 -0.017607501229609503 -7.3748903048485206e-05 0 -0.017586927631079444 -0.00037268269418082203 0 -0.015255572034815297 -1.5384160420228245e-06 0 -0.017607501229609503 -7.3748903048485206e-05 0 -0.018841417011078911 1.2369852086613959e-05 0 -0.01868630077545513 -0.00015681807035015306 0 -0.018841417011078911 1.2369852086613959e-05 0 -0.019564395193604815 3.8538827938861807e-05 0 -0.01868630077545513 -0.00015681807035015306 0 -0.019683773095140408 0.00053327571340929046 0 -0.018841417011078911 1.2369852086613959e-05 0 -0.019564395193604815 3.8538827938861807e-05 0 -0.020313783849690854 0.00032723922584661892 0 -0.019564395193604815 3.8538827938861807e-05 0 -0.020657937721152542 6.9760108216324014e-05 0 -0.019564395193604815 3.8538827938861807e-05 0 -0.020026058350622902 -0.00026076028228108709 0 -0.020657937721152542 6.9760108216324014e-05 0 -0.019564395193604815 3.8538827938861807e-05 0 -0.01868630077545513 -0.00015681807035015306 0 -0.020026058350622902 -0.00026076028228108709 0 -0.01868630077545513 -0.00015681807035015306 0 -0.01924365613862512 -0.00057395927583654552 0 -0.020026058350622902 -0.00026076028228108709 0 -0.01868630077545513 -0.00015681807035015306 0 -0.01924365613862512 -0.00057395927583654552 0 -0.017586927631079444 -0.00037268269418082203 0 -0.017607501229609503 -7.3748903048485206e-05 0 -0.01868630077545513 -0.00015681807035015306 0 -0.017586927631079444 -0.00037268269418082203 0 -0.01924365613862512 -0.00057395927583654552 0 -0.018421687417444141 -0.00054818656142045189 0 -0.017586927631079444 -0.00037268269418082203 0 -0.019211349373023989 -0.00056226330494783155 0 -0.019203517732310185 -0.0011203415571886012 0 -0.020404602233258455 -0.00089648640721401961 0 -0.020999281967625391 -0.001351287910112616 0 -0.020027598703913786 -0.0018796001384370022 0 -0.01924365613862512 -0.00057395927583654552 0 -0.020404602233258455 -0.00089648640721401961 0 -0.020027598703913786 -0.0018796001384370022 0 -0.020404602233258455 -0.00089648640721401961 0 -0.020999281967625391 -0.001351287910112616 0 -0.021166223742876786 -0.00066310999266842971 0 -0.01924365613862512 -0.00057395927583654552 0 -0.020404602233258455 -0.00089648640721401961 0 -0.020026058350622902 -0.00026076028228108709 0 -0.020404602233258455 -0.00089648640721401961 0 -0.021166223742876786 -0.00066310999266842971 0 -0.020026058350622902 -0.00026076028228108709 0 -0.021166223742876786 -0.00066310999266842971 0 -0.020026058350622902 -0.00026076028228108709 0 -0.021035524288012634 -0.0002056852951607921 0 -0.020026058350622902 -0.00026076028228108709 0 -0.020657937721152542 6.9760108216324014e-05 0 -0.021035524288012634 -0.0002056852951607921 0 -0.021287796410822676 0.00040604258332525877 0 -0.020657937721152542 6.9760108216324014e-05 0 -0.021650145644246537 6.4921507667981652e-05 0 -0.020657937721152542 6.9760108216324014e-05 0 -0.021650145644246537 6.4921507667981652e-05 0 -0.021035524288012634 -0.0002056852951607921 0 -0.021650145644246537 6.4921507667981652e-05 0 -0.021035524288012634 -0.0002056852951607921 0 -0.021664110990459496 -0.00035191001056173658 0 -0.021166223742876786 -0.00066310999266842971 0 -0.021035524288012634 -0.0002056852951607921 0 -0.021664110990459496 -0.00035191001056173658 0 -0.021664110990459496 -0.00035191001056173658 0 -0.022291282078494179 -0.00022034604376935431 0 -0.022020204653305064 -0.00078992326285538838 0 -0.022350008575576737 0.00023506097746167219 0 -0.021650145644246537 6.4921507667981652e-05 0 -0.022291282078494179 -0.00022034604376935431 0 -0.021650145644246537 6.4921507667981652e-05 0 -0.021664110990459496 -0.00035191001056173658 0 -0.022291282078494179 -0.00022034604376935431 0 -0.0227924225067581 3.1117326238645914e-05 0 -0.022291282078494179 -0.00022034604376935431 0 -0.023057648867097196 -0.00025766703112464203 0 -0.0227924225067581 3.1117326238645914e-05 0 -0.022350008575576737 0.00023506097746167219 0 -0.022291282078494179 -0.00022034604376935431 0 -0.022291282078494179 -0.00022034604376935431 0 -0.022664887099354509 -0.00070662184963512804 0 -0.023057648867097196 -0.00025766703112464203 0 -0.022291282078494179 -0.00022034604376935431 0 -0.022664887099354509 -0.00070662184963512804 0 -0.022020204653305064 -0.00078992326285538838 0 -0.022027661821732662 -0.00078924172103191233 0 -0.022521977207284109 -0.0011554422929768292 0 -0.022664887099354509 -0.00070662184963512804 0 -0.022020204653305064 -0.00078992326285538838 0 -0.022596450499412907 -0.0010847708499102261 0 -0.020999281967625391 -0.001351287910112616 0 -0.021166223742876786 -0.00066310999266842971 0 -0.022020204653305064 -0.00078992326285538838 0 -0.021166223742876786 -0.00066310999266842971 0 -0.021664110990459496 -0.00035191001056173658 0 -0.022020204653305064 -0.00078992326285538838 0 -0.020999281967625391 -0.001351287910112616 0 -0.022020204653305064 -0.00078992326285538838 0 -0.021777659820383925 -0.0014754272720994474 0 -0.022020204653305064 -0.00078992326285538838 0 -0.021777659820383925 -0.0014754272720994474 0 -0.0223608171271302 -0.0011775555377151273 0 -0.021777659820383925 -0.0014754272720994474 0 -0.0223608171271302 -0.0011775555377151273 0 -0.022279997596187057 -0.0018729940649653836 0 -0.021777659820383925 -0.0014754272720994474 0 -0.022279997596187057 -0.0018729940649653836 0 -0.02155118305651587 -0.002151504591183189 0 -0.021792848398941654 -0.0016717938329208612 0 -0.021242601360888218 -0.0019543112501493212 0 -0.020999281967625391 -0.001351287910112616 0 -0.021777659820383925 -0.0014754272720994474 0 -0.0210582605968598 -0.0018749615709407275 0 -0.021777659820383925 -0.0014754272720994474 0 -0.02155118305651587 -0.002151504591183189 0 -0.0210582605968598 -0.0018749615709407275 0 -0.021242601360888218 -0.0019543112501493212 0 -0.020747316536139985 -0.0021716770895598672 0 -0.020902508615857573 -0.0017878598434720738 0 -0.021219887365223823 -0.0020191035044199793 0 -0.020977967072043528 -0.0021474658662263722 0 -0.020902508615857573 -0.0017878598434720738 0 -0.020763262947205076 -0.0021737822568645179 0 -0.020663271555793391 -0.002206531753817876 0 -0.020902508615857573 -0.0017878598434720738 0 -0.020977967072043528 -0.0021474658662263722 0 -0.020763262947205076 -0.0021737822568645179 0 -0.021342075236187686 -0.0014445709366198898 0 -0.021219887365223823 -0.0020191035044199793 0 -0.02163686503910758 -0.0018386251507507118 0 -0.021342075236187686 -0.0014445709366198898 0 -0.020902508615857573 -0.0017878598434720738 0 -0.021219887365223823 -0.0020191035044199793 0 -0.021219887365223823 -0.0020191035044199793 0 -0.021146704938915403 -0.0023061342944726069 0 -0.021421718098311768 -0.0023646389265734756 0 -0.021219887365223823 -0.0020191035044199793 0 -0.021146704938915403 -0.0023061342944726069 0 -0.020977967072043528 -0.0021474658662263722 0 -0.021146704938915403 -0.0023061342944726069 0 -0.021265147074044723 -0.0024786050396490163 0 -0.020879431688495039 -0.0023884337912519274 0 -0.016081174983129082 -0.0013694267788691321 0 -0.020910184639379804 -0.0024452428155384469 0 -0.021146704938915403 -0.0023061342944726069 0 -0.021265147074044723 -0.0024786050396490163 0 -0.021421718098311768 -0.0023646389265734756 0 -0.018261464228594634 -0.0013422794932549623 0 -0.019670586584606648 -0.0015056709541834917 0 -0.019519733116886134 -0.0020042900384911948 0 -0.016081174983129082 -0.0013694267788691321 0 -0.015631517371416142 -0.00096498970306737556 0 -0.019670586584606648 -0.0015056709541834917 0 -0.019519733116886134 -0.0020042900384911948 0 -0.019871173365678858 -0.0018322601690467504 0 -0.020879431688495039 -0.0023884337912519274 0 -0.020977967072043528 -0.0021474658662263722 0 -0.020763262947205076 -0.0021737822568645179 0 -0.021146704938915403 -0.0023061342944726069 0 -0.020879431688495039 -0.0023884337912519274 0 -0.020977967072043528 -0.0021474658662263722 0 -0.020879431688495039 -0.0023884337912519274 0 -0.020763262947205076 -0.0021737822568645179 0 -0.020491599834797151 -0.0022687062639703982 0 -0.019519733116886134 -0.0020042900384911948 0 -0.020491599834797151 -0.0022687062639703982 0 -0.020162649842309928 -0.00198189228530773 0 -0.020910184639379804 -0.0024452428155384469 0 -0.020173900046083503 -0.0021363888065221099 0 -0.020763262947205076 -0.0021737822568645179 0 -0.020491599834797151 -0.0022687062639703982 0 -0.020663271555793391 -0.002206531753817876 0 -0.020491599834797151 -0.0022687062639703982 0 -0.020465347104267811 -0.0020939626259974075 0 -0.020162649842309928 -0.00198189228530773 0 -0.014049495309362461 -0.00054093969176287207 0 -0.011430353683852104 -0.00018462148367637114 0 -0.019871173365678858 -0.0018322601690467504 0 -0.020162649842309928 -0.00198189228530773 0 -0.020223251773986733 -0.0018640549277061673 0 -0.015631517371416142 -0.00096498970306737556 0 -0.016272106956565339 -0.0017982570575092261 0 -0.011903036973253074 -0.000605539322308857 0 -0.013156702196851099 -0.00079245124318557292 0 -0.012144721401223031 -0.00035475480213864228 0 -0.019670586584606648 -0.0015056709541834917 0 -0.019871173365678858 -0.0018322601690467504 0 -0.020223251773986733 -0.0018640549277061673 0 -0.019519733116886134 -0.0020042900384911948 0 -0.019871173365678858 -0.0018322601690467504 0 -0.020162649842309928 -0.00198189228530773 0 -0.013133272341343993 -0.00067685983522290649 0 -0.013156702196851099 -0.00079245124318557292 0 -0.012144721401223031 -0.00035475480213864228 0 -0.019670586584606648 -0.0015056709541834917 0 -0.020223251773986733 -0.0018640549277061673 0 -0.020598416046520268 -0.0017864740238742085 0 -0.020465347104267811 -0.0020939626259974075 0 -0.020162649842309928 -0.00198189228530773 0 -0.020223251773986733 -0.0018640549277061673 0 -0.020223251773986733 -0.0018640549277061673 0 -0.020598416046520268 -0.0017864740238742085 0 -0.020502489979307235 -0.0020034999302214265 0 -0.020465347104267811 -0.0020939626259974075 0 -0.020223251773986733 -0.0018640549277061673 0 -0.020502489979307235 -0.0020034999302214265 0 -0.011404205306688826 -0.00021503191395670599 0 -0.011364451786722468 -0.00018123610190154177 0 -0.011388276695371144 -0.00013889646729370694 0 -0.014791366650572471 -0.0014849975181149072 0 -0.015530755040492486 -0.0017098370920380483 0 -0.015495157821007055 -0.0015351609115373038 0 -0.014976911685850238 -0.0012499249712082747 0 -0.016272106956565339 -0.0017982570575092261 0 -0.014976911685850238 -0.0012499249712082747 0 -0.014049495309362461 -0.00054093969176287207 0 -0.014049495309362461 -0.00054093969176287207 0 -0.01277640251370071 6.587358176523501e-05 0 -0.014049495309362461 -0.00054093969176287207 0 -0.016272106956565339 -0.0017982570575092261 0 -0.018299495186750857 -0.0022704230013519257 0 -0.018662919600712039 -0.0022948136444359848 0 -0.018146481112611225 -0.0018086496667399944 0 -0.018662919600712039 -0.0022948136444359848 0 -0.018453528090621413 -0.0012191894248697027 0 -0.018146481112611225 -0.0018086496667399944 0 -0.016272106956565339 -0.0017982570575092261 0 -0.019814696715939377 -0.0018869868245411697 0 -0.020598416046520268 -0.0017864740238742085 0 -0.020502489979307235 -0.0020034999302214265 0 -0.020478045816227336 -0.0023446755029377631 0 -0.020465347104267811 -0.0020939626259974075 0 -0.020502489979307235 -0.0020034999302214265 0 -0.020478045816227336 -0.0023446755029377631 0 -0.020491599834797151 -0.0022687062639703982 0 -0.020478045816227336 -0.0023446755029377631 0 -0.020663271555793391 -0.002206531753817876 0 -0.020491599834797151 -0.0022687062639703982 0 -0.020465347104267811 -0.0020939626259974075 0 -0.020478045816227336 -0.0023446755029377631 0 -0.020478045816227336 -0.0023446755029377631 0 -0.020576318392211943 -0.0020183612571065949 0 -0.020027598703913786 -0.0018796001384370022 0 -0.018453528090621413 -0.0012191894248697027 0 -0.018421687417444141 -0.00054818656142045189 0 -0.01810928917881216 -0.00088096674022556537 0 -0.019814696715939377 -0.0018869868245411697 0 -0.019203517732310185 -0.0011203415571886012 0 -0.020478045816227336 -0.0023446755029377631 0 -0.020663271555793391 -0.002206531753817876 0 -0.020576318392211943 -0.0020183612571065949 0 -0.02155118305651587 -0.002151504591183189 0 -0.020663271555793391 -0.002206531753817876 0 -0.0210582605968598 -0.0018749615709407275 0 -0.020663271555793391 -0.002206531753817876 0 -0.020576318392211943 -0.0020183612571065949 0 -0.0210582605968598 -0.0018749615709407275 0 -0.020999281967625391 -0.001351287910112616 0 -0.020576318392211943 -0.0020183612571065949 0 -0.0210582605968598 -0.0018749615709407275 0 -0.020999281967625391 -0.001351287910112616 0 -0.020576318392211943 -0.0020183612571065949 0 -0.020027598703913786 -0.0018796001384370022 0 -0.018421687417444141 -0.00054818656142045189 0 -0.017586927631079444 -0.00037268269418082203 0 -0.01810928917881216 -0.00088096674022556537 0 -0.017586927631079444 -0.00037268269418082203 0 -0.017551937360972474 -0.0010882244803498144 0 -0.016116988753855973 -0.00050002912376991612 0 -0.018453528090621413 -0.0012191894248697027 0 -0.01810928917881216 -0.00088096674022556537 0 -0.017551937360972474 -0.0010882244803498144 0 -0.017586927631079444 -0.00037268269418082203 0 -0.01810928917881216 -0.00088096674022556537 0 -0.017551937360972474 -0.0010882244803498144 0 -0.018453528090621413 -0.0012191894248697027 0 -0.017551937360972474 -0.0010882244803498144 0 -0.018146481112611225 -0.0018086496667399944 0 -0.017551937360972474 -0.0010882244803498144 0 -0.018146481112611225 -0.0018086496667399944 0 -0.017729396207043394 -0.0021373436287104074 0 -0.011482608670445999 -0.00028398845656223885 0 -0.011703465973448611 -6.2725066954195734e-05 0 -0.011439350531505667 -9.8975469979545699e-05 0 -0.018299495186750857 -0.0022704230013519257 0 -0.018146481112611225 -0.0018086496667399944 0 -0.017729396207043394 -0.0021373436287104074 0 -0.014976911685850238 -0.0012499249712082747 0 -0.014597713715099256 -0.0012127415805556309 0 -0.011404205306688826 -0.00021503191395670599 0 -0.011482608670445999 -0.00028398845656223885 0 -0.011388276695371144 -0.00013889646729370694 0 -0.011482608670445999 -0.00028398845656223885 0 -0.011439350531505667 -9.8975469979545699e-05 0 -0.011388276695371144 -0.00013889646729370694 0 -0.014597713715099256 -0.0012127415805556309 0 -0.014258878911998528 -0.0010846728211640531 0 -0.011482608670445999 -0.00028398845656223885 0 -0.01204178462066173 -0.00052803335065759369 0 -0.011703465973448611 -6.2725066954195734e-05 0 -0.017551937360972474 -0.0010882244803498144 0 -0.017729396207043394 -0.0021373436287104074 0 -0.016441848602456122 -0.0018169430657289708 0 -0.017551937360972474 -0.0010882244803498144 0 -0.016441848602456122 -0.0018169430657289708 0 -0.016116988753855973 -0.00050002912376991612 0 -0.014258878911998528 -0.0010846728211640531 0 -0.01399535469026365 -0.00063547011408499391 0 -0.014014322186175378 -0.00048321139141859626 0 -0.015255572034815297 -1.5384160420228245e-06 0 -0.0121878444196208 -2.113238253864272e-07 0 -0.016441848602456122 -0.0018169430657289708 0 -0.014014322186175378 -0.00048321139141859626 0 -0.016116988753855973 -0.00050002912376991612 0 -0.01204178462066173 -0.00052803335065759369 0 -0.012462034696725596 -3.8223559826732697e-05 0 -0.011703465973448611 -6.2725066954195734e-05 0 -0.01204178462066173 -0.00052803335065759369 0 -0.012462034696725596 -3.8223559826732697e-05 0 -0.014014322186175378 -0.00048321139141859626 0 -0.012462034696725596 -3.8223559826732697e-05 0 -0.014014322186175378 -0.00048321139141859626 0 -0.0121878444196208 -2.113238253864272e-07 0 -0.014014322186175378 -0.00048321139141859626 0 -0.016116988753855973 -0.00050002912376991612 0 -0.015255572034815297 -1.5384160420228245e-06 0 -0.017586927631079444 -0.00037268269418082203 0 -0.016116988753855973 -0.00050002912376991612 0 -0.015255572034815297 -1.5384160420228245e-06 0 -0.024024597120710148 -0.00092147846630187102 0 -0.024304327245701557 -0.00049012552105695496 0 -0.024047835092064755 -0.00043136699473225737 0 -0.024024597120710148 -0.00092147846630187102 0 -0.023717608302785468 -0.00081830295387920189 0 -0.023727977681913363 -0.0010682705514878611 0 -0.024024597120710148 -0.00092147846630187102 0 -0.023717608302785468 -0.00081830295387920189 0 -0.024047835092064755 -0.00043136699473225737 0 -0.023717608302785468 -0.00081830295387920189 0 -0.023727977681913363 -0.0010682705514878611 0 -0.023388008645590885 -0.001037645546494105 0 -0.023727977681913363 -0.0010682705514878611 0 -0.023388008645590885 -0.001037645546494105 0 -0.023575679313954413 -0.0013623310621741003 0 -0.024024597120710148 -0.00092147846630187102 0 -0.02401763000111953 -0.0011537896870990902 0 -0.023898615083053978 -0.0011755654617149785 0 -0.024024597120710148 -0.00092147846630187102 0 -0.023727977681913363 -0.0010682705514878611 0 -0.023898615083053978 -0.0011755654617149785 0 -0.024024597120710148 -0.00092147846630187102 0 -0.02401763000111953 -0.0011537896870990902 0 -0.023970834170526371 -0.0012522950531697336 0 -0.023695238862089445 -0.0013953428032022078 0 -0.023970834170526371 -0.0012522950531697336 0 -0.023824564368493891 -0.0011632178175413714 0 -0.02401763000111953 -0.0011537896870990902 0 -0.023970834170526371 -0.0012522950531697336 0 -0.023824564368493891 -0.0011632178175413714 0 -0.024066582095024842 -0.00095288267447516664 0 -0.024238681240339413 -0.00095463847519023401 0 -0.024706695383587926 -0.00049312985196291572 0 -0.024518888614166186 -0.00067358100473365338 0 -0.024611369601654959 -0.00038830994149267509 0 -0.024518888614166186 -0.00067358100473365338 0 -0.024304327245701557 -0.00049012552105695496 0 -0.024611369601654959 -0.00038830994149267509 0 -0.02400020432547707 -0.00093409687700991471 0 -0.024238681240339413 -0.00095463847519023401 0 -0.024024597120710148 -0.00092147846630187102 0 -0.024518888614166186 -0.00067358100473365338 0 -0.024304327245701557 -0.00049012552105695496 0 -0.024304327245701557 -0.00049012552105695496 0 -0.024611369601654959 -0.00038830994149267509 0 -0.024444165472236015 -0.0002775444789217625 0 -0.024611369601654959 -0.00038830994149267509 0 -0.024598590625294976 -0.00020038925779857934 0 -0.024444165472236015 -0.0002775444789217625 0 -0.02470599549322415 -0.00024785513526100385 0 -0.024611369601654959 -0.00038830994149267509 0 -0.024598590625294976 -0.00020038925779857934 0 -0.024304327245701557 -0.00049012552105695496 0 -0.024444165472236015 -0.0002775444789217625 0 -0.024283175899328633 -0.00022847361001781269 0 -0.024448665808206524 -0.00011177738103665863 0 -0.024598590625294976 -0.00020038925779857934 0 -0.024444165472236015 -0.0002775444789217625 0 -0.024448665808206524 -0.00011177738103665863 0 -0.024444165472236015 -0.0002775444789217625 0 -0.024283175899328633 -0.00022847361001781269 0 -0.024304327245701557 -0.00049012552105695496 0 -0.024283175899328633 -0.00022847361001781269 0 -0.024047835092064755 -0.00043136699473225737 0 -0.023717608302785468 -0.00081830295387920189 0 -0.024047835092064755 -0.00043136699473225737 0 -0.023308386164820432 -0.00055786748413145766 0 -0.024023674833829448 -0.00044184772150518788 0 -0.023651996962146968 -0.00052952909566214839 0 -0.024047835092064755 -0.00043136699473225737 0 -0.024093902712094613 -0.0002016003892853804 0 -0.023980458966681509 -0.00049189732645665493 0 -0.024283175899328633 -0.00022847361001781269 0 -0.024047835092064755 -0.00043136699473225737 0 -0.024093902712094613 -0.0002016003892853804 0 -0.024093902712094613 -0.0002016003892853804 0 -0.023712478607073068 -0.00020035897706961018 0 -0.023980458966681509 -0.00049189732645665493 0 -0.023651996962146968 -0.00052952909566214839 0 -0.023218165482201274 -0.00066053123767930138 0 -0.023712478607073068 -0.00020035897706961018 0 -0.023980458966681509 -0.00049189732645665493 0 -0.023543073532834698 -0.0006466693332584227 0 -0.023269576355270168 1.2291773231447137e-05 0 -0.0227924225067581 3.1117326238645914e-05 0 -0.023057648867097196 -0.00025766703112464203 0 -0.023269576355270168 1.2291773231447137e-05 0 -0.023712478607073068 -0.00020035897706961018 0 -0.023057648867097196 -0.00025766703112464203 0 -0.023712478607073068 -0.00020035897706961018 0 -0.023057648867097196 -0.00025766703112464203 0 -0.023543073532834698 -0.0006466693332584227 0 -0.022701937878604021 -0.00071059648407572197 0 -0.023218165482201274 -0.00066053123767930138 0 -0.022664887099354509 -0.00070662184963512804 0 -0.023057648867097196 -0.00025766703112464203 0 -0.023543073532834698 -0.0006466693332584227 0 -0.022664887099354509 -0.00070662184963512804 0 -0.022921296745374051 -0.00069814188404988679 0 -0.022846719459865172 -0.00096327231884014996 0 -0.022664887099354509 -0.00070662184963512804 0 -0.022596450499412907 -0.0010847708499102261 0 -0.022846719459865172 -0.00096327231884014996 0 -0.022921296745374051 -0.00069814188404988679 0 -0.022846719459865172 -0.00096327231884014996 0 -0.023106276357245926 -0.00087170854532808435 0 -0.022846719459865172 -0.00096327231884014996 0 -0.023106276357245926 -0.00087170854532808435 0 -0.02299833804346018 -0.0011315560542085332 0 -0.022846719459865172 -0.00096327231884014996 0 -0.02299833804346018 -0.0011315560542085332 0 -0.022803736757125933 -0.001214936628387641 0 -0.023062305632310966 -0.001105621230651399 0 -0.022491575357979156 -0.001328651721666426 0 -0.022521977207284109 -0.0011554422929768292 0 -0.022491575357979156 -0.001328651721666426 0 -0.022596450499412907 -0.0010847708499102261 0 -0.022846719459865172 -0.00096327231884014996 0 -0.022803736757125933 -0.001214936628387641 0 -0.023717608302785468 -0.00081830295387920189 0 -0.023308386164820432 -0.00055786748413145766 0 -0.023388008645590885 -0.001037645546494105 0 -0.023308386164820432 -0.00055786748413145766 0 -0.023106276357245926 -0.00087170854532808435 0 -0.023388008645590885 -0.001037645546494105 0 -0.023308386164820432 -0.00055786748413145766 0 -0.022921296745374051 -0.00069814188404988679 0 -0.023106276357245926 -0.00087170854532808435 0 -0.023106276357245926 -0.00087170854532808435 0 -0.02299833804346018 -0.0011315560542085332 0 -0.023388008645590885 -0.001037645546494105 0 -0.02299833804346018 -0.0011315560542085332 0 -0.023388008645590885 -0.001037645546494105 0 -0.023226801186603314 -0.00133895497867666 0 -0.023388008645590885 -0.001037645546494105 0 -0.023226801186603314 -0.00133895497867666 0 -0.023575679313954413 -0.0013623310621741003 0 -0.02299833804346018 -0.0011315560542085332 0 -0.023226801186603314 -0.00133895497867666 0 -0.02297636947418422 -0.0015505534462805955 0 -0.022662344060083852 -0.0015169961782655393 0 -0.023128399240276071 -0.001889524422494163 0 -0.023226801186603314 -0.00133895497867666 0 -0.023118183191559512 -0.0018858079678322219 0 -0.023575679313954413 -0.0013623310621741003 0 -0.023226801186603314 -0.00133895497867666 0 -0.02297636947418422 -0.0015505534462805955 0 -0.023118183191559512 -0.0018858079678322219 0 -0.021792848398941654 -0.0016717938329208612 0 -0.022491575357979156 -0.001328651721666426 0 -0.021342075236187686 -0.0014445709366198898 0 -0.021850643749636519 -0.001165818744648187 0 -0.021948717532685198 -0.0015524670268826921 0 -0.0223608171271302 -0.0011775555377151273 0 -0.022279997596187057 -0.0018729940649653836 0 -0.022888052727841737 -0.0016177513871277719 0 -0.02242337753136275 -0.0015178484885699103 0 -0.021850643749636519 -0.001165818744648187 0 -0.021948717532685198 -0.0015524670268826921 0 -0.02299833804346018 -0.0011315560542085332 0 -0.02297636947418422 -0.0015505534462805955 0 -0.022668734078219618 -0.0012620150895317429 0 -0.022662344060083852 -0.0015169961782655393 0 -0.022491575357979156 -0.001328651721666426 0 -0.02242337753136275 -0.0015178484885699103 0 -0.021948717532685198 -0.0015524670268826921 0 -0.022134940938843557 -0.0021003125668737658 0 -0.021948717532685198 -0.0015524670268826921 0 -0.02163686503910758 -0.0018386251507507118 0 -0.022134940938843557 -0.0021003125668737658 0 -0.021342075236187686 -0.0014445709366198898 0 -0.021948717532685198 -0.0015524670268826921 0 -0.02163686503910758 -0.0018386251507507118 0 -0.02163686503910758 -0.0018386251507507118 0 -0.021855726381123028 -0.0022462169458933152 0 -0.021421718098311768 -0.0023646389265734756 0 -0.021219887365223823 -0.0020191035044199793 0 -0.02163686503910758 -0.0018386251507507118 0 -0.021421718098311768 -0.0023646389265734756 0 -0.02163686503910758 -0.0018386251507507118 0 -0.022134940938843557 -0.0021003125668737658 0 -0.021855726381123028 -0.0022462169458933152 0 -0.021421718098311768 -0.0023646389265734756 0 -0.021329371586304529 -0.0023577377296083333 0 -0.021178056047418282 -0.0023746304649544608 0 -0.022799258362200873 -0.0029002895952510146 0 -0.01843363410308764 -0.0015925908737769131 0 -0.022134940938843557 -0.0021003125668737658 0 -0.021855726381123028 -0.0022462169458933152 0 -0.022261181163497262 -0.0027285945076284072 0 -0.021855726381123028 -0.0022462169458933152 0 -0.021421718098311768 -0.0023646389265734756 0 -0.022261181163497262 -0.0027285945076284072 0 -0.021265147074044723 -0.0024786050396490163 0 -0.021421718098311768 -0.0023646389265734756 0 -0.021329371586304529 -0.0023577377296083333 0 -0.016081174983129082 -0.0013694267788691321 0 -0.01627290198983861 -0.0015119806424719006 0 -0.023118183191559512 -0.0018858079678322219 0 -0.022674251853292894 -0.0023026117405141656 0 -0.023414778205163946 -0.002253820439777478 0 -0.02242337753136275 -0.0015178484885699103 0 -0.023118183191559512 -0.0018858079678322219 0 -0.022674251853292894 -0.0023026117405141656 0 -0.02242337753136275 -0.0015178484885699103 0 -0.022134940938843557 -0.0021003125668737658 0 -0.022674251853292894 -0.0023026117405141656 0 -0.022674251853292894 -0.0023026117405141656 0 -0.023110623356961773 -0.0026406580274580716 0 -0.022261181163497262 -0.0027285945076284072 0 -0.022134940938843557 -0.0021003125668737658 0 -0.022674251853292894 -0.0023026117405141656 0 -0.022261181163497262 -0.0027285945076284072 0 -0.022674251853292894 -0.0023026117405141656 0 -0.023414778205163946 -0.002253820439777478 0 -0.023110623356961773 -0.0026406580274580716 0 -0.023715307635758291 -0.0023469885021141514 0 -0.023648510102178447 -0.0021058631243839341 0 -0.023880214703866486 -0.0019211959979806182 0 -0.023414778205163946 -0.002253820439777478 0 -0.023715307635758291 -0.0023469885021141514 0 -0.023689017051410702 -0.0024749864263254409 0 -0.023414778205163946 -0.002253820439777478 0 -0.023715307635758291 -0.0023469885021141514 0 -0.023648510102178447 -0.0021058631243839341 0 -0.023648510102178447 -0.0021058631243839341 0 -0.023605982906821556 -0.001820214662739282 0 -0.023880214703866486 -0.0019211959979806182 0 -0.023414778205163946 -0.002253820439777478 0 -0.023648510102178447 -0.0021058631243839341 0 -0.023605982906821556 -0.001820214662739282 0 -0.023118183191559512 -0.0018858079678322219 0 -0.023414778205163946 -0.002253820439777478 0 -0.023605982906821556 -0.001820214662739282 0 -0.023118183191559512 -0.0018858079678322219 0 -0.023605982906821556 -0.001820214662739282 0 -0.023575679313954413 -0.0013623310621741003 0 -0.023605982906821556 -0.001820214662739282 0 -0.023880214703866486 -0.0019211959979806182 0 -0.023846850942643601 -0.0014830155214040598 0 -0.023605982906821556 -0.001820214662739282 0 -0.023846850942643601 -0.0014830155214040598 0 -0.023575679313954413 -0.0013623310621741003 0 -0.023846850942643601 -0.0014830155214040598 0 -0.023898615083053978 -0.0011755654617149785 0 -0.023575679313954413 -0.0013623310621741003 0 -0.023846850942643601 -0.0014830155214040598 0 -0.023898615083053978 -0.0011755654617149785 0 -0.024039904260512373 -0.0012077742886567959 0 -0.023727977681913363 -0.0010682705514878611 0 -0.023898615083053978 -0.0011755654617149785 0 -0.023575679313954413 -0.0013623310621741003 0 -0.02401763000111953 -0.0011537896870990902 0 -0.023824564368493891 -0.0011632178175413714 0 -0.024039904260512373 -0.0012077742886567959 0 -0.023824564368493891 -0.0011632178175413714 0 -0.023876473873865527 -0.0010816091771092579 0 -0.024039904260512373 -0.0012077742886567959 0 -0.023736604760429471 -0.0009509325859634114 0 -0.023824564368493891 -0.0011632178175413714 0 -0.023876473873865527 -0.0010816091771092579 0 -0.02401763000111953 -0.0011537896870990902 0 -0.023898615083053978 -0.0011755654617149785 0 -0.024039904260512373 -0.0012077742886567959 0 -0.023880214703866486 -0.0019211959979806182 0 -0.023846850942643601 -0.0014830155214040598 0 -0.024172565732758791 -0.001589724665473354 0 -0.023846850942643601 -0.0014830155214040598 0 -0.024039904260512373 -0.0012077742886567959 0 -0.024172565732758791 -0.001589724665473354 0 -0.024041213691549365 -0.0011880357411031199 0 -0.024063671013710125 -0.0013891750393475245 0 -0.023876473873865527 -0.0010816091771092579 0 -0.024039904260512373 -0.0012077742886567959 0 -0.023993224574731003 -0.00096372970908890801 0 -0.023736604760429471 -0.0009509325859634114 0 -0.023876473873865527 -0.0010816091771092579 0 -0.023993224574731003 -0.00096372970908890801 0 -0.023736604760429471 -0.0009509325859634114 0 -0.023993224574731003 -0.00096372970908890801 0 -0.023938534694681334 -0.00079507280304030794 0 -0.020304177495919933 7.7982665494133868e-07 0 -0.022843696103169251 -0.0010125628135780962 0 -0.017351131585401313 0.00079026698553003288 0 -0.018116921514117444 0.0013832285113952441 0 -0.017517880092645412 0.0017665556199211998 0 -0.023880214703866486 -0.0019211959979806182 0 -0.024172565732758791 -0.001589724665473354 0 -0.024264683197742276 -0.0019486748510844838 0 -0.023715307635758291 -0.0023469885021141514 0 -0.023880214703866486 -0.0019211959979806182 0 -0.024264683197742276 -0.0019486748510844838 0 -0.024063671013710125 -0.0013891750393475245 0 -0.022843696103169251 -0.0010125628135780962 0 -0.023715307635758291 -0.0023469885021141514 0 -0.023634061154623586 -0.0023807121679004593 0 -0.023673880787724519 -0.0023817968168582523 0 -0.024003328850038294 -0.0026186913554243022 0 -0.022843696103169251 -0.0010125628135780962 0 -0.023715307635758291 -0.0023469885021141514 0 -0.023603119270848724 -0.0024557477820777332 0 -0.023634061154623586 -0.0023807121679004593 0 -0.022843696103169251 -0.0010125628135780962 0 -0.017649813310490436 0.00024071942927634364 0 -0.018116921514117444 0.0013832285113952441 0 -0.017517880092645412 0.0017665556199211998 0 -0.017822135801394124 0.002455017360472754 0 -0.023603119270848724 -0.0024557477820777332 0 -0.023634061154623586 -0.0023807121679004593 0 -0.023552134679583368 -0.0023226712038545145 0 -0.014857336126997538 -0.00059638347642831295 0 -0.015230852730453721 -0.00063625369099410127 0 -0.015470767724444537 -0.00012988669164602361 0 -0.014502980695405471 0.0007963218481742638 0 -0.01450361018636534 0.00079292263061212604 0 -0.014499454813986113 0.00078355798521195048 0 -0.017649813310490436 0.00024071942927634364 0 -0.015553092576263418 0.00049091782252082153 0 -0.023634061154623586 -0.0023807121679004593 0 -0.023552134679583368 -0.0023226712038545145 0 -0.023605390989137172 -0.0023138326108220024 0 -0.017649813310490436 0.00024071942927634364 0 -0.01902226840552344 -0.00028676842202279124 0 -0.015553092576263418 0.00049091782252082153 0 -0.01902226840552344 -0.00028676842202279124 0 -0.017270441878199823 -0.00049728143901801272 0 -0.017111611630210459 0.00012112947247205018 0 -0.018126900463560764 2.0287509285918926e-05 0 -0.01902226840552344 -0.00028676842202279124 0 -0.019812895272813744 -0.0016407462383734614 0 -0.015230852730453721 -0.00063625369099410127 0 -0.015470767724444537 -0.00012988669164602361 0 -0.016035696115023392 -0.00071834245116255747 0 -0.023673880787724519 -0.0023817968168582523 0 -0.023605390989137172 -0.0023138326108220024 0 -0.023689017051410702 -0.0024749864263254409 0 -0.023634061154623586 -0.0023807121679004593 0 -0.023673880787724519 -0.0023817968168582523 0 -0.023605390989137172 -0.0023138326108220024 0 -0.015470767724444537 -0.00012988669164602361 0 -0.015970479423868433 0.00045323968826087513 0 -0.016035696115023392 -0.00071834245116255747 0 -0.014857336126997538 -0.00059638347642831295 0 -0.015470767724444537 -0.00012988669164602361 0 -0.014691030963708216 -7.5627043346448981e-06 0 -0.015470767724444537 -0.00012988669164602361 0 -0.014691030963708216 -7.5627043346448981e-06 0 -0.015165521471405196 0.00036312276138255126 0 -0.015553092576263418 0.00049091782252082153 0 -0.01458525072033519 0.00032735762321266395 0 -0.015165521471405196 0.00036312276138255126 0 -0.015169521698540248 0.0009180524920160795 0 -0.014528596960358483 0.00057912997051534588 0 -0.014691030963708216 -7.5627043346448981e-06 0 -0.015165521471405196 0.00036312276138255126 0 -0.014528596960358483 0.00057912997051534588 0 -0.011849879829388432 4.5076416487213627e-05 0 -0.01380373317565464 0.00041217341718566091 0 -0.01458525072033519 0.00032735762321266395 0 -0.01380373317565464 0.00041217341718566091 0 -0.015165521471405196 0.00036312276138255126 0 -0.015169521698540248 0.0009180524920160795 0 -0.015970479423868433 0.00045323968826087513 0 -0.015470767724444537 -0.00012988669164602361 0 -0.015165521471405196 0.00036312276138255126 0 -0.015970479423868433 0.00045323968826087513 0 -0.011849879829388432 4.5076416487213627e-05 0 -0.013606306590747994 0.00011011638930538579 0 -0.010867035441075234 -0.00017789347351596384 0 -0.010893025108070923 -0.00015748281561651193 0 -0.010918624194084469 -0.00021119188414248368 0 -0.008348648112253023 -0.00051611826720072106 0 -0.0088588795001791568 -0.00024462640511084706 0 -0.0084019786246083746 0.00025588227943230886 0 -0.011849879829388432 4.5076416487213627e-05 0 -0.0077994246152638304 -0.00059937550030880196 0 -0.0079119340410301713 -0.00026056141763872517 0 -0.008348648112253023 -0.00051611826720072106 0 -0.0084019786246083746 0.00025588227943230886 0 -0.012657524899911858 -0.0006127355338794632 0 -0.012002971317548964 -0.00022498324460097906 0 -0.012776577565436925 0.00017307059379586577 0 -0.01046560454191809 -0.00050414387096257829 0 -0.011849879829388432 4.5076416487213627e-05 0 -0.010965471849974732 -0.00018023960689429681 0 -0.011024063306284701 -0.00013523164127468223 0 -0.010946600204993745 -0.00011600991730808878 0 -0.010893025108070923 -0.00015748281561651193 0 -0.010965471849974732 -0.00018023960689429681 0 -0.010946600204993745 -0.00011600991730808878 0 -0.010893025108070923 -0.00015748281561651193 0 -0.010918624194084469 -0.00021119188414248368 0 -0.010965471849974732 -0.00018023960689429681 0 -0.010918624194084469 -0.00021119188414248368 0 -0.010965471849974732 -0.00018023960689429681 0 -0.01098365483468965 -0.00025338638744065489 0 -0.010965471849974732 -0.00018023960689429681 0 -0.01098365483468965 -0.00025338638744065489 0 -0.011029852711207428 -0.00020829192298351415 0 -0.013606306590747994 0.00011011638930538579 0 -0.01397524690300005 -0.00019641006837829174 0 -0.015970479423868433 0.00045323968826087513 0 -0.016759349046735442 -1.9004903397805957e-05 0 -0.016035696115023392 -0.00071834245116255747 0 -0.023715307635758291 -0.0023469885021141514 0 -0.023673880787724519 -0.0023817968168582523 0 -0.023689017051410702 -0.0024749864263254409 0 -0.023414778205163946 -0.002253820439777478 0 -0.023689017051410702 -0.0024749864263254409 0 -0.023110623356961773 -0.0026406580274580716 0 -0.016759349046735442 -1.9004903397805957e-05 0 -0.016035696115023392 -0.00071834245116255747 0 -0.017174847061072394 -0.00083066098755855478 0 -0.019812895272813744 -0.0016407462383734614 0 -0.020542150260540109 -0.001776415873028313 0 -0.016759349046735442 -1.9004903397805957e-05 0 -0.017174847061072394 -0.00083066098755855478 0 -0.017527095451865368 -0.00048949385297614319 0 -0.017174847061072394 -0.00083066098755855478 0 -0.017527095451865368 -0.00048949385297614319 0 -0.018283435153201102 -0.00095722930765289663 0 -0.01359675755453177 -0.00011041016974742465 0 -0.01843363410308764 -0.0015925908737769131 0 -0.020542150260540109 -0.001776415873028313 0 -0.01843363410308764 -0.0015925908737769131 0 -0.011049222101867141 -0.00031321165951986931 0 -0.01114835957224576 -0.0003269730966253871 0 -0.011187435538626913 -0.00051981534037686252 0 -0.011049222101867141 -0.00031321165951986931 0 -0.01114835957224576 -0.0003269730966253871 0 -0.01112663842113981 -0.00023447273902680292 0 -0.011049222101867141 -0.00031321165951986931 0 -0.01112663842113981 -0.00023447273902680292 0 -0.011029852711207428 -0.00020829192298351415 0 -0.01397524690300005 -0.00019641006837829174 0 -0.01359675755453177 -0.00011041016974742465 0 -0.01098365483468965 -0.00025338638744065489 0 -0.011049222101867141 -0.00031321165951986931 0 -0.011029852711207428 -0.00020829192298351415 0 -0.012568844892448893 -0.00084508714428149876 0 -0.011853269897089984 -0.00045261575543244741 0 -0.011663491939505386 -0.00069167268569900729 0 -0.011232605945920382 -0.00024846784622306964 0 -0.011214527280524272 -0.00026002764868169448 0 -0.011252702280425783 -0.00026862021981983189 0 -0.011232605945920382 -0.00024846784622306964 0 -0.011252702280425783 -0.00026862021981983189 0 -0.011259542627817044 -0.00023277333158090575 0 -0.011238686046619421 -0.00040291865164447053 0 -0.011214527280524272 -0.00026002764868169448 0 -0.011252702280425783 -0.00026862021981983189 0 -0.016081174983129082 -0.0013694267788691321 0 -0.011041570892017597 -3.261386237769094e-05 0 -0.011853269897089984 -0.00045261575543244741 0 -0.011663491939505386 -0.00069167268569900729 0 -0.011284261583096099 -0.00028041945330523294 0 -0.011041570892017597 -3.261386237769094e-05 0 -0.011490321328216174 -0.00036631896344299712 0 -0.011234160843403734 -0.00025992003367916733 0 -0.011284261583096099 -0.00028041945330523294 0 -0.01122725877899669 -0.00024551211789555397 0 -0.011214527280524272 -0.00026002764868169448 0 -0.011234160843403734 -0.00025992003367916733 0 -0.011284261583096099 -0.00028041945330523294 0 -0.011232605945920382 -0.00024846784622306964 0 -0.011214527280524272 -0.00026002764868169448 0 -0.011234160843403734 -0.00025992003367916733 0 -0.011232605945920382 -0.00024846784622306964 0 -0.011234160843403734 -0.00025992003367916733 0 -0.01122725877899669 -0.00024551211789555397 0 -0.01627290198983861 -0.0015119806424719006 0 -0.01843363410308764 -0.0015925908737769131 0 -0.011663491939505386 -0.00069167268569900729 0 -0.011284261583096099 -0.00028041945330523294 0 -0.011187435538626913 -0.00051981534037686252 0 -0.01114835957224576 -0.0003269730966253871 0 -0.011284261583096099 -0.00028041945330523294 0 -0.011187435538626913 -0.00051981534037686252 0 -0.01112663842113981 -0.00023447273902680292 0 -0.011284261583096099 -0.00028041945330523294 0 -0.011202410340763105 -0.00022161916578971753 0 -0.01114835957224576 -0.0003269730966253871 0 -0.01112663842113981 -0.00023447273902680292 0 -0.011284261583096099 -0.00028041945330523294 0 -0.011284261583096099 -0.00028041945330523294 0 -0.011202410340763105 -0.00022161916578971753 0 -0.01122725877899669 -0.00024551211789555397 0 -0.011202410340763105 -0.00022161916578971753 0 -0.01122725877899669 -0.00024551211789555397 0 -0.011217973918370396 -0.00020746810913391372 0 -0.011217973918370396 -0.00020746810913391372 0 -0.011239754792799648 -0.00022325385589115686 0 -0.011244999267176875 -0.0001959953104161693 0 -0.01122725877899669 -0.00024551211789555397 0 -0.011217973918370396 -0.00020746810913391372 0 -0.011239754792799648 -0.00022325385589115686 0 -0.011232605945920382 -0.00024846784622306964 0 -0.01122725877899669 -0.00024551211789555397 0 -0.011239754792799648 -0.00022325385589115686 0 -0.011232605945920382 -0.00024846784622306964 0 -0.011239754792799648 -0.00022325385589115686 0 -0.011259542627817044 -0.00023277333158090575 0 -0.011181794040430569 -0.00016906348389668369 0 -0.011219633391821844 -0.00017182003042333629 0 -0.011175985700947988 -0.00013208316583883498 0 -0.011217973918370396 -0.00020746810913391372 0 -0.011244999267176875 -0.0001959953104161693 0 -0.011219633391821844 -0.00017182003042333629 0 -0.011217973918370396 -0.00020746810913391372 0 -0.011181794040430569 -0.00016906348389668369 0 -0.011219633391821844 -0.00017182003042333629 0 -0.011202410340763105 -0.00022161916578971753 0 -0.011217973918370396 -0.00020746810913391372 0 -0.011181794040430569 -0.00016906348389668369 0 -0.011181794040430569 -0.00016906348389668369 0 -0.011137999507208075 -0.0001713651534553091 0 -0.0111315028646957 -0.00012690298669301996 0 -0.01112663842113981 -0.00023447273902680292 0 -0.011202410340763105 -0.00022161916578971753 0 -0.011137999507208075 -0.0001713651534553091 0 -0.011202410340763105 -0.00022161916578971753 0 -0.011181794040430569 -0.00016906348389668369 0 -0.011137999507208075 -0.0001713651534553091 0 -0.011086975428708162 -0.00012961188510299035 0 -0.0111315028646957 -0.00012690298669301996 0 -0.011088472376952669 -9.2446305943107452e-05 0 -0.011137999507208075 -0.0001713651534553091 0 -0.011086975428708162 -0.00012961188510299035 0 -0.0111315028646957 -0.00012690298669301996 0 -0.011137999507208075 -0.0001713651534553091 0 -0.011086975428708162 -0.00012961188510299035 0 -0.011081549807324648 -0.00017482614102929458 0 -0.011181794040430569 -0.00016906348389668369 0 -0.0111315028646957 -0.00012690298669301996 0 -0.011175985700947988 -0.00013208316583883498 0 -0.0111315028646957 -0.00012690298669301996 0 -0.011108680591585396 -8.1903801770306144e-05 0 -0.011175985700947988 -0.00013208316583883498 0 -0.010965471849974732 -0.00018023960689429681 0 -0.011029852711207428 -0.00020829192298351415 0 -0.011024063306284701 -0.00013523164127468223 0 -0.011029852711207428 -0.00020829192298351415 0 -0.011081549807324648 -0.00017482614102929458 0 -0.011024063306284701 -0.00013523164127468223 0 -0.01112663842113981 -0.00023447273902680292 0 -0.011137999507208075 -0.0001713651534553091 0 -0.011081549807324648 -0.00017482614102929458 0 -0.01112663842113981 -0.00023447273902680292 0 -0.011029852711207428 -0.00020829192298351415 0 -0.011081549807324648 -0.00017482614102929458 0 -0.011086975428708162 -0.00012961188510299035 0 -0.011024063306284701 -0.00013523164127468223 0 -0.011056512849103065 -8.3690307354438267e-05 0 -0.011086975428708162 -0.00012961188510299035 0 -0.011081549807324648 -0.00017482614102929458 0 -0.011024063306284701 -0.00013523164127468223 0 -0.011024063306284701 -0.00013523164127468223 0 -0.0110077506147914 -7.3608333239756851e-05 0 -0.010946600204993745 -0.00011600991730808878 0 -0.0090079425761254127 -0.00074313945139215442 0 -0.0084406479389138173 -0.0011073579384825968 0 -0.011024063306284701 -0.00013523164127468223 0 -0.0110077506147914 -7.3608333239756851e-05 0 -0.011056512849103065 -8.3690307354438267e-05 0 -0.0110077506147914 -7.3608333239756851e-05 0 -0.011056512849103065 -8.3690307354438267e-05 0 -0.011037727912070319 -4.0478042953839203e-05 0 -0.00698661472957354 -0.0014372811521679897 0 -0.0080940589082216258 -0.00096135776892659723 0 -0.0071422103478336529 -0.00030843399682288616 0 -0.0090079425761254127 -0.00074313945139215442 0 -0.0095676813754131049 -0.00050024095763131658 0 -0.00698661472957354 -0.0014372811521679897 0 -0.0071422103478336529 -0.00030843399682288616 0 -0.0061719401735749286 -0.00083679728308623698 0 -0.00698661472957354 -0.0014372811521679897 0 -0.005948647842488399 -0.0019264676537464884 0 -0.0061719401735749286 -0.00083679728308623698 0 -0.011064978065377895 -5.7379886084247744e-05 0 -0.011108680591585396 -8.1903801770306144e-05 0 -0.011088472376952669 -9.2446305943107452e-05 0 -0.0111315028646957 -0.00012690298669301996 0 -0.011108680591585396 -8.1903801770306144e-05 0 -0.011088472376952669 -9.2446305943107452e-05 0 -0.011086975428708162 -0.00012961188510299035 0 -0.011056512849103065 -8.3690307354438267e-05 0 -0.011088472376952669 -9.2446305943107452e-05 0 -0.011064978065377895 -5.7379886084247744e-05 0 -0.011056512849103065 -8.3690307354438267e-05 0 -0.011088472376952669 -9.2446305943107452e-05 0 -0.011064978065377895 -5.7379886084247744e-05 0 -0.011056512849103065 -8.3690307354438267e-05 0 -0.011037727912070319 -4.0478042953839203e-05 0 -0.011064978065377895 -5.7379886084247744e-05 0 -0.011037727912070319 -4.0478042953839203e-05 0 -0.011038937687051257 -2.2577521474293377e-05 0 -0.011064978065377895 -5.7379886084247744e-05 0 -0.011108680591585396 -8.1903801770306144e-05 0 -0.011038937687051257 -2.2577521474293377e-05 0 -0.011037727912070319 -4.0478042953839203e-05 0 -0.011038937687051257 -2.2577521474293377e-05 0 -0.010986518504213005 1.2352576687209746e-05 0 -0.0095676813754131049 -0.00050024095763131658 0 -0.010166103958501647 -0.00019110561930402867 0 -0.0080940589082216258 -0.00096135776892659723 0 -0.0093108751159909926 -0.00044534356030923603 0 -0.0080501635445176592 0.00045906446764499464 0 -0.0093108751159909926 -0.00044534356030923603 0 -0.0080501635445176592 0.00045906446764499464 0 -0.0090919469745305067 0.0011123198994260502 0 -0.0093108751159909926 -0.00044534356030923603 0 -0.010022740130875596 0.00080898442219881162 0 -0.0090919469745305067 0.0011123198994260502 0 -0.0071422103478336529 -0.00030843399682288616 0 -0.0062598237201637917 0.00029620234407312863 0 -0.0061719401735749286 -0.00083679728308623698 0 -0.0080940589082216258 -0.00096135776892659723 0 -0.0080501635445176592 0.00045906446764499464 0 -0.0071422103478336529 -0.00030843399682288616 0 -0.0080501635445176592 0.00045906446764499464 0 -0.0071422103478336529 -0.00030843399682288616 0 -0.0070106937545107179 0.00066685917043482891 0 -0.0071422103478336529 -0.00030843399682288616 0 -0.0070106937545107179 0.00066685917043482891 0 -0.0062598237201637917 0.00029620234407312863 0 -0.0062598237201637917 0.00029620234407312863 0 -0.0052600004463287499 0.0001533533458377936 0 -0.0055744915387098753 0.00096347230136266653 0 -0.0062598237201637917 0.00029620234407312863 0 -0.0052600004463287499 0.0001533533458377936 0 -0.0061719401735749286 -0.00083679728308623698 0 -0.0052600004463287499 0.0001533533458377936 0 -0.0041409347619244018 1.8679362121783811e-05 0 -0.005194544146439631 -0.00082000318178718321 0 -0.0052600004463287499 0.0001533533458377936 0 -0.0061719401735749286 -0.00083679728308623698 0 -0.005194544146439631 -0.00082000318178718321 0 -0.0016007715123112934 0.00075241273614366701 0 -0.0024848086216578192 0.0017603639126458394 0 -0.0052600004463287499 0.0001533533458377936 0 -0.0041409347619244018 1.8679362121783811e-05 0 -0.0047299724039142448 0.00099201600916133865 0 0.00019961418153929261 0.0019962659847233854 0 0.0004444290312306803 0.0024106329888436934 0 -0.00014088537600085891 0.0024537899661320199 0 0.00019961418153929261 0.0019962659847233854 0 0.00049484540933472795 0.0020492180193363943 0 0.0004444290312306803 0.0024106329888436934 0 0.00049484540933472795 0.0020492180193363943 0 0.0004444290312306803 0.0024106329888436934 0 0.00067936125030763775 0.0022928865825721473 0 -0.0041409347619244018 1.8679362121783811e-05 0 -0.0043722214597218916 -0.00088333226353845562 0 -0.0035511644070143475 -0.00093483093542565045 0 -0.0016007715123112934 0.00075241273614366701 0 -0.004049655849824748 0.0010880235805173482 0 0.00019961418153929261 0.0019962659847233854 0 0.00049484540933472795 0.0020492180193363943 0 0.00042116147909118852 0.0016221117213306006 0 -0.0041409347619244018 1.8679362121783811e-05 0 -0.0043722214597218916 -0.00088333226353845562 0 -0.005194544146439631 -0.00082000318178718321 0 -0.0043722214597218916 -0.00088333226353845562 0 -0.0042406778006923414 -0.001695431035452508 0 -0.0050705881352574918 -0.0016344341079161169 0 -0.004049655849824748 0.0010880235805173482 0 -0.0065396883691065692 -0.0010353546430448542 0 -0.0043722214597218916 -0.00088333226353845562 0 -0.0035511644070143475 -0.00093483093542565045 0 -0.0042406778006923414 -0.001695431035452508 0 -0.0079324393165410255 0.00076159777416014011 0 -0.0084019786246083746 0.00025588227943230886 0 -0.0074742134911294552 -3.4276923772229594e-07 0 -0.0079119340410301713 -0.00026056141763872517 0 -0.0084019786246083746 0.00025588227943230886 0 -0.0074742134911294552 -3.4276923772229594e-07 0 -0.0049340790706713985 -0.0024374173424932155 0 -0.0042406778006923414 -0.001695431035452508 0 -0.0050705881352574918 -0.0016344341079161169 0 -0.0077994246152638304 -0.00059937550030880196 0 -0.0065396883691065692 -0.0010353546430448542 0 -0.0077994246152638304 -0.00059937550030880196 0 -0.0084406479389138173 -0.0011073579384825968 0 -0.0049340790706713985 -0.0024374173424932155 0 -0.0050705881352574918 -0.0016344341079161169 0 -0.005948647842488399 -0.0019264676537464884 0 -0.005948647842488399 -0.0019264676537464884 0 -0.0061719401735749286 -0.00083679728308623698 0 -0.005194544146439631 -0.00082000318178718321 0 -0.0043722214597218916 -0.00088333226353845562 0 -0.0050705881352574918 -0.0016344341079161169 0 -0.005194544146439631 -0.00082000318178718321 0 -0.0050705881352574918 -0.0016344341079161169 0 -0.005948647842488399 -0.0019264676537464884 0 -0.005194544146439631 -0.00082000318178718321 0 -0.0097742537678699604 0.00010404091565005712 0 -0.0121878444196208 -2.113238253864272e-07 0 -0.0083266987183023486 -2.492454340775655e-07 0 -0.0097742537678699604 0.00010404091565005712 0 -0.010841652629061147 6.7023773154437891e-05 0 -0.0121878444196208 -2.113238253864272e-07 0 -0.0097742537678699604 0.00010404091565005712 0 -0.010841652629061147 6.7023773154437891e-05 0 -0.0099727170472800157 0.00013104210912479359 0 -0.010784152378496096 6.0670313975373932e-05 0 -0.010614367612861346 1.8680866934151078e-05 0 -0.010841652629061147 6.7023773154437891e-05 0 -0.0121878444196208 -2.113238253864272e-07 0 -0.011686660891763559 0.00011987862829474682 0 -0.012462034696725596 -3.8223559826732697e-05 0 -0.011686660891763559 0.00011987862829474682 0 -0.011703465973448611 -6.2725066954195734e-05 0 -0.012462034696725596 -3.8223559826732697e-05 0 -0.0121878444196208 -2.113238253864272e-07 0 -0.011686660891763559 0.00011987862829474682 0 -0.010841652629061147 6.7023773154437891e-05 0 -0.011686660891763559 0.00011987862829474682 0 -0.011429634306741602 7.4870843412811169e-05 0 -0.011686660891763559 0.00011987862829474682 0 -0.011530613028168891 5.3417639671755344e-05 0 -0.011429634306741602 7.4870843412811169e-05 0 -0.011686660891763559 0.00011987862829474682 0 -0.011703465973448611 -6.2725066954195734e-05 0 -0.011530613028168891 5.3417639671755344e-05 0 -0.011703465973448611 -6.2725066954195734e-05 0 -0.011439350531505667 -9.8975469979545699e-05 0 -0.011530613028168891 5.3417639671755344e-05 0 -0.011530613028168891 5.3417639671755344e-05 0 -0.011429634306741602 7.4870843412811169e-05 0 -0.011485659126741269 6.4365769330558797e-05 0 -0.011439350531505667 -9.8975469979545699e-05 0 -0.011530613028168891 5.3417639671755344e-05 0 -0.011485659126741269 6.4365769330558797e-05 0 -0.01144058293400343 -0.00010526485888553285 0 -0.011418176490249426 -5.6039761072418801e-05 0 -0.011429634306741602 7.4870843412811169e-05 0 -0.011445299997618931 -8.3751215244303302e-05 0 -0.011485659126741269 6.4365769330558797e-05 0 -0.011429634306741602 7.4870843412811169e-05 0 -0.01129479819716731 -0.00019027386972174417 0 -0.011445299997618931 -8.3751215244303302e-05 0 -0.010841652629061147 6.7023773154437891e-05 0 -0.011429634306741602 7.4870843412811169e-05 0 -0.01129479819716731 -0.00019027386972174417 0 -0.011445299997618931 -8.3751215244303302e-05 0 -0.011527106052337569 -0.00013279583070321821 0 -0.01142223681733749 -0.00024185224845975673 0 -0.01129479819716731 -0.00019027386972174417 0 -0.011445299997618931 -8.3751215244303302e-05 0 -0.01142223681733749 -0.00024185224845975673 0 -0.011304896291549484 -0.00013435969125137829 0 -0.01124218023014717 -0.00011836108500198591 0 -0.011301295763407807 -0.00015647823818225017 0 -0.01124218023014717 -0.00011836108500198591 0 -0.011301295763407807 -0.00015647823818225017 0 -0.011243917662316904 -0.00013919331526047874 0 -0.011301295763407807 -0.00015647823818225017 0 -0.011335687937584439 -0.00016515567462386746 0 -0.011321146236621749 -0.00017805364050037343 0 -0.011301295763407807 -0.00015647823818225017 0 -0.011321146236621749 -0.00017805364050037343 0 -0.011279832170004667 -0.00016749228442277994 0 -0.011445299997618931 -8.3751215244303302e-05 0 -0.011527106052337569 -0.00013279583070321821 0 -0.011485659126741269 6.4365769330558797e-05 0 -0.011301295763407807 -0.00015647823818225017 0 -0.011347389336699473 -0.00015799989791503863 0 -0.011335687937584439 -0.00016515567462386746 0 -0.011412079050285316 -0.00013337101531132539 0 -0.011418176490249426 -5.6039761072418801e-05 0 -0.011304896291549484 -0.00013435969125137829 0 -0.011301295763407807 -0.00015647823818225017 0 -0.011347389336699473 -0.00015799989791503863 0 -0.011439350531505667 -9.8975469979545699e-05 0 -0.011347389336699473 -0.00015799989791503863 0 -0.011361604132722627 -0.00014755221776735166 0 -0.011347389336699473 -0.00015799989791503863 0 -0.011361604132722627 -0.00014755221776735166 0 -0.011335687937584439 -0.00016515567462386746 0 -0.011361604132722627 -0.00014755221776735166 0 -0.011365876826248563 -0.00015790803908986693 0 -0.011388276695371144 -0.00013889646729370694 0 -0.011364451786722468 -0.00018123610190154177 0 -0.011365876826248563 -0.00015790803908986693 0 -0.011388276695371144 -0.00013889646729370694 0 -0.011439350531505667 -9.8975469979545699e-05 0 -0.011361604132722627 -0.00014755221776735166 0 -0.011388276695371144 -0.00013889646729370694 0 -0.011374162965610097 -0.00016972885944015575 0 -0.011345482652778235 -0.0001684291894940213 0 -0.011350236611880825 -0.00016644802513801632 0 -0.011345482652778235 -0.0001684291894940213 0 -0.011350236611880825 -0.00016644802513801632 0 -0.011346445335952695 -0.00017812886783904393 0 -0.011374162965610097 -0.00016972885944015575 0 -0.011365876826248563 -0.00015790803908986693 0 -0.011350236611880825 -0.00016644802513801632 0 -0.011361604132722627 -0.00014755221776735166 0 -0.011365876826248563 -0.00015790803908986693 0 -0.011350236611880825 -0.00016644802513801632 0 -0.011361604132722627 -0.00014755221776735166 0 -0.011350236611880825 -0.00016644802513801632 0 -0.011341202272528682 -0.00017457601821696623 0 -0.011346445335952695 -0.00017812886783904393 0 -0.011341202272528682 -0.00017457601821696623 0 -0.011355390930998702 -0.00020214495676160028 0 -0.011350236611880825 -0.00016644802513801632 0 -0.011346445335952695 -0.00017812886783904393 0 -0.011341202272528682 -0.00017457601821696623 0 -0.011341202272528682 -0.00017457601821696623 0 -0.011321146236621749 -0.00017805364050037343 0 -0.011355390930998702 -0.00020214495676160028 0 -0.011341202272528682 -0.00017457601821696623 0 -0.011335687937584439 -0.00016515567462386746 0 -0.011321146236621749 -0.00017805364050037343 0 -0.011361604132722627 -0.00014755221776735166 0 -0.011341202272528682 -0.00017457601821696623 0 -0.011335687937584439 -0.00016515567462386746 0 -0.011321146236621749 -0.00017805364050037343 0 -0.011311080902772538 -0.00019291550332109687 0 -0.011279832170004667 -0.00016749228442277994 0 -0.011311080902772538 -0.00019291550332109687 0 -0.011355390930998702 -0.00020214495676160028 0 -0.011343516026016227 -0.00021152357522718788 0 -0.011321146236621749 -0.00017805364050037343 0 -0.011311080902772538 -0.00019291550332109687 0 -0.011355390930998702 -0.00020214495676160028 0 -0.011345482652778235 -0.0001684291894940213 0 -0.011355390930998702 -0.00020214495676160028 0 -0.011417302521016196 -0.00022731454193991523 0 -0.011903036973253074 -0.000605539322308857 0 -0.012144721401223031 -0.00035475480213864228 0 -0.011417302521016196 -0.00022731454193991523 0 -0.011430353683852104 -0.00018462148367637114 0 -0.011567911348433055 -0.00025276571018319883 0 -0.011345482652778235 -0.0001684291894940213 0 -0.011346445335952695 -0.00017812886783904393 0 -0.011355390930998702 -0.00020214495676160028 0 -0.011355390930998702 -0.00020214495676160028 0 -0.011417302521016196 -0.00022731454193991523 0 -0.011343516026016227 -0.00021152357522718788 0 -0.011238686046619421 -0.00040291865164447053 0 -0.011903036973253074 -0.000605539322308857 0 -0.011417302521016196 -0.00022731454193991523 0 -0.011238686046619421 -0.00040291865164447053 0 -0.011417302521016196 -0.00022731454193991523 0 -0.011252702280425783 -0.00026862021981983189 0 -0.011417302521016196 -0.00022731454193991523 0 -0.011343516026016227 -0.00021152357522718788 0 -0.011252702280425783 -0.00026862021981983189 0 -0.011343516026016227 -0.00021152357522718788 0 -0.011252702280425783 -0.00026862021981983189 0 -0.011259542627817044 -0.00023277333158090575 0 -0.011239754792799648 -0.00022325385589115686 0 -0.011259542627817044 -0.00023277333158090575 0 -0.011281773969873824 -0.00020119147166685434 0 -0.011343516026016227 -0.00021152357522718788 0 -0.011259542627817044 -0.00023277333158090575 0 -0.011281773969873824 -0.00020119147166685434 0 -0.011311080902772538 -0.00019291550332109687 0 -0.011343516026016227 -0.00021152357522718788 0 -0.011281773969873824 -0.00020119147166685434 0 -0.011311080902772538 -0.00019291550332109687 0 -0.011281773969873824 -0.00020119147166685434 0 -0.011263411669455452 -0.00018073506770562001 0 -0.011281773969873824 -0.00020119147166685434 0 -0.011244999267176875 -0.0001959953104161693 0 -0.011263411669455452 -0.00018073506770562001 0 -0.011239754792799648 -0.00022325385589115686 0 -0.011281773969873824 -0.00020119147166685434 0 -0.011244999267176875 -0.0001959953104161693 0 -0.011244999267176875 -0.0001959953104161693 0 -0.011219633391821844 -0.00017182003042333629 0 -0.011263411669455452 -0.00018073506770562001 0 -0.011219633391821844 -0.00017182003042333629 0 -0.011237985429229274 -0.00015981462094302986 0 -0.011175985700947988 -0.00013208316583883498 0 -0.011219633391821844 -0.00017182003042333629 0 -0.011237985429229274 -0.00015981462094302986 0 -0.011263411669455452 -0.00018073506770562001 0 -0.011311080902772538 -0.00019291550332109687 0 -0.011263411669455452 -0.00018073506770562001 0 -0.011279832170004667 -0.00016749228442277994 0 -0.011237985429229274 -0.00015981462094302986 0 -0.011263411669455452 -0.00018073506770562001 0 -0.011279832170004667 -0.00016749228442277994 0 -0.011301295763407807 -0.00015647823818225017 0 -0.011279832170004667 -0.00016749228442277994 0 -0.011243917662316904 -0.00013919331526047874 0 -0.011237985429229274 -0.00015981462094302986 0 -0.011279832170004667 -0.00016749228442277994 0 -0.011243917662316904 -0.00013919331526047874 0 -0.011237985429229274 -0.00015981462094302986 0 -0.011243917662316904 -0.00013919331526047874 0 -0.011205564272951222 -0.0001336776460089044 0 -0.01124218023014717 -0.00011836108500198591 0 -0.011243917662316904 -0.00013919331526047874 0 -0.011166814869737193 -0.00010282626957882758 0 -0.011243917662316904 -0.00013919331526047874 0 -0.011205564272951222 -0.0001336776460089044 0 -0.011166814869737193 -0.00010282626957882758 0 -0.011175985700947988 -0.00013208316583883498 0 -0.011205564272951222 -0.0001336776460089044 0 -0.011166814869737193 -0.00010282626957882758 0 -0.011108680591585396 -8.1903801770306144e-05 0 -0.011175985700947988 -0.00013208316583883498 0 -0.011166814869737193 -0.00010282626957882758 0 -0.011237985429229274 -0.00015981462094302986 0 -0.011175985700947988 -0.00013208316583883498 0 -0.011205564272951222 -0.0001336776460089044 0 -0.011108680591585396 -8.1903801770306144e-05 0 -0.011166814869737193 -0.00010282626957882758 0 -0.011099731894548439 -5.1952783225022199e-05 0 -0.01124218023014717 -0.00011836108500198591 0 -0.011166814869737193 -0.00010282626957882758 0 -0.011176220244526724 -7.9176581204727347e-05 0 -0.011166814869737193 -0.00010282626957882758 0 -0.011176220244526724 -7.9176581204727347e-05 0 -0.011099731894548439 -5.1952783225022199e-05 0 -0.011176220244526724 -7.9176581204727347e-05 0 -0.011114956485961133 -2.8365109642478785e-05 0 -0.011099731894548439 -5.1952783225022199e-05 0 -0.011114956485961133 -2.8365109642478785e-05 0 -0.011023795467328351 5.7304468025598485e-06 0 -0.011099731894548439 -5.1952783225022199e-05 0 -0.011108680591585396 -8.1903801770306144e-05 0 -0.011038937687051257 -2.2577521474293377e-05 0 -0.011099731894548439 -5.1952783225022199e-05 0 -0.011038937687051257 -2.2577521474293377e-05 0 -0.011023795467328351 5.7304468025598485e-06 0 -0.011099731894548439 -5.1952783225022199e-05 0 -0.011038937687051257 -2.2577521474293377e-05 0 -0.010986518504213005 1.2352576687209746e-05 0 -0.011023795467328351 5.7304468025598485e-06 0 -0.010986518504213005 1.2352576687209746e-05 0 -0.01075866617099323 0.00022201101457297554 0 -0.010960598684016378 6.2278864875901042e-05 0 -0.010986518504213005 1.2352576687209746e-05 0 -0.011023795467328351 5.7304468025598485e-06 0 -0.010960598684016378 6.2278864875901042e-05 0 -0.0093108751159909926 -0.00044534356030923603 0 -0.01075866617099323 0.00022201101457297554 0 -0.010022740130875596 0.00080898442219881162 0 -0.010166103958501647 -0.00019110561930402867 0 -0.010745588626309525 0.00018863662954557656 0 -0.011137684721156463 0.00044526483852178023 0 -0.01075866617099323 0.00022201101457297554 0 -0.01064603806787344 0.001120726191722944 0 -0.011137684721156463 0.00044526483852178023 0 -0.01075866617099323 0.00022201101457297554 0 -0.011203138672104861 0.00010243061799591354 0 -0.01075866617099323 0.00022201101457297554 0 -0.010960598684016378 6.2278864875901042e-05 0 -0.011203138672104861 0.00010243061799591354 0 -0.011114956485961133 -2.8365109642478785e-05 0 -0.011023795467328351 5.7304468025598485e-06 0 -0.010960598684016378 6.2278864875901042e-05 0 -0.010960598684016378 6.2278864875901042e-05 0 -0.011147221606902846 7.1874322037946228e-06 0 -0.011203138672104861 0.00010243061799591354 0 -0.011114956485961133 -2.8365109642478785e-05 0 -0.010960598684016378 6.2278864875901042e-05 0 -0.011147221606902846 7.1874322037946228e-06 0 -0.011417128414819741 -4.1022941823622438e-06 0 -0.011463126681136027 0.00017927312927419172 0 -0.011532633803315935 -0.00015962852350406449 0 -0.011147221606902846 7.1874322037946228e-06 0 -0.011203138672104861 0.00010243061799591354 0 -0.011238427394234503 -7.0084827141791178e-05 0 -0.011417128414819741 -4.1022941823622438e-06 0 -0.011203138672104861 0.00010243061799591354 0 -0.011427239076503349 -0.00011511531289464001 0 -0.011417128414819741 -4.1022941823622438e-06 0 -0.011203138672104861 0.00010243061799591354 0 -0.011463126681136027 0.00017927312927419172 0 -0.011137684721156463 0.00044526483852178023 0 -0.011203138672104861 0.00010243061799591354 0 -0.011463126681136027 0.00017927312927419172 0 -0.0093098259160854895 0.00017223267031013636 0 -0.0095888698344021236 0.00027880927388738947 0 -0.011137684721156463 0.00044526483852178023 0 -0.011463126681136027 0.00017927312927419172 0 -0.011407415073462773 0.00091576986090190096 0 -0.0072869946270774696 1.1794071034530518e-05 0 -0.0071066373168580856 -0.00024812708009956913 0 -0.0073456468343723247 -0.00025094390815236939 0 -0.0072869946270774696 1.1794071034530518e-05 0 -0.0068977730790965646 -3.9694531493596099e-05 0 -0.0071066373168580856 -0.00024812708009956913 0 -0.0099090741586561944 -0.00035171490364843629 0 -0.0084771845045737704 -0.00058305849249457129 0 -0.0093098259160854895 0.00017223267031013636 0 -0.0099695843065321331 -4.1880924279373157e-05 0 -0.0072869946270774696 1.1794071034530518e-05 0 -0.0072260848265144669 0.00028332661320823796 0 -0.007195585118932043 0.00025408229451317268 0 -0.0072869946270774696 1.1794071034530518e-05 0 -0.007195585118932043 0.00025408229451317268 0 -0.0068977730790965646 -3.9694531493596099e-05 0 -0.011467818571155365 -0.00024651698897930601 0 -0.01147568829020539 -0.000231116548953219 0 -0.01142223681733749 -0.00024185224845975673 0 -0.011467818571155365 -0.00024651698897930601 0 -0.011464112269126719 -0.00025467780421874588 0 -0.01142223681733749 -0.00024185224845975673 0 -0.0099090741586561944 -0.00035171490364843629 0 -0.010969770788997841 -0.00021400651553263742 0 -0.011467818571155365 -0.00024651698897930601 0 -0.011477903516297593 -0.00023620712860230242 0 -0.01147568829020539 -0.000231116548953219 0 -0.0099695843065321331 -4.1880924279373157e-05 0 -0.010842489606600758 0.00020252420742088338 0 -0.011467337291441046 -0.00025191767453044679 0 -0.011467818571155365 -0.00024651698897930601 0 -0.011477903516297593 -0.00023620712860230242 0 -0.011466943324736613 -0.00025110739194795432 0 -0.011467818571155365 -0.00024651698897930601 0 -0.011464112269126719 -0.00025467780421874588 0 -0.0099695843065321331 -4.1880924279373157e-05 0 -0.01017117921252743 -0.00021080549714973213 0 -0.0099695843065321331 -4.1880924279373157e-05 0 -0.0099090741586561944 -0.00035171490364843629 0 -0.011417128414819741 -4.1022941823622438e-06 0 -0.011532633803315935 -0.00015962852350406449 0 -0.011427239076503349 -0.00011511531289464001 0 -0.011114956485961133 -2.8365109642478785e-05 0 -0.011147221606902846 7.1874322037946228e-06 0 -0.011238427394234503 -7.0084827141791178e-05 0 -0.011203138672104861 0.00010243061799591354 0 -0.011427239076503349 -0.00011511531289464001 0 -0.011466174315882528 -0.00026912583356786029 0 -0.011216321944744588 9.4372569728872868e-05 0 -0.011347362880618928 -0.0001534156606541053 0 -0.011176220244526724 -7.9176581204727347e-05 0 -0.011114956485961133 -2.8365109642478785e-05 0 -0.011238427394234503 -7.0084827141791178e-05 0 -0.011532633803315935 -0.00015962852350406449 0 -0.011427239076503349 -0.00011511531289464001 0 -0.011477903516297593 -0.00023620712860230242 0 -0.011427239076503349 -0.00011511531289464001 0 -0.011466174315882528 -0.00026912583356786029 0 -0.011477903516297593 -0.00023620712860230242 0 -0.011466174315882528 -0.00026912583356786029 0 -0.011477903516297593 -0.00023620712860230242 0 -0.01147568829020539 -0.000231116548953219 0 -0.011304896291549484 -0.00013435969125137829 0 -0.01124218023014717 -0.00011836108500198591 0 -0.011238427394234503 -7.0084827141791178e-05 0 -0.011412079050285316 -0.00013337101531132539 0 -0.011347362880618928 -0.0001534156606541053 0 -0.01124218023014717 -0.00011836108500198591 0 -0.011176220244526724 -7.9176581204727347e-05 0 -0.011238427394234503 -7.0084827141791178e-05 0 -0.011527106052337569 -0.00013279583070321821 0 -0.01147568829020539 -0.000231116548953219 0 -0.01142223681733749 -0.00024185224845975673 0 -0.011527106052337569 -0.00013279583070321821 0 -0.011466174315882528 -0.00026912583356786029 0 -0.01147568829020539 -0.000231116548953219 0 -0.010614367612861346 1.8680866934151078e-05 0 -0.010969770788997841 -0.00021400651553263742 0 -0.0099727170472800157 0.00013104210912479359 0 -0.01015845617003704 -5.5917656541324697e-05 0 -0.0098431718759921169 -9.3167849423142363e-05 0 -0.0098431718759921169 -9.3167849423142363e-05 0 -0.0097318681592972901 -0.00046124877223187847 0 -0.0094420710708505995 -0.00026387099801429456 0 -0.0098431718759921169 -9.3167849423142363e-05 0 -0.0097318681592972901 -0.00046124877223187847 0 -0.010071939133702692 -0.00044345899115890423 0 -0.010581394177096927 -0.00043020859118568007 0 -0.01015845617003704 -5.5917656541324697e-05 0 -0.010071939133702692 -0.00044345899115890423 0 -0.01015845617003704 -5.5917656541324697e-05 0 -0.0098431718759921169 -9.3167849423142363e-05 0 -0.010071939133702692 -0.00044345899115890423 0 -0.010071939133702692 -0.00044345899115890423 0 -0.01014612444882238 -0.0010119790143316096 0 -0.0097161115936724406 -0.00086841952536435873 0 -0.010581394177096927 -0.00043020859118568007 0 -0.010071939133702692 -0.00044345899115890423 0 -0.01014612444882238 -0.0010119790143316096 0 -0.0097161115936724406 -0.00086841952536435873 0 -0.0092459107399607936 -0.0010801965152158468 0 -0.0094969892700879788 -0.0019071556598664924 0 -0.01014612444882238 -0.0010119790143316096 0 -0.0097161115936724406 -0.00086841952536435873 0 -0.0094969892700879788 -0.0019071556598664924 0 -0.0097318681592972901 -0.00046124877223187847 0 -0.010071939133702692 -0.00044345899115890423 0 -0.0097161115936724406 -0.00086841952536435873 0 -0.0097318681592972901 -0.00046124877223187847 0 -0.0097161115936724406 -0.00086841952536435873 0 -0.0094427514596287145 -0.00068467754601402747 0 -0.0094427514596287145 -0.00068467754601402747 0 -0.0092459107399607936 -0.0010801965152158468 0 -0.0090536032031336717 -0.00071820188412854633 0 -0.0091995796978311308 -0.0010401181421650296 0 -0.0086665983434312827 -0.00042129748761975209 0 -0.0094427514596287145 -0.00068467754601402747 0 -0.0090536032031336717 -0.00071820188412854633 0 -0.0094420710708505995 -0.00026387099801429456 0 -0.0097161115936724406 -0.00086841952536435873 0 -0.0094427514596287145 -0.00068467754601402747 0 -0.0092459107399607936 -0.0010801965152158468 0 -0.0085623490590371401 -0.0011178031129432315 0 -0.0092459107399607936 -0.0010801965152158468 0 -0.0094969892700879788 -0.0019071556598664924 0 -0.0085623490590371401 -0.0011178031129432315 0 -0.0092459107399607936 -0.0010801965152158468 0 -0.0082358664391358003 -9.1352778795564214e-05 0 -0.0060446164440849407 -4.3234255931286173e-05 0 -0.0065259922218445544 1.8279616809157357e-07 0 -0.0057190207852220809 0.00010623885086662368 0 -0.0060446164440849407 -4.3234255931286173e-05 0 -0.0065259922218445544 1.8279616809157357e-07 0 -0.0075855074828712456 -5.5069197886564437e-07 0 -0.0085623490590371401 -0.0011178031129432315 0 -0.007589410857591964 -1.250907651177661e-06 0 -0.0082358664391358003 -9.1352778795564214e-05 0 -0.007589410857591964 -1.250907651177661e-06 0 -0.0082358664391358003 -9.1352778795564214e-05 0 -0.0083206559240614902 1.187642637632474e-06 0 -0.0073918958903641287 -0.00057084663856481004 0 -0.0075863536736222315 6.8769720736649986e-08 0 -0.0086665983434312827 -0.00042129748761975209 0 -0.0083230619853814306 -2.556282008466825e-08 0 -0.0090536032031336717 -0.00071820188412854633 0 -0.0083266987183023486 -2.492454340775655e-07 0 -0.0094420710708505995 -0.00026387099801429456 0 -0.0097318681592972901 -0.00046124877223187847 0 -0.0094427514596287145 -0.00068467754601402747 0 -0.0094420710708505995 -0.00026387099801429456 0 -0.0097742537678699604 0.00010404091565005712 0 -0.0098431718759921169 -9.3167849423142363e-05 0 -0.0094420710708505995 -0.00026387099801429456 0 -0.0097742537678699604 0.00010404091565005712 0 -0.0099727170472800157 0.00013104210912479359 0 -0.0098431718759921169 -9.3167849423142363e-05 0 -0.0097742537678699604 0.00010404091565005712 0 -0.0083266987183023486 -2.492454340775655e-07 0 -0.0094420710708505995 -0.00026387099801429456 0 -0.0039026883699266484 -3.9374957858169661e-06 0 -0.0023592216795760017 -0.00025159230566309317 0 -0.0028429260859052464 2.9444592577749685e-06 0 -0.0023592216795760017 -0.00025159230566309317 0 -0.0011192438899418863 -0.00034194650270173162 0 -0.0017637902739497764 6.1954147428781761e-06 0 -0.0023592216795760017 -0.00025159230566309317 0 -0.0016284574905809617 -0.00097301562522405876 0 -0.0011192438899418863 -0.00034194650270173162 0 -0.0016284574905809617 -0.00097301562522405876 0 -0.0027270065323217333 -0.001512184987191042 0 -0.0015309493073313023 -0.001786616296099447 0 -0.0040957821186375955 -0.00058022695124888748 0 -0.0026215122468380703 -0.0013817477319670514 0 -0.0023592216795760017 -0.00025159230566309317 0 -0.0016284574905809617 -0.00097301562522405876 0 -0.0027270065323217333 -0.001512184987191042 0 -0.0039026883699266484 -3.9374957858169661e-06 0 -0.0023592216795760017 -0.00025159230566309317 0 -0.0027270065323217333 -0.001512184987191042 0 -0.0039078935949823906 1.6044796450485679e-08 0 -0.0045343957014794883 -4.0626900790579974e-06 0 -0.0044027841414571757 -2.1131743782751307e-08 0 -0.0039059421921855686 -5.0528594915403952e-07 0 -0.0040957821186375955 -0.00058022695124888748 0 -0.0040957821186375955 -0.00058022695124888748 0 -0.004405214957270899 -1.3866074397423397e-07 0 -0.0053245030644350939 -0.00016710630327246978 0 -0.0044060014405293453 -8.2713677170875976e-07 0 -0.0054068267048730072 4.0798507290888914e-05 0 -0.0044060014405293453 -8.2713677170875976e-07 0 -0.0054068267048730072 4.0798507290888914e-05 0 -0.0054651933499452517 4.8433615805775118e-07 0 -0.0054068267048730072 4.0798507290888914e-05 0 -0.0054651933499452517 4.8433615805775118e-07 0 -0.0057190207852220809 0.00010623885086662368 0 -0.0065259922218445544 1.8279616809157357e-07 0 -0.0054651933499452517 4.8433615805775118e-07 0 -0.0057190207852220809 0.00010623885086662368 0 -0.0057190207852220809 0.00010623885086662368 0 -0.0057384527610681128 7.9520171584359023e-05 0 -0.0057421183618544484 7.9664375171296375e-05 0 -0.0057444330962035791 0.00010793870093240803 0 -0.0056380490165136568 -0.0006016108170096581 0 -0.0060446164440849407 -4.3234255931286173e-05 0 -0.0057190207852220809 0.00010623885086662368 0 -0.0057421183618544484 7.9664375171296375e-05 0 -0.0073918958903641287 -0.00057084663856481004 0 -0.0072093365096775955 -0.00063439892266128819 0 -0.0056380490165136568 -0.0006016108170096581 0 -0.0072093365096775955 -0.00063439892266128819 0 -0.0054068267048730072 4.0798507290888914e-05 0 -0.0057190207852220809 0.00010623885086662368 0 -0.0058519252648477939 0.00011971303487297745 0 -0.0040957821186375955 -0.00058022695124888748 0 -0.0056380490165136568 -0.0006016108170096581 0 -0.0042717024409708619 -0.00084804806945255461 0 -0.004000701653111346 -0.0011557558780514866 0 -0.0040082797579669037 -0.00091347435417893255 0 -0.0053245030644350939 -0.00016710630327246978 0 -0.0054068267048730072 4.0798507290888914e-05 0 -0.0058519252648477939 0.00011971303487297745 0 -0.0040082797579669037 -0.00091347435417893255 0 -0.0037372852708123668 -0.000977990984674308 0 -0.0038847253539726527 -0.0011372646504527689 0 -0.0026215122468380703 -0.0013817477319670514 0 -0.0024343383384287732 -0.0014317134043747874 0 -0.0024343383384287732 -0.0014317134043747874 0 -0.0056563896202738665 -0.00071306499745541526 0 -0.004000701653111346 -0.0011557558780514866 0 -0.0040082797579669037 -0.00091347435417893255 0 -0.0038847253539726527 -0.0011372646504527689 0 -0.0064591765373452131 -0.00061636509901100893 0 -0.0061655581215923358 -0.00056309729554493242 0 -0.0063326310725154477 -0.00075697319684758107 0 -0.0084771845045737704 -0.00058305849249457129 0 -0.0072093365096775955 -0.00063439892266128819 0 -0.0066666697924575944 -0.00039792849950760382 0 -0.0066146905114785126 -0.00033519977001504614 0 -0.006865682447100405 -0.00029645901550218629 0 -0.0068977730790965646 -3.9694531493596099e-05 0 -0.0066146905114785126 -0.00033519977001504614 0 -0.006865682447100405 -0.00029645901550218629 0 -0.0056380490165136568 -0.0006016108170096581 0 -0.0056563896202738665 -0.00071306499745541526 0 -0.0056563896202738665 -0.00071306499745541526 0 -0.0072093365096775955 -0.00063439892266128819 0 -0.006865682447100405 -0.00029645901550218629 0 -0.0070403253655629194 -0.00045903379037990055 0 -0.0071066373168580856 -0.00024812708009956913 0 -0.0066666697924575944 -0.00039792849950760382 0 -0.006865682447100405 -0.00029645901550218629 0 -0.0070403253655629194 -0.00045903379037990055 0 -0.0068977730790965646 -3.9694531493596099e-05 0 -0.006865682447100405 -0.00029645901550218629 0 -0.0071066373168580856 -0.00024812708009956913 0 -0.0056563896202738665 -0.00071306499745541526 0 -0.0043845177605112712 -0.001152556296872982 0 -0.0043083722718682844 -0.00094153634060520656 0 -0.0044355672751028316 -0.0010839786214983187 0 -0.0040235080238419521 -0.0010095261576284339 0 -0.0024343383384287732 -0.0014317134043747874 0 -0.0043845177605112712 -0.001152556296872982 0 -0.00061240170898968081 -0.0019523235416779683 0 -0.00077695173138548625 -0.0010554397247923468 0 0.0002272142030452871 -0.00087783645003834665 0 -0.0022015377269562334 -0.0020297437101780163 0 -0.0014282953310950509 -0.0011619476055285708 0 -0.00135323731143662 -0.0022394148097481035 0 -0.0024343383384287732 -0.0014317134043747874 0 -0.00046306241675235792 -0.0010837621611219867 0 -0.0015309493073313023 -0.001786616296099447 0 -0.00061240170898968081 -0.0019523235416779683 0 -0.00077695173138548625 -0.0010554397247923468 0 -0.0016284574905809617 -0.00097301562522405876 0 -0.0015309493073313023 -0.001786616296099447 0 -0.00077695173138548625 -0.0010554397247923468 0 -0.00077695173138548625 -0.0010554397247923468 0 -0.0011192438899418863 -0.00034194650270173162 0 -0.00033033052215175477 -0.00046219767629507958 0 -0.0016284574905809617 -0.00097301562522405876 0 -0.00077695173138548625 -0.0010554397247923468 0 -0.0011192438899418863 -0.00034194650270173162 0 -0.00077695173138548625 -0.0010554397247923468 0 -0.00033033052215175477 -0.00046219767629507958 0 0.0002272142030452871 -0.00087783645003834665 0 -0.00033033052215175477 -0.00046219767629507958 0 0.0002272142030452871 -0.00087783645003834665 0 0.0001711681374118517 -6.2010370083098902e-05 0 0.0002272142030452871 -0.00087783645003834665 0 0.00076608384620881426 -0.00014041451163346528 0 0.0001711681374118517 -6.2010370083098902e-05 0 -0.00046306241675235792 -0.0010837621611219867 0 6.9854893383842204e-05 -0.00021254920780745571 0 -0.00025386616101477611 -0.001163275746446017 0 0.00033787095439336289 -0.00075042716026168458 0 -0.00061415986687191353 -0.00029110919026912398 0 -0.00025386616101477611 -0.001163275746446017 0 -0.0014282953310950509 -0.0011619476055285708 0 -0.00061415986687191353 -0.00029110919026912398 0 -0.00025386616101477611 -0.001163275746446017 0 -0.00038785752210009951 -0.0015708603954838127 0 -0.00085493012285530129 -0.0015472231251331468 0 -0.00025386616101477611 -0.001163275746446017 0 -0.00038785752210009951 -0.0015708603954838127 0 -8.0212403905027056e-05 -0.0018132583129401457 0 -0.00038785752210009951 -0.0015708603954838127 0 -0.00025225492745713614 -0.0018441512544103214 0 -8.0212403905027056e-05 -0.0018132583129401457 0 -0.00038785752210009951 -0.0015708603954838127 0 -0.00085493012285530129 -0.0015472231251331468 0 -0.00025225492745713614 -0.0018441512544103214 0 -0.00085493012285530129 -0.0015472231251331468 0 -0.0014282953310950509 -0.0011619476055285708 0 -0.00135323731143662 -0.0022394148097481035 0 -0.00025386616101477611 -0.001163275746446017 0 -0.00085493012285530129 -0.0015472231251331468 0 -0.0014282953310950509 -0.0011619476055285708 0 -0.00085493012285530129 -0.0015472231251331468 0 -0.00135323731143662 -0.0022394148097481035 0 -0.00025225492745713614 -0.0018441512544103214 0 -0.0076697833786586568 -0.00031786497438572006 0 -0.0043845177605112712 -0.001152556296872982 0 -0.0071881261449266622 -0.0004206579380937965 0 -0.0070403253655629194 -0.00045903379037990055 0 -0.0071066373168580856 -0.00024812708009956913 0 -0.0071881261449266622 -0.0004206579380937965 0 -0.0071066373168580856 -0.00024812708009956913 0 -0.0073456468343723247 -0.00025094390815236939 0 -0.0095888698344021236 0.00027880927388738947 0 -0.0063545673158501579 0.00044939957030767219 0 -0.00135323731143662 -0.0022394148097481035 0 -0.00025225492745713614 -0.0018441512544103214 0 -0.00016964880154980174 -0.0020245251778703214 0 -0.0043845177605112712 -0.001152556296872982 0 -0.0063545673158501579 0.00044939957030767219 0 -0.0071881261449266622 -0.0004206579380937965 0 -0.0070064038083718508 -0.00047125518195832527 0 -0.0074271444261392525 -0.00052384350746389628 0 -0.0071881261449266622 -0.0004206579380937965 0 -0.0073456468343723247 -0.00025094390815236939 0 -0.0074271444261392525 -0.00052384350746389628 0 -0.0019974575387460953 -0.00086591472844271616 0 -0.0033062090474249633 -0.00089954217019904456 0 -0.00025225492745713614 -0.0018441512544103214 0 -0.00016964880154980174 -0.0020245251778703214 0 -0.00011020071238637631 -0.0018141257347168032 0 -0.011407415073462773 0.00091576986090190096 0 -0.01112040123903137 0.0020148262197924411 0 -0.010698823537922956 0.0016291132267555249 0 -0.0063545673158501579 0.00044939957030767219 0 -0.011568079093062702 0.0016943512559721525 0 -0.0063545673158501579 0.00044939957030767219 0 -0.0033062090474249633 -0.00089954217019904456 0 -0.010915852851361386 0.0020335356056335732 0 -0.010303205456872581 0.0021830637700798123 0 -0.010854797093743592 0.0022621267764356386 0 -0.01112040123903137 0.0020148262197924411 0 -0.010303205456872581 0.0021830637700798123 0 -0.010698823537922956 0.0016291132267555249 0 -0.010303205456872581 0.0021830637700798123 0 -0.010698823537922956 0.0016291132267555249 0 -0.0099442502934484131 0.0017033719811449166 0 -0.01075866617099323 0.00022201101457297554 0 -0.01064603806787344 0.001120726191722944 0 -0.010022740130875596 0.00080898442219881162 0 -0.011137684721156463 0.00044526483852178023 0 -0.011407415073462773 0.00091576986090190096 0 -0.01064603806787344 0.001120726191722944 0 -0.011407415073462773 0.00091576986090190096 0 -0.010698823537922956 0.0016291132267555249 0 -0.01064603806787344 0.001120726191722944 0 -0.010698823537922956 0.0016291132267555249 0 -0.01064603806787344 0.001120726191722944 0 -0.0099442502934484131 0.0017033719811449166 0 -0.01064603806787344 0.001120726191722944 0 -0.010022740130875596 0.00080898442219881162 0 -0.0099442502934484131 0.0017033719811449166 0 -0.010022740130875596 0.00080898442219881162 0 -0.0099442502934484131 0.0017033719811449166 0 -0.0090919469745305067 0.0011123198994260502 0 -0.0099442502934484131 0.0017033719811449166 0 -0.0097684413981555477 0.0025788411039173263 0 -0.0091210572171714598 0.0020090369190271322 0 -0.010303205456872581 0.0021830637700798123 0 -0.0099442502934484131 0.0017033719811449166 0 -0.0097684413981555477 0.0025788411039173263 0 0.00082338448574893525 -0.00073922572459245335 0 0.00021133852101702105 -0.00087027174963319356 0 0.00047859699478198435 -0.00025253317954362486 0 -0.0048704101774552713 0.0010433671284365985 0 -0.0033062090474249633 -0.00089954217019904456 0 -0.0033062090474249633 -0.00089954217019904456 0 0.00084708231039478852 -0.00048679101520773224 0 -0.010303205456872581 0.0021830637700798123 0 -0.0097684413981555477 0.0025788411039173263 0 -0.010854797093743592 0.0022621267764356386 0 -0.00025386616101477611 -0.001163275746446017 0 -8.0212403905027056e-05 -0.0018132583129401457 0 0.00033787095439336289 -0.00075042716026168458 0 0.00047859699478198435 -0.00025253317954362486 0 0.00093285618058416245 -0.00035484832167362556 0 0.00089305240504450865 -4.1269130154108554e-05 0 0.00082338448574893525 -0.00073922572459245335 0 0.00047859699478198435 -0.00025253317954362486 0 0.00093285618058416245 -0.00035484832167362556 0 0.00089305240504450865 -4.1269130154108554e-05 0 0.00071713417598989867 0.0002866627974498887 0 0.0010921782719158152 0.00022993961823354259 0 0.00047859699478198435 -0.00025253317954362486 0 0.00089305240504450865 -4.1269130154108554e-05 0 0.00071713417598989867 0.0002866627974498887 0 0.00033787095439336289 -0.00075042716026168458 0 0.00017276368860453034 -0.00011704244939117549 0 0.00071713417598989867 0.0002866627974498887 0 0.00084708231039478852 -0.00048679101520773224 0 0.00058097827295079186 0.00021960320095776171 0 0.00033787095439336289 -0.00075042716026168458 0 0.00017276368860453034 -0.00011704244939117549 0 -0.00061415986687191353 -0.00029110919026912398 0 0.00017276368860453034 -0.00011704244939117549 0 0.00024847016988017279 0.00050231096872041059 0 0.00071713417598989867 0.0002866627974498887 0 0.00024847016988017279 0.00050231096872041059 0 0.00072685476023331053 0.00059221275245219924 0 0.00071713417598989867 0.0002866627974498887 0 0.00072685476023331053 0.00059221275245219924 0 0.00071713417598989867 0.0002866627974498887 0 0.001005673335296159 0.00056481703729383275 0 0.00071713417598989867 0.0002866627974498887 0 0.001005673335296159 0.00056481703729383275 0 0.0010921782719158152 0.00022993961823354259 0 0.001005673335296159 0.00056481703729383275 0 0.00092945685048427431 0.0010104747728514228 0 0.0012936608749146833 0.00077819454963948785 0 0.00072685476023331053 0.00059221275245219924 0 0.001005673335296159 0.00056481703729383275 0 0.00092945685048427431 0.0010104747728514228 0 0.0021506626791158189 0.0007017941730705253 0 0.0028283785844313352 0.0011523530774222026 0 0.0018287644847378931 0.00095372207367003443 0 0.0022589709440025908 0.00087168398156180682 0 0.0025086989064105245 0.00033674633579199736 0 0.0024878742601134626 0.00077959506616283292 0 0.0027185625014555575 0.0010706887545009053 0 0.002610750016107785 0.0011437658091156182 0 0.0024878742601134626 0.00077959506616283292 0 0.0023632007435990419 0.00079977802611955185 0 0.002610750016107785 0.0011437658091156182 0 0.0024878742601134626 0.00077959506616283292 0 0.0027185625014555575 0.0010706887545009053 0 0.0024745979103422771 0.0011320894883550233 0 0.00201590722456851 0.00077188024502923048 0 0.0020720924878155308 0.00068370749326214996 0 0.0022933745120033303 0.00058521428160586073 0 0.0024878742601134626 0.00077959506616283292 0 0.0023632007435990419 0.00079977802611955185 0 0.002610750016107785 0.0011437658091156182 0 0.0023632007435990419 0.00079977802611955185 0 0.0020720924878155308 0.00068370749326214996 0 0.0022933745120033303 0.00058521428160586073 0 0.0023632007435990419 0.00079977802611955185 0 0.0020720924878155308 0.00068370749326214996 0 0.002610750016107785 0.0011437658091156182 0 0.0027185625014555575 0.0010706887545009053 0 0.0026460326959039473 0.00094525251871410438 0 0.0027185625014555575 0.0010706887545009053 0 0.0026460326959039473 0.00094525251871410438 0 0.0025429437547994154 0.0012527620014687866 0 0.0026944377702191359 0.001363115693632245 0 0.0027185625014555575 0.0010706887545009053 0 0.0025429437547994154 0.0012527620014687866 0 0.00024847016988017279 0.00050231096872041059 0 0.00072685476023331053 0.00059221275245219924 0 0.00092945685048427431 0.0010104747728514228 0 0.001170529929655562 0.00036646312928763423 0 0.0016219394210003483 0.00088318595734582044 0 0.0011051256835711361 0.00074653848249101376 0 0.0018287644847378931 0.00095372207367003443 0 0.0019090204813514034 0.00085248968792820724 0 0.00061251535975998287 0.00039553519574425498 0 0.0018287644847378931 0.00095372207367003443 0 0.001170529929655562 0.00036646312928763423 0 0.0011051256835711361 0.00074653848249101376 0 0.00090797786818274924 0.00050731746111917417 0 0.0026460326959039473 0.00094525251871410438 0 0.0022658390428928385 0.0010838586104872647 0 0.0019068514336163963 0.0005810648916119459 0 0.0011051256835711361 0.00074653848249101376 0 0.00090797786818274924 0.00050731746111917417 0 0.00058786732405489083 0.0005827654920872252 0 0.0019090204813514034 0.00085248968792820724 0 0.001212269996722687 0.00059861729058869597 0 0.0022672943718797687 0.0015536637130255878 0 0.0022658390428928385 0.0010838586104872647 0 0.0025429437547994154 0.0012527620014687866 0 0.0026460326959039473 0.00094525251871410438 0 0.0022658390428928385 0.0010838586104872647 0 0.0025429437547994154 0.0012527620014687866 0 0.0022672943718797687 0.0015536637130255878 0 0.0022658390428928385 0.0010838586104872647 0 0.0018077011133549984 0.0014444340435464053 0 0.001212269996722687 0.00059861729058869597 0 0.00042642537012101378 0.00043625592066303661 0 0.0018077011133549984 0.0014444340435464053 0 0.0019068514336163963 0.0005810648916119459 0 0.00078363235690413248 0.0009502678818843497 0 0.0022658390428928385 0.0010838586104872647 0 0.0018077011133549984 0.0014444340435464053 0 0.0019068514336163963 0.0005810648916119459 0 0.00042360661913617281 0.00034038164969311691 0 0.00077253237559466684 0.00033831622309475867 0 0.00076608384620881426 -0.00014041451163346528 0 0.00058786732405489083 0.0005827654920872252 0 0.00042360661913617281 0.00034038164969311691 0 0.00031433365834297364 0.00043384057895760398 0 0.00058786732405489083 0.0005827654920872252 0 0.00042360661913617281 0.00034038164969311691 0 0.00077253237559466684 0.00033831622309475867 0 0.00061251535975998287 0.00039553519574425498 0 6.9854893383842204e-05 -0.00021254920780745571 0 0.001170529929655562 0.00036646312928763423 0 0.00090797786818274924 0.00050731746111917417 0 0.00077253237559466684 0.00033831622309475867 0 0.00090797786818274924 0.00050731746111917417 0 0.00058786732405489083 0.0005827654920872252 0 0.00077253237559466684 0.00033831622309475867 0 0.001170529929655562 0.00036646312928763423 0 0.00077253237559466684 0.00033831622309475867 0 0.00076608384620881426 -0.00014041451163346528 0 0.00017276368860453034 -0.00011704244939117549 0 0.00024847016988017279 0.00050231096872041059 0 -0.00061415986687191353 -0.00029110919026912398 0 0.00042360661913617281 0.00034038164969311691 0 0.00076608384620881426 -0.00014041451163346528 0 0.0001711681374118517 -6.2010370083098902e-05 0 0.0001711681374118517 -6.2010370083098902e-05 0 -0.00037274602338723727 1.9353672056591902e-05 0 7.8925584907212326e-05 0.00023100968333966966 0 -0.00033033052215175477 -0.00046219767629507958 0 0.0001711681374118517 -6.2010370083098902e-05 0 -0.00037274602338723727 1.9353672056591902e-05 0 -0.0011192438899418863 -0.00034194650270173162 0 -0.00093528822570298554 0.00024465596566305661 0 -0.00037274602338723727 1.9353672056591902e-05 0 -0.0011192438899418863 -0.00034194650270173162 0 -0.00033033052215175477 -0.00046219767629507958 0 -0.00037274602338723727 1.9353672056591902e-05 0 -0.00093528822570298554 0.00024465596566305661 0 -0.00037274602338723727 1.9353672056591902e-05 0 -0.00026342516209402301 0.00033622162511274807 0 -0.00093528822570298554 0.00024465596566305661 0 -0.00026342516209402301 0.00033622162511274807 0 -0.00040337149760821751 0.00040899523171620205 0 -0.00026342516209402301 0.00033622162511274807 0 0.00031433365834297364 0.00043384057895760398 0 0.00021968206133578174 0.00066042303584791084 0 -0.00026342516209402301 0.00033622162511274807 0 0.00031433365834297364 0.00043384057895760398 0 7.8925584907212326e-05 0.00023100968333966966 0 0.00042360661913617281 0.00034038164969311691 0 0.0001711681374118517 -6.2010370083098902e-05 0 7.8925584907212326e-05 0.00023100968333966966 0 -0.00037274602338723727 1.9353672056591902e-05 0 -0.00026342516209402301 0.00033622162511274807 0 7.8925584907212326e-05 0.00023100968333966966 0 0.00042360661913617281 0.00034038164969311691 0 0.00031433365834297364 0.00043384057895760398 0 7.8925584907212326e-05 0.00023100968333966966 0 0.0019068514336163963 0.0005810648916119459 0 0.00031433365834297364 0.00043384057895760398 0 0.00078363235690413248 0.0009502678818843497 0 0.00031433365834297364 0.00043384057895760398 0 0.00021968206133578174 0.00066042303584791084 0 0.00078363235690413248 0.0009502678818843497 0 0.00021968206133578174 0.00066042303584791084 0 0.00078363235690413248 0.0009502678818843497 0 0.00010941899270917806 0.00098277644248510984 0 0.0018077011133549984 0.0014444340435464053 0 0.00078363235690413248 0.0009502678818843497 0 0.0006520553877404847 0.0015063753370685076 0 0.00068138776828721172 0.0021631550824939925 0 0.0018077011133549984 0.0014444340435464053 0 0.0006520553877404847 0.0015063753370685076 0 0.00078363235690413248 0.0009502678818843497 0 0.0006520553877404847 0.0015063753370685076 0 0.00010941899270917806 0.00098277644248510984 0 -7.1227297693932183e-05 0.0011342993391174256 0 -0.00010921091728285337 0.00065186584050826624 0 9.5681501942337013e-05 0.0020699529290998005 0 0.0006520553877404847 0.0015063753370685076 0 0.00010941899270917806 0.00098277644248510984 0 -8.3567874308864126e-05 2.8467332554324814e-05 0 -2.2136856454962309e-05 0.00022435133638183956 0 -0.00032835724339152144 0.00038526816355529 0 -2.2136856454962309e-05 0.00022435133638183956 0 -0.00028184534983848102 0.0003252574556175989 0 -0.00032835724339152144 0.00038526816355529 0 -0.00026342516209402301 0.00033622162511274807 0 -0.00032835724339152144 0.00038526816355529 0 -0.00040337149760821751 0.00040899523171620205 0 -0.00021710583670145526 0.00033810551540508699 0 -0.00010921091728285337 0.00065186584050826624 0 -0.00026342516209402301 0.00033622162511274807 0 0.00021968206133578174 0.00066042303584791084 0 0.00010941899270917806 0.00098277644248510984 0 -0.00028184534983848102 0.0003252574556175989 0 -0.00032835724339152144 0.00038526816355529 0 -0.00040337149760821751 0.00040899523171620205 0 -0.00028184534983848102 0.0003252574556175989 0 -0.00040337149760821751 0.00040899523171620205 0 -0.00063050362194048374 0.00017894359443514275 0 -0.00063050362194048374 0.00017894359443514275 0 -0.00025180073915496076 0.00023325989395669237 0 -0.00045698685298413536 0.00014851427573040881 0 -0.00028184534983848102 0.0003252574556175989 0 -0.00063050362194048374 0.00017894359443514275 0 -0.00025180073915496076 0.00023325989395669237 0 -2.2136856454962309e-05 0.00022435133638183956 0 -0.00025180073915496076 0.00023325989395669237 0 0.00011674654409917444 9.9439034445755081e-05 0 0.00043618035004504947 1.4949057436278637e-05 0 -2.2136856454962309e-05 0.00022435133638183956 0 0.00011674654409917444 9.9439034445755081e-05 0 -2.2136856454962309e-05 0.00022435133638183956 0 -0.00028184534983848102 0.0003252574556175989 0 -0.00025180073915496076 0.00023325989395669237 0 -0.00025180073915496076 0.00023325989395669237 0 0.00011674654409917444 9.9439034445755081e-05 0 -0.00045698685298413536 0.00014851427573040881 0 -3.595713333412958e-05 1.5080300415153988e-07 0 -0.00045698685298413536 0.00014851427573040881 0 -0.0014383963515565991 7.0683785978287154e-07 0 0.00011674654409917444 9.9439034445755081e-05 0 -3.595713333412958e-05 1.5080300415153988e-07 0 -0.00045698685298413536 0.00014851427573040881 0 -0.00063050362194048374 0.00017894359443514275 0 -0.00045698685298413536 0.00014851427573040881 0 -0.0014383963515565991 7.0683785978287154e-07 0 -0.00063050362194048374 0.00017894359443514275 0 -0.0014383963515565991 7.0683785978287154e-07 0 -0.0010533291242592353 -0.00011851951022016911 0 -0.0014383963515565991 7.0683785978287154e-07 0 -0.0010533291242592353 -0.00011851951022016911 0 -0.0028388442057227905 -1.2931802028502613e-06 0 -0.00056441250220182291 0.000399804376439383 0 -0.0013852513034017524 0.00023486057045947324 0 -0.00093528822570298554 0.00024465596566305661 0 -0.00040337149760821751 0.00040899523171620205 0 -0.0017109630118998206 0.00053373229071548411 0 -0.00040337149760821751 0.00040899523171620205 0 -0.00063050362194048374 0.00017894359443514275 0 -0.0010533291242592353 -0.00011851951022016911 0 -0.0011192438899418863 -0.00034194650270173162 0 -0.00093528822570298554 0.00024465596566305661 0 -0.0017637902739497764 6.1954147428781761e-06 0 -0.00093528822570298554 0.00024465596566305661 0 -0.0017109630118998206 0.00053373229071548411 0 -0.0017637902739497764 6.1954147428781761e-06 0 -0.0023592216795760017 -0.00025159230566309317 0 -0.0017637902739497764 6.1954147428781761e-06 0 -0.0028429260859052464 2.9444592577749685e-06 0 -0.0017109630118998206 0.00053373229071548411 0 -0.0017637902739497764 6.1954147428781761e-06 0 -0.0028429260859052464 2.9444592577749685e-06 0 -0.0013852513034017524 0.00023486057045947324 0 -0.0028401843798135933 4.5064619474508143e-08 0 0.0016400923081481883 0.0025897803777815494 0 0.0017034482085799699 0.0026093794818229485 0 0.0017394573586724117 0.0025825446073761619 0 -0.0009101174243422071 0.0029102149701709891 0 0.0012061244081692439 0.0029160480191971561 0 0.0016400923081481883 0.0025897803777815494 0 0.0016669304584843981 0.0026189788382263482 0 0.0017034482085799699 0.0026093794818229485 0 -0.00079714487207346819 0.0034192839212408106 0 6.2395017768303323e-05 0.0032585590317362203 0 -0.00054361953028888861 0.0030318176984743838 0 -0.0009101174243422071 0.0029102149701709891 0 -0.0029889185483552199 0.0026665401652115348 0 -0.006021048204595523 0.0021679270449493269 0 -0.005710385175726836 0.0026202082840947934 0 -0.0053245104542811467 0.0019778576483577021 0 -0.0052531089828341962 0.0036239317768993803 0 -0.005169655267669427 0.0034956015800339042 0 -0.0062812399278278632 0.0023966822085928386 0 -0.006021048204595523 0.0021679270449493269 0 -0.005710385175726836 0.0026202082840947934 0 -0.0059140684712858166 0.0029587358431955174 0 -0.0009101174243422071 0.0029102149701709891 0 -0.00068383042121652766 0.0025044964817226038 0 0.0016400923081481883 0.0025897803777815494 0 0.0016669304584843981 0.0026189788382263482 0 0.0016246887242443043 0.0026129707715378233 0 -0.00068383042121652766 0.0025044964817226038 0 0.0039034459636288952 0.0029277965400862564 0 0.0061986366837527857 0.0028012011774363882 0 0.0061356782921182006 0.0028910019016868791 0 0.0056391911409058868 0.0023281981283572472 0 0.0061986366837527857 0.0028012011774363882 0 0.0060832119566417882 0.0024837922548952428 0 0.006324601654492828 0.0020098021246387522 0 0.0016669304584843981 0.0026189788382263482 0 0.0016246887242443043 0.0026129707715378233 0 0.0016763632627767176 0.0026453669953634476 0 8.7599642857813843e-05 0.0015649314201228927 0 -0.00068383042121652766 0.0025044964817226038 0 0.0061986366837527857 0.0028012011774363882 0 0.0060832119566417882 0.0024837922548952428 0 0.0056391911409058868 0.0023281981283572472 0 0.0060832119566417882 0.0024837922548952428 0 0.0056391911409058868 0.0023281981283572472 0 0.006324601654492828 0.0020098021246387522 0 0.0016669304584843981 0.0026189788382263482 0 0.0016763632627767176 0.0026453669953634476 0 0.001711563519317248 0.0026379358580414436 0 0.0016669304584843981 0.0026189788382263482 0 0.0017034482085799699 0.0026093794818229485 0 0.001711563519317248 0.0026379358580414436 0 0.0017034482085799699 0.0026093794818229485 0 0.001711563519317248 0.0026379358580414436 0 0.00176717204049822 0.0026245428579411193 0 0.0017034482085799699 0.0026093794818229485 0 0.00176717204049822 0.0026245428579411193 0 0.0017394573586724117 0.0025825446073761619 0 0.0012061244081692439 0.0029160480191971561 0 0.001264516073372212 0.002833178366688993 0 0.00176717204049822 0.0026245428579411193 0 0.001768970900778017 0.0025968723194547847 0 0.0017394573586724117 0.0025825446073761619 0 0.001768970900778017 0.0025968723194547847 0 0.0017394573586724117 0.0025825446073761619 0 0.0017800717956403091 0.0026147084930899242 0 6.2395017768303323e-05 0.0032585590317362203 0 -7.3928771355859951e-05 0.0028804455150329895 0 0.00032033334805348188 0.0027855942248675445 0 -7.3928771355859951e-05 0.0028804455150329895 0 0.00032033334805348188 0.0027855942248675445 0 -0.00014088537600085891 0.0024537899661320199 0 0.00032033334805348188 0.0027855942248675445 0 0.00087129546922634974 0.0026287280922659161 0 0.00091774868667740712 0.0030574067974522782 0 6.2395017768303323e-05 0.0032585590317362203 0 0.00032033334805348188 0.0027855942248675445 0 0.00091774868667740712 0.0030574067974522782 0 0.00032033334805348188 0.0027855942248675445 0 0.0004444290312306803 0.0024106329888436934 0 0.00087129546922634974 0.0026287280922659161 0 0.00032033334805348188 0.0027855942248675445 0 0.0004444290312306803 0.0024106329888436934 0 -0.00014088537600085891 0.0024537899661320199 0 -0.0052600004463287499 0.0001533533458377936 0 -0.0047299724039142448 0.00099201600916133865 0 -0.0055744915387098753 0.00096347230136266653 0 -0.0047299724039142448 0.00099201600916133865 0 -0.0053245104542811467 0.0019778576483577021 0 -0.0055744915387098753 0.00096347230136266653 0 6.2395017768303323e-05 0.0032585590317362203 0 -7.3928771355859951e-05 0.0028804455150329895 0 -0.00054361953028888861 0.0030318176984743838 0 -7.3928771355859951e-05 0.0028804455150329895 0 -0.00014088537600085891 0.0024537899661320199 0 -0.00054361953028888861 0.0030318176984743838 0 -0.0024848086216578192 0.0017603639126458394 0 -0.0029889185483552199 0.0026665401652115348 0 -0.006021048204595523 0.0021679270449493269 0 -0.0053245104542811467 0.0019778576483577021 0 -0.0063086140033662957 0.001396106641330963 0 -0.0053245104542811467 0.0019778576483577021 0 -0.0055744915387098753 0.00096347230136266653 0 -0.0063086140033662957 0.001396106641330963 0 -0.0062598237201637917 0.00029620234407312863 0 -0.0055744915387098753 0.00096347230136266653 0 -0.0063086140033662957 0.001396106641330963 0 -0.0070106937545107179 0.00066685917043482891 0 -0.0063086140033662957 0.001396106641330963 0 -0.0073602022456453406 0.0014626339800837547 0 -0.0070106937545107179 0.00066685917043482891 0 -0.0062598237201637917 0.00029620234407312863 0 -0.0063086140033662957 0.001396106641330963 0 -0.0080501635445176592 0.00045906446764499464 0 -0.0070106937545107179 0.00066685917043482891 0 -0.0073602022456453406 0.0014626339800837547 0 -0.0074994433343751332 0.0023586658022121693 0 -0.0073602022456453406 0.0014626339800837547 0 -0.0062812399278278632 0.0023966822085928386 0 -0.0070867433581345085 0.00166090985367252 0 -0.0070962195654982515 0.0020666684541458084 0 -0.006021048204595523 0.0021679270449493269 0 -0.0063086140033662957 0.001396106641330963 0 -0.0066552353463522219 0.002195008361625938 0 -0.0063086140033662957 0.001396106641330963 0 -0.0073602022456453406 0.0014626339800837547 0 -0.0066552353463522219 0.002195008361625938 0 -0.0080501635445176592 0.00045906446764499464 0 -0.0090919469745305067 0.0011123198994260502 0 -0.0083307442808169801 0.0017854958780006839 0 -0.0080501635445176592 0.00045906446764499464 0 -0.0073602022456453406 0.0014626339800837547 0 -0.0083307442808169801 0.0017854958780006839 0 -0.0074994433343751332 0.0023586658022121693 0 -0.0083307442808169801 0.0017854958780006839 0 -0.0084263740517154431 0.0029136816705664825 0 -0.0074994433343751332 0.0023586658022121693 0 -0.0073602022456453406 0.0014626339800837547 0 -0.0083307442808169801 0.0017854958780006839 0 -0.0090919469745305067 0.0011123198994260502 0 -0.0083307442808169801 0.0017854958780006839 0 -0.0091210572171714598 0.0020090369190271322 0 -0.0083307442808169801 0.0017854958780006839 0 -0.0091210572171714598 0.0020090369190271322 0 -0.0084263740517154431 0.0029136816705664825 0 -0.0099442502934484131 0.0017033719811449166 0 -0.0090919469745305067 0.0011123198994260502 0 -0.0091210572171714598 0.0020090369190271322 0 -0.0048704101774552713 0.0010433671284365985 0 -0.0033668425059087191 0.0011705382686327123 0 -0.0097684413981555477 0.0025788411039173263 0 -0.0091210572171714598 0.0020090369190271322 0 -0.0084263740517154431 0.0029136816705664825 0 0.00082338448574893525 -0.00073922572459245335 0 0.00093285618058416245 -0.00035484832167362556 0 0.0013956451561333225 -0.00058488213362842961 0 -0.0033668425059087191 0.0011705382686327123 0 -0.0028561919744738841 0.0013956513798815283 0 0.0013956451561333225 -0.00058488213362842961 0 0.0016653058014919147 -0.00013560239549431058 0 0.0019126095463733663 -0.000431319796001637 0 0.0013956451561333225 -0.00058488213362842961 0 0.0016653058014919147 -0.00013560239549431058 0 0.0012405141995693167 -0.00010527693582053584 0 0.00093285618058416245 -0.00035484832167362556 0 0.0013956451561333225 -0.00058488213362842961 0 0.0012405141995693167 -0.00010527693582053584 0 0.00093285618058416245 -0.00035484832167362556 0 0.00089305240504450865 -4.1269130154108554e-05 0 0.0012405141995693167 -0.00010527693582053584 0 -0.006021048204595523 0.0021679270449493269 0 -0.0059140684712858166 0.0029587358431955174 0 -0.0066552353463522219 0.002195008361625938 0 -0.0052531089828341962 0.0036239317768993803 0 -0.0062812399278278632 0.0023966822085928386 0 -0.0069588386903765981 0.0032796224011388268 0 -0.00068383042121652766 0.0025044964817226038 0 -0.0070962195654982515 0.0020666684541458084 0 -0.0074994433343751332 0.0023586658022121693 0 -0.0084263740517154431 0.0029136816705664825 0 -0.0069588386903765981 0.0032796224011388268 0 -0.0074994433343751332 0.0023586658022121693 0 -0.0062812399278278632 0.0023966822085928386 0 -0.0069588386903765981 0.0032796224011388268 0 0.0016653058014919147 -0.00013560239549431058 0 0.0019126095463733663 -0.000431319796001637 0 0.0021417414436486928 0.0001322033335607208 0 0.0023766641371230934 -0.00030998637618177269 0 0.0019126095463733663 -0.000431319796001637 0 0.0021417414436486928 0.0001322033335607208 0 8.7599642857813843e-05 0.0015649314201228927 0 0.0052946714509919997 0.00059197535104446922 0 8.7599642857813843e-05 0.0015649314201228927 0 -0.0028561919744738841 0.0013956513798815283 0 0.0061986366837527857 0.0028012011774363882 0 0.006989258739556024 0.0016571584650270197 0 0.006324601654492828 0.0020098021246387522 0 0.0016653058014919147 -0.00013560239549431058 0 0.0021417414436486928 0.0001322033335607208 0 0.0015850731190802105 0.00029510231430897289 0 0.0052946714509919997 0.00059197535104446922 0 0.0043267359424795865 0.00086909939333072749 0 0.0021417414436486928 0.0001322033335607208 0 0.0015850731190802105 0.00029510231430897289 0 0.0018848910515693927 0.00062975339793049968 0 0.006989258739556024 0.0016571584650270197 0 0.0067163718560384151 0.00047849313175760713 0 0.0077434890832171963 0.0005465457238636105 0 0.006989258739556024 0.0016571584650270197 0 0.0067163718560384151 0.00047849313175760713 0 0.0060598393894830726 0.0013305840841630766 0 0.00089305240504450865 -4.1269130154108554e-05 0 0.0012405141995693167 -0.00010527693582053584 0 0.0010921782719158152 0.00022993961823354259 0 0.0012405141995693167 -0.00010527693582053584 0 0.0015850731190802105 0.00029510231430897289 0 0.0010921782719158152 0.00022993961823354259 0 0.0016653058014919147 -0.00013560239549431058 0 0.0012405141995693167 -0.00010527693582053584 0 0.0015850731190802105 0.00029510231430897289 0 0.0015850731190802105 0.00029510231430897289 0 0.0013676688198833104 0.00057791489779696525 0 0.0016281474023346922 0.00075360702065132299 0 0.0015850731190802105 0.00029510231430897289 0 0.0016281474023346922 0.00075360702065132299 0 0.0018848910515693927 0.00062975339793049968 0 0.0015850731190802105 0.00029510231430897289 0 0.0010921782719158152 0.00022993961823354259 0 0.0013676688198833104 0.00057791489779696525 0 0.001005673335296159 0.00056481703729383275 0 0.0010921782719158152 0.00022993961823354259 0 0.0013676688198833104 0.00057791489779696525 0 0.00092945685048427431 0.0010104747728514228 0 0.0012936608749146833 0.00077819454963948785 0 0.0016908423558302627 0.00095484406850999124 0 0.001005673335296159 0.00056481703729383275 0 0.0012936608749146833 0.00077819454963948785 0 0.0013676688198833104 0.00057791489779696525 0 0.0012936608749146833 0.00077819454963948785 0 0.0013676688198833104 0.00057791489779696525 0 0.0015189760463328458 0.0007767743279614986 0 0.0013676688198833104 0.00057791489779696525 0 0.0015189760463328458 0.0007767743279614986 0 0.0016281474023346922 0.00075360702065132299 0 0.0012936608749146833 0.00077819454963948785 0 0.0015189760463328458 0.0007767743279614986 0 0.0016908423558302627 0.00095484406850999124 0 0.0015189760463328458 0.0007767743279614986 0 0.0016281474023346922 0.00075360702065132299 0 0.0016908423558302627 0.00095484406850999124 0 0.0072722747679368422 -0.00041085667673850798 0 0.0043267359424795865 0.00086909939333072749 0 0.0016281474023346922 0.00075360702065132299 0 0.001580841383084222 0.00092367144187240123 0 0.0018848910515693927 0.00062975339793049968 0 0.0016281474023346922 0.00075360702065132299 0 0.001580841383084222 0.00092367144187240123 0 0.0016908423558302627 0.00095484406850999124 0 0.0072722747679368422 -0.00041085667673850798 0 0.013027328697245896 -0.0012055060724728266 0 0.016922772424578302 -0.0017745468325536167 0 0.016813848324701133 -0.001825476323025006 0 0.016967696485397692 -0.0018672772756043235 0 0.0024745979103422771 0.0011320894883550233 0 0.0016908423558302627 0.00095484406850999124 0 0.00201590722456851 0.00077188024502923048 0 0.0017077798267643566 0.00068852245343311463 0 0.00201590722456851 0.00077188024502923048 0 0.0020720924878155308 0.00068370749326214996 0 0.0021036497381701613 0.00042621944552930765 0 0.0017077798267643566 0.00068852245343311463 0 0.0020720924878155308 0.00068370749326214996 0 0.0072722747679368422 -0.00041085667673850798 0 2.4571300337630179e-05 0.00086150677765349027 0 0.001580841383084222 0.00092367144187240123 0 0.0016908423558302627 0.00095484406850999124 0 0.00201590722456851 0.00077188024502923048 0 0.0018287644847378931 0.00095372207367003443 0 0.0016262742321011066 0.00098493473440326566 0 0.0067163718560384151 0.00047849313175760713 0 0.0072948185615605444 2.5709598054221025e-05 0 0.0069110358171729962 -0.00053772719770469029 0 0.0067163718560384151 0.00047849313175760713 0 0.0077434890832171963 0.0005465457238636105 0 0.0072948185615605444 2.5709598054221025e-05 0 0.0077434890832171963 0.0005465457238636105 0 0.0072948185615605444 2.5709598054221025e-05 0 0.0076973384757137069 -0.0005535049434465093 0 0.0084760186062287982 -0.00056916169664553823 0 0.0077434890832171963 0.0005465457238636105 0 0.0076973384757137069 -0.0005535049434465093 0 0.017032895204589234 -0.0018102288465739562 0 0.016967696485397692 -0.0018672772756043235 0 0.017060778535015388 -0.0018634070107948163 0 0.013027328697245896 -0.0012055060724728266 0 0.013005113408430868 -0.0010719746824824153 0 0.016967696485397692 -0.0018672772756043235 0 0.017060778535015388 -0.0018634070107948163 0 0.017092207102878922 -0.0018768107884533692 0 0.0072948185615605444 2.5709598054221025e-05 0 0.0076973384757137069 -0.0005535049434465093 0 0.0069110358171729962 -0.00053772719770469029 0 0.017119650806348207 -0.0018229084688002903 0 0.017032895204589234 -0.0018102288465739562 0 0.017060778535015388 -0.0018634070107948163 0 0.017119650806348207 -0.0018229084688002903 0 0.017060778535015388 -0.0018634070107948163 0 0.017111057148695954 -0.0018798404313373203 0 0.015398638747000653 -0.0018020568398091537 0 0.013005113408430868 -0.0010719746824824153 0 0.017119650806348207 -0.0018229084688002903 0 0.017111057148695954 -0.0018798404313373203 0 0.017182575986839931 -0.0018335029666822283 0 0.013005113408430868 -0.0010719746824824153 0 0.0082302456575875805 8.5923387447125568e-05 0 0.017111057148695954 -0.0018798404313373203 0 0.017182575986839931 -0.0018335029666822283 0 0.017249322603980065 -0.0018079732258324799 0 0.013615040709407463 -0.00077323694423794072 0 0.011627120060133255 -1.2470182769055425e-06 0 0.011710881476802071 -0.00071470461654186122 0 0.013005113408430868 -0.0010719746824824153 0 0.014657776778597453 -0.0012693833561700683 0 0.017182575986839931 -0.0018335029666822283 0 0.017223137771044682 -0.0018280733256913525 0 0.017249322603980065 -0.0018079732258324799 0 0.017229017219799692 -0.0018272264924803988 0 0.017223137771044682 -0.0018280733256913525 0 0.017213468009146093 -0.0018553275331461565 0 0.017255978090258334 -0.0018117142617021409 0 0.017229017219799692 -0.0018272264924803988 0 0.017213468009146093 -0.0018553275331461565 0 0.017223137771044682 -0.0018280733256913525 0 0.017213468009146093 -0.0018553275331461565 0 0.017249322603980065 -0.0018079732258324799 0 0.017301834665855342 -0.0018053937760657392 0 0.017213468009146093 -0.0018553275331461565 0 0.017343660235758427 -0.0018404890066645618 0 0.014657776778597453 -0.0012693833561700683 0 0.014414253270018823 -0.0011820020826315385 0 0.011627120060133255 -1.2470182769055425e-06 0 0.011710881476802071 -0.00071470461654186122 0 0.0097398002856246418 -0.00068061015368512431 0 0.017213468009146093 -0.0018553275331461565 0 0.017249322603980065 -0.0018079732258324799 0 0.016696572628557674 -0.0016969699312041153 0 0.018048165206847509 -0.00199979617741931 0 0.014414253270018823 -0.0011820020826315385 0 0.011627120060133255 -1.2470182769055425e-06 0 0.0097398002856246418 -0.00068061015368512431 0 0.0095588089103418733 0.0007939394922273856 0 0.0059616967093972205 -0.00018475561247514887 0 0.0050496837941911557 0.00017146250213733851 0 0.0059453465965937143 0.00054588859189608132 0 0.0082302456575875805 8.5923387447125568e-05 0 0.0076961196309037628 0.00034160812586731833 0 0.0050496837941911557 0.00017146250213733851 0 0.0059453465965937143 0.00054588859189608132 0 0.0054056428884946411 0.00097475087947523713 0 0.0067163718560384151 0.00047849313175760713 0 0.0059616967093972205 -0.00018475561247514887 0 0.0059453465965937143 0.00054588859189608132 0 0.0067163718560384151 0.00047849313175760713 0 0.0069110358171729962 -0.00053772719770469029 0 0.0059616967093972205 -0.00018475561247514887 0 0.0059453465965937143 0.00054588859189608132 0 0.0060598393894830726 0.0013305840841630766 0 0.0054056428884946411 0.00097475087947523713 0 0.0067163718560384151 0.00047849313175760713 0 0.0059453465965937143 0.00054588859189608132 0 0.0060598393894830726 0.0013305840841630766 0 0.0060598393894830726 0.0013305840841630766 0 0.0054056428884946411 0.00097475087947523713 0 0.0052367529815193136 0.0017023089042051535 0 0.0054056428884946411 0.00097475087947523713 0 0.0052367529815193136 0.0017023089042051535 0 0.0046987052227365012 0.001108906485614907 0 0.0050496837941911557 0.00017146250213733851 0 0.0054056428884946411 0.00097475087947523713 0 0.0046987052227365012 0.001108906485614907 0 0.0056391911409058868 0.0023281981283572472 0 0.0060598393894830726 0.0013305840841630766 0 0.0051003072580136765 0.0017441612578115578 0 0.0065848610735644159 0.0011160291848707766 0 0.0034124191041899061 0.0021490581062581374 0 0.0016763632627767176 0.0026453669953634476 0 0.001711563519317248 0.0026379358580414436 0 0.0017136296020727696 0.0026692175156559275 0 0.0039034459636288952 0.0029277965400862564 0 0.0034124191041899061 0.0021490581062581374 0 0.0056391911409058868 0.0023281981283572472 0 0.0060598393894830726 0.0013305840841630766 0 0.006324601654492828 0.0020098021246387522 0 0.006989258739556024 0.0016571584650270197 0 0.0060598393894830726 0.0013305840841630766 0 0.006324601654492828 0.0020098021246387522 0 0.0020132131508735756 0.0025114707611509786 0 0.0019868305619345091 0.0023370610233462989 0 0.0018372608480049361 0.0024245951107003537 0 0.0020132131508735756 0.0025114707611509786 0 0.002162462893774537 0.0022926311276638325 0 0.0019868305619345091 0.0023370610233462989 0 0.0015570582544342329 0.0026796631762388257 0 0.0034124191041899061 0.0021490581062581374 0 0.001711563519317248 0.0026379358580414436 0 0.00176717204049822 0.0026245428579411193 0 0.0017136296020727696 0.0026692175156559275 0 0.0020132131508735756 0.0025114707611509786 0 0.0022773367554001938 0.002409351739966471 0 0.002162462893774537 0.0022926311276638325 0 0.0034124191041899061 0.0021490581062581374 0 0.0033471371747981816 0.0016104937215866996 0 0.0033471371747981816 0.0016104937215866996 0 0.0042307668897217099 0.0015427150626697286 0 0.0019868305619345091 0.0023370610233462989 0 0.0020592585557640494 0.0021827022803254316 0 0.0018784188773702827 0.0022673506801047147 0 0.002162462893774537 0.0022926311276638325 0 0.0019868305619345091 0.0023370610233462989 0 0.0020592585557640494 0.0021827022803254316 0 0.002986181887102167 0.0021694827808927332 0 0.0026966649813346339 0.0018593505104073779 0 0.0024896557961245616 0.0020731607815085771 0 0.0074220542653231471 0.0015927864926634015 0 0.0078774815484123368 -0.00032536455463826785 0 0.0060068971575989658 4.216951953150886e-05 0 0.0042307668897217099 0.0015427150626697286 0 0.0018708524542112325 0.0024167496041606301 0 0.0042307668897217099 0.0015427150626697286 0 0.0057326820763054214 0.00093545031608950277 0 0.0095588089103418733 0.0007939394922273856 0 0.0074220542653231471 0.0015927864926634015 0 0.0078774815484123368 -0.00032536455463826785 0 0.0076961196309037628 0.00034160812586731833 0 0.0042307668897217099 0.0015427150626697286 0 0.0050496837941911557 0.00017146250213733851 0 0.0046987052227365012 0.001108906485614907 0 0.0041580602740873803 0.00051219494426988363 0 0.0097398002856246418 -0.00068061015368512431 0 0.0095588089103418733 0.0007939394922273856 0 0.0078774815484123368 -0.00032536455463826785 0 0.017394220323084797 -0.0017821417050097221 0 0.017343660235758427 -0.0018404890066645618 0 0.01740484122134342 -0.001796797704612917 0 0.014917937384088581 -0.00066585783716053518 0 0.012049083324604366 -6.206578113428125e-05 0 0.011599893445125482 -0.00055214503696137079 0 0.014414253270018823 -0.0011820020826315385 0 0.015423740530591661 -0.0012674505209077287 0 0.014414253270018823 -0.0011820020826315385 0 0.009925879380524626 -0.00018569887920922377 0 0.015423740530591661 -0.0012674505209077287 0 0.0095039447237747106 0.00099044834478630205 0 0.017436221595899602 -0.0017585985677795873 0 0.01740484122134342 -0.001796797704612917 0 0.017422936227240445 -0.0017727039337653511 0 0.012049083324604366 -6.206578113428125e-05 0 0.011599893445125482 -0.00055214503696137079 0 0.0091565246672320414 0.00053029900819097462 0 0.009925879380524626 -0.00018569887920922377 0 0.0057326820763054214 0.00093545031608950277 0 0.011599893445125482 -0.00055214503696137079 0 0.008254502508856924 -0.00045393486397330449 0 0.0091565246672320414 0.00053029900819097462 0 0.0037486012627009173 0.0016127936661421 0 0.0040519763222143755 0.0019352775714652484 0 0.0028193834337835412 0.0021580454123691041 0 0.0095039447237747106 0.00099044834478630205 0 0.0057326820763054214 0.00093545031608950277 0 0.0095039447237747106 0.00099044834478630205 0 0.003607855515880133 0.0020945574461223356 0 0.006676093396024649 0.00093685483849702408 0 0.007881575599792837 0.0022070126322430109 0 0.0063654064066644223 0.0022440437193679994 0 0.0037486012627009173 0.0016127936661421 0 0.0024091308918480869 0.0017326361659409275 0 0.0028193834337835412 0.0021580454123691041 0 0.0022158232555399646 0.0019948988973701449 0 0.0022733886705434895 0.0021991325228893576 0 0.0024896557961245616 0.0020731607815085771 0 0.0022158232555399646 0.0019948988973701449 0 0.0020732800233482498 0.0021921298587482597 0 0.0022733886705434895 0.0021991325228893576 0 0.0057326820763054214 0.00093545031608950277 0 0.0020152855442898527 0.0022039034425020976 0 0.0026966649813346339 0.0018593505104073779 0 0.0022158232555399646 0.0019948988973701449 0 0.0024896557961245616 0.0020731607815085771 0 0.002986181887102167 0.0021694827808927332 0 0.0024896557961245616 0.0020731607815085771 0 0.0025271147294054224 0.002324156077336608 0 0.0022733886705434895 0.0021991325228893576 0 0.0024896557961245616 0.0020731607815085771 0 0.0025271147294054224 0.002324156077336608 0 0.0055596251496826824 0.0012451225584028682 0 0.0063654064066644223 0.0022440437193679994 0 0.0048999512430071661 0.0022423666223819619 0 0.003607855515880133 0.0020945574461223356 0 0.003520752908435404 0.0020854991347652924 0 0.0024091308918480869 0.0017326361659409275 0 0.0017555445824429773 0.0019610066067022544 0 0.0019325110459303162 0.0021526286371239874 0 0.0022158232555399646 0.0019948988973701449 0 0.0020732800233482498 0.0021921298587482597 0 0.0019325110459303162 0.0021526286371239874 0 0.0020152855442898527 0.0022039034425020976 0 0.0021954970528735903 0.0021061813571286174 0 0.0024091308918480869 0.0017326361659409275 0 0.0028193834337835412 0.0021580454123691041 0 0.0019325110459303162 0.0021526286371239874 0 0.0020732800233482498 0.0021921298587482597 0 0.0019325110459303162 0.0021526286371239874 0 0.0018379563011352133 0.0022811354789309102 0 0.0019325110459303162 0.0021526286371239874 0 0.0018379563011352133 0.0022811354789309102 0 0.0016831275904828564 0.0021780710589737189 0 0.0017555445824429773 0.0019610066067022544 0 0.0019325110459303162 0.0021526286371239874 0 0.0016831275904828564 0.0021780710589737189 0 0.0018379563011352133 0.0022811354789309102 0 0.0017617109507549623 0.0024049106373396781 0 0.0016620313366115178 0.0023558623528649228 0 0.0018379563011352133 0.0022811354789309102 0 0.0016620313366115178 0.0023558623528649228 0 0.0016831275904828564 0.0021780710589737189 0 0.0018379563011352133 0.0022811354789309102 0 0.0017617109507549623 0.0024049106373396781 0 0.0021240334501844023 0.0023981491155755045 0 0.0017615940429550241 0.0024153668978242572 0 0.0020167873401165243 0.002345768706311219 0 0.0020732800233482498 0.0021921298587482597 0 0.0018379563011352133 0.0022811354789309102 0 0.0021240334501844023 0.0023981491155755045 0 0.0017617109507549623 0.0024049106373396781 0 0.0017555142019737566 0.0023574317928557065 0 0.0017008664735776492 0.0024743228890811947 0 0.0017617109507549623 0.0024049106373396781 0 0.0016692928795609718 0.0024511398060601455 0 0.0017008664735776492 0.0024743228890811947 0 0.0017617109507549623 0.0024049106373396781 0 0.0016692928795609718 0.0024511398060601455 0 0.0016620313366115178 0.0023558623528649228 0 0.0016692928795609718 0.0024511398060601455 0 0.0015978536036762043 0.0024470674931462615 0 0.0016620313366115178 0.0023558623528649228 0 0.0019868305619345091 0.0023370610233462989 0 0.0018784188773702827 0.0022673506801047147 0 0.0018372608480049361 0.0024245951107003537 0 0.0018784188773702827 0.0022673506801047147 0 0.0017555142019737566 0.0023574317928557065 0 0.0018372608480049361 0.0024245951107003537 0 0.0022733886705434895 0.0021991325228893576 0 0.0025271147294054224 0.002324156077336608 0 0.0021240334501844023 0.0023981491155755045 0 0.0018708524542112325 0.0024167496041606301 0 0.0020167873401165243 0.002345768706311219 0 0.0020732800233482498 0.0021921298587482597 0 0.0022733886705434895 0.0021991325228893576 0 0.0021240334501844023 0.0023981491155755045 0 0.0017555142019737566 0.0023574317928557065 0 0.0018372608480049361 0.0024245951107003537 0 0.0017008664735776492 0.0024743228890811947 0 0.0020132131508735756 0.0025114707611509786 0 0.0018372608480049361 0.0024245951107003537 0 0.0017677687079754503 0.002558433753914039 0 0.00176717204049822 0.0026245428579411193 0 0.001768970900778017 0.0025968723194547847 0 0.0017677687079754503 0.002558433753914039 0 0.0015570582544342329 0.0026796631762388257 0 0.0019180812569727756 0.0025106080731458979 0 0.001768970900778017 0.0025968723194547847 0 0.0017677687079754503 0.002558433753914039 0 0.0017800717956403091 0.0026147084930899242 0 0.0017677687079754503 0.002558433753914039 0 0.0016348582883669723 0.0025710751473723746 0 0.0017800717956403091 0.0026147084930899242 0 0.0017677687079754503 0.002558433753914039 0 0.0017008664735776492 0.0024743228890811947 0 0.0016348582883669723 0.0025710751473723746 0 0.0018372608480049361 0.0024245951107003537 0 0.0017677687079754503 0.002558433753914039 0 0.0017008664735776492 0.0024743228890811947 0 0.0017008664735776492 0.0024743228890811947 0 0.0016138602302493471 0.0025210769457351115 0 0.0016348582883669723 0.0025710751473723746 0 0.0016692928795609718 0.0024511398060601455 0 0.0017008664735776492 0.0024743228890811947 0 0.0016138602302493471 0.0025210769457351115 0 0.0016138602302493471 0.0025210769457351115 0 0.0015487161281810453 0.0025400695121183853 0 0.0015978536036762043 0.0024470674931462615 0 0.0016692928795609718 0.0024511398060601455 0 0.0016138602302493471 0.0025210769457351115 0 0.0015978536036762043 0.0024470674931462615 0 0.0016138602302493471 0.0025210769457351115 0 0.0016348582883669723 0.0025710751473723746 0 0.0015302677574600572 0.0026098383921007925 0 0.0016138602302493471 0.0025210769457351115 0 0.0015302677574600572 0.0026098383921007925 0 0.0015487161281810453 0.0025400695121183853 0 0.0016348582883669723 0.0025710751473723746 0 0.001554201931194857 0.0026765783619752698 0 0.0015302677574600572 0.0026098383921007925 0 0.001554201931194857 0.0026765783619752698 0 0.0015302677574600572 0.0026098383921007925 0 0.0014348436725409894 0.0025590577708145983 0 0.0015302677574600572 0.0026098383921007925 0 0.0014348436725409894 0.0025590577708145983 0 0.0015081242931736254 0.0026226840781825261 0 0.0014348436725409894 0.0025590577708145983 0 0.00044071300758005976 0.0025715758633310581 0 0.00099734105828304474 0.0027933898851515457 0 0.0013844989589703969 0.0025570172752905252 0 0.00096511937032664095 0.0026458954359685574 0 0.001554201931194857 0.0026765783619752698 0 0.0014703750970680106 0.0025933105413633202 0 0.0013896434346268121 0.0025867402315657112 0 0.001554201931194857 0.0026765783619752698 0 0.0014348436725409894 0.0025590577708145983 0 0.0014703750970680106 0.0025933105413633202 0 0.0014348436725409894 0.0025590577708145983 0 0.0014703750970680106 0.0025933105413633202 0 0.0014290388781262576 0.0026612823696896561 0 0.0014703750970680106 0.0025933105413633202 0 0.0014324857776395962 0.0025225711186770603 0 0.0014290388781262576 0.0026612823696896561 0 0.0012262744267509873 0.0025051332762469009 0 0.00097668563534568376 0.0023574397404926822 0 0.0013707172061266086 0.0024236645993691987 0 0.0014703750970680106 0.0025933105413633202 0 0.0013896434346268121 0.0025867402315657112 0 0.0014324857776395962 0.0025225711186770603 0 0.0013896434346268121 0.0025867402315657112 0 0.0012262744267509873 0.0025051332762469009 0 0.0014324857776395962 0.0025225711186770603 0 0.0013896434346268121 0.0025867402315657112 0 0.0012262744267509873 0.0025051332762469009 0 0.0012185259337830563 0.0026855443237349228 0 0.0012262744267509873 0.0025051332762469009 0 0.0014324857776395962 0.0025225711186770603 0 0.0013707172061266086 0.0024236645993691987 0 0.0012262744267509873 0.0025051332762469009 0 0.00097668563534568376 0.0023574397404926822 0 0.00087129546922634974 0.0026287280922659161 0 0.0004444290312306803 0.0024106329888436934 0 0.00097668563534568376 0.0023574397404926822 0 0.00087129546922634974 0.0026287280922659161 0 0.00038006219092587458 0.0024344386577521931 0 0.0011280667534261659 0.0022530155995700097 0 0.0012262744267509873 0.0025051332762469009 0 0.00087129546922634974 0.0026287280922659161 0 0.0012185259337830563 0.0026855443237349228 0 0.00087129546922634974 0.0026287280922659161 0 0.00091774868667740712 0.0030574067974522782 0 0.0012185259337830563 0.0026855443237349228 0 0.001554201931194857 0.0026765783619752698 0 0.0013896434346268121 0.0025867402315657112 0 0.0012185259337830563 0.0026855443237349228 0 0.001554201931194857 0.0026765783619752698 0 0.00091774868667740712 0.0030574067974522782 0 0.0012185259337830563 0.0026855443237349228 0 0.0016348582883669723 0.0025710751473723746 0 0.001554201931194857 0.0026765783619752698 0 0.0017800717956403091 0.0026147084930899242 0 0.0015698002929485212 0.0026959172679519592 0 0.001264516073372212 0.002833178366688993 0 0.0013187224954676637 0.0025893233881207432 0 0.0012961026621426536 0.0026765174970617652 0 0.0014326633989803917 0.0026378872377406078 0 0.0013187224954676637 0.0025893233881207432 0 0.0014326633989803917 0.0026378872377406078 0 0.0014229726575523808 0.0025480365472110005 0 0.0013187224954676637 0.0025893233881207432 0 0.0011628850185371182 0.0025936729907382479 0 0.0012988558557711625 0.0025313154010352746 0 0.0013187224954676637 0.0025893233881207432 0 0.0011628850185371182 0.0025936729907382479 0 0.0012961026621426536 0.0026765174970617652 0 0.0011628850185371182 0.0025936729907382479 0 0.0011578802597158105 0.002751138923631229 0 0.0012961026621426536 0.0026765174970617652 0 0.0011628850185371182 0.0025936729907382479 0 0.0011578802597158105 0.002751138923631229 0 0.0010268043778986875 0.0026906410833590663 0 0.0012961026621426536 0.0026765174970617652 0 0.0014326633989803917 0.0026378872377406078 0 0.0013544551285127344 0.0028311827934592924 0 0.0011578802597158105 0.002751138923631229 0 0.0012961026621426536 0.0026765174970617652 0 0.0013544551285127344 0.0028311827934592924 0 0.0015013376749263977 0.0026819400981914344 0 0.0014326633989803917 0.0026378872377406078 0 0.0013544551285127344 0.0028311827934592924 0 0.0014348436725409894 0.0025590577708145983 0 0.0015013376749263977 0.0026819400981914344 0 0.0015081242931736254 0.0026226840781825261 0 0.0015013376749263977 0.0026819400981914344 0 0.0015081242931736254 0.0026226840781825261 0 0.0014326633989803917 0.0026378872377406078 0 0.0015302677574600572 0.0026098383921007925 0 0.0014983038418771902 0.0025781070465847708 0 0.0015081242931736254 0.0026226840781825261 0 0.0014983038418771902 0.0025781070465847708 0 0.0015081242931736254 0.0026226840781825261 0 0.0014326633989803917 0.0026378872377406078 0 0.0014983038418771902 0.0025781070465847708 0 0.0014326633989803917 0.0026378872377406078 0 0.0014229726575523808 0.0025480365472110005 0 0.0014983038418771902 0.0025781070465847708 0 0.0014229726575523808 0.0025480365472110005 0 0.0015046984587937314 0.0024951578362042712 0 0.0014229726575523808 0.0025480365472110005 0 0.0014320719112225586 0.0024910332578137809 0 0.0015046984587937314 0.0024951578362042712 0 0.0015302677574600572 0.0026098383921007925 0 0.0014983038418771902 0.0025781070465847708 0 0.0015487161281810453 0.0025400695121183853 0 0.0014983038418771902 0.0025781070465847708 0 0.0015487161281810453 0.0025400695121183853 0 0.0015046984587937314 0.0024951578362042712 0 0.0015978536036762043 0.0024470674931462615 0 0.0015046984587937314 0.0024951578362042712 0 0.0015513926608104111 0.0023801979774457447 0 0.0015487161281810453 0.0025400695121183853 0 0.0015978536036762043 0.0024470674931462615 0 0.0015046984587937314 0.0024951578362042712 0 0.0015046984587937314 0.0024951578362042712 0 0.001470157104594154 0.0024386164868150681 0 0.0015513926608104111 0.0023801979774457447 0 0.0014320719112225586 0.0024910332578137809 0 0.0015046984587937314 0.0024951578362042712 0 0.001470157104594154 0.0024386164868150681 0 0.001470157104594154 0.0024386164868150681 0 0.0013823944191309928 0.0024438303195570008 0 0.0014320489554123417 0.0023744435809083409 0 0.0013823944191309928 0.0024438303195570008 0 0.0013015888026254826 0.0024169446254439708 0 0.0014320489554123417 0.0023744435809083409 0 0.0013823944191309928 0.0024438303195570008 0 0.0013639582123330606 0.0024942251943118002 0 0.0012944311625432102 0.0024751438823203127 0 0.0014320719112225586 0.0024910332578137809 0 0.001470157104594154 0.0024386164868150681 0 0.0013823944191309928 0.0024438303195570008 0 0.0014320719112225586 0.0024910332578137809 0 0.0013823944191309928 0.0024438303195570008 0 0.0013639582123330606 0.0024942251943118002 0 0.0014229726575523808 0.0025480365472110005 0 0.0014320719112225586 0.0024910332578137809 0 0.0013639582123330606 0.0024942251943118002 0 0.0013187224954676637 0.0025893233881207432 0 0.0014229726575523808 0.0025480365472110005 0 0.0012988558557711625 0.0025313154010352746 0 0.0014229726575523808 0.0025480365472110005 0 0.0013639582123330606 0.0024942251943118002 0 0.0012988558557711625 0.0025313154010352746 0 0.0013639582123330606 0.0024942251943118002 0 0.0012988558557711625 0.0025313154010352746 0 0.0012944311625432102 0.0024751438823203127 0 0.0011628850185371182 0.0025936729907382479 0 0.0012988558557711625 0.0025313154010352746 0 0.0012150417898340454 0.0025088039502301133 0 0.0011628850185371182 0.0025936729907382479 0 0.0012150417898340454 0.0025088039502301133 0 0.0011388363307861479 0.0025128920969844926 0 0.0012988558557711625 0.0025313154010352746 0 0.0012150417898340454 0.0025088039502301133 0 0.0012944311625432102 0.0024751438823203127 0 0.0012150417898340454 0.0025088039502301133 0 0.0012944311625432102 0.0024751438823203127 0 0.0012100059424786792 0.0024629546651759107 0 0.0012944311625432102 0.0024751438823203127 0 0.0013015888026254826 0.0024169446254439708 0 0.0012100059424786792 0.0024629546651759107 0 0.0013823944191309928 0.0024438303195570008 0 0.0012944311625432102 0.0024751438823203127 0 0.0013015888026254826 0.0024169446254439708 0 0.0013015888026254826 0.0024169446254439708 0 0.0012100059424786792 0.0024629546651759107 0 0.0012123496548650029 0.0024157140538654705 0 0.0013015888026254826 0.0024169446254439708 0 0.0012719182514168389 0.0023718673059749274 0 0.0012123496548650029 0.0024157140538654705 0 0.0013015888026254826 0.0024169446254439708 0 0.0012719182514168389 0.0023718673059749274 0 0.0013505193966116618 0.0023549191374571993 0 0.0012719182514168389 0.0023718673059749274 0 0.0013505193966116618 0.0023549191374571993 0 0.0013143103952084983 0.0023020606623007241 0 0.0013015888026254826 0.0024169446254439708 0 0.0013505193966116618 0.0023549191374571993 0 0.0014320489554123417 0.0023744435809083409 0 0.0014320489554123417 0.0023744435809083409 0 0.0014530921720381758 0.0022901691103146353 0 0.0015472401058030686 0.0022776317074452391 0 0.0013505193966116618 0.0023549191374571993 0 0.0014320489554123417 0.0023744435809083409 0 0.0014530921720381758 0.0022901691103146353 0 0.0014530921720381758 0.0022901691103146353 0 0.0015472401058030686 0.0022776317074452391 0 0.0015957455558777572 0.0021858875531263777 0 0.0014530921720381758 0.0022901691103146353 0 0.0014527786339454227 0.0022310218751569301 0 0.0015957455558777572 0.0021858875531263777 0 0.0013459531668396757 0.0022255601941763722 0 0.0013143103952084983 0.0023020606623007241 0 0.0012457645037530713 0.0022390519669736315 0 0.0014527786339454227 0.0022310218751569301 0 0.0013459531668396757 0.0022255601941763722 0 0.0013143103952084983 0.0023020606623007241 0 0.0014530921720381758 0.0022901691103146353 0 0.0014527786339454227 0.0022310218751569301 0 0.0013143103952084983 0.0023020606623007241 0 0.0013505193966116618 0.0023549191374571993 0 0.0014530921720381758 0.0022901691103146353 0 0.0013143103952084983 0.0023020606623007241 0 0.0015978536036762043 0.0024470674931462615 0 0.0016620313366115178 0.0023558623528649228 0 0.0015513926608104111 0.0023801979774457447 0 0.0016620313366115178 0.0023558623528649228 0 0.0015513926608104111 0.0023801979774457447 0 0.0016147879852133084 0.0022710823699675455 0 0.001470157104594154 0.0024386164868150681 0 0.0014320489554123417 0.0023744435809083409 0 0.0015513926608104111 0.0023801979774457447 0 0.0014320489554123417 0.0023744435809083409 0 0.0015513926608104111 0.0023801979774457447 0 0.0015472401058030686 0.0022776317074452391 0 0.0015472401058030686 0.0022776317074452391 0 0.0016273640808164146 0.0021535389994651356 0 0.0015957455558777572 0.0021858875531263777 0 0.0015513926608104111 0.0023801979774457447 0 0.0015472401058030686 0.0022776317074452391 0 0.0016147879852133084 0.0022710823699675455 0 0.0015472401058030686 0.0022776317074452391 0 0.0016147879852133084 0.0022710823699675455 0 0.0016273640808164146 0.0021535389994651356 0 0.0016620313366115178 0.0023558623528649228 0 0.0016147879852133084 0.0022710823699675455 0 0.0016831275904828564 0.0021780710589737189 0 0.0016831275904828564 0.0021780710589737189 0 0.0016273640808164146 0.0021535389994651356 0 0.0016381693848468435 0.0021054456124359553 0 0.0016147879852133084 0.0022710823699675455 0 0.0016831275904828564 0.0021780710589737189 0 0.0016273640808164146 0.0021535389994651356 0 0.0016273640808164146 0.0021535389994651356 0 0.0016381693848468435 0.0021054456124359553 0 0.0018389917949281885 0.0020514773833618547 0 0.002764413377186194 0.0010792752316736815 0 0.0034510938565981675 0.0022128300780287196 0 0.0018389917949281885 0.0020514773833618547 0 0.0025052049532509318 0.0021420998059481907 0 0.0019070114422543377 0.0020779035418003206 0 0.0043299657820231744 0.00097557919358651365 0 0.0048999512430071661 0.0022423666223819619 0 0.0034510938565981675 0.0022128300780287196 0 0.0017555445824429773 0.0019610066067022544 0 0.0016831275904828564 0.0021780710589737189 0 0.0016381693848468435 0.0021054456124359553 0 0.003520752908435404 0.0020854991347652924 0 0.0025052049532509318 0.0021420998059481907 0 0.0013473338481521633 0.0020597779070191326 0 0.0014843061648428901 0.0021646316049875221 0 0.0018389917949281885 0.0020514773833618547 0 0.0013473338481521633 0.0020597779070191326 0 0.0014843061648428901 0.0021646316049875221 0 0.0012770223901512018 0.0021624258421605175 0 0.0013459531668396757 0.0022255601941763722 0 0.0012770223901512018 0.0021624258421605175 0 0.0012457645037530713 0.0022390519669736315 0 0.0013459531668396757 0.0022255601941763722 0 0.0014843061648428901 0.0021646316049875221 0 0.0012770223901512018 0.0021624258421605175 0 0.0014527786339454227 0.0022310218751569301 0 0.0013459531668396757 0.0022255601941763722 0 0.0014843061648428901 0.0021646316049875221 0 0.0014527786339454227 0.0022310218751569301 0 0.0014843061648428901 0.0021646316049875221 0 0.0015957455558777572 0.0021858875531263777 0 0.0014843061648428901 0.0021646316049875221 0 0.0015957455558777572 0.0021858875531263777 0 0.0018389917949281885 0.0020514773833618547 0 0.0016273640808164146 0.0021535389994651356 0 0.0015957455558777572 0.0021858875531263777 0 0.0018389917949281885 0.0020514773833618547 0 0.0013473338481521633 0.0020597779070191326 0 0.0018389917949281885 0.0020514773833618547 0 0.0012305927625680887 0.001834660893766743 0 0.001712522750173251 0.0014031476167207573 0 0.0018389917949281885 0.0020514773833618547 0 0.0012305927625680887 0.001834660893766743 0 0.00068547929760455863 0.0014499338754917356 0 0.0012305927625680887 0.001834660893766743 0 0.00070448080219269482 0.0020366304982007573 0 0.0012305927625680887 0.001834660893766743 0 0.00070448080219269482 0.0020366304982007573 0 0.00074406003249171521 0.0025223840105364982 0 0.00068547929760455863 0.0014499338754917356 0 0.00070448080219269482 0.0020366304982007573 0 0.00032157583269402647 0.0020516278759764779 0 0.0013473338481521633 0.0020597779070191326 0 0.0012305927625680887 0.001834660893766743 0 0.001151641944664931 0.0021619712436326231 0 0.0011500662841672977 0.0021677072361544411 0 0.001151641944664931 0.0021619712436326231 0 0.0010593941350207144 0.002151637801250317 0 0.0013473338481521633 0.0020597779070191326 0 0.001151641944664931 0.0021619712436326231 0 0.0012770223901512018 0.0021624258421605175 0 0.0012379544218539156 0.0018357439245099095 0 0.00089192044935829399 0.0024237300250019916 0 0.00052625049273845445 0.0024507943927601378 0 0.00074406003249171521 0.0025223840105364982 0 0.00035457787856519837 0.0031752785043661319 0 0.00070448080219269482 0.0020366304982007573 0 0.00052625049273845445 0.0024507943927601378 0 0.00032157583269402647 0.0020516278759764779 0 0.00070448080219269482 0.0020366304982007573 0 0.00052625049273845445 0.0024507943927601378 0 0.00074406003249171521 0.0025223840105364982 0 0.0011500662841672977 0.0021677072361544411 0 0.001151641944664931 0.0021619712436326231 0 0.0012184836359422444 0.0021830155583214936 0 0.001151641944664931 0.0021619712436326231 0 0.0012770223901512018 0.0021624258421605175 0 0.0012184836359422444 0.0021830155583214936 0 0.0012770223901512018 0.0021624258421605175 0 0.0012184836359422444 0.0021830155583214936 0 0.0012457645037530713 0.0022390519669736315 0 0.0011500662841672977 0.0021677072361544411 0 0.0012184836359422444 0.0021830155583214936 0 0.0012457645037530713 0.0022390519669736315 0 0.0015114550355811878 0.00095196262498123353 0 0.0012452622202437829 0.00091725108678499022 0 0.0012570924950157129 0.0012352630144448651 0 0.0015114550355811878 0.00095196262498123353 0 0.0012570924950157129 0.0012352630144448651 0 0.0014922274119761009 0.0014783460866135902 0 0.00052625049273845445 0.0024507943927601378 0 0.00032157583269402647 0.0020516278759764779 0 0.00035457787856519837 0.0031752785043661319 0 0.00092186723199177989 0.0015358808520860238 0 0.00095266239290873697 0.0021390313988782807 0 0.0013592483621350795 0.00073957676596869909 0 0.0015114550355811878 0.00095196262498123353 0 0.0012452622202437829 0.00091725108678499022 0 0.0011692962898482173 0.00060298507550759866 0 0.0012452622202437829 0.00091725108678499022 0 0.0010387735715229642 0.00085356435819879779 0 0.0012452622202437829 0.00091725108678499022 0 0.0010387735715229642 0.00085356435819879779 0 0.0010017773581610962 0.0011417831803832521 0 0.0010387735715229642 0.00085356435819879779 0 0.0010017773581610962 0.0011417831803832521 0 0.00062576238524383052 0.0010508289193626884 0 0.0012452622202437829 0.00091725108678499022 0 0.0010017773581610962 0.0011417831803832521 0 0.0012570924950157129 0.0012352630144448651 0 0.0010017773581610962 0.0011417831803832521 0 0.0012570924950157129 0.0012352630144448651 0 0.0010149253707586283 0.0014281268073441328 0 0.0012570924950157129 0.0012352630144448651 0 0.0012059696675771451 0.0015409098192681954 0 0.0010149253707586283 0.0014281268073441328 0 0.0012059696675771451 0.0015409098192681954 0 0.0010149253707586283 0.0014281268073441328 0 0.00099681177191850482 0.0016998363125393795 0 0.0010149253707586283 0.0014281268073441328 0 0.00079615393994088431 0.0016748640356987047 0 0.00071391344777434922 0.0013922226151640246 0 0.0010017773581610962 0.0011417831803832521 0 0.0010149253707586283 0.0014281268073441328 0 0.00071391344777434922 0.0013922226151640246 0 0.0010149253707586283 0.0014281268073441328 0 0.00079615393994088431 0.0016748640356987047 0 0.00099681177191850482 0.0016998363125393795 0 0.00079615393994088431 0.0016748640356987047 0 0.00099681177191850482 0.0016998363125393795 0 0.00083104793082642778 0.0018612704206339523 0 0.00099681177191850482 0.0016998363125393795 0 0.00094481027379782635 0.0019278616436678025 0 0.00083104793082642778 0.0018612704206339523 0 0.00079615393994088431 0.0016748640356987047 0 0.00068384854709210385 0.0018675526399763384 0 0.00083104793082642778 0.0018612704206339523 0 0.0012059696675771451 0.0015409098192681954 0 0.00099681177191850482 0.0016998363125393795 0 0.0012345103128201911 0.0018325913301351284 0 0.00099681177191850482 0.0016998363125393795 0 0.0012345103128201911 0.0018325913301351284 0 0.00094481027379782635 0.0019278616436678025 0 0.0010257967830283553 0.002143223025635303 0 0.0010593941350207144 0.002151637801250317 0 0.00095667379748687559 0.002141441290220827 0 0.0012059696675771451 0.0015409098192681954 0 0.0012345103128201911 0.0018325913301351284 0 0.0014922274119761009 0.0014783460866135902 0 0.00095266239290873697 0.0021390313988782807 0 0.00097766451540098388 0.0021055915939135234 0 0.00086177815439670733 0.0020885934165205838 0 0.00095088937840230798 0.0019453600896384815 0 0.00095667379748687559 0.002141441290220827 0 0.0010979958434420615 0.0018615309685196502 0 0.00095266239290873697 0.0021390313988782807 0 0.0012719182514168389 0.0023718673059749274 0 0.0011866230076444462 0.0023609153754684258 0 0.0012123496548650029 0.0024157140538654705 0 0.0012719182514168389 0.0023718673059749274 0 0.0013143103952084983 0.0023020606623007241 0 0.0011866230076444462 0.0023609153754684258 0 0.0013143103952084983 0.0023020606623007241 0 0.0011866230076444462 0.0023609153754684258 0 0.0012457645037530713 0.0022390519669736315 0 0.0011500662841672977 0.0021677072361544411 0 0.0011866230076444462 0.0023609153754684258 0 0.0012457645037530713 0.0022390519669736315 0 0.0011500662841672977 0.0021677072361544411 0 0.0010257967830283553 0.002143223025635303 0 0.0010593941350207144 0.002151637801250317 0 0.00089192044935829399 0.0024237300250019916 0 0.00095266239290873697 0.0021390313988782807 0 0.001143166432203578 0.0021625228185656676 0 0.0011069626827831882 0.0022444527706472878 0 0.0012570924950157129 0.0012352630144448651 0 0.0012059696675771451 0.0015409098192681954 0 0.0014922274119761009 0.0014783460866135902 0 0.0026438112394007699 0.00056368224037457845 0 0.0028560749006712044 0.00040216061766495362 0 0.0026542100017904777 0.00099976838840697938 0 0.0022852897453169993 0.00060493892746429868 0 0.0024948712243856109 0.00042882533936850007 0 0.0025079932910009707 0.0007668462204960207 0 0.0026438112394007699 0.00056368224037457845 0 0.0024948712243856109 0.00042882533936850007 0 0.0025079932910009707 0.0007668462204960207 0 0.0026438112394007699 0.00056368224037457845 0 0.0028560749006712044 0.00040216061766495362 0 0.0026617478085152911 0.00022319907932170926 0 0.0028560749006712044 0.00040216061766495362 0 0.0026617478085152911 0.00022319907932170926 0 0.0029283419490869636 6.2494499863422628e-06 0 0.00227379979287929 0.00016061145241073952 0 0.0026617478085152911 0.00022319907932170926 0 0.0024948712243856109 0.00042882533936850007 0 0.0026438112394007699 0.00056368224037457845 0 0.0026617478085152911 0.00022319907932170926 0 0.0024948712243856109 0.00042882533936850007 0 0.0024934665787222005 -0.00074928754238282372 0 0.00227379979287929 0.00016061145241073952 0 0.0026617478085152911 0.00022319907932170926 0 0.0024934665787222005 -0.00074928754238282372 0 0.0026617478085152911 0.00022319907932170926 0 0.0029511960802285466 -1.1617777683748767e-06 0 0.0027389273062669653 3.1532278543875203e-06 0 0.0021125603762211904 0.00016383352308659899 0 0.0021125603762211904 0.00016383352308659899 0 0.00074603081057224058 0.00081086006359357317 0 0.0011856667126917044 -0.00022875580358045947 0 0.0021125603762211904 0.00016383352308659899 0 -9.1120232910551897e-05 0.00078941514341505502 0 4.6653789319443365e-05 0.00094880805565784973 0 0.00024605246056217951 0.00069314695373028231 0 0.00023561712159884436 0.00045938792739161192 0 -9.1120232910551897e-05 0.00078941514341505502 0 0.00024605246056217951 0.00069314695373028231 0 0.00074603081057224058 0.00081086006359357317 0 6.9665185028593065e-05 0.00087354658067463923 0 0.00029761752094965892 0.0014411919063763853 0 0.00027107247743627457 0.001500313160554414 0 0.00042535217651599555 0.0015568338731949149 0 0.0028560749006712044 0.00040216061766495362 0 0.0031845953351425232 0.00030634541315194996 0 0.0026542100017904777 0.00099976838840697938 0 0.00074603081057224058 0.00081086006359357317 0 0.0016706204168647557 0.0012532552436753598 0 0.00029761752094965892 0.0014411919063763853 0 0.00027107247743627457 0.001500313160554414 0 0.00023403935835771903 0.0015432788158890327 0 0.0028560749006712044 0.00040216061766495362 0 0.0029283419490869636 6.2494499863422628e-06 0 0.0031845953351425232 0.00030634541315194996 0 0.00074603081057224058 0.00081086006359357317 0 0.00031826802134528369 0.00151054900488495 0 -1.1857320670769308e-05 0.0010448186949746704 0 0.00029995568817347992 0.001008998965733142 0 0.00030600561277648177 0.001402708132693778 0 0.00029995568817347992 0.001008998965733142 0 0.00062576238524383052 0.0010508289193626884 0 0.00030600561277648177 0.001402708132693778 0 -1.1857320670769308e-05 0.0010448186949746704 0 0.00029995568817347992 0.001008998965733142 0 0.00024605246056217951 0.00069314695373028231 0 0.00046717009108030691 0.00053662876602024923 0 0.00024605246056217951 0.00069314695373028231 0 0.00046211424795271702 0.0008124161840682133 0 0.00029995568817347992 0.001008998965733142 0 0.00046211424795271702 0.0008124161840682133 0 0.00062576238524383052 0.0010508289193626884 0 0.00029995568817347992 0.001008998965733142 0 0.00024605246056217951 0.00069314695373028231 0 0.00046211424795271702 0.0008124161840682133 0 0.00046211424795271702 0.0008124161840682133 0 0.00070525259409189619 0.00063636310673635601 0 0.00062576238524383052 0.0010508289193626884 0 0.0010387735715229642 0.00085356435819879779 0 0.00070525259409189619 0.00063636310673635601 0 0.00062576238524383052 0.0010508289193626884 0 0.00046717009108030691 0.00053662876602024923 0 0.00046211424795271702 0.0008124161840682133 0 0.00070525259409189619 0.00063636310673635601 0 0.0010017773581610962 0.0011417831803832521 0 0.00062576238524383052 0.0010508289193626884 0 0.00071391344777434922 0.0013922226151640246 0 0.00062576238524383052 0.0010508289193626884 0 0.00071391344777434922 0.0013922226151640246 0 0.00030600561277648177 0.001402708132693778 0 0.00071391344777434922 0.0013922226151640246 0 0.00057431429696148549 0.0017205006966645819 0 0.00030600561277648177 0.001402708132693778 0 0.00079615393994088431 0.0016748640356987047 0 0.00071391344777434922 0.0013922226151640246 0 0.00057431429696148549 0.0017205006966645819 0 0.00079615393994088431 0.0016748640356987047 0 0.00057431429696148549 0.0017205006966645819 0 0.00068384854709210385 0.0018675526399763384 0 0.00039832561263534479 0.0017132563722962973 0 0.00029596946203858945 0.0017804782836173976 0 0.00040564822601893891 0.0019013193292612529 0 0.00057431429696148549 0.0017205006966645819 0 0.00039832561263534479 0.0017132563722962973 0 0.00040564822601893891 0.0019013193292612529 0 0.00057431429696148549 0.0017205006966645819 0 0.00039832561263534479 0.0017132563722962973 0 0.00042535217651599555 0.0015568338731949149 0 0.00039832561263534479 0.0017132563722962973 0 0.00042535217651599555 0.0015568338731949149 0 0.00029975207042280081 0.0016315818384632444 0 0.0005671933971047535 0.0017010364745045871 0 0.00031826802134528369 0.00151054900488495 0 0.00027107247743627457 0.001500313160554414 0 0.00042535217651599555 0.0015568338731949149 0 0.00029975207042280081 0.0016315818384632444 0 0.00027107247743627457 0.001500313160554414 0 0.00029975207042280081 0.0016315818384632444 0 0.00015768810583473362 0.0016459176392313714 0 0.00039832561263534479 0.0017132563722962973 0 0.00029975207042280081 0.0016315818384632444 0 0.00029596946203858945 0.0017804782836173976 0 0.00029975207042280081 0.0016315818384632444 0 0.00020467428998277817 0.0017115370699685767 0 0.00015768810583473362 0.0016459176392313714 0 0.00029975207042280081 0.0016315818384632444 0 0.00029596946203858945 0.0017804782836173976 0 0.00020467428998277817 0.0017115370699685767 0 0.00027751056939319965 0.0018216017813770329 0 5.5869395731948224e-05 0.0015820760773709395 0 0.00024442991512275411 0.0015529534758088558 0 0.00023403935835771903 0.0015432788158890327 0 0.00023777140236835523 0.0015503637290054588 0 0.00020467428998277817 0.0017115370699685767 0 7.3171226219722135e-05 0.0017803798609797652 0 0.00015768810583473362 0.0016459176392313714 0 0.00024878690524822634 0.0015536161190047978 0 0.00024442991512275411 0.0015529534758088558 0 0.00023403935835771903 0.0015432788158890327 0 0.00029596946203858945 0.0017804782836173976 0 0.00020467428998277817 0.0017115370699685767 0 7.3171226219722135e-05 0.0017803798609797652 0 5.5869395731948224e-05 0.0015820760773709395 0 0.00019997016249456343 0.0015982804246789434 0 0.0023058945138867536 0.00093133141738068631 0 0.0022266685940130525 0.0013011391658337083 0 0.0026542100017904777 0.00099976838840697938 0 0.00025986606665261277 0.0015118130388778296 0 0.00019997016249456343 0.0015982804246789434 0 0.00027107247743627457 0.001500313160554414 0 0.00023403935835771903 0.0015432788158890327 0 0.00023777140236835523 0.0015503637290054588 0 0.0023058945138867536 0.00093133141738068631 0 0.0026542100017904777 0.00099976838840697938 0 0.0025079932910009707 0.0007668462204960207 0 0.0022852897453169993 0.00060493892746429868 0 0.0023058945138867536 0.00093133141738068631 0 0.0025079932910009707 0.0007668462204960207 0 0.0026438112394007699 0.00056368224037457845 0 0.0026542100017904777 0.00099976838840697938 0 0.0025079932910009707 0.0007668462204960207 0 -0.00033841650338431835 0.0016555446830935766 0 5.9208499237815082e-05 0.0021222992553545468 0 3.4523115213992326e-05 0.0021495050060209909 0 0.00017190516166784933 0.0020904001018378993 0 3.8167782200805398e-05 0.0019378488392466748 0 0.00029596946203858945 0.0017804782836173976 0 2.5556712764268448e-05 0.0017912057049524104 0 0.00020169518309897931 0.0019259788976946333 0 2.5556712764268448e-05 0.0017912057049524104 0 3.8167782200805398e-05 0.0019378488392466748 0 0.00020169518309897931 0.0019259788976946333 0 0.00017190516166784933 0.0020904001018378993 0 3.8167782200805398e-05 0.0019378488392466748 0 0.00020169518309897931 0.0019259788976946333 0 0.00020169518309897931 0.0019259788976946333 0 0.00030350023317935896 0.0020891736468411923 0 0.00040564822601893891 0.0019013193292612529 0 0.00029596946203858945 0.0017804782836173976 0 0.00020169518309897931 0.0019259788976946333 0 0.00040564822601893891 0.0019013193292612529 0 0.00017190516166784933 0.0020904001018378993 0 0.00020169518309897931 0.0019259788976946333 0 0.00030350023317935896 0.0020891736468411923 0 0.00030350023317935896 0.0020891736468411923 0 0.00049957321751630597 0.0021016325887065188 0 0.00042828993057958783 0.0022264319552518642 0 0.00030350023317935896 0.0020891736468411923 0 0.00049957321751630597 0.0021016325887065188 0 0.00040564822601893891 0.0019013193292612529 0 0.00049957321751630597 0.0021016325887065188 0 0.00040564822601893891 0.0019013193292612529 0 0.00056502741566568878 0.0019728374053988693 0 0.00057431429696148549 0.0017205006966645819 0 0.00056502741566568878 0.0019728374053988693 0 0.00068384854709210385 0.0018675526399763384 0 0.00057431429696148549 0.0017205006966645819 0 0.00040564822601893891 0.0019013193292612529 0 0.00056502741566568878 0.0019728374053988693 0 0.00056502741566568878 0.0019728374053988693 0 0.00062402089867755238 0.0020954273894148441 0 0.00070862341255741566 0.0020336156242534821 0 0.00056502741566568878 0.0019728374053988693 0 0.00068384854709210385 0.0018675526399763384 0 0.00070862341255741566 0.0020336156242534821 0 0.00049957321751630597 0.0021016325887065188 0 0.00056502741566568878 0.0019728374053988693 0 0.00062402089867755238 0.0020954273894148441 0 0.00049957321751630597 0.0021016325887065188 0 0.00062402089867755238 0.0020954273894148441 0 0.0006000573159448743 0.0022163811007855374 0 0.00062402089867755238 0.0020954273894148441 0 0.0006000573159448743 0.0022163811007855374 0 0.00069960557915108241 0.0021776993838593644 0 0.0006000573159448743 0.0022163811007855374 0 0.00056536713653294391 0.0023195883956851136 0 0.00042828993057958783 0.0022264319552518642 0 0.0006000573159448743 0.0022163811007855374 0 0.00056536713653294391 0.0023195883956851136 0 0.00077891039298135878 0.0022980541040093219 0 0.00056536713653294391 0.0023195883956851136 0 0.00077891039298135878 0.0022980541040093219 0 0.00056763980540879802 0.0024697315349728436 0 0.00056536713653294391 0.0023195883956851136 0 0.00042171418297285508 0.0023875722513760893 0 0.00056763980540879802 0.0024697315349728436 0 0.00042171418297285508 0.0023875722513760893 0 0.00042828993057958783 0.0022264319552518642 0 0.00027094605750679755 0.0023168210395505037 0 0.00056536713653294391 0.0023195883956851136 0 0.00042171418297285508 0.0023875722513760893 0 0.00042828993057958783 0.0022264319552518642 0 0.00049957321751630597 0.0021016325887065188 0 0.0006000573159448743 0.0022163811007855374 0 0.00042828993057958783 0.0022264319552518642 0 0.00030350023317935896 0.0020891736468411923 0 0.00042828993057958783 0.0022264319552518642 0 0.00027094605750679755 0.0023168210395505037 0 0.00017190516166784933 0.0020904001018378993 0 0.00030350023317935896 0.0020891736468411923 0 0.00027094605750679755 0.0023168210395505037 0 0.00042171418297285508 0.0023875722513760893 0 0.00027094605750679755 0.0023168210395505037 0 0.00027879778270764458 0.002487345079363336 0 0.00027094605750679755 0.0023168210395505037 0 0.00013608654362232722 0.0024976562791467266 0 0.00027879778270764458 0.002487345079363336 0 -1.2671433084344434e-07 0.0022975426566235616 0 -9.7688586343561937e-06 0.0024897506419507684 0 7.645443024218408e-05 0.0024011046877150471 0 -1.2671433084344434e-07 0.0022975426566235616 0 0.00027094605750679755 0.0023168210395505037 0 7.645443024218408e-05 0.0024011046877150471 0 0.00027094605750679755 0.0023168210395505037 0 7.645443024218408e-05 0.0024011046877150471 0 0.00013608654362232722 0.0024976562791467266 0 -1.2671433084344434e-07 0.0022975426566235616 0 1.0369580749524901e-05 0.0020838951115601887 0 0.00027094605750679755 0.0023168210395505037 0 -0.00033841650338431835 0.0016555446830935766 0 0.00042940104766037022 0.0024902854348010602 0 3.4523115213992326e-05 0.0021495050060209909 0 0.00017190516166784933 0.0020904001018378993 0 0.00027094605750679755 0.0023168210395505037 0 0.00089479219888196878 0.0022497765034616476 0 0.00098176905605564294 0.0021610176889160031 0 0.0009456510061749922 0.0024360342778612779 0 0.00089479219888196878 0.0022497765034616476 0 0.00079364907743796446 0.0023222271950756475 0 0.0009456510061749922 0.0024360342778612779 0 0.00089479219888196878 0.0022497765034616476 0 0.00098176905605564294 0.0021610176889160031 0 0.00091076404213787337 0.0021634107109583783 0 0.00089479219888196878 0.0022497765034616476 0 0.00084512500595078735 0.0022098363385346632 0 0.00091076404213787337 0.0021634107109583783 0 0.00089479219888196878 0.0022497765034616476 0 0.00084512500595078735 0.0022098363385346632 0 0.00079364907743796446 0.0023222271950756475 0 0.0011388363307861479 0.0025128920969844926 0 0.0011328330788756696 0.0024615416242809531 0 0.0010003929043137724 0.0025740569195188555 0 0.0010558122148710289 0.0023185441709682991 0 0.00095687800816073271 0.0025148824102784366 0 0.0011388363307861479 0.0025128920969844926 0 0.0011328330788756696 0.0024615416242809531 0 0.0012100059424786792 0.0024629546651759107 0 0.0012150417898340454 0.0025088039502301133 0 0.0011388363307861479 0.0025128920969844926 0 0.0012100059424786792 0.0024629546651759107 0 0.0010257967830283553 0.002143223025635303 0 0.00098176905605564294 0.0021610176889160031 0 0.00095667379748687559 0.002141441290220827 0 0.0011069626827831882 0.0022444527706472878 0 0.0010558122148710289 0.0023185441709682991 0 0.0011866230076444462 0.0023609153754684258 0 0.0011328330788756696 0.0024615416242809531 0 0.0012123496548650029 0.0024157140538654705 0 0.0011328330788756696 0.0024615416242809531 0 0.0012100059424786792 0.0024629546651759107 0 0.0012123496548650029 0.0024157140538654705 0 0.00098176905605564294 0.0021610176889160031 0 0.00095667379748687559 0.002141441290220827 0 0.00091076404213787337 0.0021634107109583783 0 0.00084512500595078735 0.0022098363385346632 0 0.00091076404213787337 0.0021634107109583783 0 0.00086213098785596328 0.0021509967226499118 0 0.00086177815439670733 0.0020885934165205838 0 0.00095667379748687559 0.002141441290220827 0 0.00091076404213787337 0.0021634107109583783 0 0.00086177815439670733 0.0020885934165205838 0 0.00091076404213787337 0.0021634107109583783 0 0.00086213098785596328 0.0021509967226499118 0 0.00086177815439670733 0.0020885934165205838 0 0.00083071483191564182 0.0021571805086331697 0 0.00086213098785596328 0.0021509967226499118 0 0.0010979958434420615 0.0018615309685196502 0 0.00084173533310370394 0.0021727507507941796 0 0.00086177815439670733 0.0020885934165205838 0 0.00083071483191564182 0.0021571805086331697 0 0.00082801478254321671 0.0021535735296711821 0 0.0012345103128201911 0.0018325913301351284 0 0.00094481027379782635 0.0019278616436678025 0 0.00082801478254321671 0.0021535735296711821 0 0.00094481027379782635 0.0019278616436678025 0 0.00081648862124592534 0.0020208267273377598 0 0.00082801478254321671 0.0021535735296711821 0 0.00068384854709210385 0.0018675526399763384 0 0.00083104793082642778 0.0018612704206339523 0 0.00070862341255741566 0.0020336156242534821 0 0.00094481027379782635 0.0019278616436678025 0 0.00083104793082642778 0.0018612704206339523 0 0.00081648862124592534 0.0020208267273377598 0 0.00083104793082642778 0.0018612704206339523 0 0.00081648862124592534 0.0020208267273377598 0 0.00070862341255741566 0.0020336156242534821 0 0.00081648862124592534 0.0020208267273377598 0 0.00077371874009342703 0.0021022909807423594 0 0.00082801478254321671 0.0021535735296711821 0 0.00081648862124592534 0.0020208267273377598 0 0.00070862341255741566 0.0020336156242534821 0 0.00077371874009342703 0.0021022909807423594 0 0.00062402089867755238 0.0020954273894148441 0 0.00070862341255741566 0.0020336156242534821 0 0.00069960557915108241 0.0021776993838593644 0 0.00070862341255741566 0.0020336156242534821 0 0.00077371874009342703 0.0021022909807423594 0 0.00069960557915108241 0.0021776993838593644 0 0.00077371874009342703 0.0021022909807423594 0 0.00082801478254321671 0.0021535735296711821 0 0.00079344164584999087 0.0021527682131447126 0 0.00077371874009342703 0.0021022909807423594 0 0.00076670902305671482 0.0021727740122987459 0 0.00079344164584999087 0.0021527682131447126 0 0.00077371874009342703 0.0021022909807423594 0 0.00076670902305671482 0.0021727740122987459 0 0.00069960557915108241 0.0021776993838593644 0 0.00076670902305671482 0.0021727740122987459 0 0.00078360308203164082 0.0021660486541888496 0 0.00077891039298135878 0.0022980541040093219 0 0.00084512500595078735 0.0022098363385346632 0 0.00083071483191564182 0.0021571805086331697 0 0.00086213098785596328 0.0021509967226499118 0 0.00084512500595078735 0.0022098363385346632 0 0.00083071483191564182 0.0021571805086331697 0 0.00081231972551999373 0.0021956148490931723 0 0.00083071483191564182 0.0021571805086331697 0 0.00081231972551999373 0.0021956148490931723 0 0.00080964802130172259 0.0021643409363630954 0 0.00083071483191564182 0.0021571805086331697 0 0.00080964802130172259 0.0021643409363630954 0 0.00082801478254321671 0.0021535735296711821 0 0.00076670902305671482 0.0021727740122987459 0 0.00079344164584999087 0.0021527682131447126 0 0.00078360308203164082 0.0021660486541888496 0 0.00080964802130172259 0.0021643409363630954 0 0.00082801478254321671 0.0021535735296711821 0 0.00078360308203164082 0.0021660486541888496 0 0.00082801478254321671 0.0021535735296711821 0 0.00079344164584999087 0.0021527682131447126 0 0.00078360308203164082 0.0021660486541888496 0 0.00081231972551999373 0.0021956148490931723 0 0.00080964802130172259 0.0021643409363630954 0 0.00078360308203164082 0.0021660486541888496 0 0.00081231972551999373 0.0021956148490931723 0 0.00078360308203164082 0.0021660486541888496 0 0.00079364907743796446 0.0023222271950756475 0 0.00084512500595078735 0.0022098363385346632 0 0.00081231972551999373 0.0021956148490931723 0 0.00079364907743796446 0.0023222271950756475 0 0.00076011737920657916 0.0021908509270946752 0 0.00064350449484827936 0.0024487740975192005 0 0.00078360308203164082 0.0021660486541888496 0 0.00079364907743796446 0.0023222271950756475 0 0.00048536566457326765 0.0025925556792042708 0 0.00079364907743796446 0.0023222271950756475 0 0.00048536566457326765 0.0025925556792042708 0 0.00071270688052309499 0.0026019578226426409 0 0.00076670902305671482 0.0021727740122987459 0 0.00069960557915108241 0.0021776993838593644 0 0.00077891039298135878 0.0022980541040093219 0 0.0006000573159448743 0.0022163811007855374 0 0.00069960557915108241 0.0021776993838593644 0 0.00077891039298135878 0.0022980541040093219 0 0.00064350449484827936 0.0024487740975192005 0 0.00060045938219242866 0.0027142133097117879 0 0.00077891039298135878 0.0022980541040093219 0 0.00071887286521603365 0.0025376595784294088 0 0.00056763980540879802 0.0024697315349728436 0 0.00048536566457326765 0.0025925556792042708 0 0.00071270688052309499 0.0026019578226426409 0 0.00055036905793810699 0.0028478627490847569 0 0.00048536566457326765 0.0025925556792042708 0 0.00055036905793810699 0.0028478627490847569 0 0.00047448882955705761 0.0029150757566378908 0 0.00080777256480053675 0.0027701033956978932 0 0.00095687800816073271 0.0025148824102784366 0 0.00071270688052309499 0.0026019578226426409 0 0.00076711268837383907 0.0027838887702163464 0 0.0009456510061749922 0.0024360342778612779 0 0.00071270688052309499 0.0026019578226426409 0 0.00076711268837383907 0.0027838887702163464 0 0.00055036905793810699 0.0028478627490847569 0 0.00079364907743796446 0.0023222271950756475 0 0.00071270688052309499 0.0026019578226426409 0 0.0009456510061749922 0.0024360342778612779 0 0.0011628850185371182 0.0025936729907382479 0 0.0010003929043137724 0.0025740569195188555 0 0.0010268043778986875 0.0026906410833590663 0 0.0011628850185371182 0.0025936729907382479 0 0.0011388363307861479 0.0025128920969844926 0 0.0010003929043137724 0.0025740569195188555 0 0.00076711268837383907 0.0027838887702163464 0 0.0010003929043137724 0.0025740569195188555 0 0.0010268043778986875 0.0026906410833590663 0 0.00076711268837383907 0.0027838887702163464 0 0.0010268043778986875 0.0026906410833590663 0 0.0010133486036840648 0.0028049073739592556 0 0.0011578802597158105 0.002751138923631229 0 0.0010268043778986875 0.0026906410833590663 0 0.0010133486036840648 0.0028049073739592556 0 0.00076711268837383907 0.0027838887702163464 0 0.0010133486036840648 0.0028049073739592556 0 0.0010602331716937979 0.0029971001374216161 0 0.00076711268837383907 0.0027838887702163464 0 0.00037830601026672889 0.003082489699879266 0 0.0010602331716937979 0.0029971001374216161 0 0.00037830601026672889 0.003082489699879266 0 -0.00032553836247715457 0.0028070052959324808 0 -0.00065866365822273704 0.0033354557973659972 0 0.00037397798909097693 0.0030939894207847427 0 0.00021802801057377725 0.0031389638230313725 0 0.00076711268837383907 0.0027838887702163464 0 0.00037830601026672889 0.003082489699879266 0 0.00055036905793810699 0.0028478627490847569 0 0.00037830601026672889 0.003082489699879266 0 0.00055036905793810699 0.0028478627490847569 0 0.00049171719583900248 0.0029394198947282377 0 0.00055036905793810699 0.0028478627490847569 0 0.00047448882955705761 0.0029150757566378908 0 0.00049171719583900248 0.0029394198947282377 0 0.00071887286521603365 0.0025376595784294088 0 0.0006363477614507152 0.002759820493842676 0 0.0005928986934667761 0.0026398578815477916 0 0.00047448882955705761 0.0029150757566378908 0 0.00054726816442329459 0.0028432319658749038 0 0.0006363477614507152 0.002759820493842676 0 0.00060045938219242866 0.0027142133097117879 0 0.0006295434625220777 0.0027523885247557642 0 0.00047448882955705761 0.0029150757566378908 0 0.00054726816442329459 0.0028432319658749038 0 0.00049171719583900248 0.0029394198947282377 0 0.00037830601026672889 0.003082489699879266 0 0.00049171719583900248 0.0029394198947282377 0 0.00049957819393942429 0.0028153319484789103 0 0.00054726816442329459 0.0028432319658749038 0 0.00049171719583900248 0.0029394198947282377 0 0.00049957819393942429 0.0028153319484789103 0 0.00037830601026672889 0.003082489699879266 0 0.00049957819393942429 0.0028153319484789103 0 0.00034937238533707846 0.002574082693767769 0 0.00049957819393942429 0.0028153319484789103 0 0.00052266001957191309 0.0026647435309573096 0 0.00059623030190820905 0.0027166441949379588 0 0.00052266001957191309 0.0026647435309573096 0 0.00034937238533707846 0.002574082693767769 0 0.00060356264467743706 0.0025411084182548919 0 0.00049957819393942429 0.0028153319484789103 0 0.00052266001957191309 0.0026647435309573096 0 0.00034937238533707846 0.002574082693767769 0 -0.00021347028536739752 0.0020077319820706028 0 -0.00061135107602899635 0.0018434306375901546 0 0.0006363477614507152 0.002759820493842676 0 0.00059623030190820905 0.0027166441949379588 0 0.00063498556004746719 0.0027611458141070721 0 0.00059623030190820905 0.0027166441949379588 0 0.00060356264467743706 0.0025411084182548919 0 0.00063498556004746719 0.0027611458141070721 0 0.00054726816442329459 0.0028432319658749038 0 0.00049957819393942429 0.0028153319484789103 0 0.00059623030190820905 0.0027166441949379588 0 0.00054726816442329459 0.0028432319658749038 0 0.0006363477614507152 0.002759820493842676 0 0.00059623030190820905 0.0027166441949379588 0 0.00052266001957191309 0.0026647435309573096 0 0.00059623030190820905 0.0027166441949379588 0 0.00060356264467743706 0.0025411084182548919 0 -0.0014201609832857707 0.0012799537670518451 0 -0.00061135107602899635 0.0018434306375901546 0 -0.0011911424705513536 0.0014121597740632077 0 -0.0011315183678996148 0.0014190934863537381 0 -0.0012807368387811669 0.0013701582480828102 0 -0.0011911424705513536 0.0014121597740632077 0 -0.0012467671284671906 0.0014695212000614215 0 -0.0012891713580169592 0.0014197932334643667 0 -0.0011911424705513536 0.0014121597740632077 0 -0.0011814272022605899 0.0014803656444484022 0 -0.0012467671284671906 0.0014695212000614215 0 -0.0011911424705513536 0.0014121597740632077 0 -0.0011315183678996148 0.0014190934863537381 0 -0.0011814272022605899 0.0014803656444484022 0 -0.0011814272022605899 0.0014803656444484022 0 -0.0010876207597029452 0.0015287242589477137 0 -0.0011949632336336995 0.0015470476273879168 0 -0.0011315183678996148 0.0014190934863537381 0 -0.0011814272022605899 0.0014803656444484022 0 -0.0010876207597029452 0.0015287242589477137 0 -0.0011814272022605899 0.0014803656444484022 0 -0.0012467671284671906 0.0014695212000614215 0 -0.0012656296949964169 0.0015399697048283925 0 -0.0011814272022605899 0.0014803656444484022 0 -0.0012656296949964169 0.0015399697048283925 0 -0.0011949632336336995 0.0015470476273879168 0 0.00034937238533707846 0.002574082693767769 0 0.00060356264467743706 0.0025411084182548919 0 0.0001881248006131734 0.0021123200179159192 0 -0.00021347028536739752 0.0020077319820706028 0 -0.00041340770269312116 0.0018046633416439609 0 -0.0011315183678996148 0.0014190934863537381 0 -0.00093770426553996288 0.0014935064103723103 0 -0.0010876207597029452 0.0015287242589477137 0 0.00034937238533707846 0.002574082693767769 0 0.0001881248006131734 0.0021123200179159192 0 -0.00031397605895292478 0.0023148902649136904 0 -0.00031397605895292478 0.0023148902649136904 0 -0.00032553836247715457 0.0028070052959324808 0 -0.00088458252829837127 0.0022739952382334928 0 0.0001881248006131734 0.0021123200179159192 0 -0.00031397605895292478 0.0023148902649136904 0 -0.00070616598496613635 0.0016941267207623183 0 -0.00031397605895292478 0.0023148902649136904 0 -0.00070616598496613635 0.0016941267207623183 0 -0.00088458252829837127 0.0022739952382334928 0 0.00037830601026672889 0.003082489699879266 0 0.00034937238533707846 0.002574082693767769 0 -0.00032553836247715457 0.0028070052959324808 0 0.00034937238533707846 0.002574082693767769 0 -0.00031397605895292478 0.0023148902649136904 0 -0.00032553836247715457 0.0028070052959324808 0 -0.0013923731702124402 0.0013766842611784163 0 -0.0014155955162516961 0.0013814956874263458 0 -0.0014082516259344595 0.0013830337758295847 0 -0.0013923731702124402 0.0013766842611784163 0 -0.001408007250282387 0.0013797066073052866 0 -0.0014149789879782789 0.0013543803668180558 0 -0.001408007250282387 0.0013797066073052866 0 -0.0014209217018914296 0.0013719864564414241 0 -0.0014149789879782789 0.0013543803668180558 0 -0.001408007250282387 0.0013797066073052866 0 -0.0014209217018914296 0.0013719864564414241 0 -0.0014132408027832414 0.0014012772907951042 0 -0.001408007250282387 0.0013797066073052866 0 -0.0014132408027832414 0.0014012772907951042 0 -0.0014082516259344595 0.0013830337758295847 0 -0.0014132408027832414 0.0014012772907951042 0 -0.0014082516259344595 0.0013830337758295847 0 -0.0013741434343457338 0.0013602221739405717 0 -0.0013923731702124402 0.0013766842611784163 0 -0.001408007250282387 0.0013797066073052866 0 -0.0014082516259344595 0.0013830337758295847 0 -0.0011107845648249946 0.0015594841994832581 0 -0.00051388018141835601 0.0020418452872987703 0 -9.7688586343561937e-06 0.0024897506419507684 0 0.00013608654362232722 0.0024976562791467266 0 0.00020696235024684689 0.0026134619003512268 0 -0.0014155955162516961 0.0013814956874263458 0 -0.0014082516259344595 0.0013830337758295847 0 -0.0013741434343457338 0.0013602221739405717 0 -9.7688586343561937e-06 0.0024897506419507684 0 7.645443024218408e-05 0.0024011046877150471 0 0.00013608654362232722 0.0024976562791467266 0 0.00013608654362232722 0.0024976562791467266 0 0.00022077937563461984 0.0025390770720053156 0 0.00020696235024684689 0.0026134619003512268 0 0.00022077937563461984 0.0025390770720053156 0 0.0002841748192141279 0.0025601043142053845 0 0.00020696235024684689 0.0026134619003512268 0 0.00022077937563461984 0.0025390770720053156 0 0.00027879778270764458 0.002487345079363336 0 0.0002841748192141279 0.0025601043142053845 0 0.00013608654362232722 0.0024976562791467266 0 0.00022077937563461984 0.0025390770720053156 0 0.00027879778270764458 0.002487345079363336 0 0.00027879778270764458 0.002487345079363336 0 0.0002841748192141279 0.0025601043142053845 0 0.00040528653952118037 0.0025094955963756971 0 0.0002841748192141279 0.0025601043142053845 0 0.00035329571436310675 0.002605360437540935 0 0.00020696235024684689 0.0026134619003512268 0 0.0002841748192141279 0.0025601043142053845 0 0.00035329571436310675 0.002605360437540935 0 0.00040528653952118037 0.0025094955963756971 0 0.00035329571436310675 0.002605360437540935 0 0.00020696235024684689 0.0026134619003512268 0 0.00041709781619723307 0.0027186196869259899 0 -0.0013741434343457338 0.0013602221739405717 0 -0.001057144000149592 0.0015416902763097148 0 -0.0010927724260480992 0.0015822602957061651 0 -0.0014132408027832414 0.0014012772907951042 0 -0.0013741434343457338 0.0013602221739405717 0 -0.0010927724260480992 0.0015822602957061651 0 -0.0014132408027832414 0.0014012772907951042 0 -0.0015129511180821897 0.0013266700875969189 0 -0.0014589899425070535 0.0013483164278996441 0 -0.0013684698138438866 0.0014249235038926427 0 -0.0013840660318567481 0.0014030157742381925 0 -0.00051388018141835601 0.0020418452872987703 0 -0.00021256010999356884 0.0021976809391068492 0 -0.0014209217018914296 0.0013719864564414241 0 -0.0014132408027832414 0.0014012772907951042 0 -0.0014589899425070535 0.0013483164278996441 0 0.00041709781619723307 0.0027186196869259899 0 0.0004507174268287014 0.0026703213664194727 0 0.00042204544917929745 0.0026564081053895212 0 0.00048678514149777476 0.0026871643084203862 0 0.00047580639612774113 0.0026212955925708193 0 0.00055565240973944974 0.0026951206490931088 0 0.00041709781619723307 0.0027186196869259899 0 0.00048678514149777476 0.0026871643084203862 0 0.0004507174268287014 0.0026703213664194727 0 0.00048678514149777476 0.0026871643084203862 0 0.0004507174268287014 0.0026703213664194727 0 0.00047580639612774113 0.0026212955925708193 0 0.0004507174268287014 0.0026703213664194727 0 0.00047580639612774113 0.0026212955925708193 0 0.00042204544917929745 0.0026564081053895212 0 0.00035329571436310675 0.002605360437540935 0 0.00047580639612774113 0.0026212955925708193 0 0.00042204544917929745 0.0026564081053895212 0 0.00035329571436310675 0.002605360437540935 0 0.00041709781619723307 0.0027186196869259899 0 0.00042204544917929745 0.0026564081053895212 0 0.00035329571436310675 0.002605360437540935 0 0.00047580639612774113 0.0026212955925708193 0 0.00040528653952118037 0.0025094955963756971 0 0.00042171418297285508 0.0023875722513760893 0 0.00040528653952118037 0.0025094955963756971 0 0.00056763980540879802 0.0024697315349728436 0 0.00047580639612774113 0.0026212955925708193 0 0.00040528653952118037 0.0025094955963756971 0 0.00056763980540879802 0.0024697315349728436 0 0.00042171418297285508 0.0023875722513760893 0 0.00027879778270764458 0.002487345079363336 0 0.00040528653952118037 0.0025094955963756971 0 0.00071887286521603365 0.0025376595784294088 0 0.00056763980540879802 0.0024697315349728436 0 0.0005928986934667761 0.0026398578815477916 0 0.00047580639612774113 0.0026212955925708193 0 0.00056763980540879802 0.0024697315349728436 0 0.0005928986934667761 0.0026398578815477916 0 0.00047580639612774113 0.0026212955925708193 0 0.0005928986934667761 0.0026398578815477916 0 0.00055565240973944974 0.0026951206490931088 0 0.0005928986934667761 0.0026398578815477916 0 0.00055565240973944974 0.0026951206490931088 0 0.00060183643906765497 0.0027214961430696212 0 0.0006363477614507152 0.002759820493842676 0 0.0005928986934667761 0.0026398578815477916 0 0.00060183643906765497 0.0027214961430696212 0 0.00055565240973944974 0.0026951206490931088 0 0.00060183643906765497 0.0027214961430696212 0 0.00063498556004746719 0.0027611458141070721 0 0.0006363477614507152 0.002759820493842676 0 0.00060183643906765497 0.0027214961430696212 0 0.00063498556004746719 0.0027611458141070721 0 0.00048678514149777476 0.0026871643084203862 0 0.00055565240973944974 0.0026951206490931088 0 0.00063498556004746719 0.0027611458141070721 0 -0.0013386300253468983 0.0013322037339394013 0 -0.0013651465343122468 0.0014097859688009134 0 -0.0014272793434944866 0.0013653157553755097 0 -0.0013386300253468983 0.0013322037339394013 0 -0.0014272793434944866 0.0013653157553755097 0 -0.0014633698525262095 0.0013403008187338535 0 -0.0013386300253468983 0.0013322037339394013 0 -0.0012891713580169592 0.0014197932334643667 0 -0.0013651465343122468 0.0014097859688009134 0 -0.0011911424705513536 0.0014121597740632077 0 -0.0013386300253468983 0.0013322037339394013 0 -0.0012891713580169592 0.0014197932334643667 0 -0.0012891713580169592 0.0014197932334643667 0 -0.0013088408245963518 0.0014865817474122144 0 -0.0013651465343122468 0.0014097859688009134 0 -0.0012467671284671906 0.0014695212000614215 0 -0.0012891713580169592 0.0014197932334643667 0 -0.0013088408245963518 0.0014865817474122144 0 -0.0012467671284671906 0.0014695212000614215 0 -0.0013088408245963518 0.0014865817474122144 0 -0.0012656296949964169 0.0015399697048283925 0 -0.0013088408245963518 0.0014865817474122144 0 -0.001345451682399028 0.0015431013410083423 0 -0.0012656296949964169 0.0015399697048283925 0 -0.0013907298491356685 0.0014908576617171795 0 -0.0014212910702483227 0.0015684164629961362 0 -0.001345451682399028 0.0015431013410083423 0 -0.0013088408245963518 0.0014865817474122144 0 -0.0013907298491356685 0.0014908576617171795 0 -0.001345451682399028 0.0015431013410083423 0 -0.0013907298491356685 0.0014908576617171795 0 -0.0013651465343122468 0.0014097859688009134 0 -0.0014359687721407883 0.0014260558915141399 0 -0.0013651465343122468 0.0014097859688009134 0 -0.0014359687721407883 0.0014260558915141399 0 -0.0014272793434944866 0.0013653157553755097 0 -0.0013088408245963518 0.0014865817474122144 0 -0.0013907298491356685 0.0014908576617171795 0 -0.0013651465343122468 0.0014097859688009134 0 -0.0014359687721407883 0.0014260558915141399 0 -0.001470177204340445 0.0015058538828724697 0 -0.0015515551117292596 0.0014659872096881986 0 -0.0013907298491356685 0.0014908576617171795 0 -0.0014359687721407883 0.0014260558915141399 0 -0.001470177204340445 0.0015058538828724697 0 -0.0013907298491356685 0.0014908576617171795 0 -0.001470177204340445 0.0015058538828724697 0 -0.0014212910702483227 0.0015684164629961362 0 -0.0015515551117292596 0.0014659872096881986 0 -0.0016734013587099265 0.0015612556229399343 0 -0.0015344670794445658 0.0015864728991047056 0 -0.001470177204340445 0.0015058538828724697 0 -0.0015515551117292596 0.0014659872096881986 0 -0.0015344670794445658 0.0015864728991047056 0 -0.0014359687721407883 0.0014260558915141399 0 -0.0015515551117292596 0.0014659872096881986 0 -0.0015157133176920141 0.0013342741777333069 0 -0.00021256010999356884 0.0021976809391068492 0 -0.00061135107602899635 0.0018434306375901546 0 -0.00061135107602899635 0.0018434306375901546 0 -0.0013840660318567481 0.0014030157742381925 0 -0.001057144000149592 0.0015416902763097148 0 -0.00066388148067995445 0.001781303904346325 0 -0.0010927724260480992 0.0015822602957061651 0 0.00041709781619723307 0.0027186196869259899 0 0.00048678514149777476 0.0026871643084203862 0 0.00063498556004746719 0.0027611458141070721 0 -0.0013386300253468983 0.0013322037339394013 0 -0.0014633698525262095 0.0013403008187338535 0 -0.0015129511180821897 0.0013266700875969189 0 -0.0015157133176920141 0.0013342741777333069 0 -0.0014633698525262095 0.0013403008187338535 0 -0.0015052555925721776 0.0013339729952334992 0 -0.0014359687721407883 0.0014260558915141399 0 -0.0015157133176920141 0.0013342741777333069 0 -0.0014272793434944866 0.0013653157553755097 0 -0.0015157133176920141 0.0013342741777333069 0 -0.0014272793434944866 0.0013653157553755097 0 -0.0014633698525262095 0.0013403008187338535 0 -0.0015129511180821897 0.0013266700875969189 0 -0.0015052555925721776 0.0013339729952334992 0 -0.0014905109103823262 0.0013351157620194447 0 -0.0015157133176920141 0.0013342741777333069 0 -0.0015052555925721776 0.0013339729952334992 0 -0.0014905109103823262 0.0013351157620194447 0 -0.0014633698525262095 0.0013403008187338535 0 -0.0015129511180821897 0.0013266700875969189 0 -0.0015052555925721776 0.0013339729952334992 0 -0.0015157133176920141 0.0013342741777333069 0 -0.0014905109103823262 0.0013351157620194447 0 -0.0014398406907639774 0.0013143881886656503 0 -0.0015515551117292596 0.0014659872096881986 0 -0.0015157133176920141 0.0013342741777333069 0 -0.0018134893441896791 0.0013535527244218722 0 -0.0015292000484712579 0.0013319591939738335 0 -0.0016183212490479685 0.0013342678372581895 0 -0.0015129511180821897 0.0013266700875969189 0 -0.0014905109103823262 0.0013351157620194447 0 -0.0014589899425070535 0.0013483164278996441 0 -0.0014905109103823262 0.0013351157620194447 0 -0.0014589899425070535 0.0013483164278996441 0 -0.0014398406907639774 0.0013143881886656503 0 -0.0016734013587099265 0.0015612556229399343 0 -0.0019448971252582525 0.0015365190103721743 0 -0.0018051388238531684 0.0016655551277621049 0 -0.0015515551117292596 0.0014659872096881986 0 -0.0016734013587099265 0.0015612556229399343 0 -0.0018134893441896791 0.0013535527244218722 0 -0.0016734013587099265 0.0015612556229399343 0 -0.0019448971252582525 0.0015365190103721743 0 -0.0018134893441896791 0.0013535527244218722 0 -0.002156326889620423 0.0014355459049136931 0 -0.0019448971252582525 0.0015365190103721743 0 -0.0018134893441896791 0.0013535527244218722 0 -0.0021545785022386633 0.0016995242865955067 0 -0.0020934598928410634 0.0015584863749981933 0 -0.0019448971252582525 0.0015365190103721743 0 -0.002156326889620423 0.0014355459049136931 0 -0.0020934598928410634 0.0015584863749981933 0 -0.0019448971252582525 0.0015365190103721743 0 -0.0013819664305751358 0.0013165738215439708 0 -0.0013923731702124402 0.0013766842611784163 0 -0.0014149789879782789 0.0013543803668180558 0 -0.001793415337143139 0.0014607605293150458 0 -0.0016183212490479685 0.0013342678372581895 0 -0.0013819664305751358 0.0013165738215439708 0 -0.0014398406907639774 0.0013143881886656503 0 -0.0014149789879782789 0.0013543803668180558 0 -0.0014209217018914296 0.0013719864564414241 0 -0.0014589899425070535 0.0013483164278996441 0 -0.0014149789879782789 0.0013543803668180558 0 -0.0014589899425070535 0.0013483164278996441 0 -0.0014398406907639774 0.0013143881886656503 0 -0.0014149789879782789 0.0013543803668180558 0 -0.0023141160214332963 0.0019557595412580224 0 -0.0020988488154820226 0.0019176528354929096 0 -0.0022313989155483089 0.0021323362915182807 0 -0.0021545785022386633 0.0016995242865955067 0 -0.0019448971252582525 0.0015365190103721743 0 -0.0018051388238531684 0.0016655551277621049 0 -0.0021444556631178128 0.0016954699769024047 0 -0.0019820139687762232 0.001846571605981578 0 -0.0021545785022386633 0.0016995242865955067 0 -0.0018324899046124749 0.0018022364697203896 0 -0.0018051388238531684 0.0016655551277621049 0 -0.0018324899046124749 0.0018022364697203896 0 -0.0018051388238531684 0.0016655551277621049 0 -0.0016337858289135595 0.0017187684423690596 0 -0.0016734013587099265 0.0015612556229399343 0 -0.0016337858289135595 0.0017187684423690596 0 -0.0015344670794445658 0.0015864728991047056 0 -0.0016734013587099265 0.0015612556229399343 0 -0.0018051388238531684 0.0016655551277621049 0 -0.0016337858289135595 0.0017187684423690596 0 -0.0019820139687762232 0.001846571605981578 0 -0.0017482101807931533 0.0019918977711223368 0 -0.0018324899046124749 0.0018022364697203896 0 -0.0016337858289135595 0.0017187684423690596 0 -0.0016363521828573811 0.0018864884996949041 0 -0.0016337858289135595 0.0017187684423690596 0 -0.0014788802496879718 0.0017780954245481906 0 -0.0016363521828573811 0.0018864884996949041 0 -0.0014788802496879718 0.0017780954245481906 0 -0.0014645538226343245 0.0016595719076783323 0 -0.0013825084678024552 0.001692188877019564 0 -0.0016337858289135595 0.0017187684423690596 0 -0.0014788802496879718 0.0017780954245481906 0 -0.0014645538226343245 0.0016595719076783323 0 -0.0016337858289135595 0.0017187684423690596 0 -0.0015344670794445658 0.0015864728991047056 0 -0.0014645538226343245 0.0016595719076783323 0 -0.0015344670794445658 0.0015864728991047056 0 -0.0014645538226343245 0.0016595719076783323 0 -0.0014212910702483227 0.0015684164629961362 0 -0.001470177204340445 0.0015058538828724697 0 -0.0015344670794445658 0.0015864728991047056 0 -0.0014212910702483227 0.0015684164629961362 0 -0.0014645538226343245 0.0016595719076783323 0 -0.0014212910702483227 0.0015684164629961362 0 -0.0013433773557315074 0.001613054884719658 0 -0.0014645538226343245 0.0016595719076783323 0 -0.0013433773557315074 0.001613054884719658 0 -0.0013825084678024552 0.001692188877019564 0 -0.0014212910702483227 0.0015684164629961362 0 -0.001345451682399028 0.0015431013410083423 0 -0.0013433773557315074 0.001613054884719658 0 -0.0013433773557315074 0.001613054884719658 0 -0.0012656296949964169 0.0015399697048283925 0 -0.0012425518271831175 0.0016085801173881191 0 -0.001345451682399028 0.0015431013410083423 0 -0.0013433773557315074 0.001613054884719658 0 -0.0012656296949964169 0.0015399697048283925 0 -0.0013433773557315074 0.001613054884719658 0 -0.0013053074002166503 0.0016678059969385723 0 -0.0013825084678024552 0.001692188877019564 0 -0.0013433773557315074 0.001613054884719658 0 -0.0013053074002166503 0.0016678059969385723 0 -0.0012425518271831175 0.0016085801173881191 0 -0.0013053074002166503 0.0016678059969385723 0 -0.0013825084678024552 0.001692188877019564 0 -0.0013368526911009208 0.0017486129747464232 0 -0.0013053074002166503 0.0016678059969385723 0 -0.0013368526911009208 0.0017486129747464232 0 -0.00122443399001668 0.0016748152182670495 0 -0.0014788802496879718 0.0017780954245481906 0 -0.0013825084678024552 0.001692188877019564 0 -0.0013368526911009208 0.0017486129747464232 0 -0.0014788802496879718 0.0017780954245481906 0 -0.0013368526911009208 0.0017486129747464232 0 -0.0013856404314406864 0.001828873591600931 0 -0.0013368526911009208 0.0017486129747464232 0 -0.00122443399001668 0.0016748152182670495 0 -0.0012611483226394355 0.0017701836295399469 0 -0.0013856404314406864 0.001828873591600931 0 -0.0012973778649555024 0.0018498303920967763 0 -0.0012611483226394355 0.0017701836295399469 0 -0.0013368526911009208 0.0017486129747464232 0 -0.0013856404314406864 0.001828873591600931 0 -0.0012611483226394355 0.0017701836295399469 0 -0.0013856404314406864 0.001828873591600931 0 -0.001382157430397879 0.0018992904046913075 0 -0.0014792851036848969 0.0018814306536711362 0 -0.0013856404314406864 0.001828873591600931 0 -0.001382157430397879 0.0018992904046913075 0 -0.0012973778649555024 0.0018498303920967763 0 -0.001382157430397879 0.0018992904046913075 0 -0.0012973778649555024 0.0018498303920967763 0 -0.001245465643430784 0.0019245945314955355 0 -0.0018119811842096827 0.0019956628824167443 0 -0.0020954551702819205 0.0018055204320576125 0 -0.0016352182299513118 0.0017612465448940801 0 -0.0020872078100432354 0.0021027246203912473 0 -0.0013819311608748162 0.001826920694468361 0 -0.0034730014390702431 0.0022136690756331821 0 -0.0025896518637974052 0.0026322781562319727 0 -0.0028206310369792522 0.0026544120369148281 0 -0.001382157430397879 0.0018992904046913075 0 -0.001447793755503328 0.0019928743844211702 0 -0.001245465643430784 0.0019245945314955355 0 -0.002549153073269046 0.0021653909128388988 0 -0.0020872078100432354 0.0021027246203912473 0 -0.001382157430397879 0.0018992904046913075 0 -0.0014912969613609633 0.0020007007945656084 0 -0.001447793755503328 0.0019928743844211702 0 -0.0021085880282410868 0.0024136586598916062 0 -0.0020872078100432354 0.0021027246203912473 0 -0.0029323315407202523 0.0024316015371418768 0 -0.002846412980469198 0.0024398977931142938 0 -0.0029301875108473756 0.0025191905392898083 0 -0.0021085880282410868 0.0024136586598916062 0 -0.0017482101807931533 0.0019918977711223368 0 -0.0014788802496879718 0.0017780954245481906 0 -0.0014792851036848969 0.0018814306536711362 0 -0.0016363521828573811 0.0018864884996949041 0 -0.0014912969613609633 0.0020007007945656084 0 -0.0014792851036848969 0.0018814306536711362 0 -0.0016363521828573811 0.0018864884996949041 0 -0.001382157430397879 0.0018992904046913075 0 -0.0014912969613609633 0.0020007007945656084 0 -0.0014792851036848969 0.0018814306536711362 0 -0.0014788802496879718 0.0017780954245481906 0 -0.0013856404314406864 0.001828873591600931 0 -0.0014792851036848969 0.0018814306536711362 0 -0.002846412980469198 0.0024398977931142938 0 -0.0029301875108473756 0.0025191905392898083 0 -0.0027468508465403317 0.0024709633632592994 0 -0.0017719706518335326 0.0023363582438533296 0 -0.0019492995929252027 0.0021147219545152494 0 -0.0020953342456230596 0.0023697126446270362 0 -0.0021085880282410868 0.0024136586598916062 0 -0.0024821471149981309 0.0024200439966969422 0 -0.0025360420312649742 0.0023756298073762572 0 -0.0020953342456230596 0.0023697126446270362 0 -0.0022313989155483089 0.0021323362915182807 0 -0.0025063985842743307 0.0023842777801142108 0 -0.0024821471149981309 0.0024200439966969422 0 -0.0020988488154820226 0.0019176528354929096 0 -0.0019492995929252027 0.0021147219545152494 0 -0.0022313989155483089 0.0021323362915182807 0 -0.0019492995929252027 0.0021147219545152494 0 -0.0020953342456230596 0.0023697126446270362 0 -0.0022313989155483089 0.0021323362915182807 0 -0.00098664806438329656 0.0016572561308867242 0 -0.00088702380630049883 0.0015809341725845469 0 -0.00087914334841823554 0.001638066881163661 0 -0.00088702380630049883 0.0015809341725845469 0 -0.00070616598496613635 0.0016941267207623183 0 -0.00087914334841823554 0.001638066881163661 0 -0.00088702380630049883 0.0015809341725845469 0 -0.00070616598496613635 0.0016941267207623183 0 -0.0010310426570150025 0.0014891966960358799 0 -0.00041340770269312116 0.0018046633416439609 0 -0.00067417430603555902 0.0016958822475789427 0 -0.00093770426553996288 0.0014935064103723103 0 -0.00070616598496613635 0.0016941267207623183 0 -0.00087914334841823554 0.001638066881163661 0 -0.00098664806438329656 0.0016572561308867242 0 -0.00087914334841823554 0.001638066881163661 0 -0.00099474394712345234 0.0015897326278364672 0 -0.00093770426553996288 0.0014935064103723103 0 -0.00087914334841823554 0.001638066881163661 0 -0.00099474394712345234 0.0015897326278364672 0 -0.00093770426553996288 0.0014935064103723103 0 -0.0010876207597029452 0.0015287242589477137 0 -0.00099474394712345234 0.0015897326278364672 0 -0.0010876207597029452 0.0015287242589477137 0 -0.0010924014780063066 0.00162426496202025 0 -0.0011626312375396996 0.0015958474065260908 0 -0.0010876207597029452 0.0015287242589477137 0 -0.0010924014780063066 0.00162426496202025 0 -0.00099474394712345234 0.0015897326278364672 0 -0.0011949632336336995 0.0015470476273879168 0 -0.0011626312375396996 0.0015958474065260908 0 -0.0012425518271831175 0.0016085801173881191 0 -0.0012656296949964169 0.0015399697048283925 0 -0.0011949632336336995 0.0015470476273879168 0 -0.0012425518271831175 0.0016085801173881191 0 -0.0010876207597029452 0.0015287242589477137 0 -0.0011949632336336995 0.0015470476273879168 0 -0.0011626312375396996 0.0015958474065260908 0 -0.0010924014780063066 0.00162426496202025 0 -0.0011626312375396996 0.0015958474065260908 0 -0.00122443399001668 0.0016748152182670495 0 -0.0011626312375396996 0.0015958474065260908 0 -0.0012425518271831175 0.0016085801173881191 0 -0.00122443399001668 0.0016748152182670495 0 -0.0013053074002166503 0.0016678059969385723 0 -0.0012425518271831175 0.0016085801173881191 0 -0.00122443399001668 0.0016748152182670495 0 -0.0010924014780063066 0.00162426496202025 0 -0.00122443399001668 0.0016748152182670495 0 -0.0011357307229814897 0.001693134347186605 0 -0.0011357307229814897 0.001693134347186605 0 -0.0011939504341593697 0.0017254923114168957 0 -0.0011579766483970435 0.0017581824256746976 0 -0.00122443399001668 0.0016748152182670495 0 -0.0011357307229814897 0.001693134347186605 0 -0.0011939504341593697 0.0017254923114168957 0 -0.00122443399001668 0.0016748152182670495 0 -0.0011939504341593697 0.0017254923114168957 0 -0.0012611483226394355 0.0017701836295399469 0 -0.00098664806438329656 0.0016572561308867242 0 -0.0010924014780063066 0.00162426496202025 0 -0.0011357307229814897 0.001693134347186605 0 -0.00098664806438329656 0.0016572561308867242 0 -0.0011357307229814897 0.001693134347186605 0 -0.0010600321822137786 0.0017208137333949074 0 -0.00098664806438329656 0.0016572561308867242 0 -0.0010924014780063066 0.00162426496202025 0 -0.00099474394712345234 0.0015897326278364672 0 -0.0011357307229814897 0.001693134347186605 0 -0.0010600321822137786 0.0017208137333949074 0 -0.0011579766483970435 0.0017581824256746976 0 -0.0010600321822137786 0.0017208137333949074 0 -0.0011579766483970435 0.0017581824256746976 0 -0.0011505230301159458 0.001798245733496595 0 -0.0010600321822137786 0.0017208137333949074 0 -0.0011505230301159458 0.001798245733496595 0 -0.001084928102426899 0.0017698683518429807 0 -0.0010600321822137786 0.0017208137333949074 0 -0.001084928102426899 0.0017698683518429807 0 -0.00097313865379909984 0.0016737029627527482 0 -0.0012611483226394355 0.0017701836295399469 0 -0.0011579766483970435 0.0017581824256746976 0 -0.0012121905792431304 0.0018160850241738344 0 -0.0011939504341593697 0.0017254923114168957 0 -0.0012611483226394355 0.0017701836295399469 0 -0.0011579766483970435 0.0017581824256746976 0 -0.0012973778649555024 0.0018498303920967763 0 -0.0012611483226394355 0.0017701836295399469 0 -0.0012121905792431304 0.0018160850241738344 0 -0.0011579766483970435 0.0017581824256746976 0 -0.0011505230301159458 0.001798245733496595 0 -0.0012121905792431304 0.0018160850241738344 0 -0.0011505230301159458 0.001798245733496595 0 -0.0012121905792431304 0.0018160850241738344 0 -0.001245465643430784 0.0019245945314955355 0 -0.0012973778649555024 0.0018498303920967763 0 -0.0012121905792431304 0.0018160850241738344 0 -0.001245465643430784 0.0019245945314955355 0 -0.0011505230301159458 0.001798245733496595 0 -0.001245465643430784 0.0019245945314955355 0 -0.001084928102426899 0.0017698683518429807 0 -0.0013819311608748162 0.001826920694468361 0 -0.0011431413060730665 0.0017852184037608426 0 -0.0016352182299513118 0.0017612465448940801 0 -0.0013907490197792808 0.0019584914537528341 0 -0.001084928102426899 0.0017698683518429807 0 -0.0015772900462847409 0.0020120455819684518 0 -0.0018119811842096827 0.0019956628824167443 0 -0.0016352182299513118 0.0017612465448940801 0 -0.0015772900462847409 0.0020120455819684518 0 -0.0016352182299513118 0.0017612465448940801 0 -0.0013907490197792808 0.0019584914537528341 0 -0.0013907490197792808 0.0019584914537528341 0 -0.0010505407021551417 0.0019010953758550897 0 -0.001084928102426899 0.0017698683518429807 0 -0.0023864495454694349 0.0018459468409559128 0 -0.0022267904148634086 0.0016194688749961727 0 -0.0010505407021551417 0.0019010953758550897 0 -0.001084928102426899 0.0017698683518429807 0 -0.00097313865379909984 0.0016737029627527482 0 -0.0010505407021551417 0.0019010953758550897 0 -0.00097313865379909984 0.0016737029627527482 0 -0.00092021474435185222 0.0016335406038684693 0 -0.0037844946851574622 0.001954017700150358 0 -0.0039953277834672771 0.0017911004340028451 0 -0.0036920808699342491 0.0016444291859041267 0 -0.00098664806438329656 0.0016572561308867242 0 -0.0010600321822137786 0.0017208137333949074 0 -0.00097313865379909984 0.0016737029627527482 0 -0.00098664806438329656 0.0016572561308867242 0 -0.00088702380630049883 0.0015809341725845469 0 -0.00097313865379909984 0.0016737029627527482 0 -0.00088702380630049883 0.0015809341725845469 0 -0.00097313865379909984 0.0016737029627527482 0 -0.00092021474435185222 0.0016335406038684693 0 -0.00088702380630049883 0.0015809341725845469 0 -0.00092021474435185222 0.0016335406038684693 0 -0.0010649631677564927 0.0013901970145577688 0 -0.0037844946851574622 0.001954017700150358 0 -0.0036920808699342491 0.0016444291859041267 0 -0.0035793510613953907 0.0017300217160435244 0 -0.0036920808699342491 0.0016444291859041267 0 -0.0035793510613953907 0.0017300217160435244 0 -0.003368597809091056 0.0014873563496947387 0 -0.0050270285817510182 0.0019796564013784788 0 -0.0028920526831870868 0.0014493053940747146 0 -0.0060349985716118479 0.0019544653082027895 0 -0.0057486852412193404 0.0020049149396960558 0 -0.0057445780971098568 0.0016717337414810867 0 -0.0059924203274709575 0.0022068673629993076 0 -0.0060349985716118479 0.0019544653082027895 0 -0.0057486852412193404 0.0020049149396960558 0 -0.0057486852412193404 0.0020049149396960558 0 -0.0055181543450479138 0.0018779465856759454 0 -0.0057445780971098568 0.0016717337414810867 0 -0.0055407202651786107 0.0020954623104535021 0 -0.0055181543450479138 0.0018779465856759454 0 -0.0053677632995957928 0.0019948646771994856 0 -0.005353760743422583 0.0021458004853657561 0 -0.0055407202651786107 0.0020954623104535021 0 -0.0053677632995957928 0.0019948646771994856 0 -0.0057486852412193404 0.0020049149396960558 0 -0.0055407202651786107 0.0020954623104535021 0 -0.0055181543450479138 0.0018779465856759454 0 -0.0055181543450479138 0.0018779465856759454 0 -0.0052465830628982647 0.001830979127718366 0 -0.0053677632995957928 0.0019948646771994856 0 -0.0055181543450479138 0.0018779465856759454 0 -0.0053925455792145716 0.0017088385568636152 0 -0.0057445780971098568 0.0016717337414810867 0 -0.0053925455792145716 0.0017088385568636152 0 -0.0057445780971098568 0.0016717337414810867 0 -0.0052709621217730254 0.001495349778104545 0 -0.00095319570334841618 0.00082185998156485281 0 -0.0013801975786888604 0.0012743994892379313 0 -0.0018585622545548117 0.0010797610271876881 0 -0.0028920526831870868 0.0014493053940747146 0 -0.0036596512877108758 0.0012856765894842387 0 -0.0055181543450479138 0.0018779465856759454 0 -0.0053925455792145716 0.0017088385568636152 0 -0.0052465830628982647 0.001830979127718366 0 -0.0028920526831870868 0.0014493053940747146 0 -0.001032590925561465 0.00091969539334684869 0 -0.0022267904148634086 0.0016194688749961727 0 -0.0028920526831870868 0.0014493053940747146 0 -0.0010649631677564927 0.0013901970145577688 0 -0.0010310426570150025 0.0014891966960358799 0 -0.0013801975786888604 0.0012743994892379313 0 -0.00088702380630049883 0.0015809341725845469 0 -0.0010649631677564927 0.0013901970145577688 0 -0.0010310426570150025 0.0014891966960358799 0 -0.0013801975786888604 0.0012743994892379313 0 -0.0016834152591425234 0.0013752389266210926 0 -0.0018585622545548117 0.0010797610271876881 0 -0.0016834152591425234 0.0013752389266210926 0 -0.0013656252120514624 0.0015602183565277278 0 -0.0017689556070935371 0.0016453133762542689 0 -0.0013801975786888604 0.0012743994892379313 0 -0.0016834152591425234 0.0013752389266210926 0 -0.0013656252120514624 0.0015602183565277278 0 -0.0010310426570150025 0.0014891966960358799 0 -0.0013801975786888604 0.0012743994892379313 0 -0.0013656252120514624 0.0015602183565277278 0 -0.0013656252120514624 0.0015602183565277278 0 -0.0014426296630245642 0.0019319720108768815 0 -0.0010667384699335799 0.0017314481930146722 0 -0.0014426296630245642 0.0019319720108768815 0 -0.0020587304663559846 0.0019778850217841656 0 -0.0017689556070935371 0.0016453133762542689 0 -0.0013656252120514624 0.0015602183565277278 0 -0.0014426296630245642 0.0019319720108768815 0 -0.0017689556070935371 0.0016453133762542689 0 -0.00070616598496613635 0.0016941267207623183 0 -0.0010310426570150025 0.0014891966960358799 0 -0.0010667384699335799 0.0017314481930146722 0 -0.00070616598496613635 0.0016941267207623183 0 -0.0010667384699335799 0.0017314481930146722 0 -0.00088458252829837127 0.0022739952382334928 0 -0.0014426296630245642 0.0019319720108768815 0 -0.0010667384699335799 0.0017314481930146722 0 -0.00088458252829837127 0.0022739952382334928 0 -0.0010310426570150025 0.0014891966960358799 0 -0.0013656252120514624 0.0015602183565277278 0 -0.0010667384699335799 0.0017314481930146722 0 -0.0020587304663559846 0.0019778850217841656 0 -0.0028354515255274333 0.0012184716629931027 0 -0.0026797480143130018 0.0020830011090175594 0 -0.0028354515255274333 0.0012184716629931027 0 -0.0040824132819104438 0.0016119198579604851 0 -0.0026797480143130018 0.0020830011090175594 0 -0.0020587304663559846 0.0019778850217841656 0 -0.0017689556070935371 0.0016453133762542689 0 -0.0028354515255274333 0.0012184716629931027 0 -0.0036596512877108758 0.0012856765894842387 0 -0.0037789893891381513 0.0013489282751681629 0 -0.0052709621217730254 0.001495349778104545 0 -0.0047004119869842381 0.0014088017899637356 0 -0.0049562530830442259 0.0016542798089068007 0 -0.0016834152591425234 0.0013752389266210926 0 -0.0018585622545548117 0.0010797610271876881 0 -0.0028354515255274333 0.0012184716629931027 0 -0.0016834152591425234 0.0013752389266210926 0 -0.0017689556070935371 0.0016453133762542689 0 -0.0028354515255274333 0.0012184716629931027 0 -0.0049562530830442259 0.0016542798089068007 0 -0.0048738670535171556 0.0018670295963816134 0 -0.0046192973149591721 0.0017259566457926132 0 -0.0047004119869842381 0.0014088017899637356 0 -0.0049562530830442259 0.0016542798089068007 0 -0.0046192973149591721 0.0017259566457926132 0 -0.0049562530830442259 0.0016542798089068007 0 -0.0050731344703761963 0.0018535094801561364 0 -0.0048738670535171556 0.0018670295963816134 0 -0.0048738670535171556 0.0018670295963816134 0 -0.0047070459767556945 0.0018876025258509222 0 -0.0046192973149591721 0.0017259566457926132 0 -0.0053925455792145716 0.0017088385568636152 0 -0.0052709621217730254 0.001495349778104545 0 -0.0051873367572989387 0.0017131260517183717 0 -0.0052709621217730254 0.001495349778104545 0 -0.0049562530830442259 0.0016542798089068007 0 -0.0051873367572989387 0.0017131260517183717 0 -0.0049562530830442259 0.0016542798089068007 0 -0.0051873367572989387 0.0017131260517183717 0 -0.0050731344703761963 0.0018535094801561364 0 -0.0052465830628982647 0.001830979127718366 0 -0.0051873367572989387 0.0017131260517183717 0 -0.0050731344703761963 0.0018535094801561364 0 -0.0053925455792145716 0.0017088385568636152 0 -0.0052465830628982647 0.001830979127718366 0 -0.0051873367572989387 0.0017131260517183717 0 -0.0052465830628982647 0.001830979127718366 0 -0.0051760186011456429 0.0020186847909358426 0 -0.0053677632995957928 0.0019948646771994856 0 -0.0050731344703761963 0.0018535094801561364 0 -0.0051760186011456429 0.0020186847909358426 0 -0.0050169595651834821 0.0020312250629509914 0 -0.0052465830628982647 0.001830979127718366 0 -0.0050731344703761963 0.0018535094801561364 0 -0.0051760186011456429 0.0020186847909358426 0 -0.0052004039930924296 0.0021962107403950973 0 -0.0051760186011456429 0.0020186847909358426 0 -0.0050169595651834821 0.0020312250629509914 0 -0.005353760743422583 0.0021458004853657561 0 -0.0051760186011456429 0.0020186847909358426 0 -0.0053677632995957928 0.0019948646771994856 0 -0.0048738670535171556 0.0018670295963816134 0 -0.0048633066061922721 0.0020290402279509001 0 -0.0047070459767556945 0.0018876025258509222 0 -0.0050731344703761963 0.0018535094801561364 0 -0.0048738670535171556 0.0018670295963816134 0 -0.0050169595651834821 0.0020312250629509914 0 -0.0048738670535171556 0.0018670295963816134 0 -0.0050169595651834821 0.0020312250629509914 0 -0.0048633066061922721 0.0020290402279509001 0 -0.0050018498474439527 0.0021651954636419057 0 -0.0050169595651834821 0.0020312250629509914 0 -0.0048633066061922721 0.0020290402279509001 0 -0.0048633066061922721 0.0020290402279509001 0 -0.0047178749880205434 0.0020581845924548853 0 -0.0047070459767556945 0.0018876025258509222 0 -0.0048633322324410618 0.0021705254340435914 0 -0.0048633066061922721 0.0020290402279509001 0 -0.0047178749880205434 0.0020581845924548853 0 -0.0048657658646463851 0.00259521104306001 0 -0.007545575352944772 0.0020162591952767785 0 -0.0048094354107109157 0.0023404371813775019 0 -0.0047178749880205434 0.0020581845924548853 0 -0.0044305429999456141 0.001870689030264604 0 -0.0047178749880205434 0.0020581845924548853 0 -0.0047070459767556945 0.0018876025258509222 0 -0.0044305429999456141 0.001870689030264604 0 -0.014608400802822852 0.00083760088502291843 0 -0.014539606502498801 0.00076789808683486399 0 -0.014626224583235736 0.0007764976054765256 0 -0.014608400802822852 0.00083760088502291843 0 -0.014539606502498801 0.00076789808683486399 0 -0.014521329780997461 0.0007902247522348693 0 -0.014539606502498801 0.00076789808683486399 0 -0.014451683496070218 0.00066935147942220744 0 -0.014491102683029312 0.00072344407290661191 0 -0.014539606502498801 0.00076789808683486399 0 -0.014626224583235736 0.0007764976054765256 0 -0.014451683496070218 0.00066935147942220744 0 -0.014626224583235736 0.0007764976054765256 0 -0.014451683496070218 0.00066935147942220744 0 -0.014288111518692104 0.00045196947569820217 0 -0.0043897463822631455 0.0018557237507267992 0 -0.0043722481881525218 0.00173270618754748 0 -0.0043102707079848857 0.0015517960193223992 0 -0.007545575352944772 0.0020162591952767785 0 -0.0094618716934313004 0.001031826611381344 0 -0.007545575352944772 0.0020162591952767785 0 -0.005905986959344833 0.0012547211885199536 0 -0.0043722481881525218 0.00173270618754748 0 -0.0043102707079848857 0.0015517960193223992 0 -0.0043723988936512481 0.0015721313720236886 0 -0.0044305429999456141 0.001870689030264604 0 -0.0043722481881525218 0.00173270618754748 0 -0.0046192973149591721 0.0017259566457926132 0 -0.0043722481881525218 0.00173270618754748 0 -0.0046192973149591721 0.0017259566457926132 0 -0.0043723988936512481 0.0015721313720236886 0 -0.0047070459767556945 0.0018876025258509222 0 -0.0044305429999456141 0.001870689030264604 0 -0.0046192973149591721 0.0017259566457926132 0 -0.014501578981360968 0.00083684172970181856 0 -0.014502980695405471 0.0007963218481742638 0 -0.014499454813986113 0.00078355798521195048 0 -0.015553092576263418 0.00049091782252082153 0 -0.014278221819704345 0.00077093519968879538 0 -0.014278221819704345 0.00077093519968879538 0 -0.014568849371719405 0.00072389821831808838 0 -0.014501578981360968 0.00083684172970181856 0 -0.014499454813986113 0.00078355798521195048 0 -0.014521329780997461 0.0007902247522348693 0 -0.014499454813986113 0.00078355798521195048 0 -0.014521329780997461 0.0007902247522348693 0 -0.014491102683029312 0.00072344407290661191 0 -0.014539606502498801 0.00076789808683486399 0 -0.014521329780997461 0.0007902247522348693 0 -0.014491102683029312 0.00072344407290661191 0 -0.014412372796741934 0.00068125987603447774 0 -0.014040738935741077 0.00056826605524647363 0 -0.014463178701685822 0.00071867023527819301 0 -0.014491102683029312 0.00072344407290661191 0 -0.014472183394529461 0.00069505178365374554 0 -0.014451683496070218 0.00066935147942220744 0 -0.014288111518692104 0.00045196947569820217 0 -0.013669905935545122 0.00049480435390551563 0 -0.014451683496070218 0.00066935147942220744 0 -0.014491102683029312 0.00072344407290661191 0 -0.014472183394529461 0.00069505178365374554 0 -0.014447110885736889 0.00070000002419354571 0 -0.014459606625162469 0.00070284393507107307 0 -0.014445647682100908 0.00067938850633412953 0 -0.014450051135666846 0.00071478117522809533 0 -0.014447110885736889 0.00070000002419354571 0 -0.014463178701685822 0.00071867023527819301 0 -0.014463178701685822 0.00071867023527819301 0 -0.014472183394529461 0.00069505178365374554 0 -0.014459606625162469 0.00070284393507107307 0 -0.014447110885736889 0.00070000002419354571 0 -0.014463178701685822 0.00071867023527819301 0 -0.014459606625162469 0.00070284393507107307 0 -0.014040738935741077 0.00056826605524647363 0 -0.01380373317565464 0.00041217341718566091 0 -0.013669905935545122 0.00049480435390551563 0 -0.012823071646279879 9.7411713083741855e-05 0 -0.013307890542120393 -0.00026323136488320671 0 -0.014472183394529461 0.00069505178365374554 0 -0.014459606625162469 0.00070284393507107307 0 -0.014445647682100908 0.00067938850633412953 0 -0.0094618716934313004 0.001031826611381344 0 -0.0092170154883862276 0.00065066306336435576 0 -0.013669905935545122 0.00049480435390551563 0 -0.013785948892880377 -0.00023939599065476771 0 -0.013307890542120393 -0.00026323136488320671 0 -0.014288111518692104 0.00045196947569820217 0 -0.013669905935545122 0.00049480435390551563 0 -0.013785948892880377 -0.00023939599065476771 0 -0.013785948892880377 -0.00023939599065476771 0 -0.013307890542120393 -0.00026323136488320671 0 -0.013278199818006067 -0.00097830729748411404 0 -0.0045978763308389837 0.001599463024061578 0 -0.0043629511742709799 0.0019188036727667739 0 -0.0046563140636948011 0.0020123918488705807 0 -0.0045978763308389837 0.001599463024061578 0 -0.0050408134906972995 0.002057653906110363 0 -0.0046563140636948011 0.0020123918488705807 0 -0.0092170154883862276 0.00065066306336435576 0 -0.0084613237936503119 0.0010822509173836928 0 -0.013307890542120393 -0.00026323136488320671 0 -0.012987400743456116 -0.00070992684629804926 0 -0.013278199818006067 -0.00097830729748411404 0 -0.01380373317565464 0.00041217341718566091 0 -0.012897201403550201 -0.00066445910135497579 0 -0.012823071646279879 9.7411713083741855e-05 0 -0.013307890542120393 -0.00026323136488320671 0 -0.012987400743456116 -0.00070992684629804926 0 -0.012657524899911858 -0.0006127355338794632 0 -0.012776577565436925 0.00017307059379586577 0 -0.012987400743456116 -0.00070992684629804926 0 -0.01046560454191809 -0.00050414387096257829 0 -0.0084613237936503119 0.0010822509173836928 0 -0.012657524899911858 -0.0006127355338794632 0 -0.012987400743456116 -0.00070992684629804926 0 -0.013278199818006067 -0.00097830729748411404 0 -0.0047004119869842381 0.0014088017899637356 0 -0.0043723988936512481 0.0015721313720236886 0 -0.0040824132819104438 0.0016119198579604851 0 -0.0047004119869842381 0.0014088017899637356 0 -0.0046192973149591721 0.0017259566457926132 0 -0.0043723988936512481 0.0015721313720236886 0 -0.0043723988936512481 0.0015721313720236886 0 -0.0042891921192672496 0.001552056265505593 0 -0.0040824132819104438 0.0016119198579604851 0 -0.0043102707079848857 0.0015517960193223992 0 -0.0043723988936512481 0.0015721313720236886 0 -0.0042891921192672496 0.001552056265505593 0 -0.0043102707079848857 0.0015517960193223992 0 -0.0045978763308389837 0.001599463024061578 0 -0.0042891921192672496 0.001552056265505593 0 -0.0042891921192672496 0.001552056265505593 0 -0.0040824132819104438 0.0016119198579604851 0 -0.0043629511742709799 0.0019188036727667739 0 -0.0045978763308389837 0.001599463024061578 0 -0.0042891921192672496 0.001552056265505593 0 -0.0043629511742709799 0.0019188036727667739 0 -0.0037789893891381513 0.0013489282751681629 0 -0.0041054616038751534 0.0015868810325134902 0 -0.0040824132819104438 0.0016119198579604851 0 -0.0032826260166063707 0.0024713810647535965 0 -0.0026797480143130018 0.0020830011090175594 0 -0.0040824132819104438 0.0016119198579604851 0 -0.0032826260166063707 0.0024713810647535965 0 -0.0040086780488687596 0.0022948753969190025 0 -0.0032826260166063707 0.0024713810647535965 0 -0.0040086780488687596 0.0022948753969190025 0 -0.0038623938797090148 0.0028751633693808584 0 -0.0040824132819104438 0.0016119198579604851 0 -0.0043629511742709799 0.0019188036727667739 0 -0.0040086780488687596 0.0022948753969190025 0 -0.0043629511742709799 0.0019188036727667739 0 -0.0040086780488687596 0.0022948753969190025 0 -0.0043886816511627038 0.0026345138897441041 0 -0.0038623938797090148 0.0028751633693808584 0 -0.0043886816511627038 0.0026345138897441041 0 -0.0043376662543654987 0.003320118814306871 0 -0.0040086780488687596 0.0022948753969190025 0 -0.0038623938797090148 0.0028751633693808584 0 -0.0043886816511627038 0.0026345138897441041 0 -0.0038623938797090148 0.0028751633693808584 0 -0.0031599246723890352 0.0031313650572274902 0 -0.0037920071880911139 0.0034544839392617916 0 -0.0032826260166063707 0.0024713810647535965 0 -0.0038623938797090148 0.0028751633693808584 0 -0.0031599246723890352 0.0031313650572274902 0 -0.0056993505180569304 0.0029999943756514155 0 -0.0051059514972235532 0.0020472580176734683 0 -0.0049134754595619601 0.0025580170856693315 0 -0.004049655849824748 0.0010880235805173482 0 -0.0084613237936503119 0.0010822509173836928 0 -0.0084613237936503119 0.0010822509173836928 0 -0.0056121138739199999 0.0023762440948442063 0 -0.0043629511742709799 0.0019188036727667739 0 -0.0043886816511627038 0.0026345138897441041 0 -0.0046145962645306408 0.0022939980954355529 0 -0.0048551239730851474 0.002189576677166342 0 -0.0046145962645306408 0.0022939980954355529 0 -0.0049134754595619601 0.0025580170856693315 0 -0.0051059514972235532 0.0020472580176734683 0 -0.0048551239730851474 0.002189576677166342 0 -0.0049134754595619601 0.0025580170856693315 0 -0.0050408134906972995 0.002057653906110363 0 -0.0048551239730851474 0.002189576677166342 0 -0.0046563140636948011 0.0020123918488705807 0 -0.0048551239730851474 0.002189576677166342 0 -0.0046563140636948011 0.0020123918488705807 0 -0.0046145962645306408 0.0022939980954355529 0 -0.0043629511742709799 0.0019188036727667739 0 -0.0046563140636948011 0.0020123918488705807 0 -0.0046145962645306408 0.0022939980954355529 0 -0.0043886816511627038 0.0026345138897441041 0 -0.0046145962645306408 0.0022939980954355529 0 -0.0049134754595619601 0.0025580170856693315 0 -0.0043886816511627038 0.0026345138897441041 0 -0.0048505537279613367 0.00314445512450931 0 -0.0043376662543654987 0.003320118814306871 0 -0.0043886816511627038 0.0026345138897441041 0 -0.0048505537279613367 0.00314445512450931 0 -0.0049134754595619601 0.0025580170856693315 0 -0.0056993505180569304 0.0029999943756514155 0 -0.0048505537279613367 0.00314445512450931 0 -0.0049134754595619601 0.0025580170856693315 0 -0.004049655849824748 0.0010880235805173482 0 -0.0020587816377749318 0.0030482661126747363 0 0.00049484540933472795 0.0020492180193363943 0 0.00042116147909118852 0.0016221117213306006 0 0.00070317032897642198 0.0019300040864347972 0 -0.0056993505180569304 0.0029999943756514155 0 -0.0048505537279613367 0.00314445512450931 0 -0.0051499689564215015 0.0036243287538997764 0 -0.0048505537279613367 0.00314445512450931 0 -0.0051499689564215015 0.0036243287538997764 0 -0.0046359757352759032 0.0036538240761846831 0 -0.0048505537279613367 0.00314445512450931 0 -0.0046359757352759032 0.0036538240761846831 0 -0.0043376662543654987 0.003320118814306871 0 -0.0046359757352759032 0.0036538240761846831 0 -0.0043376662543654987 0.003320118814306871 0 -0.0042196927640194299 0.003741123928170094 0 -0.0020587816377749318 0.0030482661126747363 0 -0.00079095345965884479 0.0025922457277776441 0 0.0011280667534261659 0.0022530155995700097 0 -0.00079095345965884479 0.0025922457277776441 0 -0.0051499689564215015 0.0036243287538997764 0 -0.0046359757352759032 0.0036538240761846831 0 -0.0045894481199223423 0.0042365557015766383 0 -0.0046359757352759032 0.0036538240761846831 0 -0.0045894481199223423 0.0042365557015766383 0 -0.0042196927640194299 0.003741123928170094 0 0.0014324857776395962 0.0025225711186770603 0 0.0014501193349709504 0.0025256544533806286 0 0.0014290388781262576 0.0026612823696896561 0 -0.0002369567582030042 0.0028779292491271325 0 -0.00079095345965884479 0.0025922457277776441 0 0.00067936125030763775 0.0022928865825721473 0 0.00070317032897642198 0.0019300040864347972 0 0.00093977704359240891 0.002214705732782886 0 0.00049484540933472795 0.0020492180193363943 0 0.00067936125030763775 0.0022928865825721473 0 0.00070317032897642198 0.0019300040864347972 0 -0.0037920071880911139 0.0034544839392617916 0 -0.0037393130253952811 0.0040351864046163418 0 -0.0028295391554996707 0.0038408283998582664 0 -0.0031599246723890352 0.0031313650572274902 0 -0.0037920071880911139 0.0034544839392617916 0 -0.0028295391554996707 0.0038408283998582664 0 -0.0038623938797090148 0.0028751633693808584 0 -0.0037920071880911139 0.0034544839392617916 0 -0.0043376662543654987 0.003320118814306871 0 -0.0037920071880911139 0.0034544839392617916 0 -0.0043376662543654987 0.003320118814306871 0 -0.0042196927640194299 0.003741123928170094 0 -0.0037920071880911139 0.0034544839392617916 0 -0.0042196927640194299 0.003741123928170094 0 -0.0037393130253952811 0.0040351864046163418 0 -0.0045894481199223423 0.0042365557015766383 0 -0.0042196927640194299 0.003741123928170094 0 -0.0037393130253952811 0.0040351864046163418 0 0.0014348436725409894 0.0025590577708145983 0 0.0014290388781262576 0.0026612823696896561 0 0.0013705335791391155 0.002856268585764449 0 0.0014501193349709504 0.0025256544533806286 0 0.0014290388781262576 0.0026612823696896561 0 0.0013705335791391155 0.002856268585764449 0 -0.00079095345965884479 0.0025922457277776441 0 -0.001390615353003941 0.0035470698377417587 0 -0.001390615353003941 0.0035470698377417587 0 -0.001066241065173459 0.0035076888799018399 0 0.00099734105828304474 0.0027933898851515457 0 0.0013705335791391155 0.002856268585764449 0 0.00062742143707848698 0.0032386380577227722 0 0.0014348436725409894 0.0025590577708145983 0 0.00099734105828304474 0.0027933898851515457 0 0.0013705335791391155 0.002856268585764449 0 0.00044071300758005976 0.0025715758633310581 0 0.00099734105828304474 0.0027933898851515457 0 0.00062742143707848698 0.0032386380577227722 0 0.00044071300758005976 0.0025715758633310581 0 0.00062742143707848698 0.0032386380577227722 0 3.4636426404955743e-05 0.0030391554057388448 0 -0.0031599246723890352 0.0031313650572274902 0 -0.0028295391554996707 0.0038408283998582664 0 -0.0025041219112277922 0.0032526673474074378 0 -0.001066241065173459 0.0035076888799018399 0 -0.0010791039581843501 0.0034526889145773945 0 0.00062742143707848698 0.0032386380577227722 0 -0.00030966332113199091 0.0033512148716310238 0 3.4636426404955743e-05 0.0030391554057388448 0 -0.0028295391554996707 0.0038408283998582664 0 -0.0025041219112277922 0.0032526673474074378 0 -0.0018706549715654757 0.0035902675431052026 0 0.00096511937032664095 0.0026458954359685574 0 0.00041786050781816923 0.0029130321099350878 0 -0.00030966332113199091 0.0033512148716310238 0 3.4636426404955743e-05 0.0030391554057388448 0 -0.00055073228179942316 0.0029879872734820401 0 0.00044071300758005976 0.0025715758633310581 0 3.4636426404955743e-05 0.0030391554057388448 0 -0.00055073228179942316 0.0029879872734820401 0 0.0011578802597158105 0.002751138923631229 0 0.0013544551285127344 0.0028311827934592924 0 0.0010602331716937979 0.0029971001374216161 0 0.00041786050781816923 0.0029130321099350878 0 0.00021802801057377725 0.0031389638230313725 0 0.0011578802597158105 0.002751138923631229 0 0.0010133486036840648 0.0028049073739592556 0 0.0010602331716937979 0.0029971001374216161 0 -0.00055073228179942316 0.0029879872734820401 0 -0.00065866365822273704 0.0033354557973659972 0 -0.00084244353998903668 0.0032167877690877211 0 -0.00032553836247715457 0.0028070052959324808 0 -0.00065866365822273704 0.0033354557973659972 0 -0.00084244353998903668 0.0032167877690877211 0 -0.00030966332113199091 0.0033512148716310238 0 -0.00055073228179942316 0.0029879872734820401 0 -0.00084244353998903668 0.0032167877690877211 0 -0.0010791039581843501 0.0034526889145773945 0 -0.00084387855682128109 0.0032607901728592898 0 -0.0018706549715654757 0.0035902675431052026 0 -0.00084244353998903668 0.0032167877690877211 0 -0.0015247799679415795 0.0029643218457870318 0 -0.0015247799679415795 0.0029643218457870318 0 -0.0013667042289166606 0.0024738987014517383 0 -0.0020433699649586344 0.0026519662888233745 0 -0.00084244353998903668 0.0032167877690877211 0 -0.0015247799679415795 0.0029643218457870318 0 -0.0013667042289166606 0.0024738987014517383 0 -0.00032553836247715457 0.0028070052959324808 0 -0.00084244353998903668 0.0032167877690877211 0 -0.00088458252829837127 0.0022739952382334928 0 -0.00084244353998903668 0.0032167877690877211 0 -0.00088458252829837127 0.0022739952382334928 0 -0.0013667042289166606 0.0024738987014517383 0 -0.0017280689802146789 0.002234002735620094 0 -0.0013667042289166606 0.0024738987014517383 0 -0.0020433699649586344 0.0026519662888233745 0 -0.0014426296630245642 0.0019319720108768815 0 -0.00088458252829837127 0.0022739952382334928 0 -0.0013667042289166606 0.0024738987014517383 0 -0.0014426296630245642 0.0019319720108768815 0 -0.0017280689802146789 0.002234002735620094 0 -0.0013667042289166606 0.0024738987014517383 0 -0.0014426296630245642 0.0019319720108768815 0 -0.0020587304663559846 0.0019778850217841656 0 -0.0017280689802146789 0.002234002735620094 0 -0.0020587304663559846 0.0019778850217841656 0 -0.0017280689802146789 0.002234002735620094 0 -0.0020433699649586344 0.0026519662888233745 0 -0.0020587304663559846 0.0019778850217841656 0 -0.0026797480143130018 0.0020830011090175594 0 -0.0020433699649586344 0.0026519662888233745 0 -0.0026797480143130018 0.0020830011090175594 0 -0.0027272003313615722 0.002758602248887426 0 -0.0020433699649586344 0.0026519662888233745 0 -0.0032826260166063707 0.0024713810647535965 0 -0.0026797480143130018 0.0020830011090175594 0 -0.0027272003313615722 0.002758602248887426 0 -0.0032826260166063707 0.0024713810647535965 0 -0.0031599246723890352 0.0031313650572274902 0 -0.0027272003313615722 0.002758602248887426 0 -0.0031599246723890352 0.0031313650572274902 0 -0.0025041219112277922 0.0032526673474074378 0 -0.0027272003313615722 0.002758602248887426 0 -0.0025041219112277922 0.0032526673474074378 0 -0.0018706549715654757 0.0035902675431052026 0 -0.0020433699649586344 0.0026519662888233745 0 -0.0025041219112277922 0.0032526673474074378 0 -0.0027272003313615722 0.002758602248887426 0 -0.0020433699649586344 0.0026519662888233745 0 -0.0018706549715654757 0.0035902675431052026 0 -0.0015247799679415795 0.0029643218457870318 0 -0.0020433699649586344 0.0026519662888233745 0 
</DataArray>
</PointData>
<CellData Scalars="region_id,cross_section_updated," Vectors="" Tensors="stress,">
<DataArray type="Float64" Name="region_id" format="ascii">
5 5 6 5 5 5 5 5 5 5 5 5 6 5 5 5 5 5 6 5 5 5 5 5 5 5 5 5 5 5 5 5 6 5 5 5 5 6 5 5 5 6 5 5 5 5 5 5 5 5 5 5 5 5 5 5 5 5 5 5 5 5 5 5 5 5 6 5 5 5 5 5 6 5 5 5 6 6 5 5 5 5 5 5 5 5 5 5 5 5 6 5 5 6 5 5 5 5 5 5 5 5 5 5 5 5 5 5 5 5 5 5 5 6 5 5 6 5 5 5 5 5 5 5 5 5 5 6 5 5 5 5 5 6 5 5 5 5 6 5 6 5 5 5 5 6 5 5 5 5 5 5 5 5 5 5 5 5 5 5 6 5 5 5 5 6 5 5 5 5 5 5 5 5 6 5 5 5 5 5 5 5 5 6 6 5 5 5 5 5 6 6 5 5 5 5 5 5 5 5 6 5 5 6 5 6 5 6 5 5 5 5 5 5 5 6 5 5 5 5 5 5 5 5 5 5 5 6 5 5 5 5 6 6 5 5 5 5 6 5 5 5 6 5 5 5 5 5 5 5 5 5 6 5 5 5 5 5 5 5 5 5 5 5 5 5 5 5 5 5 5 5 5 5 5 5 5 5 6 5 5 5 5 5 5 5 5 5 5 5 5 5 5 5 5 5 5 5 5 5 5 5 5 5 6 5 5 5 5 5 5 6 5 5 5 5 5 5 5 6 6 5 5 5 5 5 5 5 5 5 6 5 5 5 5 6 5 5 5 5 6 5 5 5 5 5 5 5 5 6 5 5 5 5 6 5 5 5 5 5 5 5 5 5 5 6 5 6 5 5 5 5 5 5 5 5 5 5 6 5 6 5 5 5 5 5 5 5 5 5 5 5 6 5 5 5 5 5 5 5 5 6 5 5 5 5 6 5 5 5 5 5 5 5 5 6 5 5 5 5 5 5 5 5 5 5 5 5 5 5 5 5 5 5 5 5 5 6 5 5 5 5 5 5 5 5 5 6 5 5 5 5 5 5 5 5 5 5 5 5 5 5 5 5 5 5 5 5 5 5 5 5 5 5 5 5 5 5 5 5 6 5 5 5 5 5 5 5 5 5 5 5 5 5 5 5 6 5 6 5 5 5 5 6 5 5 5 5 5 6 5 5 5 5 5 5 5 5 5 5 5 5 6 5 5 5 5 5 5 5 5 5 5 5 5 5 5 5 5 5 5 5 5 5 5 5 5 5 5 5 5 5 5 5 5 5 5 5 5 5 5 5 5 5 6 5 5 6 5 5 5 5 5 5 6 5 5 5 5 5 5 6 5 5 5 5 5 5 5 5 5 5 6 5 5 5 5 5 5 5 5 5 5 5 5 5 6 5 5 5 5 5 6 5 5 5 5 5 5 5 5 5 6 6 5 5 5 5 5 6 5 5 5 5 5 5 5 5 5 5 5 5 5 5 5 5 5 5 5 5 5 5 5 5 5 5 5 5 5 5 5 5 5 5 5 5 5 6 5 6 5 5 5 5 5 5 5 5 5 5 5 5 5 5 5 5 5 5 5 6 5 5 6 5 5 5 5 5 5 6 5 6 5 5 5 6 5 5 6 6 5 6 5 5 5 5 5 5 6 5 5 5 5 5 6 6 6 5 5 5 5 6 5 5 5 5 5 5 6 5 5 5 5 5 5 6 5 6 6 5 5 6 5 6 5 5 5 5 5 5 5 5 5 5 5 5 5 5 5 5 5 6 5 5 5 6 5 5 5 5 5 6 5 5 5 5 5 5 6 5 5 5 6 5 5 5 5 5 5 5 5 5 5 5 5 5 5 5 5 6 5 5 6 5 5 5 5 5 5 5 5 6 5 5 5 5 5 5 5 5 5 5 5 5 5 5 5 5 5 6 5 5 5 5 5 5 6 5 5 5 6 5 6 5 6 5 6 5 5 6 5 5 5 5 5 5 5 5 5 5 5 5 6 5 5 5 5 5 5 5 5 5 5 5 5 5 5 5 5 5 5 5 5 5 5 5 5 5 5 5 5 5 5 5 5 5 6 5 5 5 5 5 6 6 5 6 5 5 5 5 5 5 5 6 5 5 5 5 5 5 5 5 5 5 5 6 5 6 5 5 6 5 5 5 6 5 5 5 6 5 5 5 6 6 5 5 5 5 5 5 5 5 5 5 5 5 5 5 5 5 5 5 5 5 5 5 5 5 5 5 5 5 5 5 5 5 5 5 5 5 5 5 5 5 5 5 5 5 5 5 5 5 5 5 5 5 5 5 5 5 5 5 5 5 5 5 5 5 5 5 5 5 5 5 5 5 5 5 5 5 5 5 5 5 5 5 5 5 5 5 5 5 5 5 5 5 5 5 5 5 5 5 5 5 5 5 5 5 5 5 5 5 5 5 5 5 5 5 5 5 5 5 5 5 5 5 5 5 5 5 5 5 5 5 5 5 5 5 5 5 5 5 5 5 5 5 5 5 5 5 5 6 6 5 5 5 5 5 5 5 5 5 5 5 5 5 5 5 5 5 5 5 5 5 5 5 5 5 5 5 5 5 5 5 5 5 5 5 5 5 5 5 5 5 5 6 5 5 6 5 5 5 5 5 5 5 5 5 5 5 6 5 5 6 5 5 6 5 5 5 5 5 5 5 5 5 5 5 5 5 5 5 6 5 5 5 5 5 6 6 5 5 5 5 5 5 5 5 5 5 5 5 5 5 5 5 5 5 5 6 5 6 5 5 6 5 6 5 5 5 6 5 5 5 5 5 5 6 5 5 5 5 6 5 5 5 5 5 5 5 5 5 5 6 5 5 5 5 5 5 5 5 5 5 5 5 5 6 5 5 5 5 6 6 5 5 5 6 5 6 5 5 6 5 5 5 5 6 6 5 5 5 5 5 6 5 5 5 5 5 5 5 5 5 5 6 5 5 5 5 5 5 5 5 5 5 5 5 5 5 5 5 6 5 6 5 6 5 5 6 6 5 5 5 5 5 5 5 6 5 6 5 5 5 5 5 5 5 5 5 5 5 5 5 5 5 5 5 5 5 5 5 5 5 5 5 5 5 5 5 5 6 5 5 5 5 5 5 5 5 5 5 5 5 5 5 6 5 5 5 5 5 5 5 5 5 5 5 6 5 5 5 5 5 5 5 5 5 5 5 5 5 5 5 6 5 5 5 5 5 5 5 5 5 6 5 6 5 5 5 5 6 5 5 6 5 5 5 5 5 5 5 6 6 5 5 5 5 5 5 5 5 6 5 5 6 5 5 5 5 5 5 5 5 5 5 6 5 5 6 5 5 6 5 5 5 6 6 5 5 5 5 5 5 5 5 5 5 5 6 5 5 5 5 5 5 5 5 5 5 5 5 5 5 5 5 5 5 5 5 5 5 5 5 5 6 5 5 5 5 5 5 5 5 6 5 5 5 5 5 6 5 5 5 5 5 5 6 5 5 5 5 5 5 5 5 5 5 5 5 5 5 5 5 5 5 5 5 5 5 5 5 5 5 6 5 5 5 5 5 6 5 5 5 5 5 5 5 5 5 5 5 5 5 5 5 5 5 5 5 5 5 5 5 5 6 5 5 6 5 5 5 6 5 6 5 5 5 6 5 6 5 5 5 5 5 6 6 5 5 5 5 5 6 6 6 5 6 5 5 5 5 5 5 5 5 5 5 5 5 5 5 5 5 5 6 5 6 5 5 5 5 6 6 6 5 5 5 5 5 5 5 5 5 5 5 5 5 5 5 5 5 5 5 6 5 5 5 5 5 6 5 5 5 5 6 5 5 5 5 5 5 5 5 5 5 5 5 5 5 5 5 5 5 5 6 5 6 5 5 5 5 5 5 5 5 6 6 5 5 5 6 5 5 5 5 5 5 5 5 5 6 5 5 5 5 5 5 5 5 5 5 5 5 5 5 5 5 5 6 5 5 5 5 5 6 5 5 6 5 5 5 5 5 5 5 5 5 5 5 5 5 5 5 6 5 5 6 5 5 5 6 5 5 5 5 6 5 5 5 5 5 5 6 5 5 6 5 5 5 5 5 5 5 5 5 5 5 5 5 5 5 5 5 5 5 5 5 5 5 5 5 5 6 5 5 6 5 5 5 5 5 5 5 5 5 5 5 5 5 5 5 5 5 5 5 5 5 5 5 5 5 5 5 5 5 6 5 5 5 5 5 5 5 6 5 5 5 5 5 5 5 6 5 5 5 5 5 5 5 5 5 5 5 5 5 5 5 5 5 5 5 5 5 5 5 5 5 5 5 5 5 5 5 5 5 6 5 5 5 5 6 5 5 6 6 5 5 5 5 5 5 6 5 5 5 5 5 5 5 5 5 5 5 5 5 5 5 5 5 5 5 5 5 5 5 5 5 6 5 5 5 5 5 5 5 5 5 5 5 5 5 5 5 5 5 5 5 5 5 5 5 5 5 5 5 5 5 5 5 5 5 5 5 5 5 5 5 5 5 5 5 5 5 5 5 5 5 5 5 5 5 5 5 5 5 5 5 5 5 5 5 5 5 5 5 5 5 5 5 5 5 5 5 5 5 5 5 5 5 5 5 5 5 5 5 5 5 5 5 5 5 5 6 5 5 5 5 5 5 5 5 5 5 5 6 5 5 6 5 5 6 5 5 5 5 5 5 5 5 5 5 6 5 5 5 5 5 6 5 5 6 5 5 5 5 5 5 6 5 5 5 5 5 5 5 6 5 5 5 5 6 6 5 5 5 6 5 5 5 5 5 5 5 6 5 6 5 6 5 6 5 6 5 5 6 5 6 5 5 5 5 5 6 5 5 5 5 5 5 5 5 5 5 5 6 5 5 5 5 5 6 5 5 5 6 5 5 5 5 5 5 6 5 5 5 5 6 5 5 6 5 5 5 5 5 5 5 5 5 5 5 5 5 5 5 5 5 5 5 5 5 5 5 5 6 5 5 5 5 5 5 5 5 6 5 5 5 5 5 5 5 5 5 5 5 5 5 5 6 5 5 5 5 5 6 5 6 5 6 5 5 5 5 5 5 5 5 5 5 5 5 5 5 5 6 5 5 5 5 5 5 5 5 5 6 5 5 6 5 5 5 5 5 5 5 5 5 5 6 5 5 6 6 5 5 5 6 5 5 5 5 5 6 5 5 5 5 5 5 5 6 5 5 6 5 5 5 5 5 5 5 5 5 5 5 5 5 5 5 5 6 5 5 5 5 5 5 5 5 5 5 6 5 5 5 5 5 5 5 5 6 5 5 5 5 5 5 5 5 5 5 5 5 5 5 5 6 5 5 5 5 5 5 5 5 6 5 6 6 5 5 5 5 5 5 5 5 5 5 5 5 5 5 5 5 5 6 5 6 5 6 5 5 5 6 6 5 5 5 5 5 5 5 5 6 5 5 5 5 5 5 6 5 5 5 5 5 5 5 5 5 5 5 5 5 5 5 5 5 5 5 5 5 5 5 5 5 6 5 5 5 5 5 6 5 5 5 5 6 5 6 5 5 6 5 6 5 5 6 5 5 6 5 5 6 5 6 5 6 5 6 5 5 5 5 5 5 5 6 5 5 5 5 5 5 5 5 5 6 5 5 5 5 5 5 5 5 5 5 5 5 5 5 5 5 5 5 6 5 5 5 5 5 6 5 5 5 5 5 5 5 5 5 6 5 5 5 5 5 5 5 6 5 5 5 5 5 5 5 5 5 5 5 5 5 5 5 5 5 5 5 6 6 5 5 5 5 5 6 5 6 5 5 6 5 5 5 5 6 5 5 5 6 5 5 5 5 6 5 5 5 5 5 6 5 5 5 6 5 6 5 6 5 5 5 6 5 5 5 5 6 5 5 6 5 5 5 6 5 5 5 5 5 5 5 5 5 5 5 5 6 5 5 5 5 5 5 5 5 5 6 5 5 5 5 5 5 5 5 5 5 5 5 5 5 5 5 5 5 5 5 5 5 5 5 5 5 5 5 5 5 5 5 5 5 5 5 5 5 5 5 5 5 5 5 5 5 5 5 6 5 5 5 5 5 5 5 5 5 5 5 5 5 5 5 5 5 5 6 5 6 5 5 5 5 5 5 5 5 5 5 5 5 5 5 5 5 5 5 5 5 5 5 5 5 5 6 5 6 5 5 5 5 6 5 6 5 6 5 5 5 5 5 6 6 5 5 6 6 5 5 5 5 5 5 5 6 5 5 5 5 5 5 5 6 5 5 5 5 5 5 6 6 5 5 5 5 6 6 5 5 5 5 5 5 5 5 5 5 5 5 5 5 5 5 5 5 5 5 5 5 5 5 5 5 5 5 6 5 5 6 5 5 5 5 5 5 5 5 5 5 5 5 5 5 5 5 5 5 6 5 6 5 5 5 5 5 5 5 5 5 5 5 5 5 5 5 6 5 5 6 5 5 5 5 5 5 5 5 5 5 5 6 5 5 5 5 5 5 5 5 6 5 5 5 5 5 5 5 5 5 5 5 5 5 5 5 5 5 5 5 5 5 5 5 6 5 5 5 5 5 5 5 5 6 5 6 5 5 6 5 6 5 6 5 6 5 5 6 5 5 5 5 5 5 5 5 5 5 6 5 5 5 5 5 5 5 5 5 5 5 5 5 5 5 5 5 5 5 6 6 5 5 6 5 5 5 5 5 5 5 5 5 5 5 5 5 5 5 5 5 5 5 5 5 5 5 5 5 5 5 5 5 5 5 5 5 5 5 5 5 5 5 5 6 5 5 5 5 5 5 5 5 6 5 5 6 5 5 5 6 5 5 5 6 5 6 5 6 6 5 5 5 5 5 6 5 5 5 5 5 5 6 5 5 5 5 5 5 5 6 6 5 5 5 5 5 5 5 5 6 5 5 5 5 6 5 5 5 5 5 5 6 5 5 5 5 5 5 5 5 6 5 5 5 6 5 5 5 5 5 5 5 5 5 6 5 5 5 5 5 5 5 6 5 5 5 5 5 5 6 5 5 5 5 5 5 5 5 5 6 5 5 5 5 6 6 5 5 5 5 5 5 5 5 5 5 5 5 5 5 5 5 5 6 5 5 5 5 5 5 5 5 5 5 5 5 5 5 5 5 5 5 5 5 5 6 5 5 5 5 6 5 5 5 6 5 5 5 5 5 5 5 5 5 5 5 5 5 5 5 5 5 6 5 5 5 5 5 6 5 6 5 5 5 5 6 5 5 5 5 5 5 5 5 5 6 5 5 5 5 5 5 5 5 5 5 5 5 5 5 5 5 5 5 5 5 5 5 5 5 5 5 5 5 5 5 5 5 5 5 5 5 5 5 5 5 5 5 5 5 5 5 5 5 5 5 5 5 5 5 5 5 5 5 5 5 5 5 6 5 5 5 5 5 6 5 6 5 5 5 5 5 5 5 5 5 5 5 5 5 5 5 5 5 5 5 5 5 5 6 5 5 5 5 5 6 5 5 5 5 5 5 5 6 5 5 5 5 5 5 6 6 5 5 5 5 5 5 5 5 5 5 5 5 5 6 5 5 5 5 5 5 5 5 5 5 5 5 6 5 5 5 5 5 6 5 5 5 5 5 5 5 5 5 5 5 5 5 5 5 5 5 5 5 6 5 5 5 5 5 5 5 5 5 5 6 5 5 5 5 5 6 5 5 5 6 5 5 5 5 5 6 5 5 5 5 5 5 5 5 5 5 5 5 6 5 5 5 5 6 5 5 5 5 6 5 5 6 5 5 6 5 5 5 5 5 6 5 5 5 6 5 5 5 6 5 5 5 5 5 5 5 5 5 5 6 5 5 5 5 5 5 5 5 6 5 5 5 5 6 5 5 6 6 5 5 5 5 5 5 5 5 6 5 5 6 5 5 6 5 5 5 6 5 5 5 5 5 5 5 5 6 5 5 5 5 5 6 5 5 6 5 5 5 5 5 6 5 5 5 6 5 5 5 5 6 5 5 5 6 5 6 5 5 5 6 5 5 5 5 5 5 5 5 5 5 5 5 5 5 5 5 5 5 5 5 5 5 5 5 5 5 5 5 5 5 5 5 5 5 5 5 5 5 5 5 5 5 5 5 6 6 6 6 5 5 5 5 5 6 5 5 5 5 5 5 5 5 5 5 6 5 5 5 6 6 5 5 6 5 5 5 5 5 5 5 5 6 5 5 6 6 5 5 6 6 5 5 5 5 5 5 5 5 5 6 5 5 5 5 5 5 6 5 5 5 5 5 5 5 5 5 5 5 5 5 5 5 5 5 5 5 5 5 5 5 5 5 6 5 5 5 5 5 6 6 5 6 5 5 5 6 5 5 5 6 5 5 5 6 5 5 5 6 5 5 5 6 5 6 5 5 5 5 5 5 5 5 5 5 5 5 5 5 5 5 6 5 5 5 5 5 5 5 5 5 5 5 6 5 5 6 6 5 5 5 5 5 5 5 5 6 5 5 5 5 5 5 5 5 6 5 6 5 5 5 5 5 5 5 5 5 5 6 5 5 5 6 5 5 5 6 5 5 5 5 5 6 5 6 5 5 5 5 5 5 5 5 5 5 5 5 5 5 5 5 5 5 5 5 5 5 6 5 5 5 5 5 5 5 5 5 5 5 5 5 5 5 5 5 6 6 5 6 5 5 5 5 5 5 5 6 5 5 5 5 6 5 5 5 5 5 5 5 5 5 5 5 5 5 5 5 5 5 5 5 6 5 5 6 5 5 5 5 5 5 5 5 6 5 5 5 6 5 5 5 5 5 5 5 5 5 5 5 5 6 5 5 5 5 5 5 5 5 5 5 5 5 5 5 5 5 5 5 5 5 5 5 5 5 5 5 5 5 5 5 5 6 5 5 5 6 5 5 5 6 5 5 5 6 5 5 6 5 5 5 5 5 5 5 5 5 5 5 5 5 5 5 5 5 5 5 6 5 5 5 6 5 5 5 5 5 5 5 5 5 5 6 5 5 6 5 5 5 5 5 6 5 6 5 5 5 6 5 5 5 5 5 5 5 5 5 5 5 5 5 5 6 6 5 5 5 5 5 5 5 5 5 5 5 5 5 5 5 5 5 5 5 5 5 6 6 5 5 5 5 5 5 5 5 5 5 5 5 6 5 5 5 5 5 5 5 5 5 5 6 5 5 6 5 5 5 5 5 5 6 5 5 6 5 5 5 5 5 6 5 5 5 5 5 5 5 5 6 5 6 5 5 5 5 6 5 5 5 5 5 5 5 5 5 5 6 5 5 5 5 5 5 5 5 5 5 5 6 5 6 5 6 5 5 5 5 5 5 6 5 5 5 5 5 5 5 5 6 6 5 5 5 5 5 5 5 5 5 6 5 5 5 5 5 6 6 6 5 5 5 5 6 5 5 5 5 6 5 5 5 5 5 5 6 5 5 5 5 5 5 6 5 5 5 5 6 5 5 6 6 5 5 5 5 5 5 5 5 5 6 5 5 6 5 5 5 5 5 5 5 5 5 5 5 5 5 5 5 5 5 5 5 5 5 5 5 5 5 5 6 5 5 5 6 5 5 5 5 5 5 6 5 5 5 5 5 5 5 5 5 5 6 5 5 6 5 5 5 5 5 5 5 5 5 5 5 5 5 5 6 5 5 5 5 5 5 5 5 5 5 5 5 5 5 5 5 5 5 5 5 5 5 5 5 5 5 5 5 5 6 5 5 5 5 5 5 5 5 5 5 5 5 5 5 5 5 5 5 5 5 5 5 5 5 5 5 5 5 5 5 5 5 5 5 5 5 5 5 5 5 5 5 5 5 5 5 5 5 5 5 5 5 5 5 5 5 5 5 5 5 5 5 5 5 5 5 5 5 5 5 5 5 5 5 5 5 5 5 5 5 5 5 5 5 5 5 5 5 5 5 5 5 6 5 5 5 5 5 6 5 5 5 5 5 5 5 5 5 5 5 6 5 5 5 5 6 5 6 6 5 6 5 5 5 5 5 5 5 5 6 5 5 5 5 5 5 5 5 5 5 5 5 5 5 5 5 5 5 5 5 5 5 5 5 5 5 5 5 5 5 5 5 5 5 5 6 6 5 5 6 5 5 6 5 5 6 5 5 5 5 6 5 6 5 5 5 6 5 6 5 6 6 6 5 5 6 6 5 5 5 5 5 5 5 6 5 5 5 5 5 5 6 5 5 6 5 6 5 5 5 5 5 6 5 5 6 5 5 5 5 5 5 5 5 5 5 5 5 5 5 5 5 5 5 5 6 5 5 6 6 5 6 5 6 5 5 5 6 6 5 5 5 5 6 5 5 5 5 5 5 5 5 5 5 5 5 5 5 5 6 5 5 5 6 5 5 5 5 6 5 5 6 5 5 5 5 5 5 5 5 5 6 5 5 5 5 5 5 5 5 5 5 5 5 5 5 5 5 5 5 5 5 5 5 5 5 6 5 5 5 5 5 5 5 5 5 5 5 5 6 5 5 5 5 6 5 5 6 5 5 5 5 5 5 6 5 5 5 5 5 5 6 6 6 5 5 5 6 5 5 5 5 5 5 5 5 5 5 5 5 5 6 5 5 5 5 5 5 5 5 6 5 5 6 5 6 5 5 5 5 5 6 6 5 5 5 5 5 5 5 5 5 6 6 5 5 5 5 5 5 5 6 5 5 5 5 5 5 5 5 5 5 5 5 5 5 5 5 5 5 5 5 5 5 5 5 6 5 5 5 5 5 5 5 5 5 5 5 5 5 5 5 5 5 5 5 5 5 5 5 5 5 5 5 5 5 5 6 5 6 5 5 5 6 5 5 5 5 6 5 5 5 6 5 5 5 5 5 5 5 6 6 5 5 6 5 5 5 5 5 5 5 5 5 5 5 5 5 5 5 6 6 5 5 5 5 5 6 5 5 5 5 5 6 5 5 5 6 5 5 5 5 5 5 5 5 5 5 5 5 5 5 5 5 5 5 5 5 5 5 5 5 6 5 5 6 5 5 6 5 5 5 5 5 5 5 5 5 5 5 5 5 5 5 5 5 5 5 5 5 5 5 5 5 6 5 5 5 6 5 5 5 5 5 5 5 5 5 5 5 5 5 5 5 5 5 5 5 5 5 5 5 5 5 5 5 5 5 5 5 5 5 5 5 5 5 5 5 5 5 5 5 5 5 5 5 5 6 5 5 5 5 5 5 5 5 5 5 5 5 6 5 5 5 5 5 5 5 5 6 5 6 5 5 5 5 5 5 5 5 5 5 5 5 5 5 5 6 5 5 5 5 5 5 5 5 6 6 5 5 6 5 5 5 5 6 5 6 5 5 5 5 5 6 6 5 5 5 5 5 5 5 5 5 5 5 5 5 5 5 5 5 5 5 5 5 5 5 5 6 5 5 5 5 6 5 6 5 5 5 5 5 5 5 5 5 5 5 5 5 5 5 5 5 5 5 5 6 5 5 6 5 5 5 5 5 5 5 5 5 5 5 5 5 5 5 5 6 5 5 5 5 5 5 6 6 5 5 5 5 5 5 5 5 5 5 5 5 5 5 5 5 5 5 5 5 5 5 5 5 5 5 6 5 5 5 5 5 5 5 5 5 5 5 5 5 5 5 5 5 5 6 5 5 5 5 5 5 5 5 6 5 6 5 5 5 5 5 5 5 5 5 5 5 6 5 5 5 5 5 5 5 5 5 5 5 5 5 5 6 5 5 5 5 6 5 5 5 5 6 5 6 6 5 5 5 5 6 5 5 5 5 5 5 5 6 5 5 6 6 5 5 5 5 5 5 5 5 6 5 5 5 5 5 5 5 5 5 5 5 5 5 5 5 5 5 5 6 5 5 5 6 5 5 5 5 6 5 5 5 5 5 5 5 5 5 5 5 5 5 5 6 5 5 5 5 5 5 5 5 5 5 5 5 6 5 5 5 5 5 6 5 5 5 5 5 5 5 6 5 5 5 5 5 5 5 6 5 5 6 5 6 5 5 5 6 5 5 5 5 5 5 5 5 5 5 5 5 5 5 6 5 5 5 5 5 5 5 5 5 5 6 5 5 5 6 5 5 6 5 5 5 6 5 6 5 5 5 5 5 5 5 6 5 5 5 5 5 5 6 5 5 5 5 5 5 5 5 5 5 5 5 6 5 5 5 5 5 5 5 5 6 5 5 5 5 5 5 5 5 5 6 5 5 5 5 5 5 5 6 5 5 5 5 5 5 5 5 5 5 5 5 5 6 5 5 5 6 5 6 6 5 5 5 5 5 5 6 5 5 5 5 5 5 5 5 5 5 5 5 5 5 5 6 5 5 5 5 5 5 6 5 5 5 5 5 5 5 5 5 5 5 5 5 5 6 5 6 5 5 5 5 6 5 5 5 5 5 5 6 5 5 5 5 5 5 6 5 5 5 5 5 5 5 5 5 5 5 5 5 5 5 5 5 5 5 5 5 5 5 5 5 5 5 5 5 5 5 5 5 5 5 5 5 5 5 5 5 5 5 5 5 5 5 5 5 6 5 5 5 5 6 5 6 5 5 5 5 5 5 5 5 5 5 5 5 5 5 5 5 5 5 5 6 5 6 5 5 5 5 6 5 6 6 5 5 5 5 6 6 6 5 5 6 6 5 5 5 5 5 5 5 5 5 5 5 5 5 5 5 5 5 6 5 5 5 5 6 5 5 5 6 5 5 5 5 5 5 5 5 6 5 5 5 5 5 5 5 5 5 5 5 5 5 6 5 6 5 5 5 5 5 5 5 5 5 5 5 6 5 5 5 5 5 5 5 5 6 5 6 6 5 6 5 5 6 5 5 5 5 5 5 5 5 5 5 5 5 5 5 5 5 5 5 5 6 5 5 6 5 5 5 5 5 5 5 6 5 5 6 5 5 5 5 5 6 5 5 6 5 5 6 6 5 5 5 5 5 5 5 6 5 5 5 5 5 6 5 6 5 5 5 5 6 5 6 5 5 5 5 5 5 5 5 5 5 5 5 5 5 5 5 5 5 6 5 5 6 5 6 5 5 5 5 5 5 5 5 5 5 5 5 5 5 5 5 5 5 5 6 5 5 5 5 5 5 5 5 5 5 5 5 5 5 5 5 5 5 5 6 5 5 5 5 6 5 5 6 5 5 5 5 5 6 5 5 5 5 5 5 5 5 5 5 5 5 6 5 5 5 5 5 5 5 6 5 5 5 5 5 5 5 5 5 5 5 6 5 5 6 5 6 5 5 5 5 6 5 5 5 5 6 5 6 5 5 5 6 5 5 5 5 6 5 5 5 5 5 5 5 5 5 5 5 5 5 5 5 6 6 5 5 5 5 6 5 6 5 5 5 5 6 5 5 5 5 5 6 5 5 6 5 5 5 6 5 5 6 5 5 6 5 5 5 5 5 5 5 5 5 5 5 5 5 5 6 5 5 5 5 6 5 5 5 5 5 6 5 5 5 5 5 5 5 5 5 5 5 5 5 5 5 5 5 5 5 5 5 5 5 5 5 5 5 5 5 5 5 5 5 6 5 5 5 5 5 5 6 5 5 5 5 5 5 6 5 5 5 6 5 5 5 5 5 6 5 5 6 5 5 5 6 5 5 5 5 5 5 5 5 5 5 5 5 5 5 5 5 5 5 5 5 5 5 5 5 5 5 5 5 5 5 5 5 5 5 5 5 5 6 5 5 5 6 5 5 5 5 5 5 5 5 5 6 5 5 6 5 5 5 5 5 5 5 5 5 5 5 6 5 5 5 6 5 5 5 5 5 5 5 5 5 6 5 5 5 5 6 5 5 5 5 5 5 5 5 5 6 5 5 5 5 6 5 5 5 5 5 5 5 5 5 5 5 5 5 5 5 5 5 6 6 5 5 5 5 6 5 5 5 5 6 5 6 5 5 5 5 5 5 5 5 5 6 5 5 6 5 5 5 5 5 5 5 5 5 5 5 6 5 5 5 5 5 5 5 5 5 5 5 5 5 5 5 6 5 5 5 5 5 5 5 5 6 5 5 5 5 5 6 5 5 5 5 5 5 6 5 5 5 5 5 5 5 5 5 5 5 5 5 5 5 5 5 5 5 5 5 5 5 5 5 5 5 5 5 5 5 5 5 5 5 5 5 5 5 5 5 5 5 5 5 5 5 5 5 5 5 5 5 5 5 5 6 5 5 5 5 5 5 5 5 5 5 5 5 5 5 5 6 5 5 5 5 5 5 5 5 5 5 5 6 5 5 6 5 5 5 5 5 5 5 5 6 5 5 5 5 5 5 5 5 6 6 5 5 5 5 5 6 5 5 5 5 5 5 5 5 5 6 5 5 5 5 5 5 5 5 5 5 5 5 5 5 5 5 5 5 5 5 5 5 5 5 5 5 5 5 5 5 5 5 6 5 5 6 5 5 5 5 5 5 5 5 5 6 5 5 5 5 5 5 5 5 5 5 5 5 5 5 5 5 5 5 5 5 5 5 5 5 5 5 5 5 5 5 5 6 5 5 5 5 5 6 5 5 5 5 5 5 6 5 5 5 5 6 6 5 5 5 5 5 6 5 5 5 5 5 5 5 5 5 5 5 5 6 5 5 5 5 5 5 5 5 5 5 5 5 5 5 5 5 5 5 5 5 5 5 5 5 5 5 5 5 5 5 5 5 5 5 5 5 5 5 5 5 5 5 5 5 5 5 5 5 6 5 5 5 5 5 5 5 5 5 5 5 5 5 5 5 5 5 5 5 5 5 5 5 5 5 6 5 5 5 5 5 5 5 5 5 5 5 5 6 5 5 5 5 5 5 5 5 5 5 5 5 5 5 5 5 5 5 5 5 6 5 5 5 5 6 5 5 5 6 6 5 5 5 5 6 5 5 5 5 5 5 5 6 5 5 5 5 5 6 5 5 5 6 5 5 5 5 6 5 5 5 5 5 5 5 5 5 5 5 5 5 6 5 5 5 5 5 6 5 6 5 5 6 5 5 5 6 6 5 5 5 5 5 5 6 6 5 6 5 5 5 5 5 5 5 5 5 5 5 5 5 5 5 5 5 5 5 5 5 5 5 5 5 5 5 5 5 6 5 5 5 5 5 5 5 5 5 5 5 5 5 5 5 5 5 5 5 5 5 5 5 5 5 5 5 5 5 5 5 5 5 6 5 5 5 5 5 5 5 6 5 5 5 5 5 5 5 5 5 5 5 5 5 6 5 5 5 5 5 5 5 5 6 5 6 5 6 5 5 5 5 5 5 5 5 5 5 5 5 6 5 5 5 5 5 5 6 5 5 5 5 5 5 5 5 5 5 5 5 5 5 5 5 5 5 5 5 5 5 5 5 5 5 5 5 5 5 5 5 5 6 5 5 5 5 5 5 5 5 5 5 6 5 5 5 5 6 5 5 5 5 5 5 5 5 5 5 5 5 5 5 5 6 5 5 5 5 5 6 5 5 5 5 6 5 5 5 6 5 5 6 5 5 6 5 5 5 5 5 6 5 5 5 5 5 6 5 5 6 5 5 5 5 6 5 5 5 6 5 5 5 5 5 5 5 5 5 5 5 5 5 5 5 5 5 5 5 5 5 5 5 5 5 6 5 5 5 5 5 6 5 6 5 5 5 5 6 5 6 5 5 6 5 5 5 5 5 5 5 6 5 5 5 5 5 5 5 5 5 5 5 5 5 5 5 5 5 5 5 6 6 5 5 5 5 5 5 5 5 6 5 6 5 5 5 5 5 6 5 5 5 5 5 5 5 5 5 5 5 5 5 5 5 5 5 5 5 5 5 5 5 5 5 5 5 5 6 5 5 6 5 5 5 6 5 5 6 5 6 6 5 5 5 5 5 5 5 5 6 5 6 5 6 5 5 5 5 5 5 5 5 5 5 5 6 5 5 5 5 5 5 6 5 5 5 5 5 6 6 5 5 5 5 5 6 5 5 5 6 5 6 5 6 5 5 5 5 6 5 5 6 5 5 6 5 6 5 5 5 5 5 5 5 5 5 5 5 5 5 6 5 5 5 5 6 5 5 5 5 5 5 5 5 5 5 5 6 5 5 6 5 5 5 6 5 6 6 5 5 5 5 5 5 5 6 5 5 5 5 5 5 5 5 5 5 6 5 5 6 5 5 5 5 5 5 5 5 5 5 5 5 5 6 5 6 5 5 5 5 5 5 5 5 5 5 5 5 6 5 5 5 5 5 5 5 5 5 5 5 6 5 5 5 6 5 5 5 5 5 5 5 5 5 5 6 5 6 5 5 6 5 5 5 6 5 5 6 5 5 5 6 5 5 6 5 5 5 5 6 6 5 5 5 6 5 5 5 6 5 5 5 5 5 5 5 5 5 6 5 5 5 5 5 5 5 5 5 5 6 6 5 5 5 5 5 5 5 6 6 5 5 5 6 5 6 5 5 5 5 5 5 5 5 5 5 5 5 5 5 5 5 5 5 5 5 5 5 5 5 5 5 5 5 5 5 5 5 5 5 5 5 5 6 5 5 5 5 5 5 5 6 5 6 5 5 6 5 5 6 6 5 5 5 6 5 6 5 5 5 6 6 5 6 6 5 6 5 5 6 6 5 6 5 5 5 5 5 5 5 5 5 5 5 5 5 5 5 5 6 5 5 5 5 6 6 6 5 5 5 6 6 5 5 5 5 5 5 6 5 6 6 5 5 5 6 5 5 5 6 5 5 5 5 6 5 6 5 5 6 5 5 5 5 5 5 5 5 5 5 5 5 5 5 5 5 5 5 5 5 5 5 5 5 5 5 5 5 5 5 5 5 5 5 5 5 6 5 5 5 5 5 5 5 5 5 5 5 5 5 5 5 5 5 5 5 5 5 5 5 5 5 5 5 5 5 5 5 5 5 5 5 5 5 5 5 5 5 5 5 5 5 5 5 5 5 5 5 5 5 5 5 5 5 5 5 5 5 5 5 6 5 5 5 6 6 5 5 5 5 5 5 5 5 5 5 5 5 5 5 5 6 5 5 5 6 5 6 6 5 5 5 5 5 5 5 5 5 5 6 5 5 6 6 5 6 5 6 5 5 5 5 5 5 5 5 5 5 5 5 5 5 5 5 5 6 6 6 5 5 5 5 5 6 5 5 5 5 5 5 5 5 5 5 5 5 5 5 5 5 5 5 5 5 5 5 5 5 5 5 5 5 5 6 5 5 5 5 5 5 6 5 5 5 5 5 5 5 5 5 6 6 5 5 5 5 5 5 5 6 6 5 5 5 6 5 5 5 5 6 5 6 6 6 5 5 5 5 6 5 5 5 5 6 5 5 5 5 6 5 5 5 5 5 6 6 5 5 5 5 5 5 6 5 5 6 5 5 5 5 5 6 5 5 5 5 5 5 5 6 5 5 5 5 5 5 5 6 5 5 5 5 5 5 5 5 5 5 5 5 5 5 5 5 5 5 5 5 5 5 5 5 5 5 6 5 5 5 5 5 5 5 5 5 5 5 5 5 5 5 5 5 6 5 5 6 5 6 5 5 6 5 5 5 5 6 6 5 5 5 5 5 5 5 5 5 5 6 5 5 5 5 5 5 5 5 5 5 5 5 5 5 5 5 5 5 5 5 5 5 5 5 5 5 5 5 5 5 5 5 5 5 5 5 5 5 5 5 5 5 5 5 5 5 5 6 5 5 5 5 5 5 5 5 5 6 5 5 5 6 6 6 5 5 5 5 6 5 5 6 6 5 5 6 6 5 5 5 5 5 5 5 5 5 5 5 5 6 5 5 5 5 6 5 5 5 5 5 5 5 5 5 5 6 5 5 5 5 5 5 5 5 5 5 5 5 5 5 5 6 5 6 6 5 5 5 6 5 5 5 5 5 5 5 5 5 5 5 5 5 5 5 5 5 5 5 5 5 5 5 5 5 5 5 5 5 5 5 5 5 6 5 5 5 5 5 5 5 5 5 5 6 5 5 5 5 5 6 5 5 5 5 5 5 5 5 5 5 6 5 5 5 6 5 5 5 5 5 5 5 5 5 5 5 5 5 5 5 5 5 5 5 5 5 5 5 5 6 5 6 5 5 5 5 5 5 6 5 5 5 5 5 5 5 6 5 5 5 5 5 6 5 5 5 5 5 6 5 6 5 5 5 5 5 5 6 5 5 5 5 5 6 5 5 5 5 5 5 5 5 5 5 5 5 5 5 5 5 6 5 5 5 5 5 5 5 6 5 6 6 6 5 6 5 5 5 5 5 5 5 5 5 5 6 5 5 5 5 5 5 5 5 5 5 5 5 5 6 5 5 5 5 5 6 5 5 5 5 5 6 5 5 5 5 5 6 5 5 6 5 6 6 5 5 6 5 5 5 6 6 5 5 6 5 5 5 5 6 5 5 5 5 5 6 5 5 5 5 5 5 5 5 6 6 5 5 5 6 5 5 6 5 5 6 5 5 5 5 6 5 5 5 6 5 6 5 5 6 6 5 6 6 5 5 5 5 6 6 6 5 5 5 5 5 5 5 5 5 5 5 5 6 5 5 5 5 5 5 5 5 6 6 6 5 5 5 6 6 6 5 5 5 5 5 5 5 5 5 5 5 5 5 6 5 5 5 6 5 5 5 6 5 5 5 5 6 5 5 5 6 5 5 5 6 5 5 5 5 5 5 5 5 5 5 5 5 5 5 5 5 5 5 5 5 5 5 5 5 5 5 5 5 6 5 6 5 5 5 5 5 5 5 5 5 5 5 5 5 5 5 5 5 5 5 5 6 6 5 5 5 5 5 5 6 5 5 5 5 5 5 6 5 5 5 5 5 5 5 5 5 5 6 5 5 5 5 6 5 6 5 5 6 5 5 6 5 6 5 5 5 6 5 6 5 5 6 5 6 5 6 5 6 5 5 6 5 5 5 6 5 5 5 5 5 5 5 5 5 5 5 6 6 6 6 5 5 5 6 5 5 6 5 5 5 6 6 5 5 5 5 5 5 5 6 5 5 5 5 5 5 6 6 5 5 5 5 5 6 6 6 5 5 5 5 5 5 5 5 5 6 5 5 5 5 5 5 5 5 5 5 6 5 5 5 5 5 5 5 5 5 5 5 5 5 5 5 5 5 6 5 5 5 5 5 5 6 5 5 5 5 5 6 5 5 5 5 5 5 5 5 5 5 5 5 5 5 5 5 5 5 5 5 5 5 5 5 5 5 5 5 5 5 5 5 5 5 5 5 5 5 5 5 5 5 6 5 5 5 5 5 5 5 5 5 5 5 5 5 5 5 5 6 5 5 5 5 5 5 5 5 5 5 5 5 5 5 5 5 5 6 5 6 5 5 5 5 5 5 5 5 5 5 5 5 5 5 5 5 5 5 5 5 5 5 5 5 5 6 5 5 5 5 6 5 5 5 5 5 5 5 5 5 5 5 5 5 6 5 5 5 5 5 5 5 5 5 5 5 5 5 5 5 5 5 5 5 5 5 5 5 5 5 5 5 5 5 5 5 5 5 5 5 6 5 5 5 5 5 5 5 5 5 6 5 5 5 6 5 5 5 5 5 5 5 5 5 5 5 5 5 5 5 5 5 5 5 5 5 5 5 5 5 5 5 5 5 6 5 5 5 5 6 5 5 5 6 5 5 5 5 5 5 5 5 5 5 5 5 5 6 5 5 5 5 5 5 5 5 5 5 5 5 5 5 5 5 5 5 6 5 5 5 5 5 5 5 6 5 5 6 5 5 5 5 5 5 5 5 6 5 5 6 5 5 5 5 5 6 5 5 6 5 6 5 5 5 5 5 5 5 5 5 5 6 6 6 6 5 5 6 5 5 5 5 5 5 6 5 5 5 5 5 5 5 5 5 5 5 5 5 6 5 5 6 5 5 5 6 5 5 5 5 5 5 5 5 5 5 5 5 5 5 5 5 5 6 5 5 6 5 5 5 5 5 5 5 5 5 6 5 5 5 6 5 5 5 5 6 5 5 5 5 5 5 6 6 5 5 5 5 5 5 5 5 6 5 5 6 5 5 5 5 6 5 5 5 5 5 5 5 6 5 5 5 6 5 5 5 5 5 5 5 5 5 5 5 5 5 5 5 5 5 5 5 5 5 5 5 5 6 5 5 5 6 5 5 5 6 5 6 5 6 5 5 5 5 6 5 6 6 5 6 5 5 5 5 5 5 6 5 5 6 6 5 5 6 5 5 6 5 5 6 5 5 5 5 5 6 5 5 5 5 6 5 5 6 6 5 5 5 6 5 5 5 5 5 6 5 6 5 5 5 5 6 5 5 5 5 5 5 5 5 5 5 5 5 5 5 5 5 5 5 5 5 5 5 5 5 5 5 5 5 5 6 5 5 5 6 5 5 5 5 5 5 5 5 5 5 6 5 5 5 5 5 5 5 5 5 5 5 6 5 5 5 5 5 6 5 5 5 6 5 5 5 5 6 6 5 5 5 5 5 5 5 6 5 5 5 5 5 5 5 5 5 6 5 5 5 5 5 5 5 5 5 5 5 6 5 5 5 5 5 5 5 5 5 5 5 5 5 5 5 5 5 5 5 5 5 6 5 5 5 5 5 5 5 5 5 5 5 5 5 5 5 5 5 5 5 5 5 5 5 5 5 5 5 5 5 5 5 5 5 5 5 5 6 5 5 5 5 5 5 5 5 5 5 5 6 5 5 5 6 6 5 5 5 5 6 5 6 5 5 6 6 5 5 5 6 5 5 5 5 5 6 5 5 5 6 5 5 5 5 5 5 5 5 5 5 5 5 6 5 5 5 5 5 5 5 5 6 6 5 5 5 5 5 5 5 5 5 6 5 5 5 6 6 5 5 5 5 5 6 5 6 6 5 6 5 5 5 6 6 5 5 6 5 5 6 6 5 5 5 6 5 6 5 5 6 5 5 5 5 5 5 5 6 5 5 5 5 5 5 5 5 5 6 5 5 6 5 6 5 5 6 5 5 6 6 5 5 5 5 5 5 5 5 5 5 5 5 6 6 5 5 5 5 5 5 5 6 5 5 5 5 5 5 5 6 6 5 5 5 5 5 5 5 5 5 5 5 5 6 6 5 5 5 6 5 5 5 6 5 5 5 5 5 6 5 5 5 5 5 5 5 5 5 5 5 5 5 5 5 5 5 5 5 5 5 5 6 5 5 5 5 6 5 5 5 5 5 5 5 5 5 5 5 5 5 5 6 5 5 5 5 5 5 6 5 6 5 5 6 5 5 5 6 5 6 5 5 5 6 5 5 5 5 5 5 6 5 5 5 5 5 5 5 5 5 5 5 5 6 5 5 5 5 5 5 5 6 5 5 5 5 5 5 5 5 5 6 5 5 6 5 5 5 5 5 5 6 5 5 5 5 6 6 5 5 6 5 5 5 5 5 5 5 5 5 5 5 5 5 5 5 5 6 5 5 6 5 5 5 5 6 5 6 5 5 5 5 5 6 5 5 5 5 6 5 6 5 5 6 5 5 5 5 5 6 5 5 6 5 5 6 5 5 5 5 5 5 5 5 5 6 5 6 5 5 5 5 6 5 5 6 6 5 5 5 5 6 6 5 6 5 5 5 5 6 6 6 5 5 6 5 5 6 6 5 5 5 5 6 5 5 5 5 6 5 5 6 5 5 5 5 5 5 5 6 5 5 5 5 5 5 5 5 6 5 5 5 5 6 5 5 5 5 5 5 5 5 5 5 5 5 5 5 6 5 5 5 5 5 5 5 5 5 5 5 6 5 5 5 5 5 6 5 5 5 5 5 5 5 5 5 5 5 5 5 5 5 5 5 5 5 5 5 5 5 5 5 5 5 5 5 5 5 5 5 5 5 5 5 5 5 5 5 5 5 5 5 5 5 5 5 5 5 5 5 5 5 5 5 5 5 5 5 5 6 5 5 6 5 5 5 5 5 5 5 5 5 5 5 5 5 5 5 5 6 5 5 5 5 5 5 5 5 5 5 6 5 5 5 5 5 5 5 5 5 5 5 5 5 5 5 5 5 5 6 5 6 5 5 5 5 5 6 6 5 5 5 5 5 5 5 5 5 5 6 6 6 5 5 6 5 5 6 5 5 6 5 5 5 5 5 5 5 5 5 5 5 5 5 5 5 5 5 5 6 5 5 5 5 5 6 5 5 5 5 6 5 6 5 5 5 5 6 5 5 5 5 5 5 5 5 5 5 5 5 5 5 5 5 5 5 5 5 5 5 5 5 5 5 5 5 5 5 5 5 6 5 5 5 5 5 5 5 6 5 5 5 6 5 5 5 5 5 5 5 6 5 5 5 5 5 5 5 5 5 5 5 5 5 5 5 5 5 5 5 5 5 5 5 5 6 5 5 5 5 6 5 5 5 6 5 5 5 5 5 5 5 5 5 5 5 6 5 5 5 5 5 6 5 5 5 5 5 5 5 6 5 5 5 5 5 6 5 5 5 5 5 5 5 5 5 6 5 5 5 5 5 5 5 5 5 5 5 5 5 5 6 5 5 5 5 5 5 5 5 5 5 5 5 5 5 6 6 5 5 5 5 5 5 5 5 5 5 5 5 5 5 5 5 5 5 5 5 5 5 5 5 5 5 5 5 5 5 5 5 5 5 5 5 5 5 5 6 6 5 5 5 5 5 5 5 5 5 5 5 6 5 5 5 5 5 5 5 5 5 6 5 5 5 5 5 6 5 5 5 5 6 5 5 5 5 5 5 5 5 5 5 5 5 5 5 5 5 5 5 5 5 5 5 5 5 5 6 5 5 6 5 6 5 6 5 5 5 5 5 5 6 5 6 5 5 5 5 5 6 5 5 5 5 5 5 5 5 5 5 5 5 5 5 5 5 5 5 5 5 5 5 5 5 5 5 5 5 5 5 6 5 5 5 5 6 5 5 5 5 5 5 5 5 5 6 5 5 5 5 5 5 5 5 5 5 6 5 6 6 5 5 5 5 5 5 5 5 5 5 5 5 5 5 5 5 6 5 5 5 5 5 5 5 5 5 5 5 5 5 5 5 5 5 5 5 5 5 5 5 6 5 5 5 5 5 5 5 5 6 6 5 5 5 5 5 6 6 5 5 5 6 5 5 5 5 5 5 5 6 5 5 6 5 5 5 5 5 6 5 6 5 5 6 5 5 5 5 5 5 5 5 6 5 5 5 5 5 5 5 5 5 5 6 6 5 5 5 5 5 5 5 5 5 5 6 5 5 5 5 5 6 6 5 5 5 6 5 5 5 5 5 5 5 5 5 5 6 6 5 5 5 5 5 6 5 5 6 5 5 5 6 5 5 5 5 6 5 5 5 5 5 5 5 5 5 5 5 5 5 5 5 5 5 5 
</DataArray>
<DataArray type="Float64" Name="stress" NumberOfComponents="9" format="ascii">
-2223.7964564651265 33.408121736146967 0 33.408121736146967 0.057304202834727203 0 0 0 0 -2499.7583237316867 233.958552844737 0 233.958552844737 115.6947614190082 0 0 0 0 -5.516974262008425 -0.6017932644922297 0 -0.6017932644922297 1.6263329760991347 0 0 0 0 -3605.3868715923891 363.7317901154758 0 363.7317901154758 2.5873749385125628 0 0 0 0 -1957.629555662963 194.50192211806683 0 194.50192211806683 -67.574051038147303 0 0 0 0 -1557.6853262429213 -66.6371839068226 0 -66.6371839068226 -158.98053940731495 0 0 0 0 -3256.158840869417 69.287089364636913 0 69.287089364636913 69.280225019608224 0 0 0 0 -2377.4651068063031 371.64823678721513 0 371.64823678721513 -2.9709278781137316 0 0 0 0 -2410.6950349864055 349.54565704682659 0 349.54565704682659 -13.098581108808519 0 0 0 0 -2543.2955597227701 434.2433306096296 0 434.2433306096296 -63.58767988584475 0 0 0 0 -2149.1513508902462 195.20832752656219 0 195.20832752656219 8.4024151266659146 0 0 0 0 -1914.5400865209449 -57.13945072237965 0 -57.13945072237965 -33.624557066123089 0 0 0 0 -5.7025719251192015 -2.0339918539306296 0 -2.0339918539306296 2.8434401076891405 0 0 0 0 -1808.7693068388908 205.77269431538826 0 205.77269431538826 -57.270229546703916 0 0 0 0 -1737.4895058797083 124.90910083551915 0 124.90910083551915 -352.11216136804785 0 0 0 0 -1738.7082496303192 235.82548698384545 0 235.82548698384545 -277.86080715717088 0 0 0 0 -1773.5112385961984 174.64475638510882 0 174.64475638510882 -109.72529240754204 0 0 0 0 -1774.4384807121096 150.35278229883585 0 150.35278229883585 -195.90637072069737 0 0 0 0 -4.1324627169537536 1.7893915457875806 0 1.7893915457875806 -1.5663921798576992 0 0 0 0 -1325.5017026224232 222.30770240003466 0 222.30770240003466 -203.67470670259274 0 0 0 0 -1708.7873324011089 244.07217749251362 0 244.07217749251362 -77.335020798001892 0 0 0 0 -1960.3328617736552 244.75285197108093 0 244.75285197108093 -224.98025052404739 0 0 0 0 -1357.9924102215082 200.08220132680412 0 200.08220132680412 -489.81318563934599 0 0 0 0 -1236.8272448491334 -855.21460009231293 0 -855.21460009231293 417.38914846690091 0 0 0 0 -952.81304998186533 -53.1749561346642 0 -53.1749561346642 -146.4318573311574 0 0 0 0 -1187.1805943477884 249.5322954049355 0 249.5322954049355 -291.27479845168904 0 0 0 0 -1876.4135971019932 -315.58336260301246 0 -315.58336260301246 116.47868177409219 0 0 0 0 215.13985292857251 78.5954409383165 0 78.5954409383165 -290.53167740991535 0 0 0 0 -516.36053530467325 -700.92626575502595 0 -700.92626575502595 225.15721949640164 0 0 0 0 -2475.6888423897071 -465.51907214557582 0 -465.51907214557582 354.80260812394096 0 0 0 0 -1670.8954899376113 -820.71447387890089 0 -820.71447387890089 467.71168053580652 0 0 0 0 -1527.7256231763749 -917.81105270119542 0 -917.81105270119542 447.29824242062932 0 0 0 0 -6.0567778380973323 1.6575157719216378 0 1.6575157719216378 -1.4496043786836807 0 0 0 0 -1358.0435166123061 37.990827697784916 0 37.990827697784916 0.20825586900638787 0 0 0 0 -1616.5190847626654 -157.24875963668302 0 -157.24875963668302 -1020.8024862283405 0 0 0 0 -1926.0755202590444 62.987460425163661 0 62.987460425163661 111.1225335456031 0 0 0 0 -1237.0168973034597 313.23290219951161 0 313.23290219951161 -177.37303457966203 0 0 0 0 -6.8764350981699067 -1.070992689995947 0 -1.070992689995947 0.2693564568308901 0 0 0 0 -107.58574898171355 371.82236717982659 0 371.82236717982659 -198.1397516087402 0 0 0 0 -1283.2629603787209 1180.880390741552 0 1180.880390741552 -243.89151660475335 0 0 0 0 232.02099937534877 -131.39729703094721 0 -131.39729703094721 -0.21207969821361955 0 0 0 0 -7.8872524933306067 0.19756944323361125 0 0.19756944323361125 0.28597388080226022 0 0 0 0 -1887.3909536197789 718.66313182940962 0 718.66313182940962 146.24292082483922 0 0 0 0 -1355.4798181635997 655.25883535335879 0 655.25883535335879 125.1619689684704 0 0 0 0 -1338.6491488221654 763.72136675978095 0 763.72136675978095 -101.75679053217434 0 0 0 0 -845.68143975897692 588.32871935985554 0 588.32871935985554 -230.25648415084672 0 0 0 0 -322.65840951858627 915.40838636460114 0 915.40838636460114 -242.02512433600612 0 0 0 0 -804.00572908687172 81.096926716548637 0 81.096926716548637 0.79982329085904058 0 0 0 0 -747.75723625368846 126.63287207072179 0 126.63287207072179 -3.4569800932350319 0 0 0 0 -1133.6623859199208 347.08664849951475 0 347.08664849951475 28.6896908611524 0 0 0 0 -1354.9456545513676 71.521992568545386 0 71.521992568545386 -3.1722817391878584 0 0 0 0 -691.07117152053979 263.1780228165361 0 263.1780228165361 -112.28731521261257 0 0 0 0 -721.96117550177041 139.24608978736111 0 139.24608978736111 -18.805487311947498 0 0 0 0 -651.4119631434005 258.92315447616551 0 258.92315447616551 -63.048353639139805 0 0 0 0 -337.75752296479186 68.22952603478771 0 68.22952603478771 -61.321830808833724 0 0 0 0 -1113.7942847658087 584.44872602590158 0 584.44872602590158 -79.069251190026932 0 0 0 0 -757.82397812532145 185.28727074426527 0 185.28727074426527 -31.894751248133304 0 0 0 0 -528.79662993945021 121.40918753335262 0 121.40918753335262 61.447047405336889 0 0 0 0 -345.20253656384011 357.72202493440454 0 357.72202493440454 -235.66924321570724 0 0 0 0 60.121889192552771 100.77920952967304 0 100.77920952967304 63.269719874873545 0 0 0 0 -340.98778681051044 90.226692803899482 0 90.226692803899482 -92.111810727823567 0 0 0 0 -388.61565049736237 107.83561788900207 0 107.83561788900207 65.45547664288938 0 0 0 0 -1244.873394518967 564.10135212978764 0 564.10135212978764 -316.8186731917142 0 0 0 0 -1460.8270932711748 358.50406425833705 0 358.50406425833705 -267.91939355283705 0 0 0 0 -1195.0549476576489 438.73707849240407 0 438.73707849240407 -78.093135599703842 0 0 0 0 -2025.9257911541281 583.09214502444524 0 583.09214502444524 -296.85738202424608 0 0 0 0 -0.97125441015383274 1.9136861595841879 0 1.9136861595841879 -2.3658758289912436 0 0 0 0 74.507526997615059 72.139665512875581 0 72.139665512875581 -147.28887935120156 0 0 0 0 -1663.6667879657034 329.85795437353204 0 329.85795437353204 -183.16448099094458 0 0 0 0 -1807.7509924087426 335.24179678246583 0 335.24179678246583 -183.34574293121943 0 0 0 0 -154.41907351517875 41.679342302215559 0 41.679342302215559 61.814557776400306 0 0 0 0 -303.15281382703688 157.1035971582578 0 157.1035971582578 19.255580452184802 0 0 0 0 0.14275433793758197 6.3333326400167493 0 6.3333326400167493 -6.5578968918374292 0 0 0 0 -1917.2099261443436 351.65087552422256 0 351.65087552422256 -91.049190307657881 0 0 0 0 -556.99597356739105 85.774045622756489 0 85.774045622756489 -13.668028077582676 0 0 0 0 -105.90421287766367 -166.23008811393197 0 -166.23008811393197 -54.115963433035915 0 0 0 0 -0.76053887892879857 -1.2277455035477232 0 -1.2277455035477232 0.26122581507356579 0 0 0 0 -2.6075441315418999 -0.88992418554803976 0 -0.88992418554803976 -0.070948878856838427 0 0 0 0 -557.26587217798806 89.394479503918205 0 89.394479503918205 39.684845153110246 0 0 0 0 -346.08300217124633 170.24604256870498 0 170.24604256870498 -44.145193002250039 0 0 0 0 -312.47486868666601 53.361248096165582 0 53.361248096165582 -90.177633556622368 0 0 0 0 -312.40082038380206 61.993195285150705 0 61.993195285150705 48.103188803648436 0 0 0 0 -202.75938706225134 139.66000937440253 0 139.66000937440253 0.068847929240178019 0 0 0 0 -312.42583695364738 128.50009108209798 0 128.50009108209798 5.4520912298589792 0 0 0 0 -143.50783099765249 -31.514743870912071 0 -31.514743870912071 36.281793047276324 0 0 0 0 -389.9604147285736 45.775753095817095 0 45.775753095817095 12.126202028626722 0 0 0 0 -136.2042947792761 -23.81481805178845 0 -23.81481805178845 36.553951630788106 0 0 0 0 -383.269127237465 369.38812756396396 0 369.38812756396396 -168.16702924336812 0 0 0 0 -308.67186148084875 255.18775856675211 0 255.18775856675211 -125.05770305775377 0 0 0 0 -261.73548689848394 -290.42828790316719 0 -290.42828790316719 211.36105633160878 0 0 0 0 -7.0884735454946224 -1.6204138544713445 0 -1.6204138544713445 -0.73566194230529236 0 0 0 0 4.3039072698666132 -148.4095891887888 0 -148.4095891887888 90.657718998485507 0 0 0 0 -61.242758108137423 94.03243980959482 0 94.03243980959482 175.01379699077961 0 0 0 0 1.9747800249978908 10.961753801145989 0 10.961753801145989 -8.4387764532037295 0 0 0 0 -1880.6350568221224 370.84631428688886 0 370.84631428688886 -6.8608929597270389 0 0 0 0 -1837.6541529774331 311.1083811817515 0 311.1083811817515 -72.753178364989353 0 0 0 0 -382.40617242707958 87.384847359943535 0 87.384847359943535 144.61928209290636 0 0 0 0 -549.58305075936369 251.8264882967901 0 251.8264882967901 44.998986358006277 0 0 0 0 -67.580074195931957 -303.62114214906353 0 -303.62114214906353 -390.82425810765244 0 0 0 0 -630.40084388559626 -133.55338069296909 0 -133.55338069296909 176.39667160608269 0 0 0 0 -450.95891785547428 310.31854279012759 0 310.31854279012759 158.66495926788139 0 0 0 0 -1871.5869970636704 369.42305209242539 0 369.42305209242539 -15.01656367469463 0 0 0 0 -1817.8868713361444 406.62233393178633 0 406.62233393178633 -29.055664103223791 0 0 0 0 -2497.1180805839781 328.09247507084598 0 328.09247507084598 117.44186611237022 0 0 0 0 -1878.5847933697751 350.84889257383372 0 350.84889257383372 54.652072149729207 0 0 0 0 -1997.3467167335475 390.21831334499018 0 390.21831334499018 62.080622440980406 0 0 0 0 -1742.2652195450646 231.10032466978979 0 231.10032466978979 40.199938210588662 0 0 0 0 -1828.3455843907177 332.94223301628801 0 332.94223301628801 -78.36961221789015 0 0 0 0 -1739.5838485396234 388.36164048651551 0 388.36164048651551 -156.59913370251968 0 0 0 0 -1316.9296078074767 225.44669622743794 0 225.44669622743794 -98.416382156818031 0 0 0 0 -1883.4059040707434 113.85730064968439 0 113.85730064968439 359.76549969469102 0 0 0 0 6.9501270160253625 405.59599105899201 0 405.59599105899201 -163.59348760755731 0 0 0 0 -1786.154886487966 634.32088217719877 0 634.32088217719877 -140.70809019146853 0 0 0 0 -8.4628168299283715 3.8655760830365864 0 3.8655760830365864 -1.1009390422518872 0 0 0 0 -2262.3553690795598 664.48990943505839 0 664.48990943505839 17.684975775159657 0 0 0 0 -1905.6594954410357 354.26780101393229 0 354.26780101393229 3.4786257946391856 0 0 0 0 -3.9793266596108552 -0.89834070754591266 0 -0.89834070754591266 1.147290401981748 0 0 0 0 -1787.4219114826337 251.37976851465612 0 251.37976851465612 20.634068879033727 0 0 0 0 -1689.0478892027095 218.51985597822679 0 218.51985597822679 -86.650148409740154 0 0 0 0 -1771.7289926453814 265.70571126047577 0 265.70571126047577 -125.73437239553904 0 0 0 0 -1786.6035703265807 272.74789332355238 0 272.74789332355238 -129.04660922030592 0 0 0 0 -1746.0781551515538 264.39583236553199 0 264.39583236553199 -103.65739826684543 0 0 0 0 -1671.4663325314468 300.64785391926284 0 300.64785391926284 -111.68250430127826 0 0 0 0 -1726.0082710168354 308.16097448037669 0 308.16097448037669 -108.48745254163239 0 0 0 0 -132.30965280196688 21.878445001056605 0 21.878445001056605 84.197082460719798 0 0 0 0 9.5941539459054184 -4.3627357381174647 0 -4.3627357381174647 27.567724685687267 0 0 0 0 -14.747599129499577 9.6848948405349233 0 9.6848948405349233 -0.94601485483576653 0 0 0 0 0.81493744552184921 6.3617797867944574 0 6.3617797867944574 3.2877059105221371 0 0 0 0 -231.94329134825966 21.721386129557345 0 21.721386129557345 12.334197941077605 0 0 0 0 -77.68562775744067 48.48537552411733 0 48.48537552411733 -36.474784634114144 0 0 0 0 -34.982940599380527 11.489129365345434 0 11.489129365345434 23.189949783493148 0 0 0 0 -86.297926846280461 49.321696626896482 0 49.321696626896482 12.833467209348214 0 0 0 0 58.488161160959862 -8.2296739215789785 0 -8.2296739215789785 -29.09996002716241 0 0 0 0 0.79138348077124476 0.041036524516727013 0 0.041036524516727013 -0.59519596963084087 0 0 0 0 -24.521543289083638 121.20727536312012 0 121.20727536312012 -10.276429909696844 0 0 0 0 -32.608830406676134 0.19150071462616403 0 0.19150071462616403 12.434933226464693 0 0 0 0 -38.239807505011413 -15.092456983308411 0 -15.092456983308411 17.124676590363606 0 0 0 0 -23.877871120945201 -7.5111082691498439 0 -7.5111082691498439 3.5636894222411826 0 0 0 0 -30.747814648048376 -4.2616397974878062 0 -4.2616397974878062 0.68020492373847519 0 0 0 0 -18.162423191024573 -15.182697982813117 0 -15.182697982813117 -2.8252219837859087 0 0 0 0 -2.2304496639132481 -0.54958964169787805 0 -0.54958964169787805 0.73794896427329637 0 0 0 0 -26.939360862383182 -18.4359003505811 0 -18.4359003505811 -2.8449851480086892 0 0 0 0 -31.584258317947388 -11.003049579921424 0 -11.003049579921424 2.7805864005152143 0 0 0 0 -49.431957744600368 -22.369484936192297 0 -22.369484936192297 22.688019182533957 0 0 0 0 11.411809587389143 27.124610468224564 0 27.124610468224564 -0.033176779379815453 0 0 0 0 -0.23045603907911527 0.13826486115000591 0 0.13826486115000591 -0.049667637186046804 0 0 0 0 -87.181216043216409 -50.559303343289059 0 -50.559303343289059 -21.829111905054898 0 0 0 0 -35.919424046245695 -19.734383573592353 0 -19.734383573592353 -13.515767504879602 0 0 0 0 -65.605299583417946 -0.45010854104931752 0 -0.45010854104931752 10.572698419777026 0 0 0 0 -37.212967773721175 6.9966661566583763 0 6.9966661566583763 4.9976305975667685 0 0 0 0 -36.592514041694812 6.553224731373561 0 6.553224731373561 0.68024411150482678 0 0 0 0 -39.07822542226495 14.624728863761314 0 14.624728863761314 -0.092811309634546535 0 0 0 0 -86.540132095243166 1.3317373935802581 0 1.3317373935802581 10.983427594810692 0 0 0 0 -6.963435357727576 -5.2073389593288599 0 -5.2073389593288599 7.4661770167871069 0 0 0 0 -12.092185747707845 14.901163353848183 0 14.901163353848183 -4.4052741256014833 0 0 0 0 -4.5518689689342864 -1.125751451984117 0 -1.125751451984117 -1.1467853318272176 0 0 0 0 -0.81939886350301094 -0.078594369150902565 0 -0.078594369150902565 -3.4307006291595883 0 0 0 0 -23.359367685872712 8.4118375029023014 0 8.4118375029023014 2.5766245210234047 0 0 0 0 -22.538754472616347 0.32471239801511453 0 0.32471239801511453 4.2287575076682344 0 0 0 0 -25.505980524756978 1.3882531005555228 0 1.3882531005555228 4.047042981031737 0 0 0 0 -5.1382183112156952 -2.0420745279056973 0 -2.0420745279056973 1.1507993661690139 0 0 0 0 -28.297977774549508 -0.0057036459729857825 0 -0.0057036459729857825 9.9929129074954162 0 0 0 0 -36.925524051781395 -3.2144295641623302 0 -3.2144295641623302 10.120760426740503 0 0 0 0 -38.50398682654486 5.7181785898248734 0 5.7181785898248734 8.4646017639638558 0 0 0 0 -36.593007859861245 -3.2983641079155888 0 -3.2983641079155888 17.449952718043178 0 0 0 0 -32.828002678372599 -4.9752023497730598 0 -4.9752023497730598 -0.25645238858736263 0 0 0 0 -57.890551059113932 -37.7838148794267 0 -37.7838148794267 125.28146681269823 0 0 0 0 -20.407633897819323 -62.196886932447796 0 -62.196886932447796 73.628450890753584 0 0 0 0 -86.142521926842164 10.859223996964033 0 10.859223996964033 81.268760753886681 0 0 0 0 -63.069735213415697 -1.8746120677355975 0 -1.8746120677355975 102.89234818098566 0 0 0 0 -38.167675804637838 9.6611627050451716 0 9.6611627050451716 50.22447020719278 0 0 0 0 -13.040086950088153 35.549463711521867 0 35.549463711521867 129.10464965421329 0 0 0 0 -2.4500519998255186 -59.368196278118376 0 -59.368196278118376 128.34986251365868 0 0 0 0 -25.19415451392706 -2.5426299763446991 0 -2.5426299763446991 2.0902763962363906 0 0 0 0 -10.750362219199985 -0.74381833189863755 0 -0.74381833189863755 3.1379859379205461 0 0 0 0 15.944064630020875 50.130795097826422 0 50.130795097826422 250.91870533618504 0 0 0 0 -7.2913507497287355 -19.217701635610865 0 -19.217701635610865 235.04287106985333 0 0 0 0 53.081205903145019 -26.136337359354684 0 -26.136337359354684 93.590116320639936 0 0 0 0 -41.189149777928833 4.374380977300234 0 4.374380977300234 123.79419695237107 0 0 0 0 -0.26633657643105835 -40.925635978778359 0 -40.925635978778359 154.05814750824084 0 0 0 0 -37.176867005153326 -18.968443152140935 0 -18.968443152140935 170.8347889968536 0 0 0 0 8.0990623301186133 19.274487186361966 0 19.274487186361966 195.98363862100132 0 0 0 0 17.844752885212074 -56.86730146646164 0 -56.86730146646164 24.211950014361264 0 0 0 0 -32.140885180617659 -8.0949514202846444 0 -8.0949514202846444 0.24404476321264046 0 0 0 0 -32.839095176834974 -3.7413668620739351 0 -3.7413668620739351 0.088790312180072939 0 0 0 0 -111.21325515987701 -11.278163045325527 0 -11.278163045325527 212.29051321959901 0 0 0 0 -15.265975486036041 -26.03383768204867 0 -26.03383768204867 6.4036505392243868 0 0 0 0 -4.7876606599311344 -47.017340470161457 0 -47.017340470161457 45.095805092894608 0 0 0 0 -66.86122901775525 10.340811385266761 0 10.340811385266761 183.79099549010073 0 0 0 0 33.013876852171961 -85.073967424540115 0 -85.073967424540115 249.8936990233201 0 0 0 0 -30.912995111389478 -5.2794799309228502 0 -5.2794799309228502 -0.45980049320174077 0 0 0 0 -28.44438679208929 -4.0429025494196154 0 -4.0429025494196154 -0.1648889268030812 0 0 0 0 -33.338377174666675 -74.324293939761674 0 -74.324293939761674 117.75503967190724 0 0 0 0 -1.2279200105549535 -19.196971724864113 0 -19.196971724864113 44.565281893265251 0 0 0 0 0.97628798097503022 -22.863315136784848 0 -22.863315136784848 -21.836495637491112 0 0 0 0 -1.3824465244833846 -61.723676405127691 0 -61.723676405127691 5.0335086185755529 0 0 0 0 2.7551578960192273 -25.84801749592603 0 -25.84801749592603 -18.186583598334096 0 0 0 0 -12.000589858405874 -29.977222819489597 0 -29.977222819489597 8.6888554354725756 0 0 0 0 -0.33844164723814174 1.6690709831253716 0 1.6690709831253716 -1.4101432766432973 0 0 0 0 29.183024038968142 15.541520362471786 0 15.541520362471786 -29.708810101782177 0 0 0 0 0.12861642307247223 0.53386240506749516 0 0.53386240506749516 0.10977173077121866 0 0 0 0 -4.0618485034374316 10.123579296860942 0 10.123579296860942 4.1152674759368315 0 0 0 0 -2.3069613757907064 0.89380044824728733 0 0.89380044824728733 0.57402718376529416 0 0 0 0 0.17379233677118577 0.14732462866822793 0 0.14732462866822793 -0.14831432384535195 0 0 0 0 2.3579411190294195 1.9532152521984185 0 1.9532152521984185 0.040159283022932708 0 0 0 0 -1.6787212123070958 0.3680467656355475 0 0.3680467656355475 0.05011098244036738 0 0 0 0 -1.7569475021227845 0.72016501773575914 0 0.72016501773575914 0.17430923847710961 0 0 0 0 -0.70029063734695285 0.0076593601187227023 0 0.0076593601187227023 0.24530688764515032 0 0 0 0 24.339378655233304 -5.0659059073413335 0 -5.0659059073413335 -72.396596810026892 0 0 0 0 -21.89717756434402 -45.058265942792161 0 -45.058265942792161 -41.653623553597356 0 0 0 0 -1.4349888589931652 0.14133292227350833 0 0.14133292227350833 0.0014814857546698078 0 0 0 0 32.645507303646809 -49.727107031751871 0 -49.727107031751871 -116.72308453356848 0 0 0 0 -0.85477678498864407 50.309889214686841 0 50.309889214686841 39.198898514793605 0 0 0 0 -385.79434499749914 -141.08730822873468 0 -141.08730822873468 33.485426620710719 0 0 0 0 -1.4347305467235856 0.14150317560497538 0 0.14150317560497538 0.00013074742721929611 0 0 0 0 -1.0931302975230039 -0.10229698991207137 0 -0.10229698991207137 0.036471403804722795 0 0 0 0 -85.134063524834346 -39.195692187991469 0 -39.195692187991469 -105.60484174605011 0 0 0 0 -357.28157590376213 -6.2217169909861552 0 -6.2217169909861552 -46.80930563775393 0 0 0 0 -355.78772828260844 -5.031235061611028 0 -5.031235061611028 -52.795306334448703 0 0 0 0 -84.24072832420643 4.3994590461470011 0 4.3994590461470011 -49.409916200417427 0 0 0 0 -346.77689165231277 65.738191489568479 0 65.738191489568479 -26.68683703754624 0 0 0 0 -14.782788866941701 -60.99493476550191 0 -60.99493476550191 -57.50866370438861 0 0 0 0 -56.745915353792952 4.1896237089676873 0 4.1896237089676873 -46.58295395216436 0 0 0 0 -20.529739134010015 -32.29291994801693 0 -32.29291994801693 21.56889093115376 0 0 0 0 5.8758556021202821 -91.296929650581774 0 -91.296929650581774 35.933059299253813 0 0 0 0 -0.85129714841605164 13.764848550315605 0 13.764848550315605 52.386885930896995 0 0 0 0 -136.96518824373925 -19.242444489985388 0 -19.242444489985388 44.669846567801187 0 0 0 0 -21.890809714923819 -3.5476110038233912 0 -3.5476110038233912 0.6459361341116947 0 0 0 0 -132.31926086109161 -23.099799599368794 0 -23.099799599368794 164.81872876168666 0 0 0 0 -1.063604564536945 -39.277604365853676 0 -39.277604365853676 25.137025394860785 0 0 0 0 13.30245040295631 -26.519206512295991 0 -26.519206512295991 -6.6364097279537901 0 0 0 0 2.724958327909917 -6.7672266004718278 0 -6.7672266004718278 -23.69152334292599 0 0 0 0 -3.6395360088674806 -4.1459960709871879 0 -4.1459960709871879 0.59631813317231885 0 0 0 0 4.8189958150821468 -10.283848335312229 0 -10.283848335312229 5.2266467962225676 0 0 0 0 -66.09118422532174 25.482383883702937 0 25.482383883702937 -13.689773809957387 0 0 0 0 -5.6932073806965491 -23.517561645652989 0 -23.517561645652989 10.530691087867723 0 0 0 0 -23.785612892821518 -9.4325100112178291 0 -9.4325100112178291 6.7944075818718375 0 0 0 0 -46.125106522944407 14.723891609700104 0 14.723891609700104 230.87252171195314 0 0 0 0 -16.945107832178081 -6.6915672488508804 0 -6.6915672488508804 1.1231467523291103 0 0 0 0 -31.044794485263992 37.70864044720804 0 37.70864044720804 67.891745029903859 0 0 0 0 -29.688019913330209 118.61779183874103 0 118.61779183874103 91.405402411055775 0 0 0 0 41.22642634424119 68.497887952666019 0 68.497887952666019 117.05935180458164 0 0 0 0 -1.8695521936850525 -3.5177606937906063 0 -3.5177606937906063 6.3201718192163145 0 0 0 0 -21.897689463665301 -3.3019337884886681 0 -3.3019337884886681 8.305319312546942 0 0 0 0 -41.002448388011544 21.180850216630688 0 21.180850216630688 -6.5762460421117339 0 0 0 0 -39.628589940919483 -18.441389939968985 0 -18.441389939968985 14.155647425845757 0 0 0 0 -70.130498507496668 -17.756969063405393 0 -17.756969063405393 16.353491670381885 0 0 0 0 -56.219811019524059 -20.731943720835829 0 -20.731943720835829 -6.6526332616732589 0 0 0 0 -24.756366834226355 -25.004961894398321 0 -25.004961894398321 -164.3725806708012 0 0 0 0 -123.6041380935485 -65.460743992524982 0 -65.460743992524982 -31.982974752286623 0 0 0 0 -110.25985651935571 21.351034968412272 0 21.351034968412272 11.77643663236347 0 0 0 0 12.715026901569217 -19.572888812978022 0 -19.572888812978022 -169.02629101093873 0 0 0 0 -1.62090935116791 -0.7682020288462823 0 -0.7682020288462823 -0.69069286014990494 0 0 0 0 -7.0653309690678725 -11.634768635012676 0 -11.634768635012676 23.630611647561409 0 0 0 0 -54.169212326611159 -103.87249536013758 0 -103.87249536013758 127.85631549224109 0 0 0 0 32.852865077875322 -64.713990020136407 0 -64.713990020136407 20.575224883586088 0 0 0 0 -109.37354106658313 41.636673391922159 0 41.636673391922159 206.19637856203661 0 0 0 0 -56.452132046877523 -17.425930865761075 0 -17.425930865761075 63.451112263815617 0 0 0 0 -57.152247230842477 1.3489378690253488 0 1.3489378690253488 77.817334480530008 0 0 0 0 -179.79106143826903 76.636925201046424 0 76.636925201046424 8.9600906187372402 0 0 0 0 -123.50019480985065 -144.65744354741071 0 -144.65744354741071 -12.763197553869645 0 0 0 0 -2.5142267392802751 0.79505195939418627 0 0.79505195939418627 -52.832773271694123 0 0 0 0 -49.57451237893838 45.269550297402418 0 45.269550297402418 33.490135273520082 0 0 0 0 -82.758453986767563 5.5615848586724042 0 5.5615848586724042 105.66204757869582 0 0 0 0 -40.573896986577893 -21.090383247410045 0 -21.090383247410045 101.1602324253281 0 0 0 0 2.6613197864789981 -19.680378903210112 0 -19.680378903210112 77.612634289790094 0 0 0 0 29.776163143367739 33.924244397585994 0 33.924244397585994 29.076332468907367 0 0 0 0 -28.043591788708 30.294708676668847 0 30.294708676668847 31.041254780269355 0 0 0 0 -13.550724313885439 31.108118526530461 0 31.108118526530461 83.085468936358893 0 0 0 0 -56.599487673753174 55.500801675582011 0 55.500801675582011 16.709564200517548 0 0 0 0 -75.435005461680703 17.493484901911643 0 17.493484901911643 58.648741242363826 0 0 0 0 -59.877423750891467 25.173464749007167 0 25.173464749007167 -1.6581195988183026 0 0 0 0 -85.636549175687833 56.299043962316091 0 56.299043962316091 1.2137183726284348 0 0 0 0 -62.138256606136565 35.521475568429935 0 35.521475568429935 -37.181381355861049 0 0 0 0 -25.428408913096064 17.266633575140929 0 17.266633575140929 -31.822292305129395 0 0 0 0 -128.33249403812806 87.52529653934522 0 87.52529653934522 -39.297335697060092 0 0 0 0 -118.41607118331012 32.756594930809342 0 32.756594930809342 -18.143005570750432 0 0 0 0 -109.91870649062184 114.04892691456189 0 114.04892691456189 -77.771512715556582 0 0 0 0 -0.25722648812018178 -0.063855005284167987 0 -0.063855005284167987 0.15934312179821619 0 0 0 0 -37.91089977973752 -0.14939248219963019 0 -0.14939248219963019 -48.952257736148425 0 0 0 0 -54.478849712773808 -6.9926838480940887 0 -6.9926838480940887 -23.782060633829246 0 0 0 0 -52.980897031011409 -41.458115063296418 0 -41.458115063296418 -24.532612674888473 0 0 0 0 -68.321327907164232 -39.414497836958432 0 -39.414497836958432 7.4410506025938048 0 0 0 0 -49.145390996491187 -36.267830372186836 0 -36.267830372186836 44.390472756337658 0 0 0 0 -30.535497581811796 -32.715029396536295 0 -32.715029396536295 8.5673635283118301 0 0 0 0 -58.617210032505682 -47.603968851128059 0 -47.603968851128059 57.586598339621759 0 0 0 0 -43.198505742082489 -42.237547239596921 0 -42.237547239596921 2.3851109152604977 0 0 0 0 -70.891667046937073 -56.33594143721119 0 -56.33594143721119 9.7041149581129957 0 0 0 0 -107.85421832613793 -31.281298296381067 0 -31.281298296381067 70.83072126470455 0 0 0 0 -121.34861721639754 -50.406452145308549 0 -50.406452145308549 44.325024292837611 0 0 0 0 -338.45454279644764 -42.80836600469263 0 -42.80836600469263 44.061595734352842 0 0 0 0 -123.0357262608668 -98.36305882831229 0 -98.36305882831229 37.734681480180711 0 0 0 0 -124.80818922685285 -85.244267458926231 0 -85.244267458926231 -58.775443652909075 0 0 0 0 32.129424467915669 29.52952293248768 0 29.52952293248768 -89.106567209874299 0 0 0 0 -24.69006084674038 115.40737676448771 0 115.40737676448771 -216.87132108577759 0 0 0 0 -279.09100828943338 167.81404486486596 0 167.81404486486596 -49.605380234500444 0 0 0 0 -72.372873237996828 56.410569322970218 0 56.410569322970218 10.420417229282521 0 0 0 0 -47.5492943712743 142.6381755909041 0 142.6381755909041 -24.239189574715624 0 0 0 0 -44.540493879168935 55.51068187229329 0 55.51068187229329 84.530719196863629 0 0 0 0 -36.164034322420775 27.573976556626263 0 27.573976556626263 78.724468357273281 0 0 0 0 139.44774159329972 75.695177743954076 0 75.695177743954076 -25.066728999657244 0 0 0 0 -159.47293163152972 93.29820003728436 0 93.29820003728436 60.068915498762181 0 0 0 0 31.354915315729158 57.753573452838623 0 57.753573452838623 55.309765202596566 0 0 0 0 -17.818305194676213 9.5054943212277863 0 9.5054943212277863 37.293001262091025 0 0 0 0 -4.129049200868522 3.6933235582094142 0 3.6933235582094142 0.27033267404852435 0 0 0 0 -46.697195024011307 -35.758700330836973 0 -35.758700330836973 62.241782016161892 0 0 0 0 -82.127903153828811 1.3461353317588305 0 1.3461353317588305 81.18434617258481 0 0 0 0 14.778414233849617 -44.819498403607895 0 -44.819498403607895 51.742947671075001 0 0 0 0 -15.609169707910041 34.816529400392852 0 34.816529400392852 -19.830973060022643 0 0 0 0 -29.810684350843076 -2.1131600722889061 0 -2.1131600722889061 80.593101860787044 0 0 0 0 -44.702410758007318 -4.2950867598985951 0 -4.2950867598985951 40.163217865197907 0 0 0 0 -2.0543248176754787 0.19471929597709448 0 0.19471929597709448 0.46829223353319627 0 0 0 0 -9.6664281596604269 -10.385356227842976 0 -10.385356227842976 16.509984046328555 0 0 0 0 -108.98790417220152 82.113059232755859 0 82.113059232755859 -9.5439083105750342 0 0 0 0 -22.797598247823771 33.75422497617555 0 33.75422497617555 -16.733427914059121 0 0 0 0 -52.877574239144451 13.931367612112467 0 13.931367612112467 49.629073713816979 0 0 0 0 -82.00068128467683 42.835973507311166 0 42.835973507311166 -77.919364687722464 0 0 0 0 -115.2322633475851 36.915126229552868 0 36.915126229552868 1.7060488194986192 0 0 0 0 -97.429581801217864 54.626637553738874 0 54.626637553738874 19.314930759325307 0 0 0 0 -3.6628474074113484 6.8565374111689863 0 6.8565374111689863 -2.2037080539438714 0 0 0 0 -1.0555716650602562 2.6076804403548941 0 2.6076804403548941 -0.182518357410697 0 0 0 0 2.5294231092339032 4.3213081949032244 0 4.3213081949032244 -2.1915543073171193 0 0 0 0 -11.632979699792486 10.513373907054643 0 10.513373907054643 -1.0755047550236441 0 0 0 0 -3.0149527556495741 10.945522440166485 0 10.945522440166485 -8.5570651875153771 0 0 0 0 2.7922287223227613 -71.616131861830695 0 -71.616131861830695 -93.982924796171574 0 0 0 0 52.894274143705843 -14.649814877373501 0 -14.649814877373501 -120.29301939649599 0 0 0 0 104.73863508045179 10.1472570136375 0 10.1472570136375 -108.73240472451539 0 0 0 0 87.823856972827343 -69.642803320167104 0 -69.642803320167104 -164.20098384297523 0 0 0 0 142.89142717857248 -25.251764938768702 0 -25.251764938768702 -196.45832212455502 0 0 0 0 98.689499596704991 -44.040725405221224 0 -44.040725405221224 -103.87638710125611 0 0 0 0 -0.56716955668565561 1.0969508178892795 0 1.0969508178892795 -2.4547951222269013 0 0 0 0 -81.612181668722769 -78.199828227492617 0 -78.199828227492617 2.5469740878450011 0 0 0 0 -7.4133717775330297 166.04696183683137 0 166.04696183683137 -202.03649753474565 0 0 0 0 -41.674865803594003 -10.037095868529491 0 -10.037095868529491 89.843897879698943 0 0 0 0 0.97230469880742021 -27.40117080427342 0 -27.40117080427342 -16.005968697424578 0 0 0 0 -4.976615666520928 2.094551380953412 0 2.094551380953412 -0.69267469161194994 0 0 0 0 120.27451791020576 7.460825305762171 0 7.460825305762171 -33.97842393743349 0 0 0 0 -204.0006444455139 105.38825996328029 0 105.38825996328029 -110.41320856079642 0 0 0 0 -5.5276056941438583 -187.92598820941839 0 -187.92598820941839 38.163840767048896 0 0 0 0 -256.57802385812101 297.45310335471873 0 297.45310335471873 -270.37934933051247 0 0 0 0 -0.15857299580504503 0.58324222889943655 0 0.58324222889943655 -1.5976275247355738 0 0 0 0 -48.404809377905622 -97.667050801134792 0 -97.667050801134792 -133.6798111882224 0 0 0 0 -18.419158008395243 10.913514993055202 0 10.913514993055202 3.7883059855103056 0 0 0 0 -415.47516076077591 -82.719500541861919 0 -82.719500541861919 150.18923567965953 0 0 0 0 -45.906416585377883 -108.90162035968569 0 -108.90162035968569 40.533608806875009 0 0 0 0 -141.70798598650435 -97.441338076171519 0 -97.441338076171519 48.629367106869267 0 0 0 0 -285.68417936313199 -46.679731353444765 0 -46.679731353444765 53.839459028706699 0 0 0 0 -544.30109679362795 50.537832048149539 0 50.537832048149539 190.87992260826809 0 0 0 0 -412.96290875480372 435.7402115175928 0 435.7402115175928 -231.04582902917946 0 0 0 0 -3.6486098788913921 -1.3829553281704108 0 -1.3829553281704108 -0.42791540320969823 0 0 0 0 -114.55309184003272 171.53065809004875 0 171.53065809004875 -158.30019191769895 0 0 0 0 37.926854911007467 14.796997836220307 0 14.796997836220307 4.8536451219550258 0 0 0 0 -192.10410856131057 245.25947684562527 0 245.25947684562527 -169.08289673007357 0 0 0 0 -65.445198697429078 9.4070240726264416 0 9.4070240726264416 6.7031853934938681 0 0 0 0 0.20972313575060753 0.19308688537505247 0 0.19308688537505247 0.25345255095858654 0 0 0 0 -34.220966255612439 -30.491712323157287 0 -30.491712323157287 -10.824967440410433 0 0 0 0 -8.5839800288567858 -28.314446138350135 0 -28.314446138350135 43.020536351948977 0 0 0 0 -14.230635261490534 -78.200670880769167 0 -78.200670880769167 63.557438462812186 0 0 0 0 -16.561798834576621 -13.139656417627322 0 -13.139656417627322 38.712097177155812 0 0 0 0 -13.22695901793486 -19.88323690889348 0 -19.88323690889348 35.385322845140372 0 0 0 0 -17.411962859579944 -10.748719591668447 0 -10.748719591668447 32.026471471983996 0 0 0 0 -12.384751972698723 -19.200710932138918 0 -19.200710932138918 24.586995550848329 0 0 0 0 -6.5353905042429687 -14.872902149440634 0 -14.872902149440634 1.3739835656324715 0 0 0 0 -393.78262152668322 366.21667169936768 0 366.21667169936768 31.79084532020272 0 0 0 0 -99.694103456975427 219.4553211227294 0 219.4553211227294 -197.91565917111097 0 0 0 0 -2.226863815397877 1.5014227700351697 0 1.5014227700351697 -0.63013911478391349 0 0 0 0 -605.36390413733898 -43.104048561047421 0 -43.104048561047421 -158.36055049238439 0 0 0 0 -9.0427330289140002 -4.6770377793824451 0 -4.6770377793824451 -1.8776384713924286 0 0 0 0 -522.25305210717488 20.348729619149481 0 20.348729619149481 9.703002624092278 0 0 0 0 -430.64559783387904 15.968999753781787 0 15.968999753781787 -137.07828744949666 0 0 0 0 -359.92766645742813 106.31619162380503 0 106.31619162380503 39.124353863734541 0 0 0 0 -262.85272427812743 203.07782657700432 0 203.07782657700432 -143.17394335181879 0 0 0 0 -244.94284773393883 158.43015979039126 0 158.43015979039126 -32.586591289171338 0 0 0 0 -1.1236229669750628 74.444912824184883 0 74.444912824184883 -89.194772006114817 0 0 0 0 -109.05093553157349 109.88267270235133 0 109.88267270235133 -97.322148886077741 0 0 0 0 -12.141961051624094 235.3748776731203 0 235.3748776731203 -191.86894339634546 0 0 0 0 4.2972691417962778 -20.478472462568064 0 -20.478472462568064 -5.6923593244651158 0 0 0 0 -36.578337589402508 -16.615481589220394 0 -16.615481589220394 -3.0113241459777669 0 0 0 0 -3.032190786485188 -0.83669062538061212 0 -0.83669062538061212 0.058621023222500263 0 0 0 0 80.292461205994186 6.1211316677694043 0 6.1211316677694043 -9.5415597668115879 0 0 0 0 -11.832375843916992 -8.3787719456523746 0 -8.3787719456523746 -4.2080032587493665 0 0 0 0 -28.117746006362722 -24.988999154914339 0 -24.988999154914339 2.9952127589969137 0 0 0 0 -31.946447409674875 -12.825424299485093 0 -12.825424299485093 -4.9120432047519671 0 0 0 0 -39.351396766978723 -20.627631935801794 0 -20.627631935801794 3.9437297334914092 0 0 0 0 68.123910213005729 8.3053314409646646 0 8.3053314409646646 -16.894833060532278 0 0 0 0 62.86487359952298 8.2144888657701074 0 8.2144888657701074 -14.567703992576497 0 0 0 0 72.598347700297381 7.2777177342767168 0 7.2777177342767168 -19.616100618184873 0 0 0 0 54.675241934448422 2.6999765204128678 0 2.6999765204128678 18.701105870440472 0 0 0 0 72.90645169268646 -5.3807877196212237 0 -5.3807877196212237 13.452668562592009 0 0 0 0 59.097781288408441 -10.234745973993615 0 -10.234745973993615 45.104762054509706 0 0 0 0 -19.625200503331143 -13.591271523284721 0 -13.591271523284721 -7.3702631480736969 0 0 0 0 -36.602250356823788 -27.52292537034743 0 -27.52292537034743 8.7278091397463982 0 0 0 0 0.93865779812298911 0.49363859781199437 0 0.49363859781199437 0.14651338445882989 0 0 0 0 -25.863428082753671 -47.718961148900917 0 -47.718961148900917 28.681966451916423 0 0 0 0 -22.438164268707624 -33.115634272997312 0 -33.115634272997312 9.59460407587747 0 0 0 0 60.831852054336196 51.182470867338253 0 51.182470867338253 -69.033971659993881 0 0 0 0 16.415772566339001 -36.930280563863477 0 -36.930280563863477 8.1171827639378762 0 0 0 0 18.738124828723812 -8.9133435649719672 0 -8.9133435649719672 -22.694777472103965 0 0 0 0 78.505210545707087 -10.851429707975711 0 -10.851429707975711 -32.015196178690928 0 0 0 0 53.828860798661481 -0.78312144474040224 0 -0.78312144474040224 -7.5707071135511796 0 0 0 0 126.99916683946503 12.17220771962684 0 12.17220771962684 -93.125462506726308 0 0 0 0 -11.647453235851117 -6.800308529839846 0 -6.800308529839846 -3.4505112673650755 0 0 0 0 3.8142563945293659 4.0096612391852631 0 4.0096612391852631 3.5508041559683932 0 0 0 0 30.105941409525258 -2.4608099789782756 0 -2.4608099789782756 4.187677343353073 0 0 0 0 -4.9067003930103965 -12.898165935571321 0 -12.898165935571321 2.9806761366229182 0 0 0 0 7.226932913006749 4.1209200521481932 0 4.1209200521481932 26.861076551203336 0 0 0 0 0.53680084100489012 0.63436459193607675 0 0.63436459193607675 0.65891547301145925 0 0 0 0 -59.624594338383758 62.571932001593495 0 62.571932001593495 61.072645498904649 0 0 0 0 -14.906037884426041 -7.9470847402150113 0 -7.9470847402150113 24.989705738659779 0 0 0 0 -65.151899119722657 63.222361370473379 0 63.222361370473379 135.42206882693017 0 0 0 0 -48.901173028134508 -9.7519940349208696 0 -9.7519940349208696 41.328016860633397 0 0 0 0 -41.405828586161078 -36.067264470441472 0 -36.067264470441472 63.615430458274318 0 0 0 0 -51.263231171969892 -14.897898540835072 0 -14.897898540835072 119.11067834516757 0 0 0 0 -38.738555289470241 -24.737850697096576 0 -24.737850697096576 -2.5097756383221963 0 0 0 0 143.35338258205593 169.86797823114375 0 169.86797823114375 124.00981627066642 0 0 0 0 0.40145694774419383 -0.36394516173825764 0 -0.36394516173825764 2.4375677808913494 0 0 0 0 51.596162102781818 -17.704850063962226 0 -17.704850063962226 149.29446623357137 0 0 0 0 137.69128956993518 -25.221827639900994 0 -25.221827639900994 -71.379786529925923 0 0 0 0 127.1160587672457 -65.02194623090945 0 -65.02194623090945 -13.311050303541833 0 0 0 0 66.359453722121543 -0.87955735455705053 0 -0.87955735455705053 -1.4995246744055919 0 0 0 0 44.201960193662671 -41.68409802893251 0 -41.68409802893251 -33.223550907047866 0 0 0 0 17.124659226916265 25.236235609787627 0 25.236235609787627 62.662655858496635 0 0 0 0 136.59979586132386 81.95225445368601 0 81.95225445368601 -13.367861409455827 0 0 0 0 51.059657407007762 32.208382766531145 0 32.208382766531145 13.294867995707932 0 0 0 0 -56.580257064088073 23.628889483175215 0 23.628889483175215 -157.15436759863906 0 0 0 0 -41.444730217095639 79.230167689646407 0 79.230167689646407 -0.65990788835290459 0 0 0 0 -98.001081505746697 -93.218120803976035 0 -93.218120803976035 -36.387255729568267 0 0 0 0 14.612695522591821 -9.9407993337511584 0 -9.9407993337511584 -123.37228182585102 0 0 0 0 -91.255847588665347 -26.794683220834433 0 -26.794683220834433 -15.689794682337435 0 0 0 0 -30.306993274294655 -59.896441347593026 0 -59.896441347593026 -14.434028583639938 0 0 0 0 -19.974046083094436 -42.73929825370692 0 -42.73929825370692 -14.9891922716115 0 0 0 0 -18.959744638996199 -47.808605094420898 0 -47.808605094420898 -4.1457700364865104 0 0 0 0 23.541518428362906 -38.821991759348066 0 -38.821991759348066 -15.34000942247178 0 0 0 0 24.324196396773914 -41.576940215445063 0 -41.576940215445063 -14.669835447006491 0 0 0 0 5.2189035615156172 -23.686129473362442 0 -23.686129473362442 19.362479573675273 0 0 0 0 -26.599677705569775 -38.05335271657232 0 -38.05335271657232 -8.2443070230608129 0 0 0 0 -0.89984490047208965 -41.1659896151005 0 -41.1659896151005 -29.344414078975944 0 0 0 0 0.56834709485832491 0.063268985252861398 0 0.063268985252861398 -0.22611810721450934 0 0 0 0 -19.632932303255075 -72.574593285283839 0 -72.574593285283839 -4.879177072394242 0 0 0 0 39.176468259363901 -7.7528368657698223 0 -7.7528368657698223 -12.44703455312191 0 0 0 0 -14.174653569454676 -64.631377982229793 0 -64.631377982229793 5.7075547662028328 0 0 0 0 57.694180303209578 9.0631545211685562 0 9.0631545211685562 -6.3985399711301056 0 0 0 0 37.521837576656253 2.9021989984883874 0 2.9021989984883874 -12.348853704442888 0 0 0 0 46.739305803028401 -3.3695730148141365 0 -3.3695730148141365 -12.309793357211078 0 0 0 0 62.982620111171855 6.8801367612882665 0 6.8801367612882665 -14.811636458885005 0 0 0 0 -107.01401281256403 -83.98616060441023 0 -83.98616060441023 0.066864773423958468 0 0 0 0 -17.247655420040246 -53.550496750348387 0 -53.550496750348387 -48.796696364999434 0 0 0 0 0.91064037859950986 -2.659025533694404 0 -2.659025533694404 5.4500109534242966 0 0 0 0 -34.026302946396754 -66.627701765864487 0 -66.627701765864487 -42.049732267948599 0 0 0 0 -102.65627296209277 -29.606098046177635 0 -29.606098046177635 -9.0039843898566687 0 0 0 0 -105.85930071983603 -35.116823424679751 0 -35.116823424679751 -0.94253922532152501 0 0 0 0 -67.094653286316316 -33.18548856260918 0 -33.18548856260918 -3.6274236590079454 0 0 0 0 -91.593700852899929 -9.0244507091991295 0 -9.0244507091991295 -27.126933597196512 0 0 0 0 -113.55682770064595 -14.453447092867332 0 -14.453447092867332 70.270746681219748 0 0 0 0 9.3529504541656934 -25.806274033346824 0 -25.806274033346824 -22.35995486452066 0 0 0 0 -34.987309883348644 -34.242423765768535 0 -34.242423765768535 -21.458465957025894 0 0 0 0 -2.7728856623289175 -42.972183577442706 0 -42.972183577442706 -30.230966683224537 0 0 0 0 16.081772349367384 -23.86374371138578 0 -23.86374371138578 -33.119686319877815 0 0 0 0 40.264272883738158 6.0726174305931409 0 6.0726174305931409 -7.5917376043590821 0 0 0 0 51.381131503905635 0.95805571920374177 0 0.95805571920374177 -14.936316648898902 0 0 0 0 34.226590920647141 -9.1502986656798271 0 -9.1502986656798271 -23.635354432826489 0 0 0 0 10.248548741801642 -15.075908954087254 0 -15.075908954087254 -12.39002649005829 0 0 0 0 22.267495673353551 -21.96280685842828 0 -21.96280685842828 -21.899323661115545 0 0 0 0 0.66166585015525925 -20.170780220175565 0 -20.170780220175565 -11.577096066843524 0 0 0 0 21.1564419985516 -12.725985813015768 0 -12.725985813015768 -0.094558409076284988 0 0 0 0 36.995260257506743 -7.6325954414207899 0 -7.6325954414207899 -15.135079013794495 0 0 0 0 28.431548426000518 -10.8148293719332 0 -10.8148293719332 -4.7901554980478522 0 0 0 0 28.525669579510577 -12.163641048467866 0 -12.163641048467866 3.7211685124805172 0 0 0 0 36.259462336194701 -3.7271259681612037 0 -3.7271259681612037 11.791604770689901 0 0 0 0 44.099910259537864 4.8625765464008737 0 4.8625765464008737 2.2364857503303028 0 0 0 0 24.402818328162539 -28.559392722885093 0 -28.559392722885093 7.577054646360466 0 0 0 0 22.878064209122385 -35.157016068325191 0 -35.157016068325191 -10.186861145368766 0 0 0 0 22.384715756226797 -29.711514400927626 0 -29.711514400927626 -27.064590190287504 0 0 0 0 -7.7735929769114591 -43.259498230771385 0 -43.259498230771385 -16.085517958440107 0 0 0 0 -22.80666913400637 -51.219683568934727 0 -51.219683568934727 -64.721551858834317 0 0 0 0 -31.133423545514233 -22.600699113623364 0 -22.600699113623364 -67.778300143367119 0 0 0 0 -31.118321488378569 -29.354789084182812 0 -29.354789084182812 -28.363633983074692 0 0 0 0 -17.3402449885034 -63.172059717117747 0 -63.172059717117747 -38.768191563610316 0 0 0 0 44.697897053163615 2.6650162960957005 0 2.6650162960957005 -32.075428129347983 0 0 0 0 -76.33724224382604 -76.970076266379266 0 -76.970076266379266 -19.044382052720152 0 0 0 0 2.4042442521643324 -4.1726148599569939 0 -4.1726148599569939 8.0952932002820592 0 0 0 0 -69.995454136122135 -16.602691351301871 0 -16.602691351301871 15.076380577443899 0 0 0 0 12.882001139587373 -54.547292875213543 0 -54.547292875213543 -37.396285018117567 0 0 0 0 -28.266715808204026 12.942897583471819 0 12.942897583471819 7.6119042956804606 0 0 0 0 -58.533437595702708 -26.883267250080507 0 -26.883267250080507 -3.871500369577916 0 0 0 0 -58.517136356702395 -26.784313298418539 0 -26.784313298418539 -7.5081132902669196 0 0 0 0 -83.312038455296715 -30.739677471985488 0 -30.739677471985488 1.3357100127991544 0 0 0 0 -54.652807321457658 -19.501229518491073 0 -19.501229518491073 -0.51264549426878148 0 0 0 0 -72.015915083888103 -21.772777457016673 0 -21.772777457016673 -0.67230986750109878 0 0 0 0 -71.339342363164178 -15.52287653010103 0 -15.52287653010103 8.1210881115807751 0 0 0 0 -55.91606206628785 -30.118059902497407 0 -30.118059902497407 -1.5378234835557123 0 0 0 0 -51.965206201035471 -24.36613403027809 0 -24.36613403027809 12.500836548275402 0 0 0 0 -46.54093474086585 -11.395007544308896 0 -11.395007544308896 8.0506367686689373 0 0 0 0 -36.250916744706046 -22.655656417818818 0 -22.655656417818818 24.38970384132881 0 0 0 0 -41.20950614688627 -15.585861150121218 0 -15.585861150121218 19.095892981583802 0 0 0 0 -34.744605766551103 -13.296025409696085 0 -13.296025409696085 19.855488515908746 0 0 0 0 -9.7484566170377889 -8.9747913759546378 0 -8.9747913759546378 7.2672532143662689 0 0 0 0 -38.508600136030509 -26.351703985437609 0 -26.351703985437609 7.3867067278069953 0 0 0 0 -1.5645577610726207 -6.6770221986063092 0 -6.6770221986063092 9.9845623230460046 0 0 0 0 -42.408922478258319 -25.485214573520523 0 -25.485214573520523 7.3148393364040203 0 0 0 0 -13.466070989765285 -44.917164887073909 0 -44.917164887073909 -11.512830775024213 0 0 0 0 -41.551324818763533 -24.567584228370833 0 -24.567584228370833 0.22101537197067955 0 0 0 0 -41.113291879337339 -39.661026806406539 0 -39.661026806406539 -23.479481599443488 0 0 0 0 -0.47453710820877504 -11.126717443641397 0 -11.126717443641397 -7.7852148686822149 0 0 0 0 -142.03628842258331 -21.04198393002855 0 -21.04198393002855 28.60416207688786 0 0 0 0 -120.01021658490572 3.6346487685693774 0 3.6346487685693774 17.920542723286871 0 0 0 0 -188.86034604628367 -20.780811707440307 0 -20.780811707440307 29.799471899274522 0 0 0 0 -19.956515952826521 -2.9591623971087415 0 -2.9591623971087415 0.40674590207618166 0 0 0 0 -128.85868016765744 -84.312797965025766 0 -84.312797965025766 -19.444402302305662 0 0 0 0 -8.2712505143506263 -2.3481751770836894 0 -2.3481751770836894 -0.38152228747867944 0 0 0 0 -6.5746014550968539 12.731572515993093 0 12.731572515993093 -26.195455485611888 0 0 0 0 -131.0704024349252 -126.56444043473425 0 -126.56444043473425 -113.51406532841929 0 0 0 0 -430.56607031679596 -53.80146770349711 0 -53.80146770349711 42.600662310327721 0 0 0 0 -276.83856757352623 1.2119885367360439 0 1.2119885367360439 60.013192642127251 0 0 0 0 -198.08402078409563 -29.640716092444109 0 -29.640716092444109 39.511072093822804 0 0 0 0 -193.93736953420739 4.3872697883130058 0 4.3872697883130058 36.992753751181681 0 0 0 0 -185.49343356920508 24.44030090422109 0 24.44030090422109 63.055360454574384 0 0 0 0 -213.78390593019139 45.046241083216501 0 45.046241083216501 49.061984895439991 0 0 0 0 -164.4149471841065 52.263613488817199 0 52.263613488817199 37.637065068687207 0 0 0 0 -123.81896745222912 32.203008140716747 0 32.203008140716747 0.44873353355978907 0 0 0 0 -160.95028334318886 28.870930832498715 0 28.870930832498715 25.917420051176123 0 0 0 0 -136.12679897776979 15.75974834129056 0 15.75974834129056 32.840658830544271 0 0 0 0 -3.7276834440915501 -9.6038489968961613 0 -9.6038489968961613 -7.3812171849262143 0 0 0 0 -75.080507576465607 12.841265988624968 0 12.841265988624968 -15.135461247740295 0 0 0 0 -140.7372915118176 -0.084154829491808414 0 -0.084154829491808414 21.172587884326845 0 0 0 0 64.831359450727177 -42.235034912889986 0 -42.235034912889986 -28.922102497919013 0 0 0 0 -106.54448554983537 0.0023385568981666438 0 0.0023385568981666438 13.125988763649957 0 0 0 0 -90.648474220084609 42.558119855689029 0 42.558119855689029 -30.96171244206198 0 0 0 0 -100.23594374167442 33.706988750197524 0 33.706988750197524 -32.43783254432924 0 0 0 0 31.502703639736865 -17.113445081522684 0 -17.113445081522684 26.020060795124891 0 0 0 0 73.57043318230717 20.135924509807268 0 20.135924509807268 -6.7994389854932251 0 0 0 0 60.066863275482319 23.154936490880118 0 23.154936490880118 13.545348804945093 0 0 0 0 43.686136268806877 8.249646696724767 0 8.249646696724767 34.880632339921249 0 0 0 0 52.109510206384584 13.985500416448076 0 13.985500416448076 13.013647104009578 0 0 0 0 42.662619556300342 6.3100492676656472 0 6.3100492676656472 6.7781806611385491 0 0 0 0 35.416987655393314 -3.7701783760832086 0 -3.7701783760832086 17.820291789805651 0 0 0 0 48.944024437048938 16.956392635470365 0 16.956392635470365 28.943242786196151 0 0 0 0 56.988957024150295 14.126615578218122 0 14.126615578218122 -6.5693484375258322 0 0 0 0 60.878441925218794 12.904962109537905 0 12.904962109537905 -8.1843898151313397 0 0 0 0 -80.184249743979308 64.789324866772176 0 64.789324866772176 -26.955069804287177 0 0 0 0 -161.63380891671841 73.701816208847845 0 73.701816208847845 21.036079911270008 0 0 0 0 -127.57323739251297 71.605956168707905 0 71.605956168707905 -27.152532777871784 0 0 0 0 -107.43100604525534 40.086671055051056 0 40.086671055051056 -3.8012658251780067 0 0 0 0 -169.17637157201534 93.517177338164629 0 93.517177338164629 31.997056848981288 0 0 0 0 -165.18471775868966 160.7131613943086 0 160.7131613943086 -37.93191438959019 0 0 0 0 -145.66558579753473 127.66701520508582 0 127.66701520508582 8.6972834851264906 0 0 0 0 -48.920101626295946 45.030702627032383 0 45.030702627032383 53.527538021665805 0 0 0 0 -266.43492384927958 54.280718206710276 0 54.280718206710276 68.069799348328615 0 0 0 0 -195.94854931513692 82.412284371516307 0 82.412284371516307 91.773247994105759 0 0 0 0 -59.053076430238434 72.896021506210673 0 72.896021506210673 48.914219811082148 0 0 0 0 -195.9786442302904 96.050175993035253 0 96.050175993035253 49.920871806496052 0 0 0 0 -204.13585197987413 76.609126342982336 0 76.609126342982336 78.200073860631392 0 0 0 0 -195.50543095701141 55.14831257508672 0 55.14831257508672 59.948681909855281 0 0 0 0 -248.7119045165382 83.455663253387399 0 83.455663253387399 47.269785075695836 0 0 0 0 -268.51686059268832 54.395573134788265 0 54.395573134788265 31.358502011439555 0 0 0 0 -319.99337027120055 112.02628360823803 0 112.02628360823803 -32.701139615729517 0 0 0 0 -110.96381762720557 54.911074660508575 0 54.911074660508575 25.655343944352126 0 0 0 0 -203.02373686086503 139.38862594777106 0 139.38862594777106 -46.104115747868036 0 0 0 0 -177.55718923395034 108.16419581814264 0 108.16419581814264 52.099267008902416 0 0 0 0 -3.4453597614410683 76.721160203553495 0 76.721160203553495 54.619906727408988 0 0 0 0 -5.9902440930854937 130.95027842513508 0 130.95027842513508 -112.46274770466744 0 0 0 0 252.42598510886455 22.140081842422774 0 22.140081842422774 -287.47759932968779 0 0 0 0 188.76169662581378 146.62870978382352 0 146.62870978382352 5.8377692598378417 0 0 0 0 132.50083956077651 253.02136084811866 0 253.02136084811866 -28.781508661606949 0 0 0 0 -1.9076019887147595 4.1071955066999095 0 4.1071955066999095 -6.5008616186378481 0 0 0 0 -52.314729408557469 -8.3498873499243018 0 -8.3498873499243018 13.903932374575106 0 0 0 0 -63.30408297888971 76.901684818547665 0 76.901684818547665 96.443298063066777 0 0 0 0 -1.5137606696919619 3.3647221672837162 0 3.3647221672837162 -5.805204722731391 0 0 0 0 35.523302111971134 138.88404471397178 0 138.88404471397178 61.3698131308916 0 0 0 0 183.38728693571466 95.889542820446195 0 95.889542820446195 -24.44215336095067 0 0 0 0 129.67869344175415 -35.351437380328662 0 -35.351437380328662 -142.22930416165582 0 0 0 0 -2769.5558007706704 964.03321677216377 0 964.03321677216377 -359.24795055171444 0 0 0 0 -1652.4904876547444 823.2554735684198 0 823.2554735684198 -422.43009243061761 0 0 0 0 -171.86345498725859 -146.67148451350386 0 -146.67148451350386 -265.45556506532262 0 0 0 0 -21.700370806712982 -0.94533943974728629 0 -0.94533943974728629 -0.75570557182539311 0 0 0 0 -2533.6834572189546 346.64259401117675 0 346.64259401117675 -364.01185797239538 0 0 0 0 -2499.3111786994741 578.84551318705905 0 578.84551318705905 -313.74019849473325 0 0 0 0 -1855.6199374216667 133.85682038559634 0 133.85682038559634 -6.129939148300565 0 0 0 0 -2036.3324081976234 829.92877810157881 0 829.92877810157881 47.115757900793312 0 0 0 0 -667.09944977529358 985.89016738475948 0 985.89016738475948 -16.672089428324142 0 0 0 0 -3230.4212197983652 -191.98755654520232 0 -191.98755654520232 358.02029480243607 0 0 0 0 -8.0041329656571349 4.1446116356855356 0 4.1446116356855356 -0.92255225001768615 0 0 0 0 -1032.7746416966474 -588.95717028406523 0 -588.95717028406523 256.56946539951321 0 0 0 0 -2499.784535321287 108.32487050115617 0 108.32487050115617 330.47711806854744 0 0 0 0 -2497.4965397513333 -813.52906746476378 0 -813.52906746476378 238.40209022691988 0 0 0 0 -2073.2940506333252 -291.60547471735936 0 -291.60547471735936 362.55230047999606 0 0 0 0 -2534.6212603817294 386.5872219091417 0 386.5872219091417 246.15991488661246 0 0 0 0 -3024.1199991138574 863.17015992305403 0 863.17015992305403 125.86418259940666 0 0 0 0 -2008.7348972515756 547.57998440460335 0 547.57998440460335 67.61414062077985 0 0 0 0 -2027.5215148346251 564.72669950228556 0 564.72669950228556 160.20251119288656 0 0 0 0 -1851.8576157265634 470.71976063457043 0 470.71976063457043 102.0370861823757 0 0 0 0 57.993857282941462 159.77441457757627 0 159.77441457757627 11.121806873832895 0 0 0 0 4.9104438035592466 16.727614407149233 0 16.727614407149233 -5.6216118344221098 0 0 0 0 -1512.0504855080871 471.60584356369623 0 471.60584356369623 -119.45854871333762 0 0 0 0 -1760.5285649019061 683.36757940541713 0 683.36757940541713 -178.68966782269479 0 0 0 0 -187.84147066574224 3.8398637918898544 0 3.8398637918898544 -3.7943373597346977 0 0 0 0 -183.28969552685157 -70.202845210204941 0 -70.202845210204941 177.50019183668064 0 0 0 0 -12.698502809711499 39.151969893927287 0 39.151969893927287 2.1875220527574015 0 0 0 0 -1108.1949037868253 262.04297932251501 0 262.04297932251501 -190.89124024910154 0 0 0 0 -233.33759746185387 117.83342802597576 0 117.83342802597576 36.33504083986179 0 0 0 0 -145.90572024868379 -40.161309405516192 0 -40.161309405516192 6.1750903817005565 0 0 0 0 -609.18263319578546 96.95239103620213 0 96.95239103620213 -31.341573580830698 0 0 0 0 -386.54821534901566 -155.65480434086044 0 -155.65480434086044 91.852561999195558 0 0 0 0 -446.21619406998798 -209.61961862659757 0 -209.61961862659757 43.447311535090023 0 0 0 0 -269.22052908373735 -194.27038036565733 0 -194.27038036565733 32.166912305563073 0 0 0 0 -687.40678928608031 107.96363988532224 0 107.96363988532224 214.13582884238667 0 0 0 0 -3.9343165466514165 -3.4496766493694224 0 -3.4496766493694224 -2.3992923379322253 0 0 0 0 -397.884403385513 336.30519357417029 0 336.30519357417029 -252.30146229507619 0 0 0 0 -96.339001868553169 -170.69693851520771 0 -170.69693851520771 -23.300337705603511 0 0 0 0 -261.26927213888848 -296.86087993747276 0 -296.86087993747276 -307.36282043957169 0 0 0 0 -116.6784156509184 -49.044402555358104 0 -49.044402555358104 11.43333594820183 0 0 0 0 -164.12162669497775 173.25655752383892 0 173.25655752383892 -361.40991864743069 0 0 0 0 0.11002221309936999 -0.92284701959087556 0 -0.92284701959087556 1.9179717896633464 0 0 0 0 -106.5706374930669 -48.848164959051019 0 -48.848164959051019 9.8080963915149368 0 0 0 0 -271.49305657364312 -40.521538326790164 0 -40.521538326790164 -15.070419746434709 0 0 0 0 -256.36113971454324 0.94733240085659531 0 0.94733240085659531 -28.346443676625995 0 0 0 0 -262.38250793820771 -7.3352944390659331 0 -7.3352944390659331 -9.6659859468206832 0 0 0 0 -248.87359086805918 98.946959784154217 0 98.946959784154217 -31.242241947015373 0 0 0 0 -210.62964492678293 17.924976544643528 0 17.924976544643528 0.93395769949620444 0 0 0 0 -162.50761294340191 -67.221345621588853 0 -67.221345621588853 -13.083140688381491 0 0 0 0 -102.61958715394212 -28.961024875087318 0 -28.961024875087318 -15.631385234816662 0 0 0 0 -101.87039264694795 17.376505577649972 0 17.376505577649972 76.250912741294371 0 0 0 0 -1.1149833918924017 20.47673698049806 0 20.47673698049806 3.1954490982539685 0 0 0 0 -21.518791714219304 -1.8027081996227068 0 -1.8027081996227068 -1.2639779211626487 0 0 0 0 -119.27055207492958 56.328088888744787 0 56.328088888744787 -29.79143145447938 0 0 0 0 -112.63456030205998 91.33743945621859 0 91.33743945621859 -93.784327960997757 0 0 0 0 -127.38359985558782 56.936579127815207 0 56.936579127815207 -17.982029840092082 0 0 0 0 -115.84722208816675 86.57839305705636 0 86.57839305705636 -39.667441103472413 0 0 0 0 -62.907042972437921 49.559074662172577 0 49.559074662172577 -22.959616781310615 0 0 0 0 3.4641979317432927 27.929442638469638 0 27.929442638469638 1.3851855266891011 0 0 0 0 -115.0882624734877 67.951681772042207 0 67.951681772042207 -10.981323568395737 0 0 0 0 -120.05543960869636 46.829498281456452 0 46.829498281456452 2.6253546331649886 0 0 0 0 -87.917802356409084 34.746320914071248 0 34.746320914071248 -0.89345295169164274 0 0 0 0 -98.060524213611643 51.091326169320155 0 51.091326169320155 -19.862299870489551 0 0 0 0 -104.13162127022952 63.399298712983978 0 63.399298712983978 -12.028648555557083 0 0 0 0 -134.41663594158308 3.110355969841919 0 3.110355969841919 5.3687449911769818 0 0 0 0 -105.65545207893592 -35.911113732279716 0 -35.911113732279716 -9.3216144183606957 0 0 0 0 -160.57691261496075 -4.3968623947382639 0 -4.3968623947382639 9.2486282344673327 0 0 0 0 -167.9221408338999 62.281044774106931 0 62.281044774106931 1.4778344234083534 0 0 0 0 -122.75409677639254 18.276676552302263 0 18.276676552302263 7.928210351864891 0 0 0 0 -107.37144242858631 43.983062200385348 0 43.983062200385348 -4.816002204622464 0 0 0 0 -78.162176555721089 13.239789181577635 0 13.239789181577635 6.289187707700421 0 0 0 0 -98.923156025804929 -2.4856261328895926 0 -2.4856261328895926 6.2358392819465962 0 0 0 0 -96.228551843007153 -2.6061967568157343 0 -2.6061967568157343 2.4894231401890465 0 0 0 0 -65.708732932878775 -10.074609491031197 0 -10.074609491031197 3.9755476771595681 0 0 0 0 -83.234174037257617 8.8021373921676513 0 8.8021373921676513 7.1761548456988749 0 0 0 0 -68.93082696775673 -1.4396075757545077 0 -1.4396075757545077 12.35526571594346 0 0 0 0 -96.228670960132149 27.581568214825211 0 27.581568214825211 3.9475812782957291 0 0 0 0 -63.652631074779492 23.073751029251866 0 23.073751029251866 -1.2651967710003191 0 0 0 0 -68.250700780125044 15.116543122211397 0 15.116543122211397 12.13711366854659 0 0 0 0 -50.165490361483535 17.778492911210833 0 17.778492911210833 8.9770409822922375 0 0 0 0 -57.40562806923117 -2.0327533260788186 0 -2.0327533260788186 30.982418926380888 0 0 0 0 -47.106428712286288 4.4488853155817196 0 4.4488853155817196 12.139603821626224 0 0 0 0 -55.951908674709557 -16.197049224592547 0 -16.197049224592547 21.998390072491929 0 0 0 0 -110.23221101966192 44.986925821192472 0 44.986925821192472 -8.5486253967219454 0 0 0 0 -100.08319661168571 49.585150712136738 0 49.585150712136738 -6.1544380986929355 0 0 0 0 -81.360993064343347 32.770488645724072 0 32.770488645724072 -1.2470870984359408 0 0 0 0 -67.653198889034684 35.745491929676518 0 35.745491929676518 -7.899451921734908 0 0 0 0 -78.449259620378143 29.37618022821016 0 29.37618022821016 11.103027352786739 0 0 0 0 -96.345205643185182 36.552620978972072 0 36.552620978972072 -22.039522707062133 0 0 0 0 -96.322565161754028 38.062229717392029 0 38.062229717392029 11.442338023432058 0 0 0 0 -73.865952459811524 34.014430905282779 0 34.014430905282779 -13.326167840078597 0 0 0 0 -96.669516938753077 54.155817144810499 0 54.155817144810499 -12.754288021453249 0 0 0 0 -842.62624754654826 344.21244398178038 0 344.21244398178038 16.455786435780198 0 0 0 0 -1258.7940937218991 611.34666682617467 0 611.34666682617467 -62.242845885661552 0 0 0 0 -1823.8138292014883 507.75089971257717 0 507.75089971257717 271.71162751736358 0 0 0 0 -131.48107104012161 66.734858400891198 0 66.734858400891198 -10.047553705288806 0 0 0 0 8.5458208311580925 26.732938844110961 0 26.732938844110961 -11.682314106448286 0 0 0 0 -684.91014223100137 168.2761929673193 0 168.2761929673193 -0.078838016081760998 0 0 0 0 9.5179570803150568 26.88375570821799 0 26.88375570821799 -8.6357974645915387 0 0 0 0 -505.92025321069741 -165.27411940174588 0 -165.27411940174588 -83.183480573664212 0 0 0 0 -1598.0665127273824 299.02400859069337 0 299.02400859069337 215.81314320763892 0 0 0 0 -1532.2374461340078 466.60709909658726 0 466.60709909658726 99.248291061583046 0 0 0 0 -2633.0917701784692 693.27148869262714 0 693.27148869262714 383.43868267619166 0 0 0 0 -2073.592934955559 -347.11812106405716 0 -347.11812106405716 256.54478801537471 0 0 0 0 -2133.4474955091791 888.71068387054368 0 888.71068387054368 -53.711416265826202 0 0 0 0 -2112.8953360061605 936.67478501256562 0 936.67478501256562 -628.85612611378906 0 0 0 0 -2499.7472922767229 825.34831756250207 0 825.34831756250207 143.48707928827639 0 0 0 0 -1850.8091832891914 967.03147820198296 0 967.03147820198296 149.63744347407663 0 0 0 0 -1377.3492002126441 1038.6210859255386 0 1038.6210859255386 -115.4076962404266 0 0 0 0 -2500.4400037357555 1141.1931792130767 0 1141.1931792130767 157.1025301408601 0 0 0 0 -2141.0237032842706 1472.392358974334 0 1472.392358974334 -360.77371230736924 0 0 0 0 -438.79372107623567 629.70586620982442 0 629.70586620982442 -378.29548127108734 0 0 0 0 -1368.8946696473176 1030.467109268722 0 1030.467109268722 -211.41720569383477 0 0 0 0 -1023.1545809791378 1142.8646260744622 0 1142.8646260744622 -780.02728200231695 0 0 0 0 -321.25628327627783 911.78948483224167 0 911.78948483224167 -2038.726336652423 0 0 0 0 -39.152215384739975 -121.95847718825644 0 -121.95847718825644 -54.735905449142592 0 0 0 0 179.73477961626486 345.37315879667267 0 345.37315879667267 -1436.5674805928995 0 0 0 0 -923.04262952624867 1563.6808042308608 0 1563.6808042308608 -1625.189442741811 0 0 0 0 1.2887975522502444 4.2379597630683783 0 4.2379597630683783 -3.97274614497154 0 0 0 0 -2495.473050354416 2880.6641000323407 0 2880.6641000323407 -2174.0280603847154 0 0 0 0 -138.90831951584187 51.35028780242294 0 51.35028780242294 9.167750983766382 0 0 0 0 9.8247762093509898 26.845787870697336 0 26.845787870697336 -11.066660523027448 0 0 0 0 -94.1221591411595 38.10779094316058 0 38.10779094316058 -9.9575120859335584 0 0 0 0 -267.41401406814111 388.72616042075265 0 388.72616042075265 -351.40795019330278 0 0 0 0 -275.97637876088811 17.491093925006268 0 17.491093925006268 95.182217136719601 0 0 0 0 129.29195638194506 6.5761157802069192 0 6.5761157802069192 -239.98355578808969 0 0 0 0 -387.46822927902394 559.82503608758111 0 559.82503608758111 -670.3246109762099 0 0 0 0 -100.41888924792511 31.776736676379983 0 31.776736676379983 -24.73451420258516 0 0 0 0 2.8694290858984317 30.425365130732501 0 30.425365130732501 -7.2369446796224626 0 0 0 0 -97.974009726793156 20.57011781910569 0 20.57011781910569 -5.2122384123754273 0 0 0 0 -39.347251208020623 7.7970809450466021 0 7.7970809450466021 7.1156383406579646 0 0 0 0 -23.839086963911541 17.877491837623211 0 17.877491837623211 22.514533280864541 0 0 0 0 -19.464262324327137 21.701389137238152 0 21.701389137238152 23.003565423086258 0 0 0 0 -168.43171200540382 95.461811927192684 0 95.461811927192684 113.7781995987807 0 0 0 0 -8.2998607898486512 5.7759321191720758 0 5.7759321191720758 2.5295854734960113 0 0 0 0 -28.329320409000502 3.6569563200971515 0 3.6569563200971515 12.927060424541878 0 0 0 0 -103.75462795175554 97.180142225401141 0 97.180142225401141 203.99930347632107 0 0 0 0 5.7847058402333857 8.4579965097057439 0 8.4579965097057439 -0.63527685680438717 0 0 0 0 -25.439833091527305 12.56418791888467 0 12.56418791888467 8.3225818073181372 0 0 0 0 -69.494544406188652 36.375721004635693 0 36.375721004635693 -2.1933385094359892 0 0 0 0 -0.8001086232251744 17.757178301419955 0 17.757178301419955 -1.2413317699956827 0 0 0 0 -36.3616786227185 11.393714599250217 0 11.393714599250217 -4.2099559363869048 0 0 0 0 6.418081401840027 0.15192695508540055 0 0.15192695508540055 -0.92327005457400446 0 0 0 0 -21.048233687353786 12.113815793918853 0 12.113815793918853 32.348979835840979 0 0 0 0 -2499.256543890493 -1381.7149087222263 0 -1381.7149087222263 -671.69231480708697 0 0 0 0 51.757360032348515 -85.080799247813275 0 -85.080799247813275 -37.549402981872618 0 0 0 0 -280.58551642626117 563.89921886857519 0 563.89921886857519 -1155.8702745689816 0 0 0 0 -6.2454181461666423 3.8847012040339521 0 3.8847012040339521 -7.3672089124188442 0 0 0 0 -35.167699830752099 20.310818434192697 0 20.310818434192697 57.402442023543244 0 0 0 0 -38.133733948867302 9.9198436117853817 0 9.9198436117853817 25.375206609360248 0 0 0 0 -18.557546269941668 46.031691618622062 0 46.031691618622062 41.094171360706241 0 0 0 0 -1043.7201212140244 -855.92954712178675 0 -855.92954712178675 -758.52173778129247 0 0 0 0 -22.103510658125742 28.797200875974795 0 28.797200875974795 -1.0860244392274581 0 0 0 0 -24.644058055599388 15.598311046195128 0 15.598311046195128 -1.065831276674666 0 0 0 0 -7.3124915553267442 6.3768858511474207 0 6.3768858511474207 3.3501164920382838 0 0 0 0 -15.897823571683375 13.2887111255924 0 13.2887111255924 7.3132282760798848 0 0 0 0 -33.827282641053898 19.939935445964693 0 19.939935445964693 7.3515377857089561 0 0 0 0 -20.873338137593237 37.061330482551057 0 37.061330482551057 7.9581062703277894 0 0 0 0 -1956.6223355242146 -934.62118642461292 0 -934.62118642461292 -448.718706122941 0 0 0 0 -2294.1786573842255 -921.85045529734396 0 -921.85045529734396 -399.53059455661833 0 0 0 0 -14.871468481714587 17.418872506007673 0 17.418872506007673 -14.520384632282058 0 0 0 0 -2180.0628550821839 -1050.7683396368284 0 -1050.7683396368284 -438.65081487211353 0 0 0 0 -2499.6003346736125 -771.77643781778659 0 -771.77643781778659 55.734256023568065 0 0 0 0 -1958.9520599809675 -439.79491815079314 0 -439.79491815079314 200.93926007961471 0 0 0 0 -1197.4532696395745 -140.69453412049072 0 -140.69453412049072 -78.437430353367461 0 0 0 0 -1730.2576090819675 -753.7488934234284 0 -753.7488934234284 -106.83052917819352 0 0 0 0 -1875.1148993505994 -659.86027681518544 0 -659.86027681518544 -101.52957076917383 0 0 0 0 -12.546506726790128 15.74572145740818 0 15.74572145740818 2.8743227993863263 0 0 0 0 37.03093989628178 -11.561078287301825 0 -11.561078287301825 -19.822801069598881 0 0 0 0 -70.381751015287591 23.488809560388745 0 23.488809560388745 0.60207456693751737 0 0 0 0 -24.680590782649233 20.244390896044592 0 20.244390896044592 -12.630284960812105 0 0 0 0 -44.339247152363896 76.484581178276841 0 76.484581178276841 -72.285631610013525 0 0 0 0 -53.061703273386229 21.102415435382341 0 21.102415435382341 25.484363897460412 0 0 0 0 -126.23517325625289 59.657749269379337 0 59.657749269379337 82.691984572708634 0 0 0 0 -24.146033740791282 20.504901155350517 0 20.504901155350517 -11.010990134175284 0 0 0 0 -130.98566830367145 -31.477729991591275 0 -31.477729991591275 -25.269553702429675 0 0 0 0 -21.501684287489294 -6.3871422744862372 0 -6.3871422744862372 -22.037012477136024 0 0 0 0 -57.41227801151031 42.277555772392859 0 42.277555772392859 9.1917908045693189 0 0 0 0 0.32476580068760086 219.38359161515973 0 219.38359161515973 -195.4151574914149 0 0 0 0 -78.816249494253498 8.2200599367605776 0 8.2200599367605776 136.43471300507508 0 0 0 0 -66.051528899724019 51.486062366257755 0 51.486062366257755 -1.0910858647266934 0 0 0 0 -168.46084980352407 -25.371040321924994 0 -25.371040321924994 -167.78649617761221 0 0 0 0 -0.57531165025316078 -1.8088757236792219 0 -1.8088757236792219 -8.4380939018714098 0 0 0 0 -171.52470632215045 -20.545790879498838 0 -20.545790879498838 -26.841287017529282 0 0 0 0 -40.273473203373669 26.451564249199279 0 26.451564249199279 -384.87044055542196 0 0 0 0 -2068.5724206858822 -98.836986383830649 0 -98.836986383830649 -213.74055151802082 0 0 0 0 -2132.9466009264579 -152.82328283222648 0 -152.82328283222648 48.924297578197908 0 0 0 0 -2161.0297993898312 -231.82953129251268 0 -231.82953129251268 49.244564800182104 0 0 0 0 -2499.5273281995869 -389.95433208107784 0 -389.95433208107784 273.63689686624031 0 0 0 0 -1961.1459739031886 -230.17948786170913 0 -230.17948786170913 48.553568968502532 0 0 0 0 -1181.4069754165503 -257.83842268303022 0 -257.83842268303022 -133.95510962191076 0 0 0 0 -1962.2433489797622 7.4477587317649405 0 7.4477587317649405 115.28886050728627 0 0 0 0 -34.972612907084113 -12.139119759959385 0 -12.139119759959385 133.45735454785836 0 0 0 0 11.718123944889157 -5.9313843230613656 0 -5.9313843230613656 14.739771256972062 0 0 0 0 -54.195779912770377 64.337524476599356 0 64.337524476599356 -2.5897671192121834 0 0 0 0 9.358222181095698 27.026864953773838 0 27.026864953773838 0.29500506124577441 0 0 0 0 -18.437640811029269 69.256975856175529 0 69.256975856175529 -7.6202960044647625 0 0 0 0 -37.623621783019189 29.661226911058407 0 29.661226911058407 95.424755785016714 0 0 0 0 -61.599164534123702 14.460898851667935 0 14.460898851667935 138.08134753853466 0 0 0 0 -48.621611723076057 70.521461453507527 0 70.521461453507527 23.040828170608165 0 0 0 0 -2.6111273713895287 0.82681137739508515 0 0.82681137739508515 0.41723281046381944 0 0 0 0 -60.413566375100345 -39.966418440943016 0 -39.966418440943016 183.61997142845735 0 0 0 0 36.09915572112368 -8.4259917092053911 0 -8.4259917092053911 87.558626474147388 0 0 0 0 -79.941708576192468 105.30506766112035 0 105.30506766112035 -16.616363628537783 0 0 0 0 -6.80067130063793 0.93173447575806634 0 0.93173447575806634 0.81441989725076347 0 0 0 0 -109.76723789589209 222.61472987549234 0 222.61472987549234 -231.16130380225741 0 0 0 0 -39.182219092253945 69.256847910467513 0 69.256847910467513 -83.295952762137063 0 0 0 0 -11.815151439121109 71.761063637114944 0 71.761063637114944 -95.193371704681553 0 0 0 0 -71.315524815221579 105.25109130731812 0 105.25109130731812 -94.524010216962097 0 0 0 0 -108.63842803048101 167.44089363789556 0 167.44089363789556 -106.8681215875481 0 0 0 0 -9.080773991739477 0.54932950913351064 0 0.54932950913351064 0.8416681712631755 0 0 0 0 -37.122443335243588 -7.7152485734936818 0 -7.7152485734936818 74.674287872207799 0 0 0 0 -53.741231447194878 30.332443007775396 0 30.332443007775396 82.227823126748717 0 0 0 0 -101.62065333484861 -76.379771048449413 0 -76.379771048449413 -114.92405930401105 0 0 0 0 -14.865736424151692 114.2792446491641 0 114.2792446491641 -244.05112267269465 0 0 0 0 23.991388317124802 43.554270691218164 0 43.554270691218164 -129.76968550606398 0 0 0 0 -177.45096424077838 -60.064020705931888 0 -60.064020705931888 -21.835824537042754 0 0 0 0 -1.8635099490329026 1.3736616669654325 0 1.3736616669654325 -0.80013904885056086 0 0 0 0 -223.40929484784283 152.27773434567717 0 152.27773434567717 -87.990565343562594 0 0 0 0 -66.963128235684053 110.18552495508041 0 110.18552495508041 -104.40428615191786 0 0 0 0 -65.514389408221177 44.078253134213639 0 44.078253134213639 -14.984318128953646 0 0 0 0 -5.9915029670622459 2.5564591579079732 0 2.5564591579079732 -1.2938574036070005 0 0 0 0 -24.687798058141198 47.756471837933979 0 47.756471837933979 -31.197993092144451 0 0 0 0 -35.885175004856137 44.406334605855989 0 44.406334605855989 -14.973963536789597 0 0 0 0 9.3712717436137609 14.742222840514025 0 14.742222840514025 -14.331917628692292 0 0 0 0 1.1723837113022455 38.109798439055709 0 38.109798439055709 -46.974305701686433 0 0 0 0 -7.9218419340031687 91.801798480943845 0 91.801798480943845 -267.06677732558285 0 0 0 0 -22.508950073257438 -12.773683815141055 0 -12.773683815141055 -25.695925103835918 0 0 0 0 -22.863204850749753 -10.397629336938323 0 -10.397629336938323 4.2781009120246836 0 0 0 0 -21.550487790897023 -18.079451415966105 0 -18.079451415966105 -1.4462471511068316 0 0 0 0 -20.93667741669924 -15.574625357662626 0 -15.574625357662626 8.6635257554075906 0 0 0 0 -23.031410671341291 -11.328712349560931 0 -11.328712349560931 9.5357023191215831 0 0 0 0 -17.791376485605724 -12.650320693898379 0 -12.650320693898379 7.8022084196272772 0 0 0 0 -19.528321919380687 -15.502901658859969 0 -15.502901658859969 6.430219390564389 0 0 0 0 -18.110252805607161 -13.15052280120949 0 -13.15052280120949 10.22484047957073 0 0 0 0 -34.230283845579834 -5.449656972009052 0 -5.449656972009052 12.574590262838072 0 0 0 0 3.369587869849056 1.217825429188224 0 1.217825429188224 11.830230317857641 0 0 0 0 42.581828775550093 -135.14577979455396 0 -135.14577979455396 -16.361560538756748 0 0 0 0 0.34948701879520172 -3.7377259712528499 0 -3.7377259712528499 2.0157614487370088 0 0 0 0 -68.922595188458217 28.589222082116066 0 28.589222082116066 13.180087947928769 0 0 0 0 -21.692343199829338 -18.867990972357802 0 -18.867990972357802 11.029511985861603 0 0 0 0 -33.950380598824324 1.30342933673262 0 1.30342933673262 4.9999793159557582 0 0 0 0 -93.277345137408702 26.038457152749743 0 26.038457152749743 20.490966557472348 0 0 0 0 -97.938669119306724 19.420438830073181 0 19.420438830073181 11.333055477275877 0 0 0 0 -64.202313103945926 31.409132262244384 0 31.409132262244384 9.3211640159943272 0 0 0 0 -64.929610729508568 25.092436568002995 0 25.092436568002995 25.532084667916024 0 0 0 0 -37.623157839785563 -12.47108872539593 0 -12.47108872539593 70.190684280016285 0 0 0 0 -61.480075165054586 -19.28592021296781 0 -19.28592021296781 66.832764612631991 0 0 0 0 -8.19172545830952 18.970041802566811 0 18.970041802566811 12.461994960170159 0 0 0 0 -30.09506581837195 7.415290760469361 0 7.415290760469361 30.679236649231825 0 0 0 0 -5.3492975578179767 5.1975480859022483 0 5.1975480859022483 1.8938981716680079 0 0 0 0 5.9835592606286809 -47.519359836188642 0 -47.519359836188642 97.876559661897772 0 0 0 0 -23.141101891495055 -22.100087081980405 0 -22.100087081980405 4.962415609094478 0 0 0 0 -23.469993057122338 -23.223363636895442 0 -23.223363636895442 1.6888366259713621 0 0 0 0 -26.270842868296313 -3.8065740680945055 0 -3.8065740680945055 27.458113372917069 0 0 0 0 -44.792560801346553 3.653171570063023 0 3.653171570063023 35.854777475519768 0 0 0 0 -53.682234075982706 22.054593162378751 0 22.054593162378751 16.755332521601304 0 0 0 0 -49.488663861964596 21.623210172667314 0 21.623210172667314 5.4866821464988789 0 0 0 0 -67.646096085038153 22.146235386518583 0 22.146235386518583 16.728864834315573 0 0 0 0 -44.482931499514962 25.807793094391855 0 25.807793094391855 8.6608212487853962 0 0 0 0 -26.363226115063298 7.3839015573471443 0 7.3839015573471443 22.413503103180119 0 0 0 0 -47.587234257152886 38.475405228451564 0 38.475405228451564 13.87222019501678 0 0 0 0 -93.732114453145186 31.567961169935643 0 31.567961169935643 18.976355205190885 0 0 0 0 -68.143690046563279 24.249251804695177 0 24.249251804695177 7.6872343112163435 0 0 0 0 -70.264308245810753 45.185496369277388 0 45.185496369277388 3.5442666551261937 0 0 0 0 -95.150169639164233 43.061708141231975 0 43.061708141231975 8.63457814901966 0 0 0 0 -65.885981268209434 26.398391357299083 0 26.398391357299083 49.940563175649366 0 0 0 0 -58.156232607252605 43.415200771433682 0 43.415200771433682 -17.184912106301738 0 0 0 0 -38.012991618095782 1.8677548102676305 0 1.8677548102676305 5.6393468806953111 0 0 0 0 -84.548304458599887 -50.437096908309734 0 -50.437096908309734 28.659222502816377 0 0 0 0 -47.013984976958454 -11.527935041444834 0 -11.527935041444834 70.84423523193982 0 0 0 0 -42.973239571918384 11.391497014624292 0 11.391497014624292 42.836835501089809 0 0 0 0 -30.352391658045235 -5.6391266939301659 0 -5.6391266939301659 28.083160903995122 0 0 0 0 -46.503533646286087 0.048962471000436381 0 0.048962471000436381 24.969687244263696 0 0 0 0 -47.040643684915267 -16.71866331441413 0 -16.71866331441413 63.873236135942079 0 0 0 0 -40.072865839451879 3.969451479021938 0 3.969451479021938 3.5914389425448023 0 0 0 0 -35.39816982101911 -2.2409225030114612 0 -2.2409225030114612 30.835883746609397 0 0 0 0 -27.738946853474772 29.640429633856058 0 29.640429633856058 -45.36654831423084 0 0 0 0 -27.033768440014683 26.213322065936417 0 26.213322065936417 -29.288588780039618 0 0 0 0 -8.384010887027884 1.3265605714821476 0 1.3265605714821476 -0.12193989557406323 0 0 0 0 -44.266671301702445 -20.461872939556088 0 -20.461872939556088 41.771687073310659 0 0 0 0 -39.347006114771119 1.7523604670778283 0 1.7523604670778283 4.989004370371986 0 0 0 0 -40.852444882802956 5.0228514069061276 0 5.0228514069061276 0.12013300027545881 0 0 0 0 -16.199525864539737 -1.8786977702892287 0 -1.8786977702892287 0.51011638927850655 0 0 0 0 -120.02928237182641 47.92556649877497 0 47.92556649877497 -28.883102420981686 0 0 0 0 -5.9870664442207442 5.9547413800557081 0 5.9547413800557081 -8.2048463316208089 0 0 0 0 -19.985374932104605 -3.8675517666977868 0 -3.8675517666977868 -3.9555988237622941 0 0 0 0 -298.14004430735076 89.564378080822735 0 89.564378080822735 -26.936070330532289 0 0 0 0 -2.3259910823538519 1.023045961896127 0 1.023045961896127 -1.9027998000235651 0 0 0 0 -452.07845546419412 -84.226280933841167 0 -84.226280933841167 57.101641659231973 0 0 0 0 -180.79645026233629 -139.33826147300579 0 -139.33826147300579 62.556167451277133 0 0 0 0 -825.11267099660472 -278.65449102631078 0 -278.65449102631078 396.65950112595601 0 0 0 0 -36.429615106208075 5.3106621892979788 0 5.3106621892979788 16.135971858793823 0 0 0 0 -12.584582878444053 27.913284721036263 0 27.913284721036263 10.999257776067225 0 0 0 0 -55.719830801928765 3.2400028916861174 0 3.2400028916861174 54.805705843188093 0 0 0 0 -54.683781270578038 -30.886158455967916 0 -30.886158455967916 -23.240272263083966 0 0 0 0 -61.603077764601039 -91.659305193196019 0 -91.659305193196019 -44.949170222283328 0 0 0 0 -9.750873190110724 -26.025443439269679 0 -26.025443439269679 -229.87225811406324 0 0 0 0 -13.633216596471357 -46.766038930699679 0 -46.766038930699679 -110.40867506364907 0 0 0 0 -9.5621300202747079 5.6519047203086643 0 5.6519047203086643 -276.64322694310385 0 0 0 0 -1293.9418538336176 217.25387450966264 0 217.25387450966264 -1141.9617950450211 0 0 0 0 -2.6580857630971764 2.94226578209161 0 2.94226578209161 -4.0241550884110779 0 0 0 0 -1725.4197701315716 178.87459850015944 0 178.87459850015944 267.95851813704462 0 0 0 0 -1285.0201848207289 835.41187198436603 0 835.41187198436603 -446.37621362191476 0 0 0 0 -927.41188685812085 388.76841298706256 0 388.76841298706256 -25.186489927608932 0 0 0 0 -153.13223512067634 246.43901057988421 0 246.43901057988421 -460.50809203639346 0 0 0 0 -31.239719829056412 -17.1349142242982 0 -17.1349142242982 -159.5499818352904 0 0 0 0 -141.5858700296958 35.283642973169549 0 35.283642973169549 -156.69531952187231 0 0 0 0 57.063794472822337 5.3834528994588027 0 5.3834528994588027 -184.46910322608005 0 0 0 0 59.89235870646371 48.402167569359733 0 48.402167569359733 -118.53820577377348 0 0 0 0 21.624824623562745 50.626773552946247 0 50.626773552946247 -94.2955596395893 0 0 0 0 -8.2726486476167338 46.768784124834383 0 46.768784124834383 -39.432548516849351 0 0 0 0 -8.4292562060836644 40.164052989143272 0 40.164052989143272 -113.71723023004404 0 0 0 0 -8.3971458330488531 -1.8825531514604563 0 -1.8825531514604563 -47.879905952405238 0 0 0 0 -15.022955915854254 -17.584595673227227 0 -17.584595673227227 -83.228925564942301 0 0 0 0 8.4933661553368438 211.86998067689251 0 211.86998067689251 -24.625666596615702 0 0 0 0 113.51437530655141 224.44677797331178 0 224.44677797331178 -393.25804194658599 0 0 0 0 -71.418234925931756 360.39410692243666 0 360.39410692243666 -229.3979390677091 0 0 0 0 -35.117873444934958 125.00418207060829 0 125.00418207060829 -111.35784300266818 0 0 0 0 111.4658380644621 166.12926756965791 0 166.12926756965791 -196.66581579372632 0 0 0 0 44.84256983929663 177.35079439608762 0 177.35079439608762 -198.4273436733472 0 0 0 0 -13.291672914459923 271.03681266545732 0 271.03681266545732 -182.25300816553636 0 0 0 0 -147.84826787010388 190.48085796613134 0 190.48085796613134 -121.50340984977674 0 0 0 0 -270.94189691955398 90.26115716014624 0 90.26115716014624 -54.736376500055201 0 0 0 0 -94.901680560185923 207.40995558809385 0 207.40995558809385 -125.66562778079515 0 0 0 0 -461.43344793283904 -41.044375260026527 0 -41.044375260026527 -98.436271216408613 0 0 0 0 -323.9847774901209 127.61272670837218 0 127.61272670837218 17.422672686543137 0 0 0 0 -731.49848285680491 316.70678028910152 0 316.70678028910152 -45.48133313091239 0 0 0 0 -258.5822388365159 368.29595477145619 0 368.29595477145619 -208.98911793885554 0 0 0 0 -535.15221654086781 155.53175768965343 0 155.53175768965343 43.224333684164549 0 0 0 0 -383.29404113901546 351.66484217904554 0 351.66484217904554 -195.34091951592745 0 0 0 0 -581.63441338395205 615.28623976049425 0 615.28623976049425 -528.69095600665605 0 0 0 0 -745.78683116319007 353.08513676714119 0 353.08513676714119 -16.587520474693065 0 0 0 0 -1192.2947483666267 -125.89825271568611 0 -125.89825271568611 -12.085210139184937 0 0 0 0 -437.63344334167778 623.70069771591625 0 623.70069771591625 -975.78328794098843 0 0 0 0 -7.2393096914475734 1.1605304574879263 0 1.1605304574879263 -0.40824012299119372 0 0 0 0 -118.44004551111721 294.76062553300608 0 294.76062553300608 -705.09187984721484 0 0 0 0 -32.384322956677352 -165.58693809797705 0 -165.58693809797705 -183.35121846568558 0 0 0 0 -1004.008769400818 189.44627892728738 0 189.44627892728738 116.3375812118835 0 0 0 0 37.953123688210326 -52.15183609217695 0 -52.15183609217695 -35.399958067289845 0 0 0 0 -42.934035344551376 -29.160087613486553 0 -29.160087613486553 91.137687670270452 0 0 0 0 -4.8147914723604259 -2.0701280537227831 0 -2.0701280537227831 -1.3973113331635947 0 0 0 0 -19.037122735075855 5.0829959866770515 0 5.0829959866770515 -0.040195247209668716 0 0 0 0 101.38251475563447 21.666996531645509 0 21.666996531645509 -166.66394463322041 0 0 0 0 -5.2989776196982774 1.0532052480283767 0 1.0532052480283767 -0.077601148692171051 0 0 0 0 15.277852161583724 143.8941282650203 0 143.8941282650203 -557.24571906340407 0 0 0 0 64.318775529842242 76.547345340258289 0 76.547345340258289 -38.945393642705341 0 0 0 0 8.2433481440020842 143.34235682211624 0 143.34235682211624 66.085925756477081 0 0 0 0 -7.7323941023496445 -62.795500445152129 0 -62.795500445152129 -90.721207739454258 0 0 0 0 -150.45546654416648 104.26011605459985 0 104.26011605459985 93.865459037953087 0 0 0 0 -198.42064018842939 -64.027518479411697 0 -64.027518479411697 -193.38537462743102 0 0 0 0 -70.873900852988299 237.22696504235705 0 237.22696504235705 360.33976784518563 0 0 0 0 -16.126472942009144 4.9923889568919488 0 4.9923889568919488 -0.11981032983331452 0 0 0 0 -362.34730485887849 350.14601655239153 0 350.14601655239153 -152.11965560380395 0 0 0 0 -221.65496887926929 342.42025981251254 0 342.42025981251254 -409.30602725636572 0 0 0 0 -398.31413101892394 361.72349427123777 0 361.72349427123777 -149.95698045398285 0 0 0 0 -113.34259831727832 151.32580621440218 0 151.32580621440218 -155.23559809143899 0 0 0 0 -146.60870078366861 130.07513265623561 0 130.07513265623561 -106.98948612788143 0 0 0 0 -384.99288742149656 311.87147870377021 0 311.87147870377021 -133.38088232713883 0 0 0 0 -199.78409555960388 -27.66921681990425 0 -27.66921681990425 57.874617465198753 0 0 0 0 -242.30109712946432 201.05911486552122 0 201.05911486552122 -67.244428761745439 0 0 0 0 81.534124988498661 -27.865112978293155 0 -27.865112978293155 -95.457874177296617 0 0 0 0 -64.047362827226607 40.646454622516103 0 40.646454622516103 43.526618944564689 0 0 0 0 -54.833109354425687 29.070719835845125 0 29.070719835845125 -94.577377206207075 0 0 0 0 -1.0433818246946558 -4.0227320886552462 0 -4.0227320886552462 -5.7128764791946489 0 0 0 0 -284.88479367243417 -142.51929980960256 0 -142.51929980960256 -40.068815959351014 0 0 0 0 -1.4130213059529524 -2.7235584459318432 0 -2.7235584459318432 -5.3202049563979603 0 0 0 0 -473.43088615414308 50.62890018556638 0 50.62890018556638 52.276549615180329 0 0 0 0 -17.770544720180624 98.250528313196412 0 98.250528313196412 -154.32163804999345 0 0 0 0 -0.85919695138507279 -0.94472929436574304 0 -0.94472929436574304 -2.0852394760701802 0 0 0 0 -450.58445887723792 61.640011860604545 0 61.640011860604545 40.650363683266733 0 0 0 0 -292.8435422070288 144.40176143868666 0 144.40176143868666 -125.37494025913702 0 0 0 0 -497.93424393375608 509.89919570141205 0 509.89919570141205 -341.18887759025756 0 0 0 0 -3.2398928297065197 -0.31741753939525097 0 -0.31741753939525097 1.7159525289614379 0 0 0 0 177.89182516939036 -321.23603095083865 0 -321.23603095083865 272.48620751996623 0 0 0 0 8.7252554029601015 -38.092693870191681 0 -38.092693870191681 173.07243437719353 0 0 0 0 54.493650116724893 -182.82639257879578 0 -182.82639257879578 240.39089385905442 0 0 0 0 -7.8340214996231481 -1.6842112818528534 0 -1.6842112818528534 4.1048146588699801 0 0 0 0 -126.68124387521675 66.432260022760147 0 66.432260022760147 46.277550553110871 0 0 0 0 26.20921555699897 -20.199756268494411 0 -20.199756268494411 -122.22076160741011 0 0 0 0 -1.2202167927061964 43.338556803141273 0 43.338556803141273 109.23156941971411 0 0 0 0 -8.7921323918100427 0.55281074132204466 0 0.55281074132204466 0.77429909588450951 0 0 0 0 -4.1283233801281369 0.60359965004074212 0 0.60359965004074212 0.42418930482525274 0 0 0 0 83.422587211578502 44.855765503977864 0 44.855765503977864 -153.27650809859131 0 0 0 0 -392.52546043568873 -55.069490120645696 0 -55.069490120645696 281.31349680080257 0 0 0 0 -696.80241027199372 77.829103074574277 0 77.829103074574277 78.857993937741639 0 0 0 0 -92.845572128484491 69.117860516727319 0 69.117860516727319 -61.148967136496822 0 0 0 0 -453.93086451509589 355.68697670605957 0 355.68697670605957 -202.10289790819189 0 0 0 0 -278.94587532629157 152.11811088230274 0 152.11811088230274 -46.054233568798963 0 0 0 0 -562.29396614139841 23.064678373864353 0 23.064678373864353 -39.462044915867409 0 0 0 0 -411.79688082807479 72.398486211541012 0 72.398486211541012 -30.296328764932014 0 0 0 0 -253.96646368065558 50.558267135862479 0 50.558267135862479 -97.973336883607772 0 0 0 0 -412.4383638762572 90.705556848210307 0 90.705556848210307 -25.564397414601899 0 0 0 0 -141.43822487463331 133.02457102819938 0 133.02457102819938 -116.92284178510226 0 0 0 0 -15.308819919780944 41.389630870759902 0 41.389630870759902 -71.059035011624019 0 0 0 0 -118.07527024910451 58.326234888504757 0 58.326234888504757 -14.494141500249498 0 0 0 0 -79.622889967307856 108.09332813614947 0 108.09332813614947 -104.33924337015992 0 0 0 0 -111.57582113005992 106.36322366245798 0 106.36322366245798 -82.741512021881135 0 0 0 0 -110.64737442934893 111.94240265984308 0 111.94240265984308 -51.565240234147495 0 0 0 0 -169.18988976929541 137.23008402740697 0 137.23008402740697 -44.914549189571972 0 0 0 0 -173.15828000586771 120.62497210992296 0 120.62497210992296 -64.757341801127041 0 0 0 0 -225.48626430098375 146.97507488307633 0 146.97507488307633 -62.831341623230855 0 0 0 0 -168.02144059402781 113.79153493011222 0 113.79153493011222 -52.988160129633798 0 0 0 0 -172.63740200557368 94.301925484141577 0 94.301925484141577 -110.49603057710192 0 0 0 0 -228.66180310033815 124.8927717233214 0 124.8927717233214 -92.9813320210624 0 0 0 0 -335.45979641433223 18.221454078270085 0 18.221454078270085 -182.21477533728057 0 0 0 0 -412.82683604952763 116.09488253957738 0 116.09488253957738 -52.697638211465346 0 0 0 0 -277.8579074361769 150.61707954899339 0 150.61707954899339 -147.66170556538782 0 0 0 0 -232.76571584538033 102.18866262016695 0 102.18866262016695 -97.543443016580568 0 0 0 0 -264.98236751145305 137.81475885450845 0 137.81475885450845 -52.763707085782698 0 0 0 0 -206.84923193592113 113.25171255844361 0 113.25171255844361 -43.402537404466784 0 0 0 0 -266.68929865983955 79.56313651481787 0 79.56313651481787 -35.297874010561827 0 0 0 0 -275.56419513037963 73.114392042003857 0 73.114392042003857 -39.936516797951299 0 0 0 0 -204.37449804855714 74.37296451406155 0 74.37296451406155 -27.983295703118529 0 0 0 0 -207.78163462108932 68.818033678074585 0 68.818033678074585 -34.41626607895796 0 0 0 0 -233.78545843208485 116.01705431908965 0 116.01705431908965 -30.94913434926093 0 0 0 0 -177.19408967088384 108.73673387658891 0 108.73673387658891 -30.126487921931812 0 0 0 0 -168.18532107194915 148.7388454684874 0 148.7388454684874 -42.028131335382682 0 0 0 0 -164.03076599557971 145.2140950950286 0 145.2140950950286 -71.524510153727533 0 0 0 0 -187.56464026112371 138.13024659293842 0 138.13024659293842 -12.878261499210566 0 0 0 0 -138.81315703692235 122.56381474996468 0 122.56381474996468 -29.65112338780591 0 0 0 0 -142.09028277130528 138.30789629650116 0 138.30789629650116 -63.517604804546863 0 0 0 0 -193.3167751388919 151.22011944173732 0 151.22011944173732 -56.498315455386546 0 0 0 0 -172.34129962639417 129.78751151281585 0 129.78751151281585 -35.959614752143239 0 0 0 0 -86.211963194000418 -60.577200747022289 0 -60.577200747022289 -17.915765474388536 0 0 0 0 -20.214558433159254 -61.267221674511802 0 -61.267221674511802 -95.427069848267138 0 0 0 0 -48.177522885442158 10.477714260733251 0 10.477714260733251 52.789754122593877 0 0 0 0 52.143220984355139 -100.86932903181616 0 -100.86932903181616 -10.797392635309734 0 0 0 0 -176.58336736774072 -79.485085649628218 0 -79.485085649628218 254.48416714962198 0 0 0 0 -75.833671200336539 -44.143200118463938 0 -44.143200118463938 -75.212957615651703 0 0 0 0 -104.02562499017222 -58.096215474444307 0 -58.096215474444307 -76.715215922465234 0 0 0 0 -265.04757296448224 4.5924668717091208 0 4.5924668717091208 -51.704869698412949 0 0 0 0 -183.97003854976356 -79.914385094471072 0 -79.914385094471072 -11.181909892033673 0 0 0 0 -213.54425263781013 108.55942065855675 0 108.55942065855675 -75.753801605694207 0 0 0 0 -261.34882375629968 86.153190470086429 0 86.153190470086429 -25.843093055261761 0 0 0 0 -181.57336599282644 95.929520860523326 0 95.929520860523326 -160.63377011919329 0 0 0 0 -354.189073016576 -84.643123046901792 0 -84.643123046901792 -130.76893369111895 0 0 0 0 -292.3176186480996 -7.9263659209079833 0 -7.9263659209079833 -37.019576764819249 0 0 0 0 -199.37069578429509 -34.098207103201275 0 -34.098207103201275 -63.321499007066222 0 0 0 0 -215.51901100690884 27.706975076245726 0 27.706975076245726 -34.763990450928986 0 0 0 0 -166.67110375301309 48.129073987089271 0 48.129073987089271 -31.268719521248386 0 0 0 0 -188.77422124160512 21.712151307776821 0 21.712151307776821 -34.544752669014997 0 0 0 0 -135.37697334499535 3.8183207906881762 0 3.8183207906881762 -60.408724016862607 0 0 0 0 -174.63661155635054 6.7374405779055451 0 6.7374405779055451 -58.304348418053451 0 0 0 0 -195.27873272474881 -21.240677283029328 0 -21.240677283029328 -67.950546918976215 0 0 0 0 -158.22345705437328 -15.192347129073369 0 -15.192347129073369 -72.071041777766368 0 0 0 0 -151.10758833969885 -36.655548260506578 0 -36.655548260506578 -84.313066202099435 0 0 0 0 -87.17704171371588 -28.693040472616758 0 -28.693040472616758 -90.669325341202239 0 0 0 0 -137.57149263614929 -16.927282046668068 0 -16.927282046668068 -91.536292819426308 0 0 0 0 -96.783044953655917 1.5875438440211838 0 1.5875438440211838 -112.45492608164204 0 0 0 0 -97.293755576261901 4.7119807913072691 0 4.7119807913072691 -79.983129787174221 0 0 0 0 -71.749395180089323 11.825892039522387 0 11.825892039522387 -178.61818098192543 0 0 0 0 -70.925290268402023 -4.5753445538543929 0 -4.5753445538543929 -118.70751950212889 0 0 0 0 -89.56042218967923 -18.930157493321985 0 -18.930157493321985 -129.36517789829213 0 0 0 0 -55.470955048360338 -41.811668997227571 0 -41.811668997227571 -121.29581712323488 0 0 0 0 -68.544203570192622 -35.821680770905459 0 -35.821680770905459 -99.394844873768477 0 0 0 0 -109.56363275415788 12.268533569794272 0 12.268533569794272 10.621781925589858 0 0 0 0 -116.90516027008925 44.244391402872793 0 44.244391402872793 -52.712560201576707 0 0 0 0 -118.43322280400025 42.897215406463602 0 42.897215406463602 -17.438042838615274 0 0 0 0 -97.583851554933062 30.885364363144163 0 30.885364363144163 -107.44432306036742 0 0 0 0 -109.3693131889695 42.247095609479373 0 42.247095609479373 -70.407381715003794 0 0 0 0 -109.92476467350207 36.911376523146032 0 36.911376523146032 -55.210414667379155 0 0 0 0 -110.00952654848516 24.846232284868165 0 24.846232284868165 -51.717054063953583 0 0 0 0 -111.16643107998243 22.981058182903553 0 22.981058182903553 -63.181715047739999 0 0 0 0 -107.78569557529045 31.185501286361045 0 31.185501286361045 -54.296784466106146 0 0 0 0 -109.57834828734485 34.995817879233982 0 34.995817879233982 -10.844452142119735 0 0 0 0 -113.10558042048069 23.113902383051027 0 23.113902383051027 -23.087358078042598 0 0 0 0 -109.95346658721405 40.210391757979203 0 40.210391757979203 -41.72542651236472 0 0 0 0 -110.89277030093945 29.680894622315463 0 29.680894622315463 -16.315673469674039 0 0 0 0 -132.72362982531195 40.39816585806193 0 40.39816585806193 -20.554689733104169 0 0 0 0 -123.56611599834287 49.793503753086952 0 49.793503753086952 -11.629508475819421 0 0 0 0 -122.82496104382699 45.467238999196297 0 45.467238999196297 -30.732855098874097 0 0 0 0 -130.22334419160325 25.287674787837204 0 25.287674787837204 -37.506584191536604 0 0 0 0 -109.92845120880702 41.092879594214253 0 41.092879594214253 -26.857064618351615 0 0 0 0 -136.78130592551315 5.9731689705795361 0 5.9731689705795361 -74.393703802287291 0 0 0 0 -128.38342040126554 30.504103571573978 0 30.504103571573978 -46.400135193250208 0 0 0 0 -152.36940831967513 28.313410103419756 0 28.313410103419756 -40.669192737349476 0 0 0 0 -152.47618439881268 59.326292252316456 0 59.326292252316456 -24.300588044217875 0 0 0 0 -172.14992080981756 46.993298445174787 0 46.993298445174787 -30.429920682280681 0 0 0 0 -139.61112294430495 56.964640034890181 0 56.964640034890181 -24.021649486096976 0 0 0 0 -132.27061599127796 62.44529272171124 0 62.44529272171124 -20.309060922851131 0 0 0 0 -144.29720283061033 63.023404539208968 0 63.023404539208968 -11.737461705847636 0 0 0 0 -117.51041270658607 58.777857566963121 0 58.777857566963121 -12.026004101845501 0 0 0 0 -123.65099714948701 44.742217438533771 0 44.742217438533771 4.1034076273554092 0 0 0 0 -119.74067286853096 59.491783362008391 0 59.491783362008391 -8.7780022695706066 0 0 0 0 -111.05986145455972 44.840910340571099 0 44.840910340571099 1.076396326201575 0 0 0 0 -103.35420581254584 47.277332659894455 0 47.277332659894455 -3.9763788550012578 0 0 0 0 -123.82881500665098 56.379379185702419 0 56.379379185702419 -0.79649285898449307 0 0 0 0 -109.47676170253544 51.526162130308876 0 51.526162130308876 -6.1002234581337689 0 0 0 0 -60.480236472343677 45.390849861039442 0 45.390849861039442 -7.2862797920624871 0 0 0 0 -97.128095579188084 16.695714848172429 0 16.695714848172429 -6.9697915795786685 0 0 0 0 -13.625728154263925 29.755887382578294 0 29.755887382578294 -7.1188673439569783 0 0 0 0 -45.772710364544764 36.878762996359796 0 36.878762996359796 -0.44374173729920585 0 0 0 0 -99.11867570940376 16.24097947636983 0 16.24097947636983 19.992973380220064 0 0 0 0 -197.27520377311157 -22.972883163336519 0 -22.972883163336519 45.504824065086723 0 0 0 0 -64.761036388284992 -78.401957710287206 0 -78.401957710287206 -58.942652260968316 0 0 0 0 -132.90836591197876 2.3984970658202656 0 2.3984970658202656 32.260823472160155 0 0 0 0 -122.14690308176796 29.638302783119798 0 29.638302783119798 12.346217643017553 0 0 0 0 -115.48393760462204 39.142864696771085 0 39.142864696771085 18.480381132381808 0 0 0 0 -36.016801428799226 49.322233996655086 0 49.322233996655086 32.450292538712347 0 0 0 0 -100.58104503859067 42.442679707882689 0 42.442679707882689 16.716781723407621 0 0 0 0 -117.73688095903344 40.91339619098062 0 40.91339619098062 41.162999780692189 0 0 0 0 -205.92529010272119 11.140993759062439 0 11.140993759062439 59.292661292046262 0 0 0 0 -152.15701584640192 29.300178940652131 0 29.300178940652131 38.461231752768072 0 0 0 0 -103.68397266928514 67.304416475403741 0 67.304416475403741 55.520514127891147 0 0 0 0 -91.859220558071684 28.456200038223642 0 28.456200038223642 35.308436303012058 0 0 0 0 -101.79774362701573 43.773597948884344 0 43.773597948884344 33.668661750795081 0 0 0 0 -108.60653316457501 34.7600599638738 0 34.7600599638738 12.345112374860037 0 0 0 0 -83.226177261676639 37.704223360594824 0 37.704223360594824 10.885936567217868 0 0 0 0 -114.00388490738987 41.443844422290567 0 41.443844422290567 18.235958126877449 0 0 0 0 -110.45599759752804 40.535494754163665 0 40.535494754163665 -8.8079922359611373 0 0 0 0 -105.30040160586941 47.000531725820565 0 47.000531725820565 -1.7201672791470628 0 0 0 0 -98.788371423666831 38.214794663936573 0 38.214794663936573 -11.25033467935009 0 0 0 0 -108.21857616611305 20.282623788560386 0 20.282623788560386 10.64945788843761 0 0 0 0 -102.01957777264761 9.781511710900304 0 9.781511710900304 32.49381193778936 0 0 0 0 -80.92112091427407 20.713316006873811 0 20.713316006873811 9.4806505126234697 0 0 0 0 -68.330971142291673 23.893995532029294 0 23.893995532029294 30.649440089754535 0 0 0 0 -42.177586876961868 -12.156902515281672 0 -12.156902515281672 62.985555581922654 0 0 0 0 -64.774920675619796 9.6440365632679459 0 9.6440365632679459 68.254750356102704 0 0 0 0 -90.582625408904278 14.797326159827321 0 14.797326159827321 27.058849486151303 0 0 0 0 -71.056574146853563 -10.787377085151547 0 -10.787377085151547 45.233831052270034 0 0 0 0 -69.747112495191686 -23.931317495782878 0 -23.931317495782878 55.250268788423 0 0 0 0 -109.2336974456266 -10.347598356460821 0 -10.347598356460821 54.162227917122436 0 0 0 0 -119.95623622342373 14.819273824255731 0 14.819273824255731 19.77774234681965 0 0 0 0 -94.343425932900573 -10.911568498751876 0 -10.911568498751876 42.585634461741392 0 0 0 0 -136.18520348915627 99.094951834600806 0 99.094951834600806 -23.634806752283112 0 0 0 0 -133.70892843574984 102.61837301157107 0 102.61837301157107 -23.230939873791613 0 0 0 0 -149.45046555539739 103.78579320959398 0 103.78579320959398 -22.59545431973379 0 0 0 0 -125.623129615371 100.2929190643431 0 100.2929190643431 -26.964464037950165 0 0 0 0 -102.58878653283318 64.937145562965043 0 64.937145562965043 -20.995017880558407 0 0 0 0 -39.995536905253751 11.204719286880064 0 11.204719286880064 -3.2380910443472395 0 0 0 0 0.32401693727801728 1.135202690978673 0 1.135202690978673 -1.1972311990687992 0 0 0 0 -363.83286211422819 232.62138124386706 0 232.62138124386706 -42.956102847416332 0 0 0 0 -23.816452284267143 104.42717358046752 0 104.42717358046752 -44.640211128666124 0 0 0 0 -163.26172141761344 142.28471815381499 0 142.28471815381499 -53.039973187321721 0 0 0 0 -179.49143424621798 106.59130426053531 0 106.59130426053531 -23.910990322260659 0 0 0 0 -158.10870753813651 114.71044208831063 0 114.71044208831063 -21.339546205581428 0 0 0 0 -174.12503793311771 105.94672798988859 0 105.94672798988859 -14.988714074471318 0 0 0 0 -144.31650532162166 113.85718482781795 0 113.85718482781795 -23.425966401115147 0 0 0 0 -192.57963850381202 67.800562810678457 0 67.800562810678457 -24.613934343486108 0 0 0 0 -201.09432735826704 95.359574864464321 0 95.359574864464321 -17.655939767174459 0 0 0 0 -168.17017757036956 87.51560511222624 0 87.51560511222624 -18.513601287315851 0 0 0 0 -177.70914754182013 82.063603119857817 0 82.063603119857817 -16.566268240414502 0 0 0 0 -171.93514644922107 80.835572371405306 0 80.835572371405306 -19.435683582642923 0 0 0 0 -163.6725547282258 71.794529147544381 0 71.794529147544381 -15.282315871345418 0 0 0 0 -147.64090197659971 83.431890815043516 0 83.431890815043516 -16.674862139693005 0 0 0 0 -147.94733462604927 83.238972791738888 0 83.238972791738888 -16.157846581249942 0 0 0 0 -148.81229808321223 82.662291623669717 0 82.662291623669717 -16.4566950865119 0 0 0 0 -128.84821863456455 71.207472929610958 0 71.207472929610958 -15.414308543912625 0 0 0 0 -155.07092722781817 102.59864542348714 0 102.59864542348714 -16.463808246390272 0 0 0 0 -152.77144012836652 101.96073615825799 0 101.96073615825799 -17.398225764413837 0 0 0 0 -145.29060353867681 99.863657435513574 0 99.863657435513574 -17.394831786443319 0 0 0 0 -147.27522491565105 104.85742415119159 0 104.85742415119159 -25.593834839778538 0 0 0 0 -134.28215933100728 96.092234249268131 0 96.092234249268131 -23.03465428739446 0 0 0 0 -140.73426512660808 93.629827670142731 0 93.629827670142731 -18.706071952728053 0 0 0 0 -140.92538259482535 95.28936070747136 0 95.28936070747136 -29.522490434944302 0 0 0 0 -125.10984526074026 77.624410753407574 0 77.624410753407574 -16.72160436842023 0 0 0 0 -138.41325447312556 71.314940806525101 0 71.314940806525101 -12.334880193605386 0 0 0 0 -129.48904180656245 78.251565755243064 0 78.251565755243064 -14.472426136542708 0 0 0 0 -105.95717890613741 63.965345798081216 0 63.965345798081216 -12.54483040429659 0 0 0 0 -126.92167370476818 77.745012163292358 0 77.745012163292358 -18.200869235172831 0 0 0 0 -93.813548555233865 66.384425804935745 0 66.384425804935745 -16.96105803945045 0 0 0 0 -113.91936122403422 72.613013605476226 0 72.613013605476226 -6.8010790094649565 0 0 0 0 -113.02527112728603 86.81869246804132 0 86.81869246804132 -32.369139559657924 0 0 0 0 -107.29853955552244 79.011473633713649 0 79.011473633713649 -5.0643480356193322 0 0 0 0 -85.970143553378875 62.649084195405521 0 62.649084195405521 -12.784640827894236 0 0 0 0 -92.56890410289634 59.544328209207379 0 59.544328209207379 12.147823516354038 0 0 0 0 -35.662873191002291 84.369471178071763 0 84.369471178071763 21.315687823454937 0 0 0 0 -157.19473051258683 100.11957141534549 0 100.11957141534549 -29.065597907086612 0 0 0 0 -125.1211790871057 86.117309580981555 0 86.117309580981555 -64.243382903479869 0 0 0 0 -119.93004393258889 69.630185504858673 0 69.630185504858673 -11.911343227165162 0 0 0 0 -102.13927301083459 44.492692348064338 0 44.492692348064338 -44.808621143385608 0 0 0 0 -197.63227358800214 67.832070410847791 0 67.832070410847791 -56.891053972464988 0 0 0 0 -145.97927908328711 84.552777548756353 0 84.552777548756353 -68.439087577491591 0 0 0 0 -90.611522162908344 67.159010530686032 0 67.159010530686032 -17.519210335327159 0 0 0 0 -148.12595731769397 104.67098992815045 0 104.67098992815045 -33.290257375961801 0 0 0 0 -140.49575676946915 89.895529994822709 0 89.895529994822709 -28.141382300459554 0 0 0 0 -78.630743223415948 65.321594003030384 0 65.321594003030384 -15.835316026491851 0 0 0 0 -152.60485649676411 85.38469789243527 0 85.38469789243527 -27.55562199160363 0 0 0 0 -246.10438885022631 143.2411505599469 0 143.2411505599469 9.8419622826697832 0 0 0 0 0.4930854579656625 112.64350538572671 0 112.64350538572671 -154.66835984350143 0 0 0 0 -437.16452822673818 -182.14485225592034 0 -182.14485225592034 -88.974038382733852 0 0 0 0 -38.759855351978331 -11.641179279194148 0 -11.641179279194148 -210.35999992420147 0 0 0 0 -183.51243954837196 -37.801451844056928 0 -37.801451844056928 27.433691116175169 0 0 0 0 -130.38327886732895 -130.99649770915289 0 -130.99649770915289 -134.3403037829396 0 0 0 0 -169.13998949558481 -10.663031070743841 0 -10.663031070743841 14.814928825758898 0 0 0 0 -162.72528778958392 97.475334495854014 0 97.475334495854014 -285.20424916198226 0 0 0 0 -162.77685921557531 96.306692917278269 0 96.306692917278269 -3.4375623704322606 0 0 0 0 -149.25389733084376 -64.558015587373575 0 -64.558015587373575 -142.16790740814713 0 0 0 0 -33.492891534116687 4.0100096098531708 0 4.0100096098531708 -14.992177366469138 0 0 0 0 -28.822305089615384 60.089110846148174 0 60.089110846148174 -132.90394309040539 0 0 0 0 -195.11635281184863 170.02599746203043 0 170.02599746203043 -76.309677567299332 0 0 0 0 -75.594731450237859 64.97732809840906 0 64.97732809840906 -26.533091460567874 0 0 0 0 -92.53211647133503 172.33957417998636 0 172.33957417998636 -108.12425432727372 0 0 0 0 -193.58695134024674 13.123350926620674 0 13.123350926620674 -33.266957663762696 0 0 0 0 -74.228642356802808 66.363077565292855 0 66.363077565292855 -25.31586785344728 0 0 0 0 -24.062833061760102 161.09025324684785 0 161.09025324684785 -108.85922470805804 0 0 0 0 -233.92422988103135 98.79436187646229 0 98.79436187646229 -25.395466660216698 0 0 0 0 -65.661394584916707 82.016088548476546 0 82.016088548476546 -79.284182659701855 0 0 0 0 -592.7488660930494 26.427215600641375 0 26.427215600641375 11.547490166297166 0 0 0 0 -584.70711583152115 -42.64757938521052 0 -42.64757938521052 30.407643487717451 0 0 0 0 -225.46654553034978 64.043297295740672 0 64.043297295740672 -79.142510588647383 0 0 0 0 -564.90178282688339 -52.96747929730509 0 -52.96747929730509 6.2934679456907361 0 0 0 0 -551.60966134737646 -11.780401897305637 0 -11.780401897305637 41.878265934822139 0 0 0 0 -894.82586497404588 -119.7411088352041 0 -119.7411088352041 -83.42516422384233 0 0 0 0 -521.76909888654882 -40.145026955684898 0 -40.145026955684898 -66.506895812308812 0 0 0 0 -330.96352778004803 65.903007914925638 0 65.903007914925638 -97.470309700188636 0 0 0 0 -532.24064512464611 157.39489487221613 0 157.39489487221613 -69.24391142649074 0 0 0 0 -769.32377619890849 349.51102068327782 0 349.51102068327782 -256.03394660451613 0 0 0 0 -190.24684432757567 98.255237789335979 0 98.255237789335979 -373.79573618130553 0 0 0 0 -1538.9036878423458 -44.655299491077812 0 -44.655299491077812 100.61351212346472 0 0 0 0 -1.8997742209190136 3.3370145601865548 0 3.3370145601865548 -7.1735787302722915 0 0 0 0 241.45056531676437 208.60508827686067 0 208.60508827686067 -148.3943619192346 0 0 0 0 -71.825803253223512 -57.784715216840596 0 -57.784715216840596 110.6008813234821 0 0 0 0 -162.6566057542318 -43.180058146086139 0 -43.180058146086139 13.442020420559743 0 0 0 0 -160.54929046875961 -10.656538357416139 0 -10.656538357416139 121.52332775748073 0 0 0 0 -38.984693629525964 -84.753324581741239 0 -84.753324581741239 -41.97880635539213 0 0 0 0 -5.3187538719170746 -6.3912334871867857 0 -6.3912334871867857 -1.7310124712453017 0 0 0 0 -4.6558253274067969 -0.40473804776090555 0 -0.40473804776090555 29.995607632065475 0 0 0 0 -1283.8872232919625 -585.14685047185117 0 -585.14685047185117 11.064153449598649 0 0 0 0 -122.04464308531647 8.6073249086020951 0 8.6073249086020951 28.102847435457761 0 0 0 0 -21.983901016320033 88.073399423647061 0 88.073399423647061 41.210344094497486 0 0 0 0 -145.18980246170668 -25.619884621494293 0 -25.619884621494293 133.97303028928218 0 0 0 0 -2146.1088176845783 434.96771337524376 0 434.96771337524376 278.78734478235452 0 0 0 0 -2499.4073655829288 185.72090491240257 0 185.72090491240257 133.85900851132456 0 0 0 0 -2044.0490840148141 109.61541724763981 0 109.61541724763981 -213.85010946732282 0 0 0 0 -2423.0394559479805 64.309337629769288 0 64.309337629769288 -17.607710584156237 0 0 0 0 -2301.3279250186897 275.5183618398861 0 275.5183618398861 -3.7668707675055941 0 0 0 0 -2522.7566473377815 268.00743821920673 0 268.00743821920673 45.845129651754576 0 0 0 0 -2121.4648760407131 93.829123597773759 0 93.829123597773759 -59.556745763350932 0 0 0 0 -2205.8303989804999 -7.311785779577491 0 -7.311785779577491 235.93851432486952 0 0 0 0 -2499.7996187190197 15.198986744270588 0 15.198986744270588 258.64633938099377 0 0 0 0 -2181.4344633153469 -200.45535260787028 0 -200.45535260787028 310.8612487814932 0 0 0 0 -2160.2256160491929 148.48628850972221 0 148.48628850972221 238.39824420678826 0 0 0 0 -1821.8479682459676 115.07096149319536 0 115.07096149319536 227.06845025085812 0 0 0 0 -2152.9833974449339 -146.93713646598744 0 -146.93713646598744 295.17917134382958 0 0 0 0 -2023.5398583719445 -210.5208539072741 0 -210.5208539072741 286.56657863951494 0 0 0 0 -505.44744029383264 -9.0502308135161229 0 -9.0502308135161229 -15.964746296242083 0 0 0 0 -10.957413469457617 11.701817362167684 0 11.701817362167684 -16.842867414313687 0 0 0 0 -552.89042364937654 -1.9288228853075964 0 -1.9288228853075964 -11.686728854499052 0 0 0 0 -15.654296657280767 -2.2719759646951667 0 -2.2719759646951667 33.538525072835448 0 0 0 0 -47.969950598183459 49.273468806932954 0 49.273468806932954 -3.7265330100283336 0 0 0 0 -1690.9845998733299 94.871384477008689 0 94.871384477008689 49.698981211710191 0 0 0 0 -7.0196755061243783 3.35954476441335 0 3.35954476441335 1.1599235277181814 0 0 0 0 -1154.3532626736082 -42.211630622706771 0 -42.211630622706771 54.315260527185451 0 0 0 0 -16.147121135235004 7.4591382743983097 0 7.4591382743983097 29.308685703839608 0 0 0 0 -1150.0784527294086 -156.39894595410635 0 -156.39894595410635 -29.069541561019946 0 0 0 0 -524.16799111597174 6.0483167814377339 0 6.0483167814377339 -10.408732334937213 0 0 0 0 -63.130186865732867 -48.313608492632284 0 -48.313608492632284 60.551794739711113 0 0 0 0 -11.668257604690632 -10.166195488061625 0 -10.166195488061625 -15.436483410510153 0 0 0 0 -93.038984067470665 8.3254293843642699 0 8.3254293843642699 39.175802421259505 0 0 0 0 -44.208999896949535 54.338856477313811 0 54.338856477313811 79.029625125544726 0 0 0 0 -521.89757199714222 -522.28514117186069 0 -522.28514117186069 -153.12626045624984 0 0 0 0 74.55547545674608 -186.118744250649 0 -186.118744250649 -124.73777589708834 0 0 0 0 -2499.6510681957498 -403.20210938352892 0 -403.20210938352892 141.65219330065625 0 0 0 0 -1871.0921937587818 -503.70711903760485 0 -503.70711903760485 1.6788197455990712 0 0 0 0 -12.1029916157964 8.4830189866277443 0 8.4830189866277443 16.082840848975074 0 0 0 0 -2157.4263819577791 -425.61498092643967 0 -425.61498092643967 -17.018008547861918 0 0 0 0 -2094.2306953027855 -344.64842975626289 0 -344.64842975626289 -46.419685690918953 0 0 0 0 -2500.6059396315459 -618.30186263841028 0 -618.30186263841028 -219.8344888160303 0 0 0 0 96.479368758418786 911.05343448471046 0 911.05343448471046 -360.23050056024948 0 0 0 0 -6.7085737882113534 3.9287830633136807 0 3.9287830633136807 4.9514539786423732 0 0 0 0 -2499.8079668338632 80.720152852841238 0 80.720152852841238 -221.62611006928799 0 0 0 0 -3542.0000422046769 -315.41913220993052 0 -315.41913220993052 -219.87496597101213 0 0 0 0 -401.15468500836687 -277.7322584828587 0 -277.7322584828587 -51.504107224506015 0 0 0 0 -286.91393524199862 -338.39428044056052 0 -338.39428044056052 -19.839235458690382 0 0 0 0 -584.0958773098464 -470.38319516414708 0 -470.38319516414708 20.944321067251991 0 0 0 0 -329.24368086384311 -148.79569629224397 0 -148.79569629224397 274.31924733563113 0 0 0 0 -202.59825723725407 -350.53980229587444 0 -350.53980229587444 -439.90912263119492 0 0 0 0 -182.25891554060513 -228.7238885593888 0 -228.7238885593888 -65.474866217138583 0 0 0 0 -246.38644470284862 118.15112548579862 0 118.15112548579862 163.03002470949741 0 0 0 0 -1010.3388524063121 4.6507119729235455 0 4.6507119729235455 264.31919317381426 0 0 0 0 -70.480982037502145 59.109862727555452 0 59.109862727555452 -13.327377194505759 0 0 0 0 -23.709906771899114 66.820701431409134 0 66.820701431409134 -28.795287206782632 0 0 0 0 -19.165647620902746 59.376220494952577 0 59.376220494952577 -4.5821180699396109 0 0 0 0 -4.9277092631455162 52.636365153048246 0 52.636365153048246 -23.597928620260063 0 0 0 0 -22.312689621161553 68.807139308520505 0 68.807139308520505 -25.971708990039133 0 0 0 0 -15.001948233202711 53.241449217996887 0 53.241449217996887 -43.006469777309576 0 0 0 0 -52.530753470889977 53.1253431416784 0 53.1253431416784 -62.950772243169922 0 0 0 0 -48.8853524474398 90.555420848995709 0 90.555420848995709 -59.465908850750566 0 0 0 0 -48.937221300890087 91.187467491483631 0 91.187467491483631 -44.023816422661803 0 0 0 0 -86.0767619635335 83.571968531397658 0 83.571968531397658 7.2923727884499385 0 0 0 0 0.10294584119401406 107.01214959340587 0 107.01214959340587 -35.734996175506922 0 0 0 0 -89.891318548114214 108.92787344839235 0 108.92787344839235 -41.132777357117902 0 0 0 0 -27.006394821180947 157.24753390122135 0 157.24753390122135 -24.119269304620957 0 0 0 0 -155.49984646045095 -158.88698361808179 0 -158.88698361808179 -154.91583222632789 0 0 0 0 -1.3729169922273652 -2.6687720554068193 0 -2.6687720554068193 -6.6377909613196806 0 0 0 0 -545.30218110654187 40.843443880545351 0 40.843443880545351 -37.497368666538932 0 0 0 0 -1248.9937061297624 236.7817165698159 0 236.7817165698159 86.393276581823329 0 0 0 0 -430.76699308542447 -471.07179047437512 0 -471.07179047437512 -543.15467742111468 0 0 0 0 -200.07450417641849 198.05536628028631 0 198.05536628028631 -33.60027264054861 0 0 0 0 -73.361696355758085 64.290247960980281 0 64.290247960980281 -22.224635879351283 0 0 0 0 -2.8157782824240254 -2.951363995089018 0 -2.951363995089018 -3.8167264092898998 0 0 0 0 -32.473658959243039 -2.3527409547252347 0 -2.3527409547252347 -8.0252686492523253 0 0 0 0 57.133850876916767 60.39240982563399 0 60.39240982563399 -29.466711799110925 0 0 0 0 -26.96516072761824 61.324473591378251 0 61.324473591378251 89.989012797499413 0 0 0 0 -27.021520547675863 0.086840661665839036 0 0.086840661665839036 -0.4252435560655804 0 0 0 0 -20.52898535091299 -11.401730173838416 0 -11.401730173838416 -1.1859482727137305 0 0 0 0 -6.7278818139742 -3.8786274349680765 0 -3.8786274349680765 -1.5085482301436981 0 0 0 0 -33.66879442921163 -44.792694990523842 0 -44.792694990523842 -44.834974248384142 0 0 0 0 -55.913892720796866 87.231568491665598 0 87.231568491665598 -134.38940552943586 0 0 0 0 -2.0004432719073932 -0.24827716548241296 0 -0.24827716548241296 -0.14917601490329166 0 0 0 0 -3.1456031252891989 12.785460629965996 0 12.785460629965996 -38.474235571982604 0 0 0 0 -30.325800210957823 3.4132849381246615 0 3.4132849381246615 9.9265875924256761 0 0 0 0 -162.12432626446025 129.97679904043366 0 129.97679904043366 -280.08115136543256 0 0 0 0 93.499931924478005 -191.00469293369576 0 -191.00469293369576 -245.77279557867161 0 0 0 0 -20.396244365667442 3.697792168139987 0 3.697792168139987 9.6554535197435474 0 0 0 0 -21.213208300769367 5.4849920835373727 0 5.4849920835373727 7.1403899838568519 0 0 0 0 -241.41299700754098 72.989273842182513 0 72.989273842182513 114.78173770483113 0 0 0 0 -179.50400386228284 141.36823270511024 0 141.36823270511024 -11.549668279203615 0 0 0 0 -193.46908762966632 -35.089232238597617 0 -35.089232238597617 162.26784014866098 0 0 0 0 -104.63524283477454 -62.150928325616405 0 -62.150928325616405 127.00634776687218 0 0 0 0 158.29945200945076 -230.27099851649928 0 -230.27099851649928 224.93461929951627 0 0 0 0 -34.501899274712812 2.8069906309045329 0 2.8069906309045329 10.257823860535705 0 0 0 0 -109.89994247110008 -42.992536828917196 0 -42.992536828917196 121.32452097145574 0 0 0 0 -75.20382587662607 -32.27707059218983 0 -32.27707059218983 86.890239169953588 0 0 0 0 -164.15538984405066 11.891813894080883 0 11.891813894080883 96.509767611071311 0 0 0 0 -122.66786125504586 -41.789955427526593 0 -41.789955427526593 146.07188457885115 0 0 0 0 -104.09776461359434 40.644236198600993 0 40.644236198600993 36.276092767068576 0 0 0 0 -67.058893260855257 -31.444476029749239 0 -31.444476029749239 65.522163984604504 0 0 0 0 -94.96121838543695 -13.377859793821415 0 -13.377859793821415 72.97680234265863 0 0 0 0 -72.165685868381843 -20.013125045114293 0 -20.013125045114293 40.032758548945822 0 0 0 0 -74.408048216526367 -41.345144651597593 0 -41.345144651597593 55.721690310605481 0 0 0 0 -31.293331629298336 -85.729088235783138 0 -85.729088235783138 93.901001180951425 0 0 0 0 -35.030477576154183 -15.189750416770703 0 -15.189750416770703 6.7714896504364921 0 0 0 0 -70.759051514161456 -0.83658426088462079 0 -0.83658426088462079 12.869280512379191 0 0 0 0 -8.7378587074999814 -88.138096274806458 0 -88.138096274806458 60.077456337755393 0 0 0 0 -31.581637353116093 4.1753732874239518 0 4.1753732874239518 7.4576121911405835 0 0 0 0 -65.232215454445395 -1.5944130771575828 0 -1.5944130771575828 7.8246471975744498 0 0 0 0 -82.866130047303159 46.005408181906546 0 46.005408181906546 -26.234026777508575 0 0 0 0 -95.900092442410823 30.917801964766795 0 30.917801964766795 45.767110402503477 0 0 0 0 -82.488568820284854 5.3725431778916573 0 5.3725431778916573 36.031007168705401 0 0 0 0 -64.03454494063044 -10.574194687283807 0 -10.574194687283807 49.699608942823261 0 0 0 0 -44.158885251097672 -25.065815162651234 0 -25.065815162651234 -8.1317859834019828 0 0 0 0 -50.617675294532091 -16.905070742574821 0 -16.905070742574821 12.619022765861359 0 0 0 0 -60.942298840545845 -25.499386153810974 0 -25.499386153810974 10.185573022873541 0 0 0 0 -62.319692469922302 -32.889627851320483 0 -32.889627851320483 3.9524468380467397 0 0 0 0 -61.258021695990465 -3.0682540058915038 0 -3.0682540058915038 5.7194532266962597 0 0 0 0 -4.7705373944627354 -58.360859389751113 0 -58.360859389751113 35.629877699148324 0 0 0 0 -56.046949123003287 -37.648953421946317 0 -37.648953421946317 32.047384397399696 0 0 0 0 -47.017124736266851 -23.345197926212677 0 -23.345197926212677 7.5533458152813182 0 0 0 0 -28.690195212788542 -24.753907031445678 0 -24.753907031445678 0.098151948832612135 0 0 0 0 -22.356690494620125 -23.49904626330536 0 -23.49904626330536 6.9257573116580033 0 0 0 0 -26.400655621300615 -30.260295125313974 0 -30.260295125313974 0.35964368041701578 0 0 0 0 -63.893643362785951 -19.958718530615215 0 -19.958718530615215 9.7301150511941046 0 0 0 0 -44.238883019607741 -11.058666959145498 0 -11.058666959145498 8.8197805727532099 0 0 0 0 -50.034599343402078 -29.214201723526116 0 -29.214201723526116 7.9637269021869486 0 0 0 0 -59.800435298260709 -53.350099788491036 0 -53.350099788491036 8.9035292382409352 0 0 0 0 -29.807477564555946 -19.798086188342083 0 -19.798086188342083 -3.6851218466053393 0 0 0 0 -25.24496291232191 -21.999920045773003 0 -21.999920045773003 1.2498513513567682 0 0 0 0 -33.294430543839553 -27.320405649496365 0 -27.320405649496365 -0.56738078020060811 0 0 0 0 -35.7360037750841 -52.413993220667749 0 -52.413993220667749 4.4759159453760731 0 0 0 0 -62.572958830824064 -83.024275169237853 0 -83.024275169237853 -224.39283475678258 0 0 0 0 312.47041769506541 -73.000962678206406 0 -73.000962678206406 -155.88643267035303 0 0 0 0 -26.301914264138759 -194.21774366170348 0 -194.21774366170348 107.82879156460467 0 0 0 0 79.034223253218443 -78.675229722828476 0 -78.675229722828476 -146.61572788128206 0 0 0 0 38.413452118464193 -44.981086847459437 0 -44.981086847459437 55.516425874795345 0 0 0 0 3.2375506710774857 -5.7612953497060975 0 -5.7612953497060975 -3.7931996407823183 0 0 0 0 -36.073477607904351 -17.017228249663276 0 -17.017228249663276 -1.1045108985942989 0 0 0 0 -1.022810291706671 -4.4033021715198828 0 -4.4033021715198828 -2.0760431957680008 0 0 0 0 90.650703328636155 -6.3102311091640217 0 -6.3102311091640217 -83.743371156564081 0 0 0 0 58.049904663756024 -22.535228694943953 0 -22.535228694943953 -2.9747717302024057 0 0 0 0 123.43707605985401 -33.130803217468838 0 -33.130803217468838 -111.91681521138236 0 0 0 0 7.5454417096116231 47.36946898367421 0 47.36946898367421 -91.853470251217004 0 0 0 0 -17.39232902094227 12.425847714374186 0 12.425847714374186 -84.454454955082383 0 0 0 0 184.02861136052161 77.645557117798035 0 77.645557117798035 -69.985756434246241 0 0 0 0 -96.881508304810268 -99.320606188692409 0 -99.320606188692409 -134.50685127146994 0 0 0 0 -192.30381762950856 4.0701746100207856 0 4.0701746100207856 -83.189586934090585 0 0 0 0 -15.532747387404015 -10.229856310885111 0 -10.229856310885111 -154.66767959132176 0 0 0 0 -194.81423366136534 -59.450964545197159 0 -59.450964545197159 -204.40352888806956 0 0 0 0 -384.44662210317256 -85.037861939576715 0 -85.037861939576715 -122.17831497124803 0 0 0 0 -390.09235317689308 -65.307572038352532 0 -65.307572038352532 -191.11066751089493 0 0 0 0 -539.65873236729749 -193.42085131455997 0 -193.42085131455997 -168.71360795603118 0 0 0 0 -672.57499992927478 -114.48897432030139 0 -114.48897432030139 -159.37488759173948 0 0 0 0 -604.01953288658478 -102.83418901013738 0 -102.83418901013738 -121.577488981486 0 0 0 0 -508.62545548498747 -138.05240559605477 0 -138.05240559605477 -121.97808293136927 0 0 0 0 -327.33158516990352 -147.07679954252319 0 -147.07679954252319 -189.24152000031881 0 0 0 0 -0.95616504946906389 -5.6893640354717547 0 -5.6893640354717547 -144.35205353464266 0 0 0 0 -205.79028883893807 -29.37031444641616 0 -29.37031444641616 -103.87959578477694 0 0 0 0 -258.18494116152215 21.701547664251166 0 21.701547664251166 -118.74622726550388 0 0 0 0 -1370.2486916944035 -8.0337743996732343 0 -8.0337743996732343 654.57072403891334 0 0 0 0 -335.30825203650784 -342.05552425096721 0 -342.05552425096721 387.92359159179659 0 0 0 0 -753.79562793802324 -390.45374427760498 0 -390.45374427760498 -312.71856752644123 0 0 0 0 -1115.7432252599974 -442.17591496236309 0 -442.17591496236309 -177.50679202304127 0 0 0 0 -734.65667217641021 -248.00985053895874 0 -248.00985053895874 -240.65313654836291 0 0 0 0 -868.98999393792838 -253.9369640730647 0 -253.9369640730647 -130.20539700515496 0 0 0 0 -559.11478099049418 -223.98723914529592 0 -223.98723914529592 -223.37016758939376 0 0 0 0 -684.49245713123128 -299.28127557062044 0 -299.28127557062044 -103.03748543370057 0 0 0 0 -738.94071474013253 -272.03946546015061 0 -272.03946546015061 -138.8695638799868 0 0 0 0 -448.38178895547389 -262.35460348589498 0 -262.35460348589498 -191.13890138553552 0 0 0 0 -2.7624709582784099 1.1708012740650098 0 1.1708012740650098 -2.9031249896069777 0 0 0 0 -898.44614756378314 -431.06157943662515 0 -431.06157943662515 -110.7149653907727 0 0 0 0 -998.39097896919702 377.5728888532858 0 377.5728888532858 -1528.8283985890193 0 0 0 0 -641.05250650463859 -426.42868970490599 0 -426.42868970490599 -196.6974881597132 0 0 0 0 -874.96689112423519 -371.21401943272349 0 -371.21401943272349 -114.37057908998429 0 0 0 0 -563.17056183512432 -472.43965379413487 0 -472.43965379413487 -173.16825713329717 0 0 0 0 -582.65435751698897 -370.42405312402184 0 -370.42405312402184 -143.44310257154848 0 0 0 0 -319.82715282320351 -324.38558816136424 0 -324.38558816136424 -219.24115116949224 0 0 0 0 -10.970989700580503 -326.14230302381173 0 -326.14230302381173 -380.48869942245165 0 0 0 0 12.197138989527559 84.012338215701462 0 84.012338215701462 -106.97894667441051 0 0 0 0 -522.47657207870452 -585.14862161293217 0 -585.14862161293217 -433.56462849791228 0 0 0 0 -1089.9540423069047 -543.31184853703371 0 -543.31184853703371 -171.23944541114599 0 0 0 0 -188.48634330271307 17.062398820979979 0 17.062398820979979 -33.205844567347867 0 0 0 0 -376.31597117933779 -184.50425016329419 0 -184.50425016329419 -89.486640072541604 0 0 0 0 -123.70172246391667 -76.76133326881461 0 -76.76133326881461 -172.24326382283533 0 0 0 0 -21.920509105606769 1.125004329631035 0 1.125004329631035 0.16706064953994643 0 0 0 0 -168.85532202683044 27.29300148284193 0 27.29300148284193 247.00900163999972 0 0 0 0 46.191212024830747 25.768257727140053 0 25.768257727140053 -59.209570877685792 0 0 0 0 -5.8170699504741776 57.272687817368521 0 57.272687817368521 -144.41394610108409 0 0 0 0 -7.5459881149619719 21.064177836254302 0 21.064177836254302 -21.751728984853344 0 0 0 0 45.471895100693473 -20.988258708381863 0 -20.988258708381863 -35.233664644120381 0 0 0 0 97.62838944078203 31.844654352161115 0 31.844654352161115 -100.68014967113731 0 0 0 0 66.67669488031288 103.38119009236959 0 103.38119009236959 -265.66571884573796 0 0 0 0 206.55887379108799 8.7491204626877561 0 8.7491204626877561 -143.10134125686909 0 0 0 0 13.604016220154335 170.70799287719456 0 170.70799287719456 -200.01902366779723 0 0 0 0 -224.97988533200078 129.60189041151773 0 129.60189041151773 -74.9282202056595 0 0 0 0 131.74103034441578 42.991604549637032 0 42.991604549637032 -146.96795731922793 0 0 0 0 -9.4781851379056654 -0.37612440297409711 0 -0.37612440297409711 -0.28116666548534219 0 0 0 0 -559.54969348060513 119.67162130900101 0 119.67162130900101 -56.239097372081005 0 0 0 0 -1460.0517957040374 -289.76191444489154 0 -289.76191444489154 -132.76525960582831 0 0 0 0 71.665167856232074 68.501046116124144 0 68.501046116124144 -293.91537070274626 0 0 0 0 119.78298094033198 -65.184683361256475 0 -65.184683361256475 -210.04462126003182 0 0 0 0 -63.448386641120123 84.211525704587643 0 84.211525704587643 -76.795319684922106 0 0 0 0 -53.524346961406991 103.65522727641519 0 103.65522727641519 -371.55425543493266 0 0 0 0 -516.90861819744896 56.296811274412448 0 56.296811274412448 -213.51637607549856 0 0 0 0 -428.58773758714869 -61.344458534411842 0 -61.344458534411842 -260.06799105073924 0 0 0 0 -491.31035325509765 203.12751787804427 0 203.12751787804427 103.33131107701365 0 0 0 0 -201.12940576526231 -21.774592609324372 0 -21.774592609324372 277.06614998288228 0 0 0 0 -193.72219027854226 202.34091575241018 0 202.34091575241018 101.63472242295188 0 0 0 0 5.2402895690920559 112.34038320946365 0 112.34038320946365 -114.55225637034096 0 0 0 0 -15.853134545402099 65.176412550250006 0 65.176412550250006 192.88911704494967 0 0 0 0 -58.393559427605396 85.400430644609969 0 85.400430644609969 202.0302057615479 0 0 0 0 -2.5610156509046647 -98.753772419233997 0 -98.753772419233997 253.27659519907405 0 0 0 0 -0.082014067321527051 4.264500843032347 0 4.264500843032347 0.98960185730222516 0 0 0 0 64.368955141693732 13.394824405742497 0 13.394824405742497 170.62424828367284 0 0 0 0 82.734080443693529 77.151676012183543 0 77.151676012183543 -115.42340787304579 0 0 0 0 60.183019232140396 219.47404746805796 0 219.47404746805796 183.91301268219325 0 0 0 0 -2.1292951127811648 102.57856507284851 0 102.57856507284851 79.116381352906956 0 0 0 0 98.568071407112257 149.72483255520569 0 149.72483255520569 35.171274409591888 0 0 0 0 -47.207453313963015 122.79687313717614 0 122.79687313717614 138.51731115245229 0 0 0 0 75.85681923397874 -43.881643999735388 0 -43.881643999735388 -0.85936518175572019 0 0 0 0 -13.088090311874112 -7.2537354382401418 0 -7.2537354382401418 -53.513380231938527 0 0 0 0 -27.102203610083279 136.5568526533558 0 136.5568526533558 19.172067932768186 0 0 0 0 -14.953902804479847 9.9825608300139059 0 9.9825608300139059 -6.2308361940882317 0 0 0 0 -338.82919764343461 115.94502362563787 0 115.94502362563787 -18.613442278281127 0 0 0 0 -2.2763096628778374 1.7127857061423519 0 1.7127857061423519 -0.41093126756187193 0 0 0 0 -441.46696407765921 -140.31603498427876 0 -140.31603498427876 30.675883312982421 0 0 0 0 -250.57722514388024 -61.418105536718542 0 -61.418105536718542 18.936650824934546 0 0 0 0 -17.556693121337503 -8.9752916043034929 0 -8.9752916043034929 2.5016328220256128 0 0 0 0 -176.74043070832542 -4.6962930299213879 0 -4.6962930299213879 41.826625344029935 0 0 0 0 -4.2837213025742562 4.1135648883966356 0 4.1135648883966356 -2.8074127538053277 0 0 0 0 -183.44847726378237 106.24194880627812 0 106.24194880627812 5.4519444172942713 0 0 0 0 18.872288019945699 26.339230888556642 0 26.339230888556642 0.38983008663512919 0 0 0 0 -5.7653733668183946 3.9775055223752069 0 3.9775055223752069 -2.3517324693981125 0 0 0 0 -239.75798668258813 -87.70246769305605 0 -87.70246769305605 82.45188318536384 0 0 0 0 -408.89253007944717 119.35950682647831 0 119.35950682647831 -1.7015193172305771 0 0 0 0 -330.32711275672591 -49.265606980486154 0 -49.265606980486154 82.060240486964702 0 0 0 0 -92.099082789035037 326.71896986962213 0 326.71896986962213 -36.413434389971826 0 0 0 0 -179.6153673377803 -58.409471802555345 0 -58.409471802555345 -4.4927630395053484 0 0 0 0 11.511805940703198 87.236548963090172 0 87.236548963090172 305.70211476501208 0 0 0 0 -56.275881489047606 606.92284199885307 0 606.92284199885307 -5.6015333671180088 0 0 0 0 -3.914885086594019 -2.9565324392492984 0 -2.9565324392492984 -2.9607250793453486 0 0 0 0 -1.5470610940327179 -1.688201029562638 0 -1.688201029562638 -0.064588951017149121 0 0 0 0 -87.585782406678845 111.08866713869156 0 111.08866713869156 -613.05925198053592 0 0 0 0 -80.877459797789925 -24.076022369449447 0 -24.076022369449447 -50.346041148446602 0 0 0 0 29.318948092848586 -80.988463932025752 0 -80.988463932025752 -59.125944181637578 0 0 0 0 20.671174620973034 -35.002538659736274 0 -35.002538659736274 33.070326246644527 0 0 0 0 13.225643795640735 -63.609786304375348 0 -63.609786304375348 -75.553716073407486 0 0 0 0 -206.01859965710537 -172.05793246306939 0 -172.05793246306939 187.19712334663774 0 0 0 0 -128.56325158404383 -681.77900052921245 0 -681.77900052921245 46.81390794323579 0 0 0 0 -5.7570447355142278 263.1510301902934 0 263.1510301902934 688.91634837999663 0 0 0 0 -0.78086724042786138 -11.472279034506615 0 -11.472279034506615 -7.6865182085125179 0 0 0 0 -84.366237505659228 -6.6726309805508208 0 -6.6726309805508208 179.84332657342082 0 0 0 0 -31.346364143229493 -23.571858908156656 0 -23.571858908156656 0.67568619813050645 0 0 0 0 -28.187449550625896 -2.6979298375946241 0 -2.6979298375946241 6.7506340149178916 0 0 0 0 -18.459153481383282 -8.1961954875511083 0 -8.1961954875511083 -21.994289818372636 0 0 0 0 -93.006921696299287 0.69071491127874651 0 0.69071491127874651 20.922961547501785 0 0 0 0 -19.810413148466068 1.0791529995317433 0 1.0791529995317433 14.916795041127443 0 0 0 0 -32.276083100776191 25.0873413853937 0 25.0873413853937 29.486460830853503 0 0 0 0 -22.967436773228656 16.036209762568888 0 16.036209762568888 34.988890350113252 0 0 0 0 -31.230746942288079 33.229222472148194 0 33.229222472148194 30.071774869251385 0 0 0 0 -56.191875922496365 23.850683793163171 0 23.850683793163171 32.803793212782693 0 0 0 0 -33.625704788759322 21.618475140467126 0 21.618475140467126 26.748946027198144 0 0 0 0 -23.480249004416692 -3.2080982055613276 0 -3.2080982055613276 -5.7183150927612587 0 0 0 0 -68.830521122426944 5.5196118424322549 0 5.5196118424322549 72.480658405940403 0 0 0 0 -26.351619008464674 1.9533441678043033 0 1.9533441678043033 7.5882320731984221 0 0 0 0 13.172820942292674 3.7274814958213938 0 3.7274814958213938 11.0238764813339 0 0 0 0 15.523756310116369 -5.0264386441558599 0 -5.0264386441558599 -13.458984754083758 0 0 0 0 -19.096700714113837 6.1531236368788846 0 6.1531236368788846 2.1307756201713826 0 0 0 0 -22.285731562194997 -2.6543593794795015 0 -2.6543593794795015 -9.7653301996615482 0 0 0 0 -43.064125331060495 -8.220155466653523 0 -8.220155466653523 -11.952336555250895 0 0 0 0 -1.1623086328816232 0.95919140008443371 0 0.95919140008443371 0.0071348189706004206 0 0 0 0 47.79210220584082 12.674865676597506 0 12.674865676597506 -8.0974894066102934 0 0 0 0 61.033120943250026 44.450224502949482 0 44.450224502949482 -18.389324757402846 0 0 0 0 68.778769504286629 -17.145055231715105 0 -17.145055231715105 -55.949522781649648 0 0 0 0 -2.7796899634296661 6.0610919766031968 0 6.0610919766031968 -4.9116907906034548 0 0 0 0 -2.3320487930383416 8.2677519838056828 0 8.2677519838056828 2.4024819961036972 0 0 0 0 -11.529106801989769 27.16071948372219 0 27.16071948372219 31.441289589503867 0 0 0 0 -11.185797022359566 13.578819530207511 0 13.578819530207511 32.894642784933239 0 0 0 0 -48.511971003584677 58.598100259817471 0 58.598100259817471 17.06050224057995 0 0 0 0 -38.810205162262719 91.069978659239951 0 91.069978659239951 11.554726889368112 0 0 0 0 -81.683574776781825 59.491490815302541 0 59.491490815302541 26.844205479998891 0 0 0 0 -16.514445400267505 37.057056440996348 0 37.057056440996348 4.4217519205354279 0 0 0 0 14.625246837167253 89.200377785024727 0 89.200377785024727 -5.2474780759803252 0 0 0 0 -11.000960680139087 16.478698706650505 0 16.478698706650505 11.002801347743343 0 0 0 0 -5.4061952484912581 -0.017545898760772616 0 -0.017545898760772616 -4.0935703981526785 0 0 0 0 138.83122428259549 10.560152991539326 0 10.560152991539326 -60.016227607969995 0 0 0 0 -17.0160307637816 2.3500064552586082 0 2.3500064552586082 18.691363993019081 0 0 0 0 0.33235594047922828 7.7174640277508111 0 7.7174640277508111 -6.758543173926622 0 0 0 0 100.12759084554 -22.044726782792168 0 -22.044726782792168 -55.609167752063968 0 0 0 0 66.493489185865656 -10.751390205942243 0 -10.751390205942243 -39.872238919479969 0 0 0 0 -447.55541542176343 126.44567196281923 0 126.44567196281923 14.493381764724063 0 0 0 0 95.758534406337276 117.89187777615098 0 117.89187777615098 -171.5144625398998 0 0 0 0 -78.504166432358659 22.068097038150956 0 22.068097038150956 28.492933856580123 0 0 0 0 -193.26994130287403 92.596963743085098 0 92.596963743085098 18.019171319815086 0 0 0 0 -280.75485072160973 -19.989654302423105 0 -19.989654302423105 23.02743311699578 0 0 0 0 -312.59658375014442 -9.4479258462060898 0 -9.4479258462060898 64.504984381466102 0 0 0 0 -277.95886073210022 -34.419412491490334 0 -34.419412491490334 8.1860460939105906 0 0 0 0 -822.49835224534399 -5.4955427974873601 0 -5.4955427974873601 46.633312617182582 0 0 0 0 -69.684435221492095 -44.150696354895899 0 -44.150696354895899 -102.02176096433777 0 0 0 0 -69.806224267140351 -76.560839820861474 0 -76.560839820861474 -39.181209483819089 0 0 0 0 -312.51924834274587 -83.528789874987595 0 -83.528789874987595 32.722860378659561 0 0 0 0 -156.6855087922504 -138.17516273107856 0 -138.17516273107856 -81.430671724686889 0 0 0 0 -165.65255398085537 -56.160345417571421 0 -56.160345417571421 37.513676789346221 0 0 0 0 -54.959033098823056 -62.016659861990092 0 -62.016659861990092 44.031097920280899 0 0 0 0 -177.24253343032478 -86.815081219575731 0 -86.815081219575731 61.881138339441918 0 0 0 0 -136.10860994260656 -76.060884229257681 0 -76.060884229257681 83.490864931135548 0 0 0 0 -147.70580984620119 -39.310276152499114 0 -39.310276152499114 45.66463963262504 0 0 0 0 -212.139519299325 -41.526201857429442 0 -41.526201857429442 66.872439511433186 0 0 0 0 -165.54184223370612 -53.878400148483536 0 -53.878400148483536 50.499181453468736 0 0 0 0 -269.39085386574334 77.736190912482471 0 77.736190912482471 5.5148670317557844 0 0 0 0 -0.68370352110650856 -19.086609539164783 0 -19.086609539164783 29.59217458577541 0 0 0 0 -271.0364130990456 71.430289905604695 0 71.430289905604695 -18.576895079453607 0 0 0 0 -33.652259119733571 -9.858279139866795 0 -9.858279139866795 50.893820048197085 0 0 0 0 -0.48033093801287841 1.4456322508236052 0 1.4456322508236052 -1.8663312910292742 0 0 0 0 -85.380980834177535 -1.7375368278156031 0 -1.7375368278156031 50.25916162618023 0 0 0 0 -215.37773244379241 51.453399948037372 0 51.453399948037372 46.545126202401434 0 0 0 0 -233.62379620077081 -15.715306370062763 0 -15.715306370062763 51.020353434100116 0 0 0 0 -199.32545080290947 16.05663858406524 0 16.05663858406524 65.296040980200047 0 0 0 0 -123.90919579168258 -6.8055257023020204 0 -6.8055257023020204 46.836816090427419 0 0 0 0 -123.34487839691792 -9.388816033619122 0 -9.388816033619122 52.285453122893159 0 0 0 0 -121.4707801376062 -11.804990991962768 0 -11.804990991962768 50.233376336543188 0 0 0 0 -126.40167762437068 -28.971686074224692 0 -28.971686074224692 75.371046250940708 0 0 0 0 -76.474759397754866 -21.109027573971254 0 -21.109027573971254 21.218414019802921 0 0 0 0 -107.53420951961743 -25.926982338892742 0 -25.926982338892742 63.45505727447744 0 0 0 0 -114.84415330948832 -34.951706750076937 0 -34.951706750076937 71.859852997401504 0 0 0 0 -113.59100241070701 -24.754817758949685 0 -24.754817758949685 67.631615109983613 0 0 0 0 -50.975623859074403 -113.54144781115247 0 -113.54144781115247 123.74673192019463 0 0 0 0 -143.24290010428376 -15.557768592146658 0 -15.557768592146658 66.894915829949241 0 0 0 0 -73.894251403129431 -36.049684897275874 0 -36.049684897275874 13.511111705403476 0 0 0 0 -6.5200416705556563 -109.4761040484716 0 -109.4761040484716 51.174048039866648 0 0 0 0 -34.297614506642276 -17.835426057468339 0 -17.835426057468339 2.0978580516275542 0 0 0 0 -47.731326668152178 -20.279348611143632 0 -20.279348611143632 -17.954265560612612 0 0 0 0 -70.201869682320421 -73.226559511252049 0 -73.226559511252049 59.943554077793465 0 0 0 0 -2.6737022850156791 -66.048065794444483 0 -66.048065794444483 -39.749300390432737 0 0 0 0 -31.892870105546308 -149.60358207031493 0 -149.60358207031493 52.483719677806448 0 0 0 0 -80.505359069265708 -42.972611106369932 0 -42.972611106369932 4.651166485039596 0 0 0 0 -31.141418497936684 -342.29232502372429 0 -342.29232502372429 135.80650764903078 0 0 0 0 19.968592773133423 -122.48856614973965 0 -122.48856614973965 -45.568614704204492 0 0 0 0 -205.16387247849707 62.245649434142479 0 62.245649434142479 51.727464271810277 0 0 0 0 -195.23863772892946 -23.838223961407721 0 -23.838223961407721 145.88431423162911 0 0 0 0 -197.49734049979452 4.4698486639977091 0 4.4698486639977091 -13.881174491250931 0 0 0 0 -190.12310413234081 120.76844135582542 0 120.76844135582542 -130.00238429489946 0 0 0 0 -139.90541542362917 43.628215634630124 0 43.628215634630124 -25.211789370056977 0 0 0 0 -120.99801804278104 74.937390238269927 0 74.937390238269927 -135.1429915905419 0 0 0 0 -144.04132735261737 40.143734979343435 0 40.143734979343435 35.541932777035072 0 0 0 0 -134.56949137632182 46.885308625545349 0 46.885308625545349 -25.581214323461836 0 0 0 0 -88.344747888024358 -11.293679123468678 0 -11.293679123468678 -241.77170925244627 0 0 0 0 -90.47963603810058 -7.2390518920910836 0 -7.2390518920910836 -142.61300592096222 0 0 0 0 -46.885445856285514 -19.536393725087237 0 -19.536393725087237 -157.81472065584057 0 0 0 0 -104.13385711183946 38.652890902965282 0 38.652890902965282 -122.34788515987589 0 0 0 0 -104.2110962414406 33.993121801339825 0 33.993121801339825 -184.76117959582189 0 0 0 0 -153.418051280074 54.171989107177524 0 54.171989107177524 -189.05052859219722 0 0 0 0 -441.15517536887637 191.80435654415078 0 191.80435654415078 -155.91930121331188 0 0 0 0 -253.27345358525054 -30.01974128676693 0 -30.01974128676693 -254.11690041345355 0 0 0 0 -151.63044761346191 57.886874699009013 0 57.886874699009013 -374.86025110998253 0 0 0 0 -171.18153754219747 -21.367051404652784 0 -21.367051404652784 -268.37377703921265 0 0 0 0 -172.64260344438662 -8.1902686479174918 0 -8.1902686479174918 -148.37233340495641 0 0 0 0 -510.33915540208909 85.494581533003611 0 85.494581533003611 -51.263712176900299 0 0 0 0 -316.63134735378844 -93.841224842407428 0 -93.841224842407428 -247.15745795794237 0 0 0 0 -297.24978769609879 -43.04987363129294 0 -43.04987363129294 -116.27499688962871 0 0 0 0 -266.74273771412845 20.306818983769972 0 20.306818983769972 -299.23586403978561 0 0 0 0 -753.59698074253538 4.6405777650224991 0 4.6405777650224991 139.64203404802038 0 0 0 0 -3.1591289142298251 1.5101682001610564 0 1.5101682001610564 0.00038398571258158043 0 0 0 0 -470.35618928583426 -172.52417539725366 0 -172.52417539725366 -33.200631580833942 0 0 0 0 3.8050186892869533 51.252062618104901 0 51.252062618104901 -36.958347869596537 0 0 0 0 -34.432044763874728 -127.46917977286148 0 -127.46917977286148 -430.43238048113199 0 0 0 0 -276.65093080865699 241.37313784657999 0 241.37313784657999 -231.36539172094217 0 0 0 0 286.29907104839367 253.05078408771215 0 253.05078408771215 -257.01092019195357 0 0 0 0 -3.6777420112655079 -0.96558895377808263 0 -0.96558895377808263 -0.69776671565464987 0 0 0 0 -73.747057146407315 128.17504452636922 0 128.17504452636922 -168.41285319287817 0 0 0 0 -302.21431724934519 163.92422653173708 0 163.92422653173708 -31.130780000352388 0 0 0 0 -160.30903805812704 109.50770337162885 0 109.50770337162885 -13.898179386236279 0 0 0 0 -158.53344882917736 88.605305146296814 0 88.605305146296814 40.407164930358249 0 0 0 0 -210.68890721380012 120.98840112000198 0 120.98840112000198 20.392996217388827 0 0 0 0 -223.82737597969208 58.213955237135565 0 58.213955237135565 36.89246508936867 0 0 0 0 -157.0837646310174 78.062218927728964 0 78.062218927728964 40.011108766454981 0 0 0 0 -181.55721538820217 20.342446793317549 0 20.342446793317549 82.772542471188444 0 0 0 0 -241.68116179366916 87.569565963073728 0 87.569565963073728 -4.0049285493360003 0 0 0 0 -262.29800314502063 12.92988212305363 0 12.92988212305363 27.240223811700162 0 0 0 0 -255.62294614840357 51.541529996522172 0 51.541529996522172 -51.036614134331103 0 0 0 0 -179.56101901900547 -30.520035031373027 0 -30.520035031373027 -58.222156076112469 0 0 0 0 -211.59926576116413 12.470861185850936 0 12.470861185850936 -80.890558326376777 0 0 0 0 -144.70854015396617 -58.062534937530927 0 -58.062534937530927 -155.46981966725247 0 0 0 0 -168.64860031810531 5.1599220098496517 0 5.1599220098496517 24.523695183831478 0 0 0 0 -137.03473777824547 -38.224149886796567 0 -38.224149886796567 45.037053649213021 0 0 0 0 -153.45357449389121 38.176156566885311 0 38.176156566885311 32.972134346249277 0 0 0 0 -90.876202435596497 -55.280606274544425 0 -55.280606274544425 -7.0113900218520939 0 0 0 0 -50.937876384021365 -4.9772167769266389 0 -4.9772167769266389 -51.59942389605294 0 0 0 0 -81.608899744060182 -38.366641637699104 0 -38.366641637699104 -63.450458354147486 0 0 0 0 -114.11112772733759 -6.4106836978539832 0 -6.4106836978539832 -72.122103044493088 0 0 0 0 -96.464004542562179 -54.148732066891171 0 -54.148732066891171 -100.25952529010056 0 0 0 0 -62.166501800820697 -31.746215196586718 0 -31.746215196586718 37.824807898796166 0 0 0 0 -63.001200559705467 -18.329076962075078 0 -18.329076962075078 15.786237805622932 0 0 0 0 -85.972321960962006 -9.0250081414519485 0 -9.0250081414519485 2.8303750272111712 0 0 0 0 -112.97789984290284 -27.416309659705121 0 -27.416309659705121 38.784645876971808 0 0 0 0 -168.07974275045854 -2.7155161632927047 0 -2.7155161632927047 147.86170812448518 0 0 0 0 -22.608925962047309 -3.3231856090154537 0 -3.3231856090154537 4.4566389129519131 0 0 0 0 -75.030237926373957 -2.1407539896354137 0 -2.1407539896354137 15.442518128016545 0 0 0 0 -70.862214707582098 0.65119354572129851 0 0.65119354572129851 -5.3520720494798297 0 0 0 0 -22.857529036118649 -2.8925107175900848 0 -2.8925107175900848 12.03912127596368 0 0 0 0 -43.285161517596308 -1.3818545626868182 0 -1.3818545626868182 12.095231880390131 0 0 0 0 19.967867195395229 22.475708015397686 0 22.475708015397686 15.768143125183997 0 0 0 0 -57.235064449710791 4.4119984413324325 0 4.4119984413324325 13.119371040435755 0 0 0 0 -93.888711522110043 130.96967569850403 0 130.96967569850403 -72.522535847285326 0 0 0 0 -192.38784887523798 38.452038139492288 0 38.452038139492288 129.37562371196145 0 0 0 0 -279.41044981006416 -5.6425812310681067 0 -5.6425812310681067 110.19432696225886 0 0 0 0 -13.980988249645396 14.336654923073649 0 14.336654923073649 10.739692601906333 0 0 0 0 -64.698159887859219 28.54816450720773 0 28.54816450720773 30.291326686125558 0 0 0 0 0.21381882019243292 0.72442926421249965 0 0.72442926421249965 0.0039871188397881951 0 0 0 0 -92.594038252140763 -95.894813385549583 0 -95.894813385549583 81.473060351957429 0 0 0 0 -124.76904884220858 -33.707235765193218 0 -33.707235765193218 -22.887758410748575 0 0 0 0 -53.72234934091648 20.527962194146767 0 20.527962194146767 18.268257727696437 0 0 0 0 -88.828547141378294 -78.003323076365177 0 -78.003323076365177 42.947201934767463 0 0 0 0 -122.45896324709611 -33.553777089301548 0 -33.553777089301548 22.47209983923085 0 0 0 0 -1.3650257765382321 -15.140813891595284 0 -15.140813891595284 -1.4643996381380338 0 0 0 0 -90.586258626096082 -44.886923141721766 0 -44.886923141721766 -0.2508858345137277 0 0 0 0 128.3261859216982 -158.77199690701991 0 -158.77199690701991 -68.877139238000382 0 0 0 0 -100.21077057746515 -105.92789670086586 0 -105.92789670086586 67.258503507154956 0 0 0 0 -69.827408391342033 33.969827315420844 0 33.969827315420844 5.2894073422971815 0 0 0 0 2.4110375030577416 -11.124047005381271 0 -11.124047005381271 -63.858464495226599 0 0 0 0 -90.176060034218608 -201.96655443227814 0 -201.96655443227814 118.74973414841952 0 0 0 0 -12.454626408851738 -3.0634142973462311 0 -3.0634142973462311 -1.0501484841194619 0 0 0 0 -74.509314146319511 -27.923700604707655 0 -27.923700604707655 -0.4147267450862393 0 0 0 0 -49.90048191772842 -12.829448489362278 0 -12.829448489362278 7.7692925046889689 0 0 0 0 6.9954360634042132 -45.209484410731534 0 -45.209484410731534 9.2261383169443434 0 0 0 0 -18.95711105508812 -11.044390061193241 0 -11.044390061193241 -1.5824128086213944 0 0 0 0 -25.411851782977465 0.56706878442003017 0 0.56706878442003017 13.369516176418983 0 0 0 0 -91.371895682561444 109.27243544347493 0 109.27243544347493 -78.029509050101069 0 0 0 0 -34.196557950363058 36.956757363749944 0 36.956757363749944 -54.631271966358327 0 0 0 0 -53.204076275014813 61.448284363047264 0 61.448284363047264 -20.895682204684817 0 0 0 0 -65.571630976366578 57.773615802820586 0 57.773615802820586 -10.685624222885963 0 0 0 0 -160.39252961123447 118.86668132366708 0 118.86668132366708 -8.7641273639455903 0 0 0 0 -119.94973989373102 92.435168711318966 0 92.435168711318966 7.2545155363291087 0 0 0 0 -117.6463190291397 93.913932277497224 0 93.913932277497224 -2.2405094026653387 0 0 0 0 -154.54033057337801 106.96389947389207 0 106.96389947389207 22.844209164099084 0 0 0 0 -110.36856524578616 34.759354554774291 0 34.759354554774291 20.720638642120321 0 0 0 0 -115.18632204139431 35.11914760273271 0 35.11914760273271 24.300883307981167 0 0 0 0 -86.977500999462791 63.579413213169346 0 63.579413213169346 20.296310823097883 0 0 0 0 -155.66872991636046 66.046573712258123 0 66.046573712258123 22.606033858857359 0 0 0 0 -118.43319421879278 -33.139159355960601 0 -33.139159355960601 17.127072463484637 0 0 0 0 -96.168238721467787 -9.5828467100691341 0 -9.5828467100691341 38.504974696420959 0 0 0 0 -78.87052200686594 -16.323863092516604 0 -16.323863092516604 68.624546408284914 0 0 0 0 -20.803088885935722 -66.99456794629441 0 -66.99456794629441 74.897606376452131 0 0 0 0 -18.923738144289445 4.3319467967954353 0 4.3319467967954353 8.0228483471860663 0 0 0 0 -105.1633769256041 -24.272114454613302 0 -24.272114454613302 29.21835218205706 0 0 0 0 -79.40248088381388 -15.145412605180542 0 -15.145412605180542 5.9549552939478883 0 0 0 0 -99.338078714004951 -25.895805057419238 0 -25.895805057419238 46.192079353894769 0 0 0 0 -66.10177242296777 -9.9754098870051848 0 -9.9754098870051848 15.093805269160839 0 0 0 0 -147.25558608163556 -50.200213769073343 0 -50.200213769073343 32.617047693419408 0 0 0 0 -101.51123548951 -69.661686155374355 0 -69.661686155374355 39.294245071698697 0 0 0 0 3.3197079728211918 -24.177238785640043 0 -24.177238785640043 18.446781324604011 0 0 0 0 12.134708079724547 -16.853442078257231 0 -16.853442078257231 -0.57437008346551011 0 0 0 0 -32.155375697984994 -13.231376655510672 0 -13.231376655510672 28.833191194786991 0 0 0 0 -59.683283560782002 -48.837702116502442 0 -48.837702116502442 -11.644421513195539 0 0 0 0 -243.39189206833362 -83.414451687725915 0 -83.414451687725915 25.765684979638536 0 0 0 0 -240.48140469499776 -82.753700842564399 0 -82.753700842564399 23.188274629784246 0 0 0 0 -165.90813091830205 -58.814716061514218 0 -58.814716061514218 -15.003867967012297 0 0 0 0 -106.1812247956841 -24.752599977666932 0 -24.752599977666932 1.0577978359651752 0 0 0 0 -205.46296347775206 24.003339965148825 0 24.003339965148825 40.618303800792887 0 0 0 0 -129.5023707619257 33.371642348571868 0 33.371642348571868 25.584449269756988 0 0 0 0 -169.02800141985063 93.361192247272697 0 93.361192247272697 81.492377799984752 0 0 0 0 -142.15409836653635 86.175236355936249 0 86.175236355936249 50.761668182407448 0 0 0 0 -183.8173311911778 69.591161501832289 0 69.591161501832289 45.370737696525339 0 0 0 0 -284.79533665867348 11.010951179197718 0 11.010951179197718 90.479417010092902 0 0 0 0 -174.2718761301403 53.741400278924857 0 53.741400278924857 68.665600908894703 0 0 0 0 -380.35071968130069 19.352789404784517 0 19.352789404784517 115.82302762730706 0 0 0 0 -797.96726616142405 -103.17603932837585 0 -103.17603932837585 200.21721316653179 0 0 0 0 -298.01677427362301 -68.820349095352981 0 -68.820349095352981 202.52298171928464 0 0 0 0 -120.97696625889876 48.115254919070424 0 48.115254919070424 101.22408185928543 0 0 0 0 -196.94018682697788 170.85326293394201 0 170.85326293394201 50.002606817866308 0 0 0 0 -24.256569852368557 98.667257731007908 0 98.667257731007908 47.235712638029192 0 0 0 0 -471.33983443013858 -402.51087565033845 0 -402.51087565033845 -216.21762339756884 0 0 0 0 -6.88141710788301 0.030806643435436598 0 0.030806643435436598 0.0069145688723339926 0 0 0 0 -129.12410403774993 -131.86408015641052 0 -131.86408015641052 -694.49790546477175 0 0 0 0 -345.47582159035665 250.12893372357496 0 250.12893372357496 78.45489492776278 0 0 0 0 -891.36779437027872 -212.53942593664692 0 -212.53942593664692 241.40847753832281 0 0 0 0 -92.152019119719625 8.962529172737959 0 8.962529172737959 42.863278535795416 0 0 0 0 -16.300144618209742 13.888515439350158 0 13.888515439350158 17.913651455809486 0 0 0 0 -9.8445378556339023 -4.7267510137161395 0 -4.7267510137161395 27.619332036773741 0 0 0 0 -101.38162956948509 -45.26612029091666 0 -45.26612029091666 22.119149826099147 0 0 0 0 -114.88980229872686 -28.719808236465724 0 -28.719808236465724 39.048688374020458 0 0 0 0 -81.959303490963066 -28.073732814602408 0 -28.073732814602408 52.193537893845587 0 0 0 0 -52.663884329544089 -47.721227341781741 0 -47.721227341781741 27.133064427695899 0 0 0 0 -5.2986663406673244 -3.6554705608633 0 -3.6554705608633 6.3405630201138576 0 0 0 0 -160.31689409698447 -37.277495216728198 0 -37.277495216728198 21.21515518808792 0 0 0 0 -422.2054712572135 -249.21302211862439 0 -249.21302211862439 -49.298018436042867 0 0 0 0 0.57437425912939943 -47.565314193154222 0 -47.565314193154222 139.45968704872735 0 0 0 0 -52.9271047680013 -91.86910990188062 0 -91.86910990188062 127.33071662298767 0 0 0 0 -76.359840425255243 6.3577812859479081 0 6.3577812859479081 76.91542709538362 0 0 0 0 -122.30134989024373 -31.032456165254644 0 -31.032456165254644 155.22247950839801 0 0 0 0 -28.242421270115301 -69.394008501702729 0 -69.394008501702729 140.83260289278371 0 0 0 0 -86.599252116087882 -34.434537168491488 0 -34.434537168491488 148.43654268018963 0 0 0 0 -107.78846935862384 8.3876609881774584 0 8.3876609881774584 131.65152412765156 0 0 0 0 -66.676434272012557 -5.5432409149029809 0 -5.5432409149029809 109.60567608184851 0 0 0 0 -110.98319103001359 29.08196785647911 0 29.08196785647911 81.251224859925969 0 0 0 0 -130.51019589014322 6.574617828221335 0 6.574617828221335 122.49203835110552 0 0 0 0 -141.12030151497129 62.587984847271599 0 62.587984847271599 83.138601830622065 0 0 0 0 -128.98418815773039 60.644916780786843 0 60.644916780786843 66.721168693208256 0 0 0 0 -185.18226461167797 93.108358352966661 0 93.108358352966661 57.542392502250095 0 0 0 0 -96.202644922035688 76.98876868958132 0 76.98876868958132 60.163597983702061 0 0 0 0 -86.447845491900807 12.58704932790738 0 12.58704932790738 104.20930772204667 0 0 0 0 -8.3923417861860798 -6.0014296687700863 0 -6.0014296687700863 72.6376142837521 0 0 0 0 -67.500845020931592 11.703447803749953 0 11.703447803749953 217.91714472956994 0 0 0 0 -17.732187182056521 0.55777017822406449 0 0.55777017822406449 0.14954935197612013 0 0 0 0 -145.62208391782769 9.207052893503942 0 9.207052893503942 130.98371492716217 0 0 0 0 -25.34829957244844 0.85146137073159878 0 0.85146137073159878 2.3961267269962603 0 0 0 0 -34.716174493529252 -28.988156701974276 0 -28.988156701974276 151.41260593781726 0 0 0 0 -25.502863343583158 -29.558412076222453 0 -29.558412076222453 140.46997803561089 0 0 0 0 -43.753802369923505 -7.2255316570074228 0 -7.2255316570074228 121.56698557308664 0 0 0 0 -3.1964219003234575 -85.361934004954932 0 -85.361934004954932 165.21331992802698 0 0 0 0 -23.162485218897928 -53.209824870029479 0 -53.209824870029479 138.43294442740546 0 0 0 0 -59.783414373043342 -45.062664716580684 0 -45.062664716580684 156.58651173460976 0 0 0 0 0.95369614645460388 -45.797674407190129 0 -45.797674407190129 146.09451251258213 0 0 0 0 -348.0215538473858 554.38130752828442 0 554.38130752828442 -212.41838185672236 0 0 0 0 -12.982419082765276 -1.0448300672738995 0 -1.0448300672738995 5.0875301890816118 0 0 0 0 -4.0022889097024006 0.89875925815899116 0 0.89875925815899116 1.3586803118627122 0 0 0 0 -354.44840142084286 -22.310567381429792 0 -22.310567381429792 5.6699835828550817 0 0 0 0 -30.50526843845546 -59.541169817089212 0 -59.541169817089212 169.96209066750453 0 0 0 0 -467.27333606062894 5.0622229036598583 0 5.0622229036598583 623.86431980324778 0 0 0 0 -6.8848222777093326 2.6445245922650766 0 2.6445245922650766 -0.14582778347085446 0 0 0 0 59.22784729246996 75.060474600797363 0 75.060474600797363 51.901691003481119 0 0 0 0 -239.88718130953112 487.2498302379754 0 487.2498302379754 -427.59488560752106 0 0 0 0 -214.21639114213758 559.34349908569015 0 559.34349908569015 -596.08258650410448 0 0 0 0 -326.0389527511652 624.95533677326239 0 624.95533677326239 -394.4901871361119 0 0 0 0 -404.97412481002675 -316.84159215269767 0 -316.84159215269767 322.41319141438362 0 0 0 0 -677.0251939802547 362.18196000741841 0 362.18196000741841 38.141668367413558 0 0 0 0 -115.42391778193996 462.70107732558733 0 462.70107732558733 -274.37311908463175 0 0 0 0 113.25075278598342 -99.659595316827307 0 -99.659595316827307 -91.415799477699466 0 0 0 0 8.1216630524504581 48.752214085164042 0 48.752214085164042 28.949030741844297 0 0 0 0 -1.8104230566379442 4.4167092402715014 0 4.4167092402715014 3.6017001197130813 0 0 0 0 -232.51483622871456 -24.693894812724693 0 -24.693894812724693 191.95866458209321 0 0 0 0 -5.9315772411064245 61.957354455260713 0 61.957354455260713 111.29882272696545 0 0 0 0 -592.57627253367173 -105.54797279942875 0 -105.54797279942875 -107.1053961736111 0 0 0 0 -293.10320609795599 -85.277599554479025 0 -85.277599554479025 -107.75594793245978 0 0 0 0 -472.18607141104803 2.0030999163858496 0 2.0030999163858496 -93.882271113151546 0 0 0 0 -534.75616165492829 155.31271843695936 0 155.31271843695936 -113.47250219686089 0 0 0 0 -434.13638902928506 -17.638828463987238 0 -17.638828463987238 -102.91676616085869 0 0 0 0 -341.48325693395236 93.470248542196146 0 93.470248542196146 -102.4286346924855 0 0 0 0 -424.97311051142242 136.72008748304381 0 136.72008748304381 151.68035562272053 0 0 0 0 -334.49235768100334 97.695206716487746 0 97.695206716487746 -199.30481494432684 0 0 0 0 -377.24350280030194 130.65925561841993 0 130.65925561841993 49.472277533607667 0 0 0 0 -99.429297178416164 -59.147089566014927 0 -59.147089566014927 16.399326489420808 0 0 0 0 -147.77135996271682 -79.212488725713897 0 -79.212488725713897 -9.2350722644273588 0 0 0 0 -175.46561356804159 -18.981120067851975 0 -18.981120067851975 19.653189249892421 0 0 0 0 -83.616944529960165 -27.180980380255278 0 -27.180980380255278 -72.242124519074878 0 0 0 0 -75.126366517244605 -53.101769903940749 0 -53.101769903940749 4.1589699299047425 0 0 0 0 -21.906581579689373 9.4404497082106786 0 9.4404497082106786 0.85685013070974492 0 0 0 0 -6.184492251144917 3.5395610724751663 0 3.5395610724751663 19.569520968880759 0 0 0 0 -499.10250044568238 -164.31918269295875 0 -164.31918269295875 147.39396754061875 0 0 0 0 -19.0794178453325 -53.732044881688353 0 -53.732044881688353 3.4393744602737115 0 0 0 0 -273.10600255583995 -233.46369981446725 0 -233.46369981446725 12.732234418128201 0 0 0 0 -440.50562469034776 -110.34471510126946 0 -110.34471510126946 -52.421677040115355 0 0 0 0 18.136037079959351 54.251370884884693 0 54.251370884884693 60.845021228460382 0 0 0 0 -6.807817484646435 4.8526589451411155 0 4.8526589451411155 10.295592674185755 0 0 0 0 -527.18443220756308 -243.98231058561987 0 -243.98231058561987 -24.318748544344999 0 0 0 0 -578.26677908561396 -125.93278852669823 0 -125.93278852669823 -88.639186934635745 0 0 0 0 -5.8046740345706951 5.8113217360790088 0 5.8113217360790088 2.1298194744023977 0 0 0 0 -454.17377949676302 -257.4597930276741 0 -257.4597930276741 50.08052070950248 0 0 0 0 -194.37149491814489 -17.111179037782222 0 -17.111179037782222 192.63610598306013 0 0 0 0 -142.55041394940781 -192.96230146150174 0 -192.96230146150174 -116.8775048015068 0 0 0 0 -148.01880202334723 -199.62324163669564 0 -199.62324163669564 -53.223231924619483 0 0 0 0 -165.55269805525313 -191.32669487540738 0 -191.32669487540738 -53.426506345386514 0 0 0 0 -228.22195044716591 -179.7590072433477 0 -179.7590072433477 2.3651513233446622 0 0 0 0 -122.8431860619894 -56.446082378758092 0 -56.446082378758092 58.871107817349298 0 0 0 0 -138.28927771073359 -121.3656063311403 0 -121.3656063311403 -78.004819001849739 0 0 0 0 -190.67156715982856 -133.53978627734816 0 -133.53978627734816 -34.608015800763496 0 0 0 0 -180.9100472984137 -161.96434755482846 0 -161.96434755482846 -11.635857701253371 0 0 0 0 -129.36710696072259 -124.42746157236888 0 -124.42746157236888 -50.83296829018127 0 0 0 0 -153.38193315540474 -139.09170905474085 0 -139.09170905474085 -39.067097463227128 0 0 0 0 -153.07789932074957 -167.77400490812852 0 -167.77400490812852 -60.473856152907501 0 0 0 0 -163.23850946405582 -177.75550330352468 0 -177.75550330352468 -39.259576842867773 0 0 0 0 -127.17622786320862 -162.33442182820909 0 -162.33442182820909 -59.375485461866447 0 0 0 0 -34.302270896795221 7.4475342151475132 0 7.4475342151475132 15.301881260941965 0 0 0 0 -122.39381038962165 88.986398050549269 0 88.986398050549269 143.0235305917804 0 0 0 0 39.607993371566408 63.452392492181275 0 63.452392492181275 76.384691064041363 0 0 0 0 -45.736982736474488 6.6130806938564888 0 6.6130806938564888 16.403448466343246 0 0 0 0 -228.48689228382864 20.027642330433252 0 20.027642330433252 22.279449965971594 0 0 0 0 -232.04386050521862 -167.51990589165621 0 -167.51990589165621 -52.701107325918201 0 0 0 0 -138.59588668735523 -57.049548741379226 0 -57.049548741379226 220.4296966587018 0 0 0 0 -90.591022456380699 -27.764352538037684 0 -27.764352538037684 9.1002030417376645 0 0 0 0 7.5832814022687671 -143.13609112077484 0 -143.13609112077484 73.985465776221645 0 0 0 0 58.900148553946565 -54.072429524112522 0 -54.072429524112522 8.223985295086095 0 0 0 0 26.425174443131255 -83.72244527163366 0 -83.72244527163366 -18.604770062164221 0 0 0 0 -25.183763764267496 -53.954933607554949 0 -53.954933607554949 -22.562203041209159 0 0 0 0 23.749741553299415 -36.966062804891898 0 -36.966062804891898 32.292808160757744 0 0 0 0 7.437801956642943 -77.658064718424384 0 -77.658064718424384 -33.134800699026528 0 0 0 0 -7.3616546534794907 -103.42481789032354 0 -103.42481789032354 -77.160537575093258 0 0 0 0 -76.335697802845971 -142.88965268792981 0 -142.88965268792981 -25.28699047412556 0 0 0 0 -14.903930813175975 -125.52460341477945 0 -125.52460341477945 -21.978456467605611 0 0 0 0 11.395741015174281 -92.271462932509792 0 -92.271462932509792 -3.1343468380937338 0 0 0 0 4.1010660122592526 -92.388683277024029 0 -92.388683277024029 -19.661487544693273 0 0 0 0 26.634623744021766 -43.6496606763125 0 -43.6496606763125 26.456397248547603 0 0 0 0 40.89218963183157 -120.04266742210609 0 -120.04266742210609 -7.1425068501021087 0 0 0 0 -146.09824049921554 -89.432460496480388 0 -89.432460496480388 -214.24343599773988 0 0 0 0 -1.7212010300055169 -2.7375309262588772 0 -2.7375309262588772 3.7540782938274964 0 0 0 0 -37.153924378559168 -127.41425133925327 0 -127.41425133925327 -192.29585439630864 0 0 0 0 -127.59470446529303 -128.13373312960039 0 -128.13373312960039 3.4343610495143366 0 0 0 0 -265.2708704343604 -176.57212359160303 0 -176.57212359160303 -10.640876043741173 0 0 0 0 -168.78351985850441 -73.866074313062853 0 -73.866074313062853 16.997851721541338 0 0 0 0 -292.95415137994132 -9.9660133682648393 0 -9.9660133682648393 -13.009618750549635 0 0 0 0 -177.07873746681435 -60.022699307001858 0 -60.022699307001858 33.112677543831524 0 0 0 0 -199.14861143095186 -103.70254769144321 0 -103.70254769144321 48.54574331414733 0 0 0 0 -146.22212587365357 -105.62387159951606 0 -105.62387159951606 48.327101780158046 0 0 0 0 -123.13494446004188 -72.712265580879716 0 -72.712265580879716 31.822359108953606 0 0 0 0 -59.307150864617142 -51.661267753358516 0 -51.661267753358516 14.541081161988131 0 0 0 0 -152.55365404697659 -84.580981552904632 0 -84.580981552904632 30.539126162677348 0 0 0 0 -90.877939622616395 -100.83272528463931 0 -100.83272528463931 -23.808761276799487 0 0 0 0 -245.09686993074138 -113.44597456478186 0 -113.44597456478186 40.213473964284276 0 0 0 0 -140.33074144643615 -91.727809877838808 0 -91.727809877838808 41.69291541288726 0 0 0 0 -183.15774589755165 -118.00829352116671 0 -118.00829352116671 40.772547751985257 0 0 0 0 -142.74856057719444 -106.17573600758169 0 -106.17573600758169 42.888488298257471 0 0 0 0 -125.02517756590532 -101.74636308795198 0 -101.74636308795198 41.221535036835121 0 0 0 0 -74.900835598935373 -105.22019976171396 0 -105.22019976171396 18.118546860222523 0 0 0 0 -146.84704762202819 -96.7046742550624 0 -96.7046742550624 46.906646700235797 0 0 0 0 -116.3168681822317 -104.84608448752874 0 -104.84608448752874 24.951149328206156 0 0 0 0 -25.086970012838719 -121.87670294319105 0 -121.87670294319105 11.001309897327246 0 0 0 0 -42.578431619833282 -99.808158141118383 0 -99.808158141118383 14.048974167511915 0 0 0 0 -10.497746469540289 -149.09521201442476 0 -149.09521201442476 25.620471818698206 0 0 0 0 -26.252794501044264 -118.17906475756081 0 -118.17906475756081 48.998862037022263 0 0 0 0 -73.309537516681303 -96.112824879412074 0 -96.112824879412074 26.723223196424442 0 0 0 0 -37.918409731231804 -143.16129997764938 0 -143.16129997764938 168.85154771069438 0 0 0 0 -55.148430414056094 -49.745739613378788 0 -49.745739613378788 -6.1585062089731917 0 0 0 0 -44.858960362231301 -208.31888953803309 0 -208.31888953803309 109.21495602314803 0 0 0 0 18.759615253511583 -89.117111526766166 0 -89.117111526766166 15.553518660499321 0 0 0 0 -59.425068470560163 -54.100801321586403 0 -54.100801321586403 -19.990096265951724 0 0 0 0 143.24970230133113 -237.8187447175651 0 -237.8187447175651 22.240119894463987 0 0 0 0 141.10000497226156 -266.66249644841292 0 -266.66249644841292 38.130373050576964 0 0 0 0 31.194410612501088 -157.32382039954894 0 -157.32382039954894 88.25691328278117 0 0 0 0 -14.018587742475574 -162.11989539751934 0 -162.11989539751934 -0.63535152290887709 0 0 0 0 48.80046862821473 -180.54648157431245 0 -180.54648157431245 38.505863575598823 0 0 0 0 14.014354402268509 -220.06016606639224 0 -220.06016606639224 -2.2694024852992243 0 0 0 0 -0.80192486580926925 -145.95598346603219 0 -145.95598346603219 19.524630883315695 0 0 0 0 129.36853486762811 -275.22428882819861 0 -275.22428882819861 83.910803709978609 0 0 0 0 84.505608680367004 -226.55136725784519 0 -226.55136725784519 28.840392752823846 0 0 0 0 98.212953249618295 -203.03822744224499 0 -203.03822744224499 10.895123041690567 0 0 0 0 97.335422232626115 -249.99940645260082 0 -249.99940645260082 77.197474414833323 0 0 0 0 106.36500609767245 -207.82441015725863 0 -207.82441015725863 44.881574963733101 0 0 0 0 104.6066141105639 -216.12802351601306 0 -216.12802351601306 91.702485918016009 0 0 0 0 144.70249850933033 -147.89931946134664 0 -147.89931946134664 66.083017407094303 0 0 0 0 121.02649614585243 -185.64009366968179 0 -185.64009366968179 6.084375474759554 0 0 0 0 113.05750813682971 -171.33046587098866 0 -171.33046587098866 -21.737493261835567 0 0 0 0 153.97090156102786 -159.50420053662288 0 -159.50420053662288 -20.245963190454461 0 0 0 0 114.10046771532507 -162.67320007526121 0 -162.67320007526121 -61.219848602359491 0 0 0 0 61.423825020297954 -193.41996972826658 0 -193.41996972826658 -11.593532193272914 0 0 0 0 98.988568639586447 -163.50846851785519 0 -163.50846851785519 12.025215590271728 0 0 0 0 45.944082598009118 -155.3522768637547 0 -155.3522768637547 -26.267469566385557 0 0 0 0 -21.768558855572337 -198.17499660028767 0 -198.17499660028767 -47.024581357685122 0 0 0 0 -77.744190358549531 -49.221843339578299 0 -49.221843339578299 3.9861171421471226 0 0 0 0 -3.3408634010847891 -86.940839453247463 0 -86.940839453247463 46.419025165472704 0 0 0 0 -20.023373279022053 -110.0432984595991 0 -110.0432984595991 31.479819032811065 0 0 0 0 5.6212700305914041 -86.517796858341171 0 -86.517796858341171 9.5358134480447916 0 0 0 0 -1.5750273018420557 -98.251308746502218 0 -98.251308746502218 27.510901954890869 0 0 0 0 35.997564584518841 -155.47043863371709 0 -155.47043863371709 0.31565113791293697 0 0 0 0 66.319146318593994 -97.566702001779049 0 -97.566702001779049 21.555798307010264 0 0 0 0 -26.524416466784629 -4.5876694735997319 0 -4.5876694735997319 11.545613351711701 0 0 0 0 148.19188883746392 -146.34736480967695 0 -146.34736480967695 -4.5916512608364428 0 0 0 0 114.88698298290547 -182.08640462250105 0 -182.08640462250105 160.54547815342062 0 0 0 0 19.49657133925939 -83.452986667311052 0 -83.452986667311052 39.940948293757174 0 0 0 0 5.117895589384716 -96.321951774676563 0 -96.321951774676563 41.809239117654215 0 0 0 0 88.762057763786288 -64.721448622689422 0 -64.721448622689422 25.537149832365685 0 0 0 0 60.015279723796993 -77.468973950235522 0 -77.468973950235522 40.552486740096356 0 0 0 0 204.26259299671074 -200.76631043549474 0 -200.76631043549474 -29.586683368942545 0 0 0 0 -60.446051790257229 -59.419557757920195 0 -59.419557757920195 -30.358348666406449 0 0 0 0 210.23521391281247 -160.82964891431942 0 -160.82964891431942 -8.0555751212927476 0 0 0 0 185.92804975104809 -135.62571906765197 0 -135.62571906765197 72.014622405082946 0 0 0 0 173.69902063033805 -165.4672166395128 0 -165.4672166395128 4.4435173538702202 0 0 0 0 195.97183420898364 -182.79999013786477 0 -182.79999013786477 -37.337437121450677 0 0 0 0 152.07588895322988 -164.0564707584096 0 -164.0564707584096 5.0327775089201623 0 0 0 0 45.896225147327641 -137.42547597195698 0 -137.42547597195698 -2.4715799585046625 0 0 0 0 50.510622402172885 -98.944231311610565 0 -98.944231311610565 -36.478303655762829 0 0 0 0 -50.918031309735468 -68.035972044555933 0 -68.035972044555933 -38.34312718698186 0 0 0 0 95.212463496641249 -60.110454882793988 0 -60.110454882793988 -40.055713555995226 0 0 0 0 156.87616758383956 -186.54982933172573 0 -186.54982933172573 7.4797897812478595 0 0 0 0 145.36839042275824 -150.44684432712177 0 -150.44684432712177 -57.202681013876486 0 0 0 0 150.80013036353193 -183.07898338211754 0 -183.07898338211754 -27.804777183535236 0 0 0 0 166.89055569718403 -124.90437405550449 0 -124.90437405550449 -113.28547277455482 0 0 0 0 169.04296143919419 -103.92167642756817 0 -103.92167642756817 -69.782152765561023 0 0 0 0 110.70713657758097 -113.42457214489173 0 -113.42457214489173 -42.558458455400796 0 0 0 0 -12.23882852636234 -144.29979601252302 0 -144.29979601252302 -110.51374466781976 0 0 0 0 17.829929517793062 -143.77461679725036 0 -143.77461679725036 -71.832833384930439 0 0 0 0 -52.705507681486779 -187.5318174935145 0 -187.5318174935145 -93.006659605260666 0 0 0 0 63.648140494969994 -178.34920464166376 0 -178.34920464166376 -88.645289435088671 0 0 0 0 49.338410215750628 -138.15653918941541 0 -138.15653918941541 -80.24261213240726 0 0 0 0 151.06646431753688 -155.01189657836284 0 -155.01189657836284 -89.500331840747094 0 0 0 0 89.879086395107151 -145.31268292030975 0 -145.31268292030975 -50.47620453650444 0 0 0 0 150.89586051037955 -154.56260296400109 0 -154.56260296400109 -53.72792259884892 0 0 0 0 108.70062372375833 -172.89035341896718 0 -172.89035341896718 -61.030220822555293 0 0 0 0 124.46500178721544 -134.95996251179668 0 -134.95996251179668 -73.86160937086845 0 0 0 0 119.76406559790485 -155.07620940659274 0 -155.07620940659274 -127.12003776016809 0 0 0 0 46.763336755404453 -162.7722852532014 0 -162.7722852532014 -105.63259466430031 0 0 0 0 12.627898986254877 -127.27031255765655 0 -127.27031255765655 -109.95720373012855 0 0 0 0 21.121595597345731 -174.94169869413611 0 -174.94169869413611 -115.81156395199559 0 0 0 0 2.7450256669453665 -148.4852350874923 0 -148.4852350874923 -138.62714675156394 0 0 0 0 27.462271698114819 -150.0492041049996 0 -150.0492041049996 -132.85767973943348 0 0 0 0 33.468653198327956 -125.58115412154439 0 -125.58115412154439 -70.473476473390747 0 0 0 0 135.56691325165593 -114.30516087869738 0 -114.30516087869738 -91.413276534572105 0 0 0 0 142.46542342612156 -144.62638017581594 0 -144.62638017581594 -130.52352388067084 0 0 0 0 262.22118730658258 -109.49702043085813 0 -109.49702043085813 -114.32482433768246 0 0 0 0 174.24943221277863 -191.55676787672121 0 -191.55676787672121 -54.574441864423306 0 0 0 0 -27.395762783162354 -16.679499856475786 0 -16.679499856475786 -97.687598090497431 0 0 0 0 -84.002421800607408 -133.71207985599904 0 -133.71207985599904 -41.810450466664633 0 0 0 0 -8.8360385402438624 -77.448497579272271 0 -77.448497579272271 100.86743140800399 0 0 0 0 171.1798591880106 -26.683112660503866 0 -26.683112660503866 -37.552789319841395 0 0 0 0 -95.175572964365529 -98.143613179727254 0 -98.143613179727254 63.218550377258907 0 0 0 0 -17.484686943937042 -21.424300826141469 0 -21.424300826141469 -5.4665711473177589 0 0 0 0 -109.32937064508951 -109.08125784091681 0 -109.08125784091681 112.16284953524956 0 0 0 0 149.70973896444139 -39.943262009192608 0 -39.943262009192608 -40.031538269528028 0 0 0 0 131.37036681462541 -82.081619493357948 0 -82.081619493357948 -82.402602653067333 0 0 0 0 220.3702377669797 -37.851667773770146 0 -37.851667773770146 -63.67649698662558 0 0 0 0 -14.16985330471646 -27.83023896980513 0 -27.83023896980513 -12.110340886944828 0 0 0 0 -46.740242651940207 -40.229085112292978 0 -40.229085112292978 18.763670693659947 0 0 0 0 -46.411159790535748 -38.50990111258875 0 -38.50990111258875 -6.9211113674600711 0 0 0 0 -39.834956926259252 -23.795827714209544 0 -23.795827714209544 22.640806960247517 0 0 0 0 -30.526954797345944 -11.464520925821034 0 -11.464520925821034 -4.0007213717413421 0 0 0 0 -213.76615098879847 -173.9502770776262 0 -173.9502770776262 -7.9941057538617315 0 0 0 0 -98.728032760343922 -62.668128705161507 0 -62.668128705161507 -25.485492892510592 0 0 0 0 -122.46889508530148 -136.2600279422204 0 -136.2600279422204 -61.216078510326042 0 0 0 0 -71.494350323839171 9.8058861480976702 0 9.8058861480976702 -93.807077072979155 0 0 0 0 -1204.7238680918226 -20.043261458089205 0 -20.043261458089205 83.043230601136429 0 0 0 0 -286.00399807752729 12.617235677989697 0 12.617235677989697 11.395212278182498 0 0 0 0 -4.2307385755827518 -6.2497188857905535 0 -6.2497188857905535 3.6735372373238309 0 0 0 0 -238.64482882172888 9.615989929369448 0 9.615989929369448 -39.732089934292731 0 0 0 0 -194.15269069075293 -22.126088608693408 0 -22.126088608693408 -53.442839678002656 0 0 0 0 -194.15269069076749 -22.126088608710006 0 -22.126088608710006 -53.442839678002201 0 0 0 0 -194.15269069073838 -22.126088608708869 0 -22.126088608708869 -53.442839678003338 0 0 0 0 -1011.7827583395447 -42.954639377469789 0 -42.954639377469789 -436.27145859456232 0 0 0 0 -958.06285749467497 -183.07127018995845 0 -183.07127018995845 -252.75804482956755 0 0 0 0 -861.38503463135203 -101.01571163764334 0 -101.01571163764334 -234.72490460301469 0 0 0 0 -923.6041590400182 -235.61113177553545 0 -235.61113177553545 -210.21430864422337 0 0 0 0 -941.72955705897766 -187.27290283897537 0 -187.27290283897537 -337.19056402575347 0 0 0 0 -1008.5577437850734 -242.51917460950727 0 -242.51917460950727 -150.06131860041853 0 0 0 0 -1007.7936746541452 -195.85085297712237 0 -195.85085297712237 -66.051851493686627 0 0 0 0 -292.43163992732298 -18.104369622434888 0 -18.104369622434888 33.25721738525624 0 0 0 0 -267.66481465581819 -36.495976624550451 0 -36.495976624550451 46.845132618276807 0 0 0 0 -306.57671321243834 -54.134603436449197 0 -54.134603436449197 41.482188368677043 0 0 0 0 -271.12320310860923 -18.242824105644445 0 -18.242824105644445 -5.2107625663036288 0 0 0 0 -213.15494647892774 -60.962938597038146 0 -60.962938597038146 8.6940711722072592 0 0 0 0 -126.94721067444698 -131.06688548136322 0 -131.06688548136322 31.160423769010322 0 0 0 0 -253.8497752125877 -73.126938226085286 0 -73.126938226085286 9.0430617926408559 0 0 0 0 -340.20288794982298 -134.74990871295176 0 -134.74990871295176 208.41956608627106 0 0 0 0 -244.4394152537634 -109.24810998855378 0 -109.24810998855378 85.44779030413838 0 0 0 0 -301.49387729775481 -116.14724254114526 0 -116.14724254114526 85.540546190283749 0 0 0 0 -83.677904494270479 -224.0846124393338 0 -224.0846124393338 110.17236807708241 0 0 0 0 -265.77201633046752 -146.61895493461088 0 -146.61895493461088 83.448697015286598 0 0 0 0 -1351.2274206503243 -342.24720869355247 0 -342.24720869355247 -45.048469185988324 0 0 0 0 -121.83651015654686 -110.76680385686996 0 -110.76680385686996 34.984452524558037 0 0 0 0 0.72584783122442786 -2.9895077856411447 0 -2.9895077856411447 -1.0512846436636822 0 0 0 0 -1147.5806614582252 -462.07164267295047 0 -462.07164267295047 -114.01718033115685 0 0 0 0 -190.32196215624572 -45.450569099861696 0 -45.450569099861696 -24.039320356994722 0 0 0 0 -923.6944199005884 -178.1887663262246 0 -178.1887663262246 -139.21853717585054 0 0 0 0 -1198.6947529155004 22.172227226175892 0 22.172227226175892 -234.25824486646525 0 0 0 0 -1154.5603383182388 -57.959255004146598 0 -57.959255004146598 -183.85787186436824 0 0 0 0 -1251.3688319463472 -136.16735899021933 0 -136.16735899021933 -104.90757431150337 0 0 0 0 -801.78106677760479 -323.215660280821 0 -323.215660280821 -176.36952850683701 0 0 0 0 -683.40127489194856 -191.89448903203515 0 -191.89448903203515 -169.66247907794559 0 0 0 0 -897.20377286827897 -132.79646457155616 0 -132.79646457155616 -126.6672360263874 0 0 0 0 -598.1438249050243 -60.657396373514075 0 -60.657396373514075 -179.92843857288153 0 0 0 0 -513.59691097407631 -135.94089656365304 0 -135.94089656365304 -159.21438495918369 0 0 0 0 -365.27001335615569 -95.894051774746686 0 -95.894051774746686 -214.03222294482521 0 0 0 0 -511.98368970638694 -135.73165912552759 0 -135.73165912552759 -212.39137474306051 0 0 0 0 -506.01476831983337 -97.18746184296279 0 -97.18746184296279 -156.85009234251902 0 0 0 0 -376.81463734766294 -140.45683225675953 0 -140.45683225675953 -212.38106176071574 0 0 0 0 -510.98755152831291 -106.26046927461005 0 -106.26046927461005 -161.731197419198 0 0 0 0 -521.37304908699298 -145.39260192246161 0 -145.39260192246161 -236.95720292438773 0 0 0 0 -895.60983708284039 -96.023303976659861 0 -96.023303976659861 -192.38626302066587 0 0 0 0 -672.85890703387122 -142.04002489963636 0 -142.04002489963636 -233.58676880739358 0 0 0 0 -663.39878159184445 -92.880981661108535 0 -92.880981661108535 -177.03134470789701 0 0 0 0 -221.2235053295517 -46.522653359881588 0 -46.522653359881588 -94.553176186166638 0 0 0 0 -143.64433783249115 -123.86833402827051 0 -123.86833402827051 -164.06150513773787 0 0 0 0 -226.97237823771502 -88.959594434692008 0 -88.959594434692008 -201.90945299183863 0 0 0 0 -368.69624169394092 -82.454873200148256 0 -82.454873200148256 -128.07819977100917 0 0 0 0 -247.61974248297338 -131.27550688669157 0 -131.27550688669157 -193.46384310825124 0 0 0 0 -372.30233712310292 -112.62317584058019 0 -112.62317584058019 -141.20719174312762 0 0 0 0 -247.09269501292124 -120.65601786700543 0 -120.65601786700543 -114.91049614382518 0 0 0 0 -155.42488574003801 -111.51465558770997 0 -111.51465558770997 -162.06730371612593 0 0 0 0 -58.066456349159125 -108.30258578839721 0 -108.30258578839721 -116.84497391836942 0 0 0 0 -131.07551788443197 -158.23776758338897 0 -158.23776758338897 -113.61735892836259 0 0 0 0 -111.47179769462309 -79.614403950094584 0 -79.614403950094584 -124.40599645043312 0 0 0 0 -100.21576509505394 -177.9789092687854 0 -177.9789092687854 -110.75999851378617 0 0 0 0 -97.400294722414401 -166.55475980441815 0 -166.55475980441815 -111.81158330157317 0 0 0 0 -189.64419958992221 -165.64476280968961 0 -165.64476280968961 -141.02801203224226 0 0 0 0 -104.85129173430232 -128.37679207411347 0 -128.37679207411347 -158.29428210977858 0 0 0 0 -105.28026430284081 -152.16178737451889 0 -152.16178737451889 -139.18219316399018 0 0 0 0 -176.53379145228973 -163.52616265731695 0 -163.52616265731695 -117.39950143301121 0 0 0 0 -239.82098385273275 -171.24070937379406 0 -171.24070937379406 -142.24441824031464 0 0 0 0 -186.8044393398759 -135.21698503216572 0 -135.21698503216572 -142.16315824686353 0 0 0 0 -243.02383040668064 -113.90446558118924 0 -113.90446558118924 -147.64681764717579 0 0 0 0 -354.32046280020586 -168.70117242997026 0 -168.70117242997026 -141.74069190346336 0 0 0 0 -263.50513112567569 -149.36535360239066 0 -149.36535360239066 -185.95834872439127 0 0 0 0 -272.37969131900172 -124.82996787480977 0 -124.82996787480977 -154.5598639864802 0 0 0 0 -307.9307032558354 -188.21246014366511 0 -188.21246014366511 -132.03495906956849 0 0 0 0 -336.48305753761088 -135.53515544401643 0 -135.53515544401643 -143.02924944154734 0 0 0 0 -294.82960378370626 -131.48947119904861 0 -131.48947119904861 -81.987754352217365 0 0 0 0 -220.27590105607669 -161.30849016137043 0 -161.30849016137043 -61.799363276291217 0 0 0 0 -236.55892373109236 -194.27436308994385 0 -194.27436308994385 -117.82791537605334 0 0 0 0 -197.59122681560984 -185.26353627661626 0 -185.26353627661626 -134.65894840287334 0 0 0 0 -252.07809703830208 -134.4568226479654 0 -134.4568226479654 -107.74487003531203 0 0 0 0 -176.93840811343398 -153.77280737831154 0 -153.77280737831154 -102.47067387092147 0 0 0 0 -127.03400170348323 -184.74266385107717 0 -184.74266385107717 -119.77494732662331 0 0 0 0 -102.53828293740662 -150.21423434989936 0 -150.21423434989936 -78.356808768324811 0 0 0 0 -572.16142312600277 -158.67304718097034 0 -158.67304718097034 -214.16783691637227 0 0 0 0 -765.39163119287696 -157.3802908115465 0 -157.3802908115465 -131.34861299282602 0 0 0 0 -765.37973484813119 -158.27931962549223 0 -158.27931962549223 -173.20298082464046 0 0 0 0 -730.34880863212311 -173.99499233619622 0 -173.99499233619622 -253.26609376943952 0 0 0 0 -706.10320783703355 -120.70715186365248 0 -120.70715186365248 -171.20004947695907 0 0 0 0 -435.71843501388503 -171.93077126136745 0 -171.93077126136745 -195.24971428605863 0 0 0 0 -384.1998599751787 -116.36866279980404 0 -116.36866279980404 -165.60086941546706 0 0 0 0 -426.82148810490617 -184.47684177971382 0 -184.47684177971382 -138.95514751978607 0 0 0 0 -565.58352865570487 -133.85080230869153 0 -133.85080230869153 -133.84101248192474 0 0 0 0 -441.17804187501588 -130.03125756201408 0 -130.03125756201408 -171.32671484970024 0 0 0 0 -448.06246808931974 -125.59307267314493 0 -125.59307267314493 -101.2195098340361 0 0 0 0 -581.30211111623066 -177.64425741883849 0 -177.64425741883849 -101.62949325219233 0 0 0 0 -389.04806669090613 -202.2781972788446 0 -202.2781972788446 -109.28156752132917 0 0 0 0 -798.24579643299512 -93.081492342589627 0 -93.081492342589627 -49.406850568946112 0 0 0 0 -578.82214915672375 -172.66370917797414 0 -172.66370917797414 -159.37815944924523 0 0 0 0 -640.47272968337893 -96.383383662815959 0 -96.383383662815959 11.949066308682973 0 0 0 0 -701.07339080896418 -165.05353951015547 0 -165.05353951015547 -38.510928114971875 0 0 0 0 -404.24488863412989 -186.3389623698863 0 -186.3389623698863 -94.79553291550809 0 0 0 0 -435.33122251809255 -178.08833857285038 0 -178.08833857285038 51.246836784823699 0 0 0 0 -415.16826544236756 -114.60772155638347 0 -114.60772155638347 -16.533403107503773 0 0 0 0 -114.06512344165094 -212.79476925044355 0 -212.79476925044355 -15.594075014785858 0 0 0 0 -116.44328398967627 -197.23951841460286 0 -197.23951841460286 -70.847308354611584 0 0 0 0 -48.686173053385573 -155.57124021684368 0 -155.57124021684368 -57.12292238348823 0 0 0 0 -140.83126325988087 -148.2509883083693 0 -148.2509883083693 -73.115754644725385 0 0 0 0 -231.765964084796 -212.53378868545201 0 -212.53378868545201 -34.456754576449157 0 0 0 0 -235.81865611046305 -133.95181540928093 0 -133.95181540928093 -45.71264962075918 0 0 0 0 -402.95471058124167 -174.78199069533431 0 -174.78199069533431 -38.810429748568836 0 0 0 0 -235.69403202719332 -191.22510673808392 0 -191.22510673808392 78.502851533613921 0 0 0 0 -229.87244606278568 -111.2188375216199 0 -111.2188375216199 56.267874913572086 0 0 0 0 -110.78208190271835 -184.94797184470031 0 -184.94797184470031 50.76902511584791 0 0 0 0 -112.27857720974498 -203.71401464426208 0 -203.71401464426208 -17.30168533345045 0 0 0 0 -142.08498251970377 -149.83688357167387 0 -149.83688357167387 -4.5144218077871301 0 0 0 0 -149.42734118220324 -142.06860975654854 0 -142.06860975654854 92.525008209163389 0 0 0 0 -22.695777194960101 -214.39228097371688 0 -214.39228097371688 34.586285723149444 0 0 0 0 -195.85097626375045 -42.814584567959628 0 -42.814584567959628 192.01531962170156 0 0 0 0 -82.72934241468829 -222.11152490038921 0 -222.11152490038921 107.30361280041876 0 0 0 0 -69.443878283509548 -168.91326519063159 0 -168.91326519063159 227.97718309654465 0 0 0 0 -434.43070090634365 -85.687808240296249 0 -85.687808240296249 140.40287676267144 0 0 0 0 -623.85342350225983 -152.69694789283881 0 -152.69694789283881 127.08197020509078 0 0 0 0 -419.7681205040426 -177.00346856582564 0 -177.00346856582564 144.91171624577919 0 0 0 0 -530.77411279484659 -145.59748725699683 0 -145.59748725699683 199.48910823810979 0 0 0 0 -4.1488973823173296 -8.0085361018817309 0 -8.0085361018817309 2.7865259738136805 0 0 0 0 -493.54802077636123 -99.600312865403566 0 -99.600312865403566 115.02251961377669 0 0 0 0 -571.55114435881478 17.562182470165638 0 17.562182470165638 -34.090219620372636 0 0 0 0 -933.45515253137273 131.52389150950293 0 131.52389150950293 15.968528864109999 0 0 0 0 -301.94638549837873 -0.26679220792635761 0 -0.26679220792635761 38.697654254227928 0 0 0 0 -282.00630047919367 7.5200602967527175 0 7.5200602967527175 16.67993731867864 0 0 0 0 -343.88461964293765 -5.3391420035135866 0 -5.3391420035135866 17.743146029687523 0 0 0 0 -381.87063826366648 56.135283651085729 0 56.135283651085729 1.9845067923292845 0 0 0 0 -525.73122210068686 -105.94159172281957 0 -105.94159172281957 162.10346770056594 0 0 0 0 -549.19564797410931 -91.798691405951331 0 -91.798691405951331 161.80976274719978 0 0 0 0 -553.84990313726303 -206.28531269804716 0 -206.28531269804716 198.98893736629816 0 0 0 0 52.48636652832829 -365.7013479350635 0 -365.7013479350635 12.273279303723029 0 0 0 0 -3.2656260120136658 -7.3799606199705217 0 -7.3799606199705217 0.2415764314239226 0 0 0 0 -595.06343663444568 -6.4497441767251757 0 -6.4497441767251757 43.859675534850794 0 0 0 0 -373.45475731987608 -23.633958062771853 0 -23.633958062771853 23.735800317110488 0 0 0 0 -14.001381063455547 -29.150808503924996 0 -29.150808503924996 -26.124460750006456 0 0 0 0 -81.654122788117093 -82.474786097879814 0 -82.474786097879814 -33.823598280479473 0 0 0 0 -34.403993695774261 -85.330952931549746 0 -85.330952931549746 270.54625297528264 0 0 0 0 -18.505204073674889 -11.210898481450508 0 -11.210898481450508 -0.094274281103349011 0 0 0 0 -371.39447977015516 -181.58005517528727 0 -181.58005517528727 230.89095884895971 0 0 0 0 -513.0036045445886 -83.260507545438031 0 -83.260507545438031 120.84226049981135 0 0 0 0 -390.61969826353015 -125.11127893405171 0 -125.11127893405171 135.00954556572833 0 0 0 0 -1365.6020835072304 285.65030689077503 0 285.65030689077503 20.040179736737286 0 0 0 0 -366.47310209826719 -58.509696674299448 0 -58.509696674299448 70.371626759478204 0 0 0 0 2.5632433934083565 -64.703254654376508 0 -64.703254654376508 -11.993752628255606 0 0 0 0 37.775820478145761 -51.486600640386314 0 -51.486600640386314 -7.6930802457709433 0 0 0 0 13.350724455372983 -44.559149038173018 0 -44.559149038173018 72.710467946786594 0 0 0 0 9.9846780155348824 -62.36067253952524 0 -62.36067253952524 33.601025222470525 0 0 0 0 27.15971038144562 -210.99980115733956 0 -210.99980115733956 -526.24704566879518 0 0 0 0 -7.2630528698365069 -7.2613213977819626 0 -7.2613213977819626 -11.478309177547715 0 0 0 0 -867.60816279861683 -682.09208019432072 0 -682.09208019432072 -142.14712754648644 0 0 0 0 118.87984769746981 -326.73518805278331 0 -326.73518805278331 -108.60602882737703 0 0 0 0 -1634.3075210986999 -72.072801697312116 0 -72.072801697312116 458.26102887686466 0 0 0 0 -1279.2058660570146 -158.83389087285377 0 -158.83389087285377 434.98070191671832 0 0 0 0 13.327227540354215 -609.54872486452837 0 -609.54872486452837 152.19557375198048 0 0 0 0 -99.027206656488389 -32.860333263504899 0 -32.860333263504899 0.73483235104949873 0 0 0 0 910.91294544137054 -269.13536415425324 0 -269.13536415425324 -321.2338061424698 0 0 0 0 -1052.8566668507019 20.869728574624332 0 20.869728574624332 319.63509922472986 0 0 0 0 -1.1579166225267308 -2.8650086822089662 0 -2.8650086822089662 -0.71054362928638426 0 0 0 0 464.68507764814422 182.13217776506326 0 182.13217776506326 -231.74360108655492 0 0 0 0 -961.26579432675408 -673.80088184347073 0 -673.80088184347073 -42.107727826667542 0 0 0 0 -141.81391264655758 -275.06691301752926 0 -275.06691301752926 -1223.4275805326461 0 0 0 0 -151.18652902070608 -134.17897327845958 0 -134.17897327845958 -43.318905931404515 0 0 0 0 282.83682889223564 -25.4493454561607 0 -25.4493454561607 -280.89995887055375 0 0 0 0 -1411.2124618178632 751.6340766666217 0 751.6340766666217 4.1385079452666105 0 0 0 0 1.1926314087707013 1.0898690835911893 0 1.0898690835911893 -0.8375448725990573 0 0 0 0 -140.59738673836546 -278.13213191859541 0 -278.13213191859541 495.89048692021288 0 0 0 0 -1116.8114764196116 579.8032612314546 0 579.8032612314546 -166.80652993472359 0 0 0 0 -61.97422807757539 95.280377775057786 0 95.280377775057786 94.693806992399914 0 0 0 0 74.264764700912565 -4.3135160397059735 0 -4.3135160397059735 140.45209081760186 0 0 0 0 32.491596031322842 -35.889100636831245 0 -35.889100636831245 182.07477562131751 0 0 0 0 -244.49040624131885 171.76615878709936 0 171.76615878709936 81.18070711765904 0 0 0 0 259.95728324934453 -266.43810557890242 0 -266.43810557890242 182.081722575811 0 0 0 0 -20.415800246998913 6.4573685224587827 0 6.4573685224587827 -2.689088869123136 0 0 0 0 -28.510276182809946 74.42969232341062 0 74.42969232341062 124.98386555898196 0 0 0 0 -24.801562766498137 -0.72659328727506534 0 -0.72659328727506534 140.90402347038616 0 0 0 0 -57.045365168320131 0.17955517678262822 0 0.17955517678262822 36.971531645106552 0 0 0 0 -143.19801363419538 90.490089821149922 0 90.490089821149922 -28.120019307090161 0 0 0 0 -93.240271358710203 1.1235073588519704 0 1.1235073588519704 10.085194162390675 0 0 0 0 -91.935601882830142 16.014079528185604 0 16.014079528185604 2.7838890444834288 0 0 0 0 -16.324296415597928 0.74166345910612108 0 0.74166345910612108 -83.925846571979037 0 0 0 0 -179.2514199162033 -47.105405492436603 0 -47.105405492436603 23.153733123520396 0 0 0 0 -306.38544162079779 -59.275357894785884 0 -59.275357894785884 95.730278238738038 0 0 0 0 -14.335869676725153 7.5403190416789947 0 7.5403190416789947 4.4760755313427953 0 0 0 0 -334.85374443896217 56.655687543854128 0 56.655687543854128 40.948083224051516 0 0 0 0 -154.92944311034807 40.61287448348321 0 40.61287448348321 36.669928815903404 0 0 0 0 -266.12919092218362 149.60959439255839 0 149.60959439255839 -18.563210726721081 0 0 0 0 -162.54238748420903 32.453693583060158 0 32.453693583060158 46.318994090377601 0 0 0 0 -150.14476454340183 33.91793478895579 0 33.91793478895579 1.5994059165786894 0 0 0 0 -59.246942922094604 -51.937885303943403 0 -51.937885303943403 11.396814670211256 0 0 0 0 12.855976613092935 -54.782986251721354 0 -54.782986251721354 -4.4639405854518373 0 0 0 0 -77.333720894710183 15.461588731226168 0 15.461588731226168 9.2075756041176895 0 0 0 0 -164.46241006320633 46.469877696567437 0 46.469877696567437 83.071986136033956 0 0 0 0 -104.837777381829 9.5406837771958113 0 9.5406837771958113 17.096183697122203 0 0 0 0 -36.049359321099473 4.7554638438737129 0 4.7554638438737129 53.390393561797055 0 0 0 0 -25.686252026092149 22.248491706666627 0 22.248491706666627 8.2031489007171743 0 0 0 0 -83.910604633259936 127.70922600384631 0 127.70922600384631 -22.576380037372473 0 0 0 0 -94.697102274461571 -6.2634557040166499 0 -6.2634557040166499 16.0492974990246 0 0 0 0 -63.279855711953132 3.5799592499881214 0 3.5799592499881214 -8.9976695485679556 0 0 0 0 -21.544279437784155 -6.7330580820286343 0 -6.7330580820286343 7.8118896904047554 0 0 0 0 -356.8647350420506 -201.41261055009596 0 -201.41261055009596 -127.416998897334 0 0 0 0 -135.77470171565801 158.26768211791443 0 158.26768211791443 -5.2898859960392315 0 0 0 0 -94.263930212033657 11.167052905539521 0 11.167052905539521 11.959975973239231 0 0 0 0 -65.802906003402313 117.6098780151641 0 117.6098780151641 -140.65867293604197 0 0 0 0 -3.900717374828389 0.46056280879263056 0 0.46056280879263056 0.21601520916736794 0 0 0 0 -283.00628860670804 -195.23732951461272 0 -195.23732951461272 -95.253268773391937 0 0 0 0 -224.93420508381678 25.797229240547381 0 25.797229240547381 25.0983867051375 0 0 0 0 -38.306003945021075 -98.694977685152821 0 -98.694977685152821 -71.99216825202717 0 0 0 0 -84.130080481663754 -138.69123664805079 0 -138.69123664805079 15.906035793728734 0 0 0 0 -41.651247326139128 -97.99493312093432 0 -97.99493312093432 -295.62877364636006 0 0 0 0 -6.7257311528157402 -0.37768462580422124 0 -0.37768462580422124 7.5297649139463338 0 0 0 0 -43.034094542179901 -86.49463684632741 0 -86.49463684632741 -126.77638722384745 0 0 0 0 -62.16305434613605 -106.97195676480555 0 -106.97195676480555 -122.19498558586696 0 0 0 0 -65.57083222865549 -26.290271611771107 0 -26.290271611771107 68.509159320907429 0 0 0 0 -127.35160465056833 -77.792575192381719 0 -77.792575192381719 3.3548219627996332 0 0 0 0 -108.13745361873589 -67.238495467943665 0 -67.238495467943665 91.783843137810777 0 0 0 0 -69.142863358516479 -97.860498055307175 0 -97.860498055307175 3.8786331633629061 0 0 0 0 -104.35743764528161 -101.61097880570634 0 -101.61097880570634 270.50186318450017 0 0 0 0 179.60496718159993 -50.054206129493991 0 -50.054206129493991 38.998801167465245 0 0 0 0 -262.34007914178073 -52.10183515306619 0 -52.10183515306619 -68.79359600321709 0 0 0 0 -257.61882129132573 -96.801790821726627 0 -96.801790821726627 -47.428287690405909 0 0 0 0 11.725358114003029 -27.698365937680137 0 -27.698365937680137 -46.312381952297528 0 0 0 0 -1.7139455253727931 0.087542890268736073 0 0.087542890268736073 -4.0372797251196708 0 0 0 0 -235.96004786143021 -61.569116983304184 0 -61.569116983304184 -65.406432873231324 0 0 0 0 -400.73560368073231 -82.43863345338724 0 -82.43863345338724 -34.316201661621108 0 0 0 0 -317.25900186196668 24.747053106862495 0 24.747053106862495 -21.872538272971042 0 0 0 0 -15.008695798023837 -79.326114878487033 0 -79.326114878487033 -31.848008837831912 0 0 0 0 -117.99990078729388 -142.06209677666078 0 -142.06209677666078 -39.487947851879653 0 0 0 0 -4.2752719778615642 -1.9644234838627455 0 -1.9644234838627455 8.6774937982630362 0 0 0 0 -72.91519719484495 -55.108567865284954 0 -55.108567865284954 -66.71828471363574 0 0 0 0 -85.142391227680491 14.797964832496746 0 14.797964832496746 58.092812206068857 0 0 0 0 -171.30030232579156 -228.24902534793824 0 -228.24902534793824 -85.788507592455062 0 0 0 0 -0.65744652973218365 0.798919854147357 0 0.798919854147357 -0.82463198106653035 0 0 0 0 63.44598343517282 11.760694773750288 0 11.760694773750288 -33.112825313712392 0 0 0 0 61.005265847445116 -53.092452834968071 0 -53.092452834968071 -66.324386590569134 0 0 0 0 -78.230604038104502 -21.005709579277124 0 -21.005709579277124 43.82538837388006 0 0 0 0 144.65699281757406 -266.8973735843802 0 -266.8973735843802 -174.43891016420559 0 0 0 0 -457.05253654354601 59.858076275664587 0 59.858076275664587 104.30920144024117 0 0 0 0 -90.703215146335424 216.25382577002173 0 216.25382577002173 150.47534422053195 0 0 0 0 -7.3243506762246398 1.3428436007942679 0 1.3428436007942679 0.1586327824256355 0 0 0 0 -121.21821259378339 -25.667459289445333 0 -25.667459289445333 -70.738311507037906 0 0 0 0 -180.3156042209157 36.283156036895434 0 36.283156036895434 -23.840278458881755 0 0 0 0 -108.21135169565969 15.554555427415892 0 15.554555427415892 164.80775978607704 0 0 0 0 -123.12428969317261 -404.54264401125363 0 -404.54264401125363 -218.34307471684116 0 0 0 0 -27.240529569333376 -8.3217703998283561 0 -8.3217703998283561 0.63236608529952298 0 0 0 0 -246.6302381814603 -143.67785794294696 0 -143.67785794294696 180.68486304640379 0 0 0 0 -641.17516516961041 -326.60591569464964 0 -326.60591569464964 468.29015105085364 0 0 0 0 -109.58265699414109 -24.411228201849465 0 -24.411228201849465 0.20986579073837586 0 0 0 0 -726.32671573545304 152.60202699308024 0 152.60202699308024 407.72971387625557 0 0 0 0 -167.69117389362646 -61.366676970059231 0 -61.366676970059231 -74.153095370392634 0 0 0 0 -256.6751812607763 -452.17410846678439 0 -452.17410846678439 190.37711912382179 0 0 0 0 -193.57943109177359 61.57908204923006 0 61.57908204923006 112.09556965625484 0 0 0 0 -321.06417672034877 -74.142538985691573 0 -74.142538985691573 14.312515908750925 0 0 0 0 -260.9913494419452 122.3061613093279 0 122.3061613093279 -379.27968957257718 0 0 0 0 -708.72526997856039 37.324995646033642 0 37.324995646033642 -7.1072225506115387 0 0 0 0 -450.38477358147793 -591.29827642387909 0 -591.29827642387909 -701.25149775349621 0 0 0 0 10.448515606190995 173.3123620679869 0 173.3123620679869 106.95859422763556 0 0 0 0 24.285261296350654 107.96292330943729 0 107.96292330943729 101.01328836721291 0 0 0 0 32.502491298066161 105.8788701481389 0 105.8788701481389 -37.24054212704732 0 0 0 0 -126.49032048058871 91.31348292022335 0 91.31348292022335 72.052947253007005 0 0 0 0 -163.81717515739001 162.08066262913417 0 162.08066262913417 -50.486325155381337 0 0 0 0 -95.628908392056474 61.012646444449729 0 61.012646444449729 -38.767250593151289 0 0 0 0 -134.96623608248774 -46.356459862505176 0 -46.356459862505176 -154.16572733703214 0 0 0 0 35.941581602917722 31.277943142347993 0 31.277943142347993 39.535379847469585 0 0 0 0 44.423217380797723 21.748182168840771 0 21.748182168840771 -53.758154703887868 0 0 0 0 59.22440379641921 13.89185311770035 0 13.89185311770035 -133.92721350229806 0 0 0 0 -142.47702545684479 -90.010607556928363 0 -90.010607556928363 52.056026518550652 0 0 0 0 -164.72896319757092 -8.8498349596574997 0 -8.8498349596574997 -8.7960946709486052 0 0 0 0 -266.7522938845359 -155.84183105285524 0 -155.84183105285524 7.855091805291579 0 0 0 0 -203.00004537288623 17.622105345298792 0 17.622105345298792 234.02298962172063 0 0 0 0 -0.49618012581777293 -1.5588822328534206 0 -1.5588822328534206 2.9649537200898521 0 0 0 0 33.942663856825675 -143.1292900893643 0 -143.1292900893643 32.683442815095873 0 0 0 0 -0.27954584461591026 -0.15190165604218464 0 -0.15190165604218464 0.66852018793982459 0 0 0 0 -749.13232380591216 -63.838053030925039 0 -63.838053030925039 111.17235019461691 0 0 0 0 -409.33686326965108 -283.94312257892204 0 -283.94312257892204 -294.70961807751041 0 0 0 0 -753.5890577424434 -253.56999954359412 0 -253.56999954359412 89.870715173969074 0 0 0 0 -602.95585468139325 -220.92323032768763 0 -220.92323032768763 79.328362789650157 0 0 0 0 -592.53787399592693 -227.39900340850272 0 -227.39900340850272 61.202623144803965 0 0 0 0 -651.85517207068915 -161.00114479023603 0 -161.00114479023603 59.068574269422015 0 0 0 0 -448.39782636589371 -57.897075032838302 0 -57.897075032838302 75.160201685758921 0 0 0 0 -413.26532635604963 -228.90088382635713 0 -228.90088382635713 -67.183612721384634 0 0 0 0 -4.8894986396928743 1.7958646089803807 0 1.7958646089803807 0.34121535209802634 0 0 0 0 -374.91566999625866 -179.20954421620311 0 -179.20954421620311 -70.924365631767614 0 0 0 0 -532.39557126452564 -221.14860804167438 0 -221.14860804167438 -65.320422701161078 0 0 0 0 -589.14211526558211 -260.38345668767965 0 -260.38345668767965 -25.190606726916485 0 0 0 0 -480.57969309678447 -165.77652147115873 0 -165.77652147115873 45.466554607583021 0 0 0 0 -609.5533579425537 -225.60147767700619 0 -225.60147767700619 63.475243311867189 0 0 0 0 -574.53728953237987 -55.242037050566196 0 -55.242037050566196 203.05338062927058 0 0 0 0 -637.84533557532995 -316.92775412174285 0 -316.92775412174285 -109.92873316818304 0 0 0 0 -596.18709666496579 -240.23132712761878 0 -240.23132712761878 -139.93224115308112 0 0 0 0 -593.48391941955924 -246.91704559242339 0 -246.91704559242339 -124.89647462839457 0 0 0 0 -610.69010991892719 -302.8886417270212 0 -302.8886417270212 37.173129542162769 0 0 0 0 -626.16940083556983 -226.57889994479274 0 -226.57889994479274 -100.32810271124526 0 0 0 0 -750.96157800943183 -287.17280310354386 0 -287.17280310354386 -101.0641832794073 0 0 0 0 7.5847824274715094 36.490373531934097 0 36.490373531934097 -20.619327079582945 0 0 0 0 -717.80189904103463 -465.50345831106688 0 -465.50345831106688 -229.73870739525159 0 0 0 0 -1.9046702020944508 0.49797041668239217 0 0.49797041668239217 0.049669377568806183 0 0 0 0 -35.574790311246034 -14.601884321893976 0 -14.601884321893976 23.683012582871925 0 0 0 0 -494.80206156181521 -353.16294338026319 0 -353.16294338026319 -251.94043130023579 0 0 0 0 -415.84607874688663 -289.61233678539304 0 -289.61233678539304 -202.20568464548433 0 0 0 0 -650.41917315436876 -295.66153168438859 0 -295.66153168438859 -105.51084919010191 0 0 0 0 -85.683963017887436 -22.994727449580751 0 -22.994727449580751 241.03852753987053 0 0 0 0 -1.578054105909473 -1.7822302690845344 0 -1.7822302690845344 -0.39606904924591202 0 0 0 0 -20.640923456769087 30.674831963159022 0 30.674831963159022 107.65143267492954 0 0 0 0 -1.6434386790288897 -1.3225920438766394 0 -1.3225920438766394 -0.45357964835932751 0 0 0 0 7.4471735668339534 -261.79293827699394 0 -261.79293827699394 4.4259978011145904 0 0 0 0 1.171977327717002 -1.1680836823498542 0 -1.1680836823498542 -0.30296948345306629 0 0 0 0 -399.48241703935491 177.85871245857788 0 177.85871245857788 -83.944035816436838 0 0 0 0 -837.74165496746718 -237.76705807136022 0 -237.76705807136022 155.20474394231633 0 0 0 0 -582.78939903968421 -223.011242173401 0 -223.011242173401 -82.577655811069235 0 0 0 0 -519.27228672460478 -338.50676406371542 0 -338.50676406371542 45.698821840108735 0 0 0 0 -223.03100313417963 -71.461792568144006 0 -71.461792568144006 15.363819364442861 0 0 0 0 -98.788320905772707 -100.64694833472703 0 -100.64694833472703 -8.5608132180927896 0 0 0 0 -136.5048290259183 39.358359669745994 0 39.358359669745994 -102.21672907451989 0 0 0 0 -411.71693188820063 -175.31151069205265 0 -175.31151069205265 -21.993475590773642 0 0 0 0 -734.18755173333193 -49.642294030703852 0 -49.642294030703852 9.8435180743977071 0 0 0 0 -759.48505270151509 -399.78512756189036 0 -399.78512756189036 34.064850089489028 0 0 0 0 -403.09256845933851 -37.239656713529598 0 -37.239656713529598 -194.11144971656972 0 0 0 0 -400.80244631687492 -64.357584038206312 0 -64.357584038206312 -21.733621139012939 0 0 0 0 -28.085282467713114 33.23296025077866 0 33.23296025077866 211.06091743457239 0 0 0 0 34.523283434078621 84.81952439344343 0 84.81952439344343 158.66954333608874 0 0 0 0 -118.72763132370892 -4.0636753334943023 0 -4.0636753334943023 29.03992917179221 0 0 0 0 -0.094126196432497977 -0.34549216419907225 0 -0.34549216419907225 2.5181262941882134 0 0 0 0 -437.34660460974555 -340.22968027085926 0 -340.22968027085926 -64.608466776005685 0 0 0 0 -611.98396193512599 -389.12206759629703 0 -389.12206759629703 35.652827455732222 0 0 0 0 -632.28488536790246 -345.38560438538912 0 -345.38560438538912 31.896715785954171 0 0 0 0 -446.22729645078653 -323.73681215538545 0 -323.73681215538545 -9.2503601232397159 0 0 0 0 -483.1336293987406 -292.34420662564253 0 -292.34420662564253 202.79080538896505 0 0 0 0 -408.7825652623651 -397.8238480846652 0 -397.8238480846652 50.421522509920578 0 0 0 0 -405.354734561246 262.09472417011864 0 262.09472417011864 385.74333446638559 0 0 0 0 70.075924894626951 62.505549771098686 0 62.505549771098686 32.093458950511376 0 0 0 0 -370.25178721100383 -329.60922222274576 0 -329.60922222274576 -307.09693860758944 0 0 0 0 -5.6055498505180026 -0.34903633658173305 0 -0.34903633658173305 0.27213195399342349 0 0 0 0 -629.1988595505245 -451.00009651921368 0 -451.00009651921368 -88.147192251055458 0 0 0 0 -114.26657822685229 -3.7992082629962738 0 -3.7992082629962738 538.00128394483193 0 0 0 0 -13.77899664768907 -1.0993557946740022 0 -1.0993557946740022 1.0592932898612273 0 0 0 0 75.481021262245122 28.673147121177351 0 28.673147121177351 200.95265914607148 0 0 0 0 42.246924545033835 -86.516426692506911 0 -86.516426692506911 321.74273969284013 0 0 0 0 -19.593122176767793 59.334936747862628 0 59.334936747862628 353.79016139922828 0 0 0 0 -14.867978530543041 -70.472302220404174 0 -70.472302220404174 269.78542791926782 0 0 0 0 -3.1120730370312231 22.44694535774363 0 22.44694535774363 140.40317371034666 0 0 0 0 -30.190273408472422 65.6329658185673 0 65.6329658185673 129.99501365917527 0 0 0 0 24.744281531959132 49.373131145485843 0 49.373131145485843 34.326916101410688 0 0 0 0 -8.7595721380057512 32.085671433074651 0 32.085671433074651 102.93536007116558 0 0 0 0 -39.665328654562472 43.914947374756025 0 43.914947374756025 144.06875855567887 0 0 0 0 -54.878489102353342 -53.863219953123775 0 -53.863219953123775 316.23433068401977 0 0 0 0 -17.846165508041338 -1.299169425341459 0 -1.299169425341459 0.64985004369527977 0 0 0 0 11.033099656415288 -46.981836849514536 0 -46.981836849514536 77.570424728330778 0 0 0 0 -19.355706372036366 -21.714910377237999 0 -21.714910377237999 157.22668560513455 0 0 0 0 -21.007053282426568 -1.4255719725196787 0 -1.4255719725196787 4.0095132103410211 0 0 0 0 -5.5868905177118862 -2.5185110095854384 0 -2.5185110095854384 9.5957393728514564 0 0 0 0 -79.388036359981925 -92.064125191762599 0 -92.064125191762599 -173.13140919250509 0 0 0 0 -10.497507567488356 -44.477798929865855 0 -44.477798929865855 87.741709347797041 0 0 0 0 14.841435097594513 38.235785623583112 0 38.235785623583112 56.027131058052902 0 0 0 0 -4.6596190809950073 -1.3891686884322496 0 -1.3891686884322496 11.826401572708802 0 0 0 0 5.2366037754763965 62.637055176598778 0 62.637055176598778 -106.09574030881322 0 0 0 0 1.3769933981238864 32.31057036585446 0 32.31057036585446 57.240941091975728 0 0 0 0 10.439975962384779 93.261936282272799 0 93.261936282272799 98.135055157149253 0 0 0 0 43.149368038764806 55.118531015860469 0 55.118531015860469 35.718467742400122 0 0 0 0 -1.0308143397815002 152.54931857756947 0 152.54931857756947 280.06423862675558 0 0 0 0 0.43572390176532849 0.047574900788632135 0 0.047574900788632135 4.008914494156274 0 0 0 0 226.51510231602151 163.79967813207799 0 163.79967813207799 98.075384575230032 0 0 0 0 -62.93344244902255 30.763727038121694 0 30.763727038121694 76.878136526544665 0 0 0 0 -72.517916712880833 21.964592924456912 0 21.964592924456912 126.42619929028129 0 0 0 0 -78.515368340551504 -17.562829199032038 0 -17.562829199032038 34.320233885220048 0 0 0 0 -75.382033899546514 17.449727625484133 0 17.449727625484133 86.788626519397738 0 0 0 0 -92.199245584284654 -8.0944463654365961 0 -8.0944463654365961 28.417474883056059 0 0 0 0 -92.489383733403713 -56.210168937443463 0 -56.210168937443463 2.6707086604568531 0 0 0 0 -4.2667872096713495 -2.5035845966001915 0 -2.5035845966001915 9.9586286475347148 0 0 0 0 -40.987774521126994 -9.8285746762890938 0 -9.8285746762890938 -2.9909013366252957 0 0 0 0 -46.308998485139455 3.51614024281713 0 3.51614024281713 38.818974554954593 0 0 0 0 -1.0719390804534328 -2.8644716724595867 0 -2.8644716724595867 5.3579114454452137 0 0 0 0 -49.254807182471268 -19.222481586627225 0 -19.222481586627225 29.703778104853086 0 0 0 0 -36.814864296211454 23.839188559468965 0 23.839188559468965 82.237711972091347 0 0 0 0 -15.88268699098262 -8.0384201450040109 0 -8.0384201450040109 5.2626725264054812 0 0 0 0 -6.4070554586651269 24.503447626687944 0 24.503447626687944 34.403671279278171 0 0 0 0 -21.339726367928961 45.770656403484331 0 45.770656403484331 68.547126669379963 0 0 0 0 -38.270581514865626 56.760221184758805 0 56.760221184758805 90.395148044332259 0 0 0 0 -174.40173295067507 -16.754218913337809 0 -16.754218913337809 -136.77181191004274 0 0 0 0 -21.070682778445189 -20.468759732403669 0 -20.468759732403669 -71.156687073108969 0 0 0 0 -16.691252995151444 -6.4758681570790486 0 -6.4758681570790486 -204.35508337574583 0 0 0 0 -297.64950416288048 252.69478114120602 0 252.69478114120602 -310.28587317046868 0 0 0 0 -703.45864737238298 108.03755167234135 0 108.03755167234135 -116.45065712759106 0 0 0 0 -498.24180328857983 218.18007695725237 0 218.18007695725237 -188.38730935815511 0 0 0 0 -400.43437560159873 35.634536954774489 0 35.634536954774489 -26.239327647184382 0 0 0 0 -70.967412461148342 83.994998623038555 0 83.994998623038555 -211.44383836616475 0 0 0 0 -165.32779337630927 -8.5856927487828898 0 -8.5856927487828898 51.507612785931087 0 0 0 0 -504.940116895541 337.96525122449361 0 337.96525122449361 6.2504847818368034 0 0 0 0 -1.0271230848284034 1.900668418020004 0 1.900668418020004 -3.0612456115740612 0 0 0 0 -406.08228726373636 245.60638233780458 0 245.60638233780458 -156.56728413824021 0 0 0 0 -681.35221444358467 235.93755157821283 0 235.93755157821283 -90.657066664224203 0 0 0 0 -422.39727816686354 300.69754704405227 0 300.69754704405227 -340.07547308738231 0 0 0 0 -451.22795326011692 257.75422586268041 0 257.75422586268041 -84.929832150319385 0 0 0 0 -477.31136032549693 190.42691903683999 0 190.42691903683999 -220.26638740267026 0 0 0 0 -1250.1366481690638 241.28691203016388 0 241.28691203016388 -98.670732253541246 0 0 0 0 -675.20497906577339 155.0811703226349 0 155.0811703226349 -159.87303109345521 0 0 0 0 -896.66206270075054 96.928773638404891 0 96.928773638404891 -57.447923485367482 0 0 0 0 -784.08096092199594 -247.71816106953696 0 -247.71816106953696 -103.89745529755783 0 0 0 0 -1446.6879588530192 -157.52285684593329 0 -157.52285684593329 14.499101949582837 0 0 0 0 -2.8584807058061017 2.5245960082075101 0 2.5245960082075101 -0.84889337456112735 0 0 0 0 -1074.3584794849594 199.12788756348846 0 199.12788756348846 34.924403136132241 0 0 0 0 -890.08502225011034 104.38847682908863 0 104.38847682908863 -157.06212886369235 0 0 0 0 -770.09673814039706 226.92375028000629 0 226.92375028000629 -289.37768635566817 0 0 0 0 -765.92896589847078 164.26197759679394 0 164.26197759679394 -81.66543144800653 0 0 0 0 -731.37568397505311 170.12304898841012 0 170.12304898841012 -238.61838235359437 0 0 0 0 -971.67782363508013 42.078657051081336 0 42.078657051081336 -182.21196578539514 0 0 0 0 -932.90184815628527 205.42281432076072 0 205.42281432076072 -363.43412516744957 0 0 0 0 -869.62262104403635 -23.057308127034958 0 -23.057308127034958 -312.17423361230169 0 0 0 0 -5.7897057853875538 -0.29502833740776779 0 -0.29502833740776779 -0.39244928734929196 0 0 0 0 -503.97943281017797 457.57846671818481 0 457.57846671818481 -253.15018440919738 0 0 0 0 -190.9162242460734 -287.7476881612638 0 -287.7476881612638 -224.59417743073152 0 0 0 0 -40.695728285283622 65.290801266975905 0 65.290801266975905 -42.193477145729048 0 0 0 0 -124.66418160147441 -92.336313437007902 0 -92.336313437007902 -94.783440245731072 0 0 0 0 -156.98096877943317 30.106596983705458 0 30.106596983705458 113.53608263422211 0 0 0 0 -47.613945857141516 -43.240995316499493 0 -43.240995316499493 -68.188268346689256 0 0 0 0 -259.97645104694311 -226.55304471749798 0 -226.55304471749798 85.452814628654778 0 0 0 0 -329.65472627978306 -110.66869941021105 0 -110.66869941021105 5.2788518853567439 0 0 0 0 -649.03918880727724 143.36611672108529 0 143.36611672108529 -48.382722747406888 0 0 0 0 -842.60034648947476 -193.98368626560432 0 -193.98368626560432 -28.685601151369156 0 0 0 0 -293.66934834724816 -298.86637168341031 0 -298.86637168341031 -56.594294329118156 0 0 0 0 328.28464473048371 104.41431667791812 0 104.41431667791812 -144.10803986209226 0 0 0 0 -315.36491823233155 -532.58145045834863 0 -532.58145045834863 -179.37604102777186 0 0 0 0 49.390587325233355 463.26678221613963 0 463.26678221613963 -127.92254039948875 0 0 0 0 -170.24764819793927 -314.22287006192983 0 -314.22287006192983 -320.14200572146092 0 0 0 0 -6.7881810459130918 -3.8335791727455444 0 -3.8335791727455444 -0.37421320394395607 0 0 0 0 -776.36618370044744 -218.6537281960459 0 -218.6537281960459 108.84731413217287 0 0 0 0 -602.02872123811903 156.48031528461763 0 156.48031528461763 -35.624114168241249 0 0 0 0 -419.4864110822964 -237.82629714123777 0 -237.82629714123777 97.684563073426489 0 0 0 0 -517.40962981751727 44.996811706589597 0 44.996811706589597 156.35835313151074 0 0 0 0 -74.638743364106631 36.659775046074174 0 36.659775046074174 -30.095359975255633 0 0 0 0 69.882396644243272 57.731694937240491 0 57.731694937240491 26.395582394034136 0 0 0 0 47.882624438272614 53.654722572092822 0 53.654722572092822 37.300254726441125 0 0 0 0 6.4319598944784957 6.1707975861318118 0 6.1707975861318118 18.03133113727381 0 0 0 0 -29.107694923501299 4.3729227061979401 0 4.3729227061979401 18.212363485207302 0 0 0 0 4.9661160823015962 -28.558100234693484 0 -28.558100234693484 -362.3838436156675 0 0 0 0 0.10652417408903148 0.58436364025669718 0 0.58436364025669718 1.9543412783250105 0 0 0 0 11.060225460434623 14.751574331517048 0 14.751574331517048 12.523162071227961 0 0 0 0 -51.181077984103467 4.6579941123686694 0 4.6579941123686694 -178.71204002654213 0 0 0 0 -67.831415830674814 -166.18608311685148 0 -166.18608311685148 -416.07401475788629 0 0 0 0 -19.780496071616653 -61.430117784584581 0 -61.430117784584581 -187.74962288301958 0 0 0 0 -94.211071423604153 -73.70029436085315 0 -73.70029436085315 -92.449632902484154 0 0 0 0 -76.857425809888809 -172.69237594647052 0 -172.69237594647052 -238.01330416589008 0 0 0 0 -64.754539750516415 -133.79479176933319 0 -133.79479176933319 -113.03175776301214 0 0 0 0 -85.595874263904989 -152.84959081277884 0 -152.84959081277884 -127.9058631948601 0 0 0 0 -152.32664327787643 -246.27409569645624 0 -246.27409569645624 -129.04186012525952 0 0 0 0 2.1383626260794699 46.069915753815621 0 46.069915753815621 137.85199733078412 0 0 0 0 -122.62380973561085 -145.06864450002104 0 -145.06864450002104 -93.457718558339366 0 0 0 0 -100.33347257913556 -122.15679261145488 0 -122.15679261145488 -77.039640025532208 0 0 0 0 -111.6626892152417 -134.51505458735573 0 -134.51505458735573 -85.294511910969959 0 0 0 0 98.591237218119204 43.880058715276391 0 43.880058715276391 5.3934217815349257 0 0 0 0 126.61623818502994 13.454577731058862 0 13.454577731058862 -14.99264465302349 0 0 0 0 69.143438392304233 34.475512457414638 0 34.475512457414638 -54.625807399640109 0 0 0 0 49.702555463722092 29.149853468852797 0 29.149853468852797 25.711456490363389 0 0 0 0 46.4185518439117 47.857347630362455 0 47.857347630362455 34.009205788933173 0 0 0 0 1.7076400051387495 2.368819809662611 0 2.368819809662611 0.76430755358614144 0 0 0 0 67.301525912521356 -35.778202694782983 0 -35.778202694782983 32.894512323913887 0 0 0 0 1.5705888895611224 2.6907536430697689 0 2.6907536430697689 3.0885705509542434 0 0 0 0 -25.272103575858637 6.402846989038153 0 6.402846989038153 24.569557228307985 0 0 0 0 -14.321043401267161 0.030577570024780343 0 0.030577570024780343 2.2185117356840016 0 0 0 0 11.778003604595142 36.95804426440418 0 36.95804426440418 -10.002957548357926 0 0 0 0 -44.188334820486489 9.2180446196200592 0 9.2180446196200592 76.806584915054827 0 0 0 0 -143.71782649566012 8.6341903906313746 0 8.6341903906313746 54.865864333228728 0 0 0 0 -2.5067011698577844 7.4122708973396527 0 7.4122708973396527 8.1435746027195037 0 0 0 0 -4.3547837749852363 0.73919426124066767 0 0.73919426124066767 2.4701507999409138 0 0 0 0 0.48795501972199418 3.5387040630462252 0 3.5387040630462252 2.8569438640652152 0 0 0 0 -1.0307788460631855 2.8091246884346219 0 2.8091246884346219 6.2057531417406153 0 0 0 0 0.70951501826493768 4.0928919405187116 0 4.0928919405187116 4.054944302104559 0 0 0 0 -2.0397058794842451 1.2902685939674825 0 1.2902685939674825 4.0055225771052392 0 0 0 0 -10.35651125619188 47.146761131600215 0 47.146761131600215 107.68039713175477 0 0 0 0 4.1606945805542637 32.115004686029238 0 32.115004686029238 113.15332546062291 0 0 0 0 -89.64706685789497 68.993460029689345 0 68.993460029689345 -59.261044779012991 0 0 0 0 76.023280175893888 84.017749116332482 0 84.017749116332482 57.945017015708572 0 0 0 0 -2.9872492490449289 0.44809594830722688 0 0.44809594830722688 4.9922247442138756 0 0 0 0 -156.61529101810447 20.918570947892334 0 20.918570947892334 112.99543692117004 0 0 0 0 -33.056390844540147 116.62344161943764 0 116.62344161943764 66.554788435446881 0 0 0 0 -113.76757450508012 -18.089848755456842 0 -18.089848755456842 37.28808901928457 0 0 0 0 -295.16532263324916 -108.47409995995542 0 -108.47409995995542 -107.18182416109676 0 0 0 0 -280.92657643811981 84.450784791696606 0 84.450784791696606 -29.164186974408054 0 0 0 0 204.5653822582135 201.03765676758476 0 201.03765676758476 -52.576100092969909 0 0 0 0 -0.15779230992394133 0.62128351299051587 0 0.62128351299051587 0.90359315605176693 0 0 0 0 -614.64616007634322 154.94990975063104 0 154.94990975063104 21.730392557949585 0 0 0 0 -606.57434541044495 168.12547007964901 0 168.12547007964901 43.210880978874002 0 0 0 0 -646.58756041507877 199.98973901845159 0 199.98973901845159 54.627627123094868 0 0 0 0 -663.80050033001316 174.45570130806038 0 174.45570130806038 44.198096964554225 0 0 0 0 -673.33070762711577 225.83720090810084 0 225.83720090810084 4.2874918034651728 0 0 0 0 -553.95373841550463 186.20992457154813 0 186.20992457154813 -15.404675814771053 0 0 0 0 -780.16578616466722 277.62159767460162 0 277.62159767460162 20.409779848643552 0 0 0 0 -574.27616717784986 120.23886486617334 0 120.23886486617334 46.49531275457025 0 0 0 0 -82.324814600866375 58.711275683447866 0 58.711275683447866 -154.0126559772184 0 0 0 0 -141.76682267983415 -22.774552007477496 0 -22.774552007477496 -76.531892147110739 0 0 0 0 -1002.7861652162464 94.301467303152663 0 94.301467303152663 -39.120133300089492 0 0 0 0 -833.1644073392963 146.7558236229097 0 146.7558236229097 -188.05848871839549 0 0 0 0 -880.81968011236313 -7.0185133077875435 0 -7.0185133077875435 -227.6240018958606 0 0 0 0 -971.0287607061473 73.704798554515946 0 73.704798554515946 -30.644737039414849 0 0 0 0 -763.31990012167444 21.285270407081157 0 21.285270407081157 -19.514259944603509 0 0 0 0 -836.60347767997882 76.874830612473261 0 76.874830612473261 -51.967931579216383 0 0 0 0 -848.51773368014983 144.33173296324185 0 144.33173296324185 38.423124920171176 0 0 0 0 -696.03839038978913 148.82259745190697 0 148.82259745190697 22.431875278069128 0 0 0 0 -734.73205244689962 177.08543424816673 0 177.08543424816673 60.484171499593003 0 0 0 0 -682.06730081482965 169.79540096525727 0 169.79540096525727 72.651293129006262 0 0 0 0 -672.92678000987507 176.15092185256071 0 176.15092185256071 60.463221798112912 0 0 0 0 -582.98520950746024 107.53874128955704 0 107.53874128955704 52.595907565748803 0 0 0 0 -594.14451668455149 99.966267472031177 0 99.966267472031177 63.397788803696514 0 0 0 0 -613.88439601610298 -63.077265924843857 0 -63.077265924843857 3.9103083847548987 0 0 0 0 -762.21293511126714 125.58612149998476 0 125.58612149998476 61.237694002442794 0 0 0 0 -1.0444576176747091 0.90741992704140273 0 0.90741992704140273 -1.3783896749086804 0 0 0 0 -869.87798227721942 -29.44345683503866 0 -29.44345683503866 28.389106563299947 0 0 0 0 87.382582831327454 1.4224442864338016 0 1.4224442864338016 -38.571004576946962 0 0 0 0 -283.18315394887759 21.198109401321403 0 21.198109401321403 -24.401647164577753 0 0 0 0 -279.94646523799747 41.388656048548796 0 41.388656048548796 -29.483425927368444 0 0 0 0 -406.69745661293564 -52.459134524423916 0 -52.459134524423916 -7.6750255881513567 0 0 0 0 -2.239524967542863 3.1267085378363646 0 3.1267085378363646 -2.8248824715148304 0 0 0 0 201.73108560749097 63.369377880694742 0 63.369377880694742 -59.551929957056018 0 0 0 0 153.28003228346643 -39.576662214688895 0 -39.576662214688895 -41.449996563516152 0 0 0 0 67.276891163768596 17.35102366915919 0 17.35102366915919 32.348137935953559 0 0 0 0 65.295585774481879 -32.169565066451014 0 -32.169565066451014 -46.609265929768185 0 0 0 0 0.495037069413371 0.95848876057830523 0 0.95848876057830523 -3.3428916860746871 0 0 0 0 4.7898568951859488 -15.122860319837514 0 -15.122860319837514 11.617404793308879 0 0 0 0 -0.5677770517430929 0.31195668280260236 0 0.31195668280260236 -2.4383136179549254 0 0 0 0 53.371954174392158 137.25494549153359 0 137.25494549153359 -103.49650746677139 0 0 0 0 -708.81592693695711 -264.92974489558412 0 -264.92974489558412 107.75662104424828 0 0 0 0 -2.3378654218746249 1.1478208440326867 0 1.1478208440326867 -0.77117670006363515 0 0 0 0 -631.48732982693764 344.87321170288999 0 344.87321170288999 -190.61957018357498 0 0 0 0 -1.0878464658767228 -0.24627032218350564 0 -0.24627032218350564 -1.0277859415945549 0 0 0 0 -2.7389903337170836 30.493773724887433 0 30.493773724887433 -272.50004608256285 0 0 0 0 -51.663117289092042 -46.710491202066351 0 -46.710491202066351 -26.686241098582059 0 0 0 0 -5.3124583885391985 1.9571891503923808 0 1.9571891503923808 -0.99106164462783886 0 0 0 0 -84.33425724157496 -106.99574931494521 0 -106.99574931494521 -88.548323234947929 0 0 0 0 -9.2606720938056242 5.9849939017369138 0 5.9849939017369138 2.0479847880737623 0 0 0 0 -9.2840608906949456 4.5357100040045992 0 4.5357100040045992 1.1586794471463182 0 0 0 0 -16.549079189368058 7.194037452474106 0 7.194037452474106 0.71249486918877381 0 0 0 0 -13.808889062711387 4.514512851199072 0 4.514512851199072 2.7136999779927464 0 0 0 0 -3.2741345768189092 1.0650037371101462 0 1.0650037371101462 0.086077676345274412 0 0 0 0 -12.194468456640607 5.2646578204198207 0 5.2646578204198207 1.8653591597613826 0 0 0 0 -4.1835296806905831 1.0407706050262959 0 1.0407706050262959 2.6900464160880566 0 0 0 0 -18.065705003828043 5.1096566908692012 0 5.1096566908692012 2.7929810507513793 0 0 0 0 -10.434054204497443 1.8828925971825416 0 1.8828925971825416 2.3197495800782328 0 0 0 0 -202.16294376575388 36.431684580046564 0 36.431684580046564 66.663301984197318 0 0 0 0 -3.8219574723717713 0.5423478034843896 0 0.5423478034843896 2.1645373722217256 0 0 0 0 52.370567801815923 10.47709530061389 0 10.47709530061389 -189.30609988069364 0 0 0 0 -24.639340704918141 4.5591616475091428 0 4.5591616475091428 7.0875651778569591 0 0 0 0 -17.31043311546091 1.8953985409656866 0 1.8953985409656866 -2.2985578796613026 0 0 0 0 -8.9529857703018934 0.84938208528910764 0 0.84938208528910764 -2.6632701293087848 0 0 0 0 -7.9755620427749818 3.4070549253414129 0 3.4070549253414129 3.4458842951036388 0 0 0 0 -15.770828630324104 5.8210611425892012 0 5.8210611425892012 7.6600609224991558 0 0 0 0 -10.973339670657879 -3.8693578337964993 0 -3.8693578337964993 10.207127110777833 0 0 0 0 -2.5618273629437311 3.9549044866699035 0 3.9549044866699035 -2.4153879342738147 0 0 0 0 -19.448085981777695 3.5509056208385346 0 3.5509056208385346 -3.2684002061522506 0 0 0 0 -19.113623652941897 -0.86934508773936159 0 -0.86934508773936159 0.21254211157952341 0 0 0 0 -20.359602409422223 -1.4459602152579123 0 -1.4459602152579123 -7.4577445375771276 0 0 0 0 169.74168571647533 170.18427239470191 0 170.18427239470191 -24.976646307647229 0 0 0 0 51.126736031907058 89.948250110495636 0 89.948250110495636 69.562129989556524 0 0 0 0 -430.3577138708788 39.308195030454044 0 39.308195030454044 30.521080834164081 0 0 0 0 -131.03994320950005 -63.171485882064417 0 -63.171485882064417 8.5617087864586665 0 0 0 0 -279.48441459664173 113.23093646966964 0 113.23093646966964 -2.2586948748255509 0 0 0 0 -330.10748245870491 200.81212643090817 0 200.81212643090817 -10.59860525173508 0 0 0 0 -0.040263271184528548 -0.27209308685307576 0 -0.27209308685307576 0.53044306174013034 0 0 0 0 -29.145214335600031 5.8610071511806154 0 5.8610071511806154 0.98701410070134443 0 0 0 0 -188.00854718574192 33.541240272455354 0 33.541240272455354 -4.5647392043031232 0 0 0 0 -20.526827451380086 8.6550691833542714 0 8.6550691833542714 -3.5248216743731007 0 0 0 0 -432.50079374839697 98.878072188290218 0 98.878072188290218 39.972656461803581 0 0 0 0 -599.8533664220522 220.119073523889 0 220.119073523889 48.085509348084997 0 0 0 0 -563.75923278775008 160.18060814718086 0 160.18060814718086 60.883497614335511 0 0 0 0 -421.01836441823616 85.602156889449589 0 85.602156889449589 34.696841674438019 0 0 0 0 -591.20866377480343 124.6813924954136 0 124.6813924954136 57.750059515907878 0 0 0 0 -682.07770712528873 175.01277856769241 0 175.01277856769241 72.490940614604597 0 0 0 0 -671.44046958642866 107.12082793587507 0 107.12082793587507 34.404907543613035 0 0 0 0 -748.19800181010214 125.24820246036484 0 125.24820246036484 70.231563621725627 0 0 0 0 -845.69361981748079 70.411013362460423 0 70.411013362460423 41.271784245864751 0 0 0 0 -715.70549728866172 242.31355688122048 0 242.31355688122048 5.4302989296598412 0 0 0 0 -573.53131956989819 152.67495895815347 0 152.67495895815347 24.021161037240379 0 0 0 0 -33.605918118497357 119.33785046031872 0 119.33785046031872 -163.21315351404789 0 0 0 0 -427.50818552978308 310.88463470149031 0 310.88463470149031 -145.22686305269656 0 0 0 0 -494.61111323648947 370.06051831958644 0 370.06051831958644 -287.07620226085106 0 0 0 0 -176.36765441995522 -153.3205958265961 0 -153.3205958265961 -152.23721186981834 0 0 0 0 -9.5259240423759763 -0.064391011433443168 0 -0.064391011433443168 0.85573781333964427 0 0 0 0 -954.21075404160365 -53.486122878048377 0 -53.486122878048377 -154.70041459098525 0 0 0 0 -990.80887875036569 190.2444097493518 0 190.2444097493518 -3.1744606183985695 0 0 0 0 -586.32645016550669 205.96519501233252 0 205.96519501233252 -175.4006847201801 0 0 0 0 -653.32081508349802 64.04769042626458 0 64.04769042626458 -475.19274951156797 0 0 0 0 -530.1540399570149 103.14629943684727 0 103.14629943684727 4.7352945834888942 0 0 0 0 -2.9854625643062036 -2.1156365332928289 0 -2.1156365332928289 -0.77369492597128509 0 0 0 0 -382.25940720182552 -5.6635662369209143 0 -5.6635662369209143 -93.197731279554645 0 0 0 0 -479.25335826719675 131.46234954014415 0 131.46234954014415 -44.834844590864293 0 0 0 0 -762.45358631829731 24.40367312713235 0 24.40367312713235 -69.444037383042456 0 0 0 0 -761.44877621681371 101.5643692735548 0 101.5643692735548 -36.474125028235477 0 0 0 0 -870.80179765608045 182.70719946365324 0 182.70719946365324 54.133556938200343 0 0 0 0 -743.68101676655533 137.45293284259401 0 137.45293284259401 -3.2620390609629339 0 0 0 0 -734.31069327285149 98.535341385275842 0 98.535341385275842 20.970257856238049 0 0 0 0 -243.34306996481246 36.255339985822275 0 36.255339985822275 -16.955853151391921 0 0 0 0 -299.26260494311282 67.371766072399794 0 67.371766072399794 -3.3125978453318794 0 0 0 0 -2.1245801337074255 -1.1022529093326341 0 -1.1022529093326341 -0.0054046244363106233 0 0 0 0 -310.43081788280324 91.383450376542214 0 91.383450376542214 -23.017340578518827 0 0 0 0 -227.18505679044756 42.668767220747782 0 42.668767220747782 -17.073669972055995 0 0 0 0 -420.62067480116093 17.603429361750557 0 17.603429361750557 -18.052633415588279 0 0 0 0 -430.66592769066483 93.345270164507383 0 93.345270164507383 -31.672046497720459 0 0 0 0 -419.5048801794328 83.10475384596603 0 83.10475384596603 -23.482242704434796 0 0 0 0 -748.93598251029835 133.36334078780709 0 133.36334078780709 -30.699561491674956 0 0 0 0 -206.14567002925469 10.193166077945371 0 10.193166077945371 -106.09496103666527 0 0 0 0 -1.7180001248782446 -0.98022568823128609 0 -0.98022568823128609 -0.58092022059948356 0 0 0 0 -577.93092388970399 40.490161674135663 0 40.490161674135663 -100.20806698896727 0 0 0 0 -599.44351192483009 26.785185386041455 0 26.785185386041455 -38.922973802994164 0 0 0 0 -554.14579136682005 70.661982798280491 0 70.661982798280491 -83.659560832030991 0 0 0 0 -585.90439832073753 52.05981948642377 0 52.05981948642377 -29.731894355029006 0 0 0 0 -557.33539320572891 17.118796652875616 0 17.118796652875616 -0.047061114297655401 0 0 0 0 -624.92294318998029 35.393808871083266 0 35.393808871083266 0.061214628860428041 0 0 0 0 -651.3729272310502 91.849745321917808 0 91.849745321917808 -21.697711892426845 0 0 0 0 -746.84840295962204 48.362219202906616 0 48.362219202906616 -0.38116454017505325 0 0 0 0 -713.47797104743222 88.973159779050931 0 88.973159779050931 -13.961730440095337 0 0 0 0 -707.11428814400006 158.28450307646838 0 158.28450307646838 59.772656651230221 0 0 0 0 -545.86684486669401 144.50466310426663 0 144.50466310426663 -3.4944771425138299 0 0 0 0 -407.49329058186777 233.86917298632412 0 233.86917298632412 -124.03363869248676 0 0 0 0 -683.91445884611312 195.62736095652801 0 195.62736095652801 -21.587233713717183 0 0 0 0 -949.06544176847092 457.39417283835996 0 457.39417283835996 -196.4761652817171 0 0 0 0 -689.76396835046035 204.05464088718276 0 204.05464088718276 -2.4859194592390281 0 0 0 0 -523.29913017769286 -104.7862273714496 0 -104.7862273714496 112.43651108574264 0 0 0 0 -1135.8736680519396 -0.64692095800329241 0 -0.64692095800329241 222.11693604754993 0 0 0 0 1.9659182647155831 6.6990179444636908 0 6.6990179444636908 -11.66355957625268 0 0 0 0 -371.83153994653549 67.118379093905162 0 67.118379093905162 28.037933243404439 0 0 0 0 0.27327682526615149 -1.0504529790055273 0 -1.0504529790055273 0.22141112746107616 0 0 0 0 -4.1961237149236297 3.0106292161072048 0 3.0106292161072048 -1.4958645999260578 0 0 0 0 -292.29632404627046 -55.974220422426257 0 -55.974220422426257 -22.055634067610328 0 0 0 0 -218.14704267587513 58.213413360591936 0 58.213413360591936 -12.97293879501035 0 0 0 0 -12.860921955958474 3.1750444368440598 0 3.1750444368440598 -3.3517668716345246 0 0 0 0 -429.43793258080404 29.963763511767759 0 29.963763511767759 6.5957935502776692 0 0 0 0 -10.796735732845264 -60.346545086075153 0 -60.346545086075153 -42.569718229367929 0 0 0 0 -2.1548473462914188 -0.26887805477467452 0 -0.26887805477467452 -0.67849046461904239 0 0 0 0 -3.2679530446475837 1.4367938549293342 0 1.4367938549293342 -0.49394864386840709 0 0 0 0 -4.8669025292165315 -0.8957192669820131 0 -0.8957192669820131 0.3995556663728082 0 0 0 0 -12.346590895969712 0.32233086362657959 0 0.32233086362657959 -2.1512613022687574 0 0 0 0 -15.14721942608594 4.1991646501023459 0 4.1991646501023459 -6.2977219412739416 0 0 0 0 -0.61221314797221993 0.046990172169927291 0 0.046990172169927291 0.011703255386053879 0 0 0 0 -579.66108538085246 73.37696687587291 0 73.37696687587291 89.833951074762567 0 0 0 0 -833.01269863649213 138.9974134297002 0 138.9974134297002 101.56926642607566 0 0 0 0 -551.31150543481635 183.41488666757897 0 183.41488666757897 -31.847349150054441 0 0 0 0 -458.93976242685676 137.75027294930265 0 137.75027294930265 -30.022749355931154 0 0 0 0 -2.0867897634329609 -0.61213139858506338 0 -0.61213139858506338 0.21248859838557091 0 0 0 0 -922.30566558372811 259.43829219166952 0 259.43829219166952 -32.154902382570725 0 0 0 0 -9.3290002583526075 0.84885760909037156 0 0.84885760909037156 -0.0027108013287606664 0 0 0 0 -9.3128945584612666 0.94297074425312277 0 0.94297074425312277 -0.51216237241051155 0 0 0 0 -3.708644719502729 -1.852474119973877 0 -1.852474119973877 0.15647659450055645 0 0 0 0 -13.516663029717165 3.5764062287606992 0 3.5764062287606992 -0.92246703506065941 0 0 0 0 -10.255846305153682 2.9989635401778116 0 2.9989635401778116 -1.9403816273745425 0 0 0 0 -11.288024894893169 1.9209152720517118 0 1.9209152720517118 -0.94504169819451067 0 0 0 0 -9.7549974127978203 -0.23871946281725132 0 -0.23871946281725132 0.96118198845505365 0 0 0 0 -2.1275227005202737 0.24299997707511523 0 0.24299997707511523 -0.30256256258089065 0 0 0 0 -8.6268804530263878 1.9648324605861749 0 1.9648324605861749 -0.42875477596140321 0 0 0 0 -9.0341667099564802 0.15596091206081719 0 0.15596091206081719 -0.79147696047218519 0 0 0 0 -9.2973982261901256 1.1379886435198427 0 1.1379886435198427 0.0025379467469036142 0 0 0 0 -4.5877898476683185 -1.0638819848252581 0 -1.0638819848252581 -0.35948684853242341 0 0 0 0 -2.5993324223600212 1.3895973172385072 0 1.3895973172385072 -0.0016008682265384992 0 0 0 0 -0.033908937159765173 0.15392287567675567 0 0.15392287567675567 -0.15989310748908575 0 0 0 0 -7.5067523076140787 22.158675108591183 0 22.158675108591183 -4.4441119415349277 0 0 0 0 -30.482322199928603 -17.78725115668847 0 -17.78725115668847 22.948455347952176 0 0 0 0 -30.061680557249929 -24.726898507127331 0 -24.726898507127331 81.629284991596251 0 0 0 0 -2.470063514701252 0.58837538375937015 0 0.58837538375937015 0.61198391688026099 0 0 0 0 -13.933477199549088 -13.829688887414477 0 -13.829688887414477 1.2531329622706835 0 0 0 0 -14.756326574755491 -3.1762906099412618 0 -3.1762906099412618 2.6825468929204139 0 0 0 0 -34.506192796849064 23.738746595835252 0 23.738746595835252 -12.738655118468735 0 0 0 0 -0.18617030920171374 -0.010821107345943659 0 -0.010821107345943659 0.46523653027953449 0 0 0 0 -33.236981524256407 -0.50239866988515303 0 -0.50239866988515303 0.41801874935404726 0 0 0 0 -24.408128981209302 -8.514808971879603 0 -8.514808971879603 -10.342389236608795 0 0 0 0 -21.085700777612146 26.714726048381358 0 26.714726048381358 -4.4781236889564298 0 0 0 0 -9.9301823612335625 5.4297607394220222 0 5.4297607394220222 -2.1919570441154139 0 0 0 0 -8.8961130771640455 0.84856909964886462 0 0.84856909964886462 -3.5222942254667693 0 0 0 0 -10.722944291075692 0.25852973780686206 0 0.25852973780686206 -2.967689446489878 0 0 0 0 -13.224876880049123 2.6076015834473871 0 2.6076015834473871 -2.0619586563559764 0 0 0 0 3.8053614292002749 9.0538071084770309 0 9.0538071084770309 -0.52227712285432659 0 0 0 0 -9.6326867485337573 3.2572495790013676 0 3.2572495790013676 -1.2517039630832816 0 0 0 0 -10.228295163891744 -2.9088463342259274 0 -2.9088463342259274 -4.4361106076173655 0 0 0 0 -11.958007981633273 5.8737301592009699 0 5.8737301592009699 -0.98652525995814244 0 0 0 0 -2.1839921580822761 4.1335138499271551 0 4.1335138499271551 1.2282867192415976 0 0 0 0 -7.716456245203517 1.7475699031712395 0 1.7475699031712395 -1.144976986512944 0 0 0 0 -7.5722597436397336 1.2133842325467867 0 1.2133842325467867 -0.74739001681036044 0 0 0 0 -15.017298967453826 4.9474647743467823 0 4.9474647743467823 0.014804572911256919 0 0 0 0 -4.4443154296406249 0.44841925962799678 0 0.44841925962799678 2.7656662771576017 0 0 0 0 -24.21766767243389 6.52086534788927 0 6.52086534788927 2.779289597270834 0 0 0 0 -15.273855552222813 11.1014118419588 0 11.1014118419588 -4.5467650776046469 0 0 0 0 -85.757584316124849 -3.6650377205500035 0 -3.6650377205500035 -178.09964470766693 0 0 0 0 -163.20848644198122 40.120417665588377 0 40.120417665588377 11.58713535161769 0 0 0 0 -130.44293343789468 11.730754583686064 0 11.730754583686064 -36.976686208495749 0 0 0 0 -121.45165549092053 -13.075970993200031 0 -13.075970993200031 -122.37309092193823 0 0 0 0 -125.37971396269859 -33.357414750482462 0 -33.357414750482462 -128.1405668836727 0 0 0 0 -134.48782704032783 -25.377333501855901 0 -25.377333501855901 -119.16736688161654 0 0 0 0 -176.31908656455926 -79.9005796918334 0 -79.9005796918334 -152.99716308404257 0 0 0 0 -217.06214449945764 -58.256153684851711 0 -58.256153684851711 -93.874642392543365 0 0 0 0 -440.75935243290587 -239.53118057947131 0 -239.53118057947131 -206.88928629164388 0 0 0 0 -587.75459998331462 68.013560066405418 0 68.013560066405418 -13.1037995315437 0 0 0 0 -3.0144393483330987 -3.3240755660076644 0 -3.3240755660076644 -3.8679854052620914 0 0 0 0 206.51917847828008 -175.73923347341452 0 -175.73923347341452 -197.58860418615677 0 0 0 0 72.82596829693648 -183.81148656848268 0 -183.81148656848268 -174.81525044512546 0 0 0 0 -130.01819746724505 -331.94154134991595 0 -331.94154134991595 -125.9147845484182 0 0 0 0 -115.3589558374224 7.6019310689408144 0 7.6019310689408144 -327.79945416571485 0 0 0 0 -135.94725408199884 -243.92596426240237 0 -243.92596426240237 466.97817701051451 0 0 0 0 -358.81021493312437 112.59306020444687 0 112.59306020444687 179.3973918076089 0 0 0 0 -142.33702548159636 -468.44812877739207 0 -468.44812877739207 156.49715746738264 0 0 0 0 -389.36850698562921 -312.69279656109387 0 -312.69279656109387 507.20250214790525 0 0 0 0 325.85039352076819 -289.74025486633099 0 -289.74025486633099 155.34401588279957 0 0 0 0 -0.041793037809924272 -0.55285540252751275 0 -0.55285540252751275 3.4425446843195973 0 0 0 0 -460.08825059359515 -111.93832916842601 0 -111.93832916842601 294.67302519190775 0 0 0 0 -473.52607859586715 -272.04604987453979 0 -272.04604987453979 -36.635437004600135 0 0 0 0 26.319924871131661 -151.18261200077751 0 -151.18261200077751 210.12336425195173 0 0 0 0 5.6381737174815498 -91.304837440730353 0 -91.304837440730353 38.10249301314991 0 0 0 0 -125.20680759151765 -22.894452493699418 0 -22.894452493699418 249.28912312053092 0 0 0 0 -95.857832718800637 -134.77034172719539 0 -134.77034172719539 285.55342124604334 0 0 0 0 -103.52562784546171 -42.222975806044019 0 -42.222975806044019 56.031419720434826 0 0 0 0 -228.03573400077585 -16.00313092520166 0 -16.00313092520166 213.34728351162096 0 0 0 0 -82.043523476197151 -16.175152679133021 0 -16.175152679133021 -27.43318871718472 0 0 0 0 -140.68873028141388 15.712783960562945 0 15.712783960562945 100.912323929075 0 0 0 0 -97.832216164908459 22.517230213506025 0 22.517230213506025 174.65069678689224 0 0 0 0 -61.69583136937581 -64.598406269537634 0 -64.598406269537634 149.39120897069591 0 0 0 0 -37.939064992635394 -64.926019323571722 0 -64.926019323571722 236.04975337619055 0 0 0 0 -33.775032617719262 62.619368357984548 0 62.619368357984548 172.18031380063894 0 0 0 0 -134.77439385933394 45.096953385947131 0 45.096953385947131 171.35109188309815 0 0 0 0 18.463188528986393 148.54471630671114 0 148.54471630671114 184.5734160410791 0 0 0 0 -318.44849669201358 189.20278333807636 0 189.20278333807636 192.18775795015051 0 0 0 0 -90.882550370304671 70.375934645810105 0 70.375934645810105 62.744577639684053 0 0 0 0 -282.36452180069318 26.879390928431292 0 26.879390928431292 2.7247503075586792 0 0 0 0 -231.82965237660392 94.342357225212311 0 94.342357225212311 73.613167959680396 0 0 0 0 -125.5125003866342 17.816234681983076 0 17.816234681983076 -31.798918769017064 0 0 0 0 -137.84625099198456 36.384192129532948 0 36.384192129532948 57.42971591675655 0 0 0 0 -58.070361247227993 -4.5185342019892119 0 -4.5185342019892119 61.535017211821923 0 0 0 0 -463.19580847224279 -80.849190850915306 0 -80.849190850915306 39.485110179704293 0 0 0 0 -778.77188910935365 -3.8390619501206515 0 -3.8390619501206515 322.25067474179718 0 0 0 0 -571.16573385491211 -218.89058345052928 0 -218.89058345052928 -101.2427675163319 0 0 0 0 -412.64194260244403 46.824362946360907 0 46.824362946360907 119.35015029957435 0 0 0 0 -475.01316487736221 4.0520437571659897 0 4.0520437571659897 58.038988443787616 0 0 0 0 -387.78535166224174 88.786812563234946 0 88.786812563234946 129.35967087161339 0 0 0 0 -478.85063770717534 16.068134948833801 0 16.068134948833801 37.980946141739253 0 0 0 0 -405.37465033045737 -27.723383317220097 0 -27.723383317220097 63.9749981161184 0 0 0 0 -524.15444261037919 14.357298140489803 0 14.357298140489803 40.95350566108479 0 0 0 0 -390.01147403885261 61.329644863403047 0 61.329644863403047 23.145670633848837 0 0 0 0 -440.81279295696004 46.442260802566466 0 46.442260802566466 -42.650141817710413 0 0 0 0 -450.26704977017653 -0.56365839703673259 0 -0.56365839703673259 -40.242197723693891 0 0 0 0 -223.31009785192146 -10.61078454484057 0 -10.61078454484057 -74.801231935717396 0 0 0 0 -182.55402310448699 34.780732811175199 0 34.780732811175199 -31.899165553426613 0 0 0 0 -345.15081478568027 -7.9350153731744797 0 -7.9350153731744797 -51.553102450494066 0 0 0 0 -277.9155462365452 62.460600001618729 0 62.460600001618729 5.1972344622747073 0 0 0 0 -342.76416513090953 48.973557972787901 0 48.973557972787901 -58.780710331664316 0 0 0 0 -223.8550495874224 5.2749357865129696 0 5.2749357865129696 -80.490943849012041 0 0 0 0 -189.80794402435276 -64.642601365287931 0 -64.642601365287931 -120.85296876522216 0 0 0 0 -227.61654407248716 -93.931698239707742 0 -93.931698239707742 -108.96018535519983 0 0 0 0 -110.42857101354457 -56.381169926266125 0 -56.381169926266125 -127.1769487397106 0 0 0 0 -341.22549970324326 -48.895283095567677 0 -48.895283095567677 -58.365902952214583 0 0 0 0 -475.24374990486103 70.450090800825151 0 70.450090800825151 -22.193615244699174 0 0 0 0 -412.06062232019758 -24.466156916398734 0 -24.466156916398734 -116.12914001746839 0 0 0 0 17.318101702803688 -76.768850179929544 0 -76.768850179929544 -113.28191844190772 0 0 0 0 -1.4159024426663223 -0.64381195880024222 0 -0.64381195880024222 -0.25021976492371745 0 0 0 0 -444.49922314238938 32.383884715751819 0 32.383884715751819 -149.60688077734673 0 0 0 0 -529.54443697289389 -23.889920993690183 0 -23.889920993690183 -98.335451545590217 0 0 0 0 -361.5518620453804 12.321216459822764 0 12.321216459822764 -126.63118811584167 0 0 0 0 -418.85354372540314 0.1987141686594498 0 0.1987141686594498 -125.98594067766564 0 0 0 0 -434.12708642908547 -6.6316738561578408 0 -6.6316738561578408 -104.07930964958452 0 0 0 0 -429.21595482790872 -26.719424329514304 0 -26.719424329514304 -75.06529774382112 0 0 0 0 -477.67087209204328 12.301327929968721 0 12.301327929968721 -41.408708396313834 0 0 0 0 -462.4269695660696 34.769563815144231 0 34.769563815144231 -27.051740543104884 0 0 0 0 -461.20790584110364 2.9029106073377946 0 2.9029106073377946 0.051741076253596474 0 0 0 0 -500.09073834122682 49.656968831259334 0 49.656968831259334 -24.239452327200997 0 0 0 0 -122.83142385661995 -4.9007694782133644 0 -4.9007694782133644 -9.4942945545906525 0 0 0 0 -178.491253952845 90.958764775785696 0 90.958764775785696 -46.101678847255634 0 0 0 0 -372.67044199708107 70.208759202464677 0 70.208759202464677 33.320746112912992 0 0 0 0 -383.7767174030887 15.289268945010177 0 15.289268945010177 -39.942918985558791 0 0 0 0 -208.76356590163778 0.63487809767314052 0 0.63487809767314052 -0.03650074019225176 0 0 0 0 -15.465430943339015 -13.199228225861759 0 -13.199228225861759 -0.041825136337077462 0 0 0 0 -96.918696897671907 60.37631386610142 0 60.37631386610142 -19.321636423875589 0 0 0 0 -441.84894961804412 155.6141304195306 0 155.6141304195306 -12.152146178831316 0 0 0 0 -1.5243045798603987 -0.43379239219960652 0 -0.43379239219960652 -0.032354430518049954 0 0 0 0 -157.04991434355907 54.632032705377839 0 54.632032705377839 20.314235020145389 0 0 0 0 -2.4879093567087125 -1.2671715681545521 0 -1.2671715681545521 -0.35487474741593061 0 0 0 0 -136.39283545019862 -29.391806843559721 0 -29.391806843559721 38.034235047183643 0 0 0 0 -174.26102158267167 6.1628318174893195 0 6.1628318174893195 -47.346589583675495 0 0 0 0 -146.93478872858395 51.548360681781844 0 51.548360681781844 27.264737809791306 0 0 0 0 -306.69810404246527 21.977341696417113 0 21.977341696417113 37.039322269936292 0 0 0 0 -254.39424250015873 -75.874824999219243 0 -75.874824999219243 -92.586813999563219 0 0 0 0 -196.64314232582547 -18.963704815784624 0 -18.963704815784624 -51.015294319117402 0 0 0 0 -103.04352148821636 -19.811239273272292 0 -19.811239273272292 -127.78441429227816 0 0 0 0 -255.86225735941844 80.016438123271172 0 80.016438123271172 -17.055078889647348 0 0 0 0 -133.79603093348851 39.449137526424806 0 39.449137526424806 -31.334411852962148 0 0 0 0 -407.93832275535533 -27.812583852104268 0 -27.812583852104268 30.505516175815842 0 0 0 0 -304.20195726294969 -7.0369128830079708 0 -7.0369128830079708 48.480410524754518 0 0 0 0 -272.01190377917374 -7.1988233297320505 0 -7.1988233297320505 24.998958793008825 0 0 0 0 -277.5566544354806 4.5695896228694721 0 4.5695896228694721 30.333783184227286 0 0 0 0 -265.68838692414647 -40.216940705287577 0 -40.216940705287577 34.90310525947541 0 0 0 0 -164.47226101339766 -11.34764076724769 0 -11.34764076724769 18.201083103299744 0 0 0 0 -277.20309481254662 -5.5349148632407363 0 -5.5349148632407363 40.837245295080194 0 0 0 0 -288.54613982472802 -64.15108931984436 0 -64.15108931984436 -0.25971505333444544 0 0 0 0 -424.93507311584335 -33.12621055885014 0 -33.12621055885014 54.13167847523701 0 0 0 0 -208.89056294022157 0.53024791472732602 0 0.53024791472732602 14.375284022171641 0 0 0 0 -149.30519851291319 -56.264408632592492 0 -56.264408632592492 0.093855562831045763 0 0 0 0 -41.075506721815316 -3.2190862668170679 0 -3.2190862668170679 -17.147457773601218 0 0 0 0 -5.1088445700152079 -19.23396459697188 0 -19.23396459697188 8.2990671414584369 0 0 0 0 -41.503940847003832 -35.021430204162371 0 -35.021430204162371 31.302392658217798 0 0 0 0 -3.2167446992098121 -51.935646273692662 0 -51.935646273692662 7.3740212837163899 0 0 0 0 -7.7900644766341429 -43.864817681754289 0 -43.864817681754289 -6.4158581760872977 0 0 0 0 -11.002091876079476 -11.411606227925034 0 -11.411606227925034 -10.578045478038119 0 0 0 0 -8.0499520731827943 -34.702682674387546 0 -34.702682674387546 -21.316494564072109 0 0 0 0 -0.59724580054295728 -1.175775903919714 0 -1.175775903919714 -0.5763639050896916 0 0 0 0 -13.072063306841301 -156.65368268356752 0 -156.65368268356752 0.10864765833384732 0 0 0 0 -627.61119247484748 -238.11100112881658 0 -238.11100112881658 135.83660823781742 0 0 0 0 -42.681462071312126 24.470185378633829 0 24.470185378633829 -5.588043192374414 0 0 0 0 40.026633571018465 -27.330764351501767 0 -27.330764351501767 -0.025122054316538439 0 0 0 0 -3.126806195318693 -0.25003140969739945 0 -0.25003140969739945 1.1982095278836797 0 0 0 0 -11.926256103586638 -12.972974282450213 0 -12.972974282450213 7.2070024142193079 0 0 0 0 -3.3014378834219613 -2.1866598838890354 0 -2.1866598838890354 -0.47485325386784322 0 0 0 0 83.469305119549972 -23.098852461389249 0 -23.098852461389249 -0.70155708596669797 0 0 0 0 -4.779279167502736 6.0639111728415287 0 6.0639111728415287 13.004367204438051 0 0 0 0 -23.067522604265832 -51.922747063642703 0 -51.922747063642703 25.006050541311652 0 0 0 0 -68.982484897307586 7.0145417674457917 0 7.0145417674457917 58.221451844718445 0 0 0 0 -601.77759775189043 -215.0639939058461 0 -215.0639939058461 153.42143516991081 0 0 0 0 -109.43131677035126 -174.92680778489699 0 -174.92680778489699 76.846112846239407 0 0 0 0 166.36449011606601 -312.93097044843137 0 -312.93097044843137 -306.12581502016053 0 0 0 0 -3.4542452983840306 -1.525379889837069 0 -1.525379889837069 -0.053733406404356643 0 0 0 0 -2.1881644459145093 9.0931275044733724 0 9.0931275044733724 10.301322714210905 0 0 0 0 -25.119735681109887 -18.803776749602093 0 -18.803776749602093 -5.7052799365261535 0 0 0 0 -83.909625570107892 1.2238528244828331 0 1.2238528244828331 56.983804117171985 0 0 0 0 -4.8213333392333269 2.084394594795242 0 2.084394594795242 4.0910540173531 0 0 0 0 -6.723978448458432 5.2562692005845975 0 5.2562692005845975 5.6159467922876711 0 0 0 0 -55.844307736166229 30.554149098911466 0 30.554149098911466 19.872049623744715 0 0 0 0 300.87303839699598 213.22319313936424 0 213.22319313936424 -80.740440628908715 0 0 0 0 155.82252682906983 76.097923766323106 0 76.097923766323106 76.185694522572078 0 0 0 0 -117.72743984923 -26.159955379721396 0 -26.159955379721396 5.2059917385498693 0 0 0 0 -157.41897055151003 18.158782680951976 0 18.158782680951976 19.829029219670701 0 0 0 0 -58.147303077479592 28.135864465308714 0 28.135864465308714 18.224865464128243 0 0 0 0 44.817024921740085 -143.02233797004817 0 -143.02233797004817 94.49339321031357 0 0 0 0 -7.5601815558387955 -8.5587848392167132 0 -8.5587848392167132 -8.9353132486549605 0 0 0 0 -262.89951516050496 -31.67175187920634 0 -31.67175187920634 133.62914003809794 0 0 0 0 192.30920230791025 41.550412386910409 0 41.550412386910409 -159.0433758938475 0 0 0 0 -251.8510980882711 -34.550436502840284 0 -34.550436502840284 97.553493736798828 0 0 0 0 -42.986324104458618 23.503237211886415 0 23.503237211886415 -145.63318198817842 0 0 0 0 -148.62199151454843 -67.121770705649283 0 -67.121770705649283 76.193120797976263 0 0 0 0 -154.47792293170642 -148.02678796317736 0 -148.02678796317736 203.86835928734567 0 0 0 0 -83.9844662395044 -26.389217667568687 0 -26.389217667568687 104.564662771857 0 0 0 0 -2.5903658381489549 -0.90891124785232713 0 -0.90891124785232713 -0.30606518776392133 0 0 0 0 -6.9009833963355049 -13.701537517966244 0 -13.701537517966244 -110.57501150396104 0 0 0 0 -35.21775044495007 -44.957263762500133 0 -44.957263762500133 -103.02831323615999 0 0 0 0 -48.810964604344917 79.4237069066902 0 79.4237069066902 -89.436462249182114 0 0 0 0 -165.37205753136368 -124.47566647665542 0 -124.47566647665542 24.908349417356021 0 0 0 0 -18.429447675407573 0.74076788636682522 0 0.74076788636682522 2.2586268142631525 0 0 0 0 4.9645143651214312 29.633011296212658 0 29.633011296212658 79.468860400096673 0 0 0 0 -6.1013523892895094 0.21318111734936451 0 0.21318111734936451 0.80660312208224649 0 0 0 0 -11.224588960389553 0.35921363312848054 0 0.35921363312848054 3.4033579442359998 0 0 0 0 36.196143596054753 22.672991359098432 0 22.672991359098432 -94.157978936505742 0 0 0 0 -32.900788553903112 -19.988682459221309 0 -19.988682459221309 -12.598968016174695 0 0 0 0 -63.790274978768139 22.94963926709579 0 22.94963926709579 70.184218538595815 0 0 0 0 -37.560174504556926 60.541212714550056 0 60.541212714550056 -78.340791842059843 0 0 0 0 -1.1744388746089243 0.18328202240520852 0 0.18328202240520852 -0.11905341266858471 0 0 0 0 -30.023454754025494 -7.3545829371697895 0 -7.3545829371697895 1.3877269513733841 0 0 0 0 -64.008714354640688 273.87845984659521 0 273.87845984659521 553.31266367002297 0 0 0 0 178.37293326397776 -202.47877008886871 0 -202.47877008886871 114.05216483770846 0 0 0 0 325.21931025668164 -307.28295647037214 0 -307.28295647037214 181.18974144117192 0 0 0 0 287.98059304061462 -274.62386826341981 0 -274.62386826341981 159.22944899613958 0 0 0 0 -4.2744638500880683 -163.36674008841419 0 -163.36674008841419 247.54507002448554 0 0 0 0 513.59517930544098 -336.04728248988346 0 -336.04728248988346 -73.068927320406203 0 0 0 0 224.33461602128227 -202.57820124788918 0 -202.57820124788918 857.0275613454296 0 0 0 0 -58.15073304111138 -217.72009958274998 0 -217.72009958274998 348.11611821591396 0 0 0 0 54.221714217782392 -238.14792125352051 0 -238.14792125352051 297.04436259832892 0 0 0 0 -13.116596865860629 -187.48939839155429 0 -187.48939839155429 282.07027022806847 0 0 0 0 -37.403587456705282 -301.00542337888186 0 -301.00542337888186 506.98951053531937 0 0 0 0 233.39839917773497 -409.11845955001718 0 -409.11845955001718 375.46968774781294 0 0 0 0 58.386721827031579 -272.53915331663302 0 -272.53915331663302 271.87853918706787 0 0 0 0 -122.92697193927597 -163.63075499649381 0 -163.63075499649381 421.8078353506429 0 0 0 0 -96.011082100831118 -64.478689421786328 0 -64.478689421786328 298.48763204706722 0 0 0 0 -41.042453056667 60.79607788727435 0 60.79607788727435 87.885130515266155 0 0 0 0 -59.937605288432678 -100.45064575567289 0 -100.45064575567289 191.81314968588936 0 0 0 0 18.092336927104043 -180.47246223939453 0 -180.47246223939453 406.89134425169027 0 0 0 0 0.79489933175500482 24.40947694506167 0 24.40947694506167 16.822549530761989 0 0 0 0 -6.6670450944366166 43.550109266613845 0 43.550109266613845 141.5927454963512 0 0 0 0 4.9311729260662105 -39.574876251168234 0 -39.574876251168234 350.61676747279853 0 0 0 0 -1.8850351974833757 -232.62510398140626 0 -232.62510398140626 581.12409618542381 0 0 0 0 -23.548926641175058 -71.089808586327649 0 -71.089808586327649 215.22794727456812 0 0 0 0 7.6260757673007902 -264.48522112184924 0 -264.48522112184924 344.11097095085915 0 0 0 0 514.84944138598075 -357.82394215711923 0 -357.82394215711923 168.0713301431673 0 0 0 0 289.85230930599209 -135.85887263701525 0 -135.85887263701525 59.109353273403656 0 0 0 0 72.123079884244362 -74.137903633043607 0 -74.137903633043607 41.628937825257424 0 0 0 0 90.142170334795082 -121.56487187781411 0 -121.56487187781411 94.918916316456944 0 0 0 0 0.45368488541642016 0.95440001685295783 0 0.95440001685295783 3.5649883805975255 0 0 0 0 -160.04370300824667 -80.189584857173259 0 -80.189584857173259 240.92062236724269 0 0 0 0 -33.851110699117271 26.770008267938238 0 26.770008267938238 -75.134266896512599 0 0 0 0 -7.245529808790252 -0.80397065011965196 0 -0.80397065011965196 9.3260287844363052 0 0 0 0 -29.148357684141956 -20.175930146807787 0 -20.175930146807787 -53.712090033661525 0 0 0 0 25.329740521687199 -63.68126893301303 0 -63.68126893301303 77.59937607121833 0 0 0 0 45.571522841193655 -76.390994547145056 0 -76.390994547145056 84.589098450386928 0 0 0 0 28.5891916348628 -87.311809733391783 0 -87.311809733391783 82.241778624836797 0 0 0 0 3.8105996186641278 -11.410915458500085 0 -11.410915458500085 158.28376883581143 0 0 0 0 -262.80555216557696 -56.538217897400074 0 -56.538217897400074 183.30140647078332 0 0 0 0 -256.76039405455231 35.828468938012293 0 35.828468938012293 211.60899368524042 0 0 0 0 -537.90417848652578 -63.484726920235289 0 -63.484726920235289 278.48314838200531 0 0 0 0 -258.0689574390417 -77.371623087317658 0 -77.371623087317658 267.60882090160533 0 0 0 0 -140.3862076939331 -236.93272795992331 0 -236.93272795992331 252.94768826545308 0 0 0 0 -192.96661713180947 -138.33301348006157 0 -138.33301348006157 154.90580461826482 0 0 0 0 -415.90394724563885 -159.39459439533744 0 -159.39459439533744 243.31891987767602 0 0 0 0 -28.882706588661677 -134.64071439334288 0 -134.64071439334288 154.64583227220857 0 0 0 0 -84.693604313782998 -157.42179785388001 0 -157.42179785388001 182.16352280052391 0 0 0 0 -110.3807295209408 -87.705751516085002 0 -87.705751516085002 182.47070414581972 0 0 0 0 -196.27523855683103 -206.64127352294278 0 -206.64127352294278 -151.32984620848518 0 0 0 0 -1267.619201097099 -768.12530756327726 0 -768.12530756327726 -427.66397515456515 0 0 0 0 452.22748030474077 -917.57467647448584 0 -917.57467647448584 -369.47973668153509 0 0 0 0 -5.220458732318292 -6.3101270735389505 0 -6.3101270735389505 -7.7940401251506692 0 0 0 0 -1714.4047332500049 210.58923031599579 0 210.58923031599579 137.16956948097595 0 0 0 0 -14.80650587034674 -1.6061166055927281 0 -1.6061166055927281 -0.64007389490168876 0 0 0 0 -638.3905008376355 -886.59588543789368 0 -886.59588543789368 -333.93568867223712 0 0 0 0 -1487.8775594820618 -784.08143690036741 0 -784.08143690036741 140.28770128965547 0 0 0 0 418.11863987709512 55.541426254100656 0 55.541426254100656 -948.46663724681184 0 0 0 0 -87.866920246273367 158.79931567741596 0 158.79931567741596 253.10050445202614 0 0 0 0 31.796570800535847 77.820179490281134 0 77.820179490281134 -189.02589540938283 0 0 0 0 2.8089337964338483 38.575214843927597 0 38.575214843927597 43.114026608085624 0 0 0 0 11.595871246783645 -52.493776732854201 0 -52.493776732854201 52.852937989514203 0 0 0 0 37.344346269917878 -105.43090815950927 0 -105.43090815950927 -211.45794779143921 0 0 0 0 -176.14345892980782 -128.19606856142644 0 -128.19606856142644 21.095518107636366 0 0 0 0 12.328418531353236 -117.37421522868613 0 -117.37421522868613 13.183897790001197 0 0 0 0 -544.37784208592348 -202.0236198365954 0 -202.0236198365954 366.62692789570303 0 0 0 0 29.553436764574144 -119.53358833450341 0 -119.53358833450341 49.512194505219888 0 0 0 0 -8.3734575105045224 -244.80240573791616 0 -244.80240573791616 232.63438676413659 0 0 0 0 -45.172621625068132 -170.54290339612635 0 -170.54290339612635 328.04216384729511 0 0 0 0 -201.99276811246091 -223.92334298062667 0 -223.92334298062667 740.7824408512422 0 0 0 0 -29.089482799195565 -10.229827614315768 0 -10.229827614315768 0.0072966401019443627 0 0 0 0 -2.1509694451960968 -150.62568483968789 0 -150.62568483968789 322.93674901688655 0 0 0 0 311.09786315797101 -83.884073104814775 0 -83.884073104814775 381.58104704914706 0 0 0 0 -12.507268251059088 -6.6797796607191904 0 -6.6797796607191904 -0.87762779541678593 0 0 0 0 -762.12153117447451 97.0071564106197 0 97.0071564106197 946.04280569380728 0 0 0 0 -1328.4271256499269 -332.65501342120155 0 -332.65501342120155 630.79826362338974 0 0 0 0 -440.42774696721972 -36.39328221059489 0 -36.39328221059489 346.44117169408571 0 0 0 0 -1232.4543903937083 -296.66897749418052 0 -296.66897749418052 264.43273405281673 0 0 0 0 -749.02955042025133 135.98504586023464 0 135.98504586023464 92.344917990887723 0 0 0 0 -193.46513216018502 -192.24038943163856 0 -192.24038943163856 9.6432165409182744 0 0 0 0 -45.213456577825127 -340.29625953411414 0 -340.29625953411414 -557.39451969443064 0 0 0 0 -315.84824510940234 -218.87945808696759 0 -218.87945808696759 3.8665579654727935 0 0 0 0 -853.24768111116646 -734.36463157843014 0 -734.36463157843014 -341.56178401995965 0 0 0 0 -1429.5214935666845 230.65712966090354 0 230.65712966090354 391.9973359658477 0 0 0 0 -36.305696159105537 -158.01692700385573 0 -158.01692700385573 442.40160301144704 0 0 0 0 -51.904135428203432 -2.9331209108168306 0 -2.9331209108168306 1.8718891991105613 0 0 0 0 233.537176528087 -1128.354452794088 0 -1128.354452794088 -1767.2700382463779 0 0 0 0 49.079284117568022 107.7522538252542 0 107.7522538252542 211.17177794309134 0 0 0 0 1.3961572524203802 -69.461428930849763 0 -69.461428930849763 105.64507176575273 0 0 0 0 -79.764588045247365 -6.1739211574896444 0 -6.1739211574896444 243.02587334088599 0 0 0 0 48.27548817153729 623.0552794518826 0 623.0552794518826 -498.11507713593755 0 0 0 0 -1644.1574800894741 -591.72281701798818 0 -591.72281701798818 794.31343984747173 0 0 0 0 93.034039884234517 -290.33266365927511 0 -290.33266365927511 -1053.6072365783107 0 0 0 0 -592.57736447035859 204.35251067607589 0 204.35251067607589 612.08178077972048 0 0 0 0 -21.69122531580291 -4.0922659917711464 0 -4.0922659917711464 0.1083342445865354 0 0 0 0 254.55524591395806 -1115.5793591991228 0 -1115.5793591991228 -1761.8096783146243 0 0 0 0 -469.94000115951349 -95.249356336298604 0 -95.249356336298604 197.05437210665878 0 0 0 0 -473.43138770648511 46.864544566739255 0 46.864544566739255 204.18910135713816 0 0 0 0 -862.53008659556508 -757.17293670278639 0 -757.17293670278639 -367.79652652877894 0 0 0 0 -1236.9548168357287 -179.49606935833947 0 -179.49606935833947 448.05049580957848 0 0 0 0 -622.87559762517049 -146.4133056119575 0 -146.4133056119575 181.85360598603566 0 0 0 0 -408.4849754123461 -98.091820596341336 0 -98.091820596341336 84.042685229105473 0 0 0 0 -398.99528683967947 -116.0553263706899 0 -116.0553263706899 88.288754052043828 0 0 0 0 -527.211077475411 -227.48756370428126 0 -227.48756370428126 0.16139545633775421 0 0 0 0 -62.02031053720566 -103.49670880681516 0 -103.49670880681516 28.292779072488344 0 0 0 0 -108.1603639891182 -127.11017516775917 0 -127.11017516775917 147.8767007776234 0 0 0 0 -99.712482837501739 -42.119192044582718 0 -42.119192044582718 82.722978915346459 0 0 0 0 -170.20844068026781 -132.94238610738537 0 -132.94238610738537 0.0097110302866676296 0 0 0 0 -97.073592573666247 -115.14177486843602 0 -115.14177486843602 -0.022220672964199176 0 0 0 0 -162.43081881287799 -100.87320698959019 0 -100.87320698959019 29.393904075936057 0 0 0 0 -120.69948788410693 -131.30325631910304 0 -131.30325631910304 27.212234076639831 0 0 0 0 -109.51574768413411 -141.63769311594527 0 -141.63769311594527 82.650847831176748 0 0 0 0 -93.883333083627804 -116.57215683236765 0 -116.57215683236765 26.572737203006511 0 0 0 0 -220.46306495632598 -139.75135073243217 0 -139.75135073243217 75.479245690066278 0 0 0 0 -173.69231384823797 -92.655635516026123 0 -92.655635516026123 0.052825168328312952 0 0 0 0 -194.30978587603022 -107.23421244119271 0 -107.23421244119271 62.812671249553091 0 0 0 0 -233.02894847543939 -57.757405820516837 0 -57.757405820516837 0.028944571213563509 0 0 0 0 -222.93311448773602 -27.737022961736816 0 -27.737022961736816 49.205389082573063 0 0 0 0 1.72949831134774 2.3317622650625083 0 2.3317622650625083 3.9850518440370131 0 0 0 0 -279.99262634533807 -27.301562172250641 0 -27.301562172250641 87.118233433907989 0 0 0 0 -303.93710405539605 -90.663495908843743 0 -90.663495908843743 68.047933843584289 0 0 0 0 -222.14584319519054 -133.72775027738155 0 -133.72775027738155 79.581600567188275 0 0 0 0 -554.83710044454665 -196.44930910180375 0 -196.44930910180375 114.4781868441159 0 0 0 0 -554.24960722859396 120.35931810837617 0 120.35931810837617 65.720326183403785 0 0 0 0 -160.27691767911892 -301.24621850937183 0 -301.24621850937183 -122.2107092349856 0 0 0 0 -331.92264830083877 -17.711189681672209 0 -17.711189681672209 89.627609802361675 0 0 0 0 -107.31675357202766 70.517932733284454 0 70.517932733284454 -98.954469394649436 0 0 0 0 -10.618069065602199 2.8808254568479299 0 2.8808254568479299 14.162809733371093 0 0 0 0 -248.44964529211575 175.01482712648965 0 175.01482712648965 -83.981444099969508 0 0 0 0 -102.25700299182799 -7.1856672556805155 0 -7.1856672556805155 9.6278504675534471 0 0 0 0 -320.54815425432753 -470.70459192203123 0 -470.70459192203123 -110.10886797614614 0 0 0 0 -287.72226494157803 23.242274027743406 0 23.242274027743406 100.87077016380954 0 0 0 0 -10.52028127229454 -3.7378882109452078 0 -3.7378882109452078 2.5799634972336336 0 0 0 0 -212.32223133336925 -2.3628666204574085 0 -2.3628666204574085 63.010619488231441 0 0 0 0 -65.847772737421352 -25.436634279591729 0 -25.436634279591729 2.8093389405463585 0 0 0 0 -616.2742366661405 264.17439385360387 0 264.17439385360387 236.14295073185662 0 0 0 0 -103.07539112518555 -11.944712304487446 0 -11.944712304487446 2.6703308989858421 0 0 0 0 -861.40646218118491 663.15636989969914 0 663.15636989969914 -348.17327302940492 0 0 0 0 -28.959189476863259 5.2357412632073164 0 5.2357412632073164 11.779514332884041 0 0 0 0 -44.66646279963112 -43.949387364030272 0 -43.949387364030272 95.742940683449547 0 0 0 0 -45.645648291771067 -172.20752813322466 0 -172.20752813322466 63.24197794969416 0 0 0 0 -65.344198312047467 -4.8188331034981235 0 -4.8188331034981235 -1.3897092636538022 0 0 0 0 -108.95344598747033 -63.317118574065034 0 -63.317118574065034 253.35512219356821 0 0 0 0 -30.474159596815298 -120.14026636553066 0 -120.14026636553066 137.82079652021582 0 0 0 0 -119.22019814663508 -104.16651377091105 0 -104.16651377091105 138.87887536575437 0 0 0 0 -53.017401065691956 -60.155395755523784 0 -60.155395755523784 111.41509923524583 0 0 0 0 -99.850193738078815 -133.95766869549996 0 -133.95766869549996 41.948575837535401 0 0 0 0 -255.86823524354259 -220.22216837762335 0 -220.22216837762335 96.05521931271636 0 0 0 0 -191.35505881627978 -95.976093308901753 0 -95.976093308901753 125.5501427927116 0 0 0 0 -261.98104093740403 -105.03801421378739 0 -105.03801421378739 71.782655498615441 0 0 0 0 -106.67788858687345 12.44826673129117 0 12.44826673129117 -99.201136958864481 0 0 0 0 335.55169852832478 415.1675312584693 0 415.1675312584693 -5.376760770178878 0 0 0 0 -8.495344028857744 0.76567835741576573 0 0.76567835741576573 0.86717267629412043 0 0 0 0 184.84233147594932 481.80480618144122 0 481.80480618144122 181.97914291220681 0 0 0 0 -1206.7895236345357 -166.64345096413075 0 -166.64345096413075 1.8038553365285819 0 0 0 0 -610.18776870956935 -460.21330042824985 0 -460.21330042824985 -348.63894131036722 0 0 0 0 -163.90619505965151 -106.28919873261339 0 -106.28919873261339 -258.63102600867433 0 0 0 0 -526.72728992532939 -210.38687317880658 0 -210.38687317880658 -40.332198382736806 0 0 0 0 -242.80367328447755 8.2086463680734596 0 8.2086463680734596 115.20339215088279 0 0 0 0 -594.82782811995276 142.57383757775057 0 142.57383757775057 186.79527998515232 0 0 0 0 -230.50175136953476 193.0371189116774 0 193.0371189116774 121.51472183864757 0 0 0 0 -263.86103580749477 156.75299429740471 0 156.75299429740471 174.54511365293865 0 0 0 0 -301.12713632822124 262.32630654510956 0 262.32630654510956 107.26590184298186 0 0 0 0 -1083.8653396717382 176.14312777222472 0 176.14312777222472 164.29538122100553 0 0 0 0 -245.89054678284447 317.41488554592377 0 317.41488554592377 -463.72156131222164 0 0 0 0 840.97177667224719 336.28097614701898 0 336.28097614701898 -178.46318815664722 0 0 0 0 -180.19362470919441 529.43153818586643 0 529.43153818586643 -0.81560358033790159 0 0 0 0 -193.11343060420768 278.98381909900303 0 278.98381909900303 176.81357419411924 0 0 0 0 -96.873222739202902 292.82510045503705 0 292.82510045503705 170.04320764554643 0 0 0 0 191.28333212496568 162.20538123569159 0 162.20538123569159 97.944815796762668 0 0 0 0 -162.7740347677609 135.36301253365491 0 135.36301253365491 127.35646618960118 0 0 0 0 -116.23192038800335 24.328467737810115 0 24.328467737810115 7.5976960390444219 0 0 0 0 -59.994797346466157 3.2106754199189638 0 3.2106754199189638 9.3773186415521579 0 0 0 0 -0.66931205747010836 -2.8009157063858465 0 -2.8009157063858465 1.8085491219671943 0 0 0 0 1.9858752903082859 -20.577037663287072 0 -20.577037663287072 -10.430476242010627 0 0 0 0 -51.338505169114796 195.46464881341763 0 195.46464881341763 367.94893932753348 0 0 0 0 -15.415029572918229 -7.7309686187113442 0 -7.7309686187113442 0.13147072672026994 0 0 0 0 -185.6098133372725 -164.14210868319333 0 -164.14210868319333 40.398362894891761 0 0 0 0 -105.00249966036063 -137.49452930377083 0 -137.49452930377083 -115.15955106601177 0 0 0 0 -163.88881817521178 190.64120723761971 0 190.64120723761971 400.68898194246162 0 0 0 0 -162.92400608799653 139.78916906556196 0 139.78916906556196 299.09673917445798 0 0 0 0 -79.689574304680718 165.86207359945649 0 165.86207359945649 234.60617819562322 0 0 0 0 -177.52219892157882 135.30414073070006 0 135.30414073070006 386.27074266470129 0 0 0 0 -196.44711981689034 257.86533352377137 0 257.86533352377137 168.66035129248257 0 0 0 0 -250.16049593774369 174.16072546089845 0 174.16072546089845 286.8711113994932 0 0 0 0 -255.09968939967803 132.62093375901372 0 132.62093375901372 235.83009495982697 0 0 0 0 -231.52487370907329 101.32781244003763 0 101.32781244003763 266.61870672658824 0 0 0 0 -358.0723151731363 141.98509765750259 0 141.98509765750259 256.1479891001627 0 0 0 0 -243.768751004769 55.124501957224311 0 55.124501957224311 250.47204366181086 0 0 0 0 -363.2619231036781 -38.299702005355947 0 -38.299702005355947 182.03939126739715 0 0 0 0 -277.73528361569333 -27.914625423882512 0 -27.914625423882512 267.29862782113014 0 0 0 0 -215.18084217159776 20.258242477346357 0 20.258242477346357 267.09253110943473 0 0 0 0 -175.36783704797563 -13.835791178886893 0 -13.835791178886893 269.1719495956695 0 0 0 0 -216.25586073732848 50.485510419862294 0 50.485510419862294 343.08694330876642 0 0 0 0 -276.5498496154396 101.39970007863008 0 101.39970007863008 332.4335571472966 0 0 0 0 -160.61598098179093 77.757369260021733 0 77.757369260021733 336.14705008186547 0 0 0 0 -86.499712933407864 117.9806723363381 0 117.9806723363381 353.36835912213064 0 0 0 0 -212.00679473562923 132.41109454649859 0 132.41109454649859 372.85619366487299 0 0 0 0 -193.02172751950275 57.103672172044298 0 57.103672172044298 365.89217568531603 0 0 0 0 -86.715836622170173 39.231640503376184 0 39.231640503376184 368.87228389617849 0 0 0 0 49.426455249253195 90.834613693308711 0 90.834613693308711 293.37717532400711 0 0 0 0 -130.97688740052399 79.695218133818344 0 79.695218133818344 343.0512693982746 0 0 0 0 4.1147349426173605 84.978093959585749 0 84.978093959585749 338.71418278962665 0 0 0 0 -90.185338650102494 -53.519035523107277 0 -53.519035523107277 363.48052970044955 0 0 0 0 -53.052892575564329 -0.30765809210970474 0 -0.30765809210970474 272.17212704735175 0 0 0 0 -82.744739619462052 -32.618313531933381 0 -32.618313531933381 340.32035213457129 0 0 0 0 -128.774550949689 -8.6601685349505715 0 -8.6601685349505715 354.61622661473393 0 0 0 0 -110.95126584585523 -36.145499729534095 0 -36.145499729534095 396.99147048172017 0 0 0 0 -168.51092616702954 4.0891016194645999 0 4.0891016194645999 395.34045048250118 0 0 0 0 -152.13334518723423 6.5357151941016127 0 6.5357151941016127 357.31222030397339 0 0 0 0 -127.12288046841422 -52.881179753763718 0 -52.881179753763718 374.4457305485339 0 0 0 0 -80.532660337983543 -205.29307455212211 0 -205.29307455212211 594.09842036631017 0 0 0 0 -136.69859965954674 -30.660912381839807 0 -30.660912381839807 446.31801720773501 0 0 0 0 -83.578989152330905 -279.35556171071585 0 -279.35556171071585 154.83654525073416 0 0 0 0 -70.955813668762858 -134.49322709424291 0 -134.49322709424291 463.36479997274546 0 0 0 0 -110.57999438382103 -51.279145915311346 0 -51.279145915311346 364.31267174784807 0 0 0 0 36.542265295109246 -18.444068930005415 0 -18.444068930005415 577.74128228514746 0 0 0 0 -16.815173577037001 -12.797784631850057 0 -12.797784631850057 6.8933486541377889 0 0 0 0 -71.76685169544362 -112.71609797482643 0 -112.71609797482643 431.10522765554924 0 0 0 0 -108.32041255869262 4.8989610980474936 0 4.8989610980474936 366.17199605617316 0 0 0 0 -183.10040176627808 13.958373614066659 0 13.958373614066659 375.52500400587678 0 0 0 0 -127.43746680329787 -62.605351291530042 0 -62.605351291530042 242.42617294339288 0 0 0 0 -141.10328575331368 -30.26451938727314 0 -30.26451938727314 95.013696882192789 0 0 0 0 -171.59870158635022 14.732375123263182 0 14.732375123263182 234.17200979732934 0 0 0 0 -114.07364864902775 -41.385431542300466 0 -41.385431542300466 69.634203830654769 0 0 0 0 -251.88297189073637 224.464073992468 0 224.464073992468 247.1842579318286 0 0 0 0 -19.51667908610726 0.3636859090749951 0 0.3636859090749951 0.023784307741923527 0 0 0 0 62.217224098785664 -318.8673383511732 0 -318.8673383511732 -95.384364667081172 0 0 0 0 -796.00227894591808 220.22792939239298 0 220.22792939239298 329.51280397512983 0 0 0 0 -0.61492008762975559 0.71002375903859871 0 0.71002375903859871 1.4385679803874338 0 0 0 0 -668.45762237440795 -289.89548781355552 0 -289.89548781355552 -110.69511921115918 0 0 0 0 -677.43327707528078 -323.45494614620657 0 -323.45494614620657 90.209168442168448 0 0 0 0 -46.840699450105603 -40.926941888804322 0 -40.926941888804322 -48.522151169350764 0 0 0 0 -27.190843477752821 4.2679774009810139 0 4.2679774009810139 -3.0919768805088772 0 0 0 0 -56.835193797625834 -10.628252645628891 0 -10.628252645628891 -6.2094902464268671 0 0 0 0 44.675023399089696 44.538020036376111 0 44.538020036376111 98.509947413134796 0 0 0 0 -4.1775797881709877 -33.224514996347352 0 -33.224514996347352 169.77796634268373 0 0 0 0 -60.314496018374768 -21.179397143664985 0 -21.179397143664985 -5.6810646229318031 0 0 0 0 27.471665498567745 43.383838282972647 0 43.383838282972647 283.27928606150817 0 0 0 0 -70.732996093157794 -7.7962805328067564 0 -7.7962805328067564 19.643748184368544 0 0 0 0 -40.970820277056191 5.4813798617524299 0 5.4813798617524299 75.62593591269615 0 0 0 0 -68.718682644642342 14.821788567854249 0 14.821788567854249 6.3984111752789756 0 0 0 0 -73.890882063793185 -34.683812853655574 0 -34.683812853655574 16.345262385388672 0 0 0 0 92.407667682899046 -37.001835277699684 0 -37.001835277699684 57.238960696238792 0 0 0 0 -45.871924125676742 -133.70862807336835 0 -133.70862807336835 63.358098957673974 0 0 0 0 -12.538971362999291 -40.380200327354032 0 -40.380200327354032 77.768409754038657 0 0 0 0 -29.314259338145348 -37.763059940974927 0 -37.763059940974927 83.002766761361272 0 0 0 0 -23.739219384769967 -33.509370221313475 0 -33.509370221313475 90.075016105944997 0 0 0 0 -13.693208673429112 -11.248002216643126 0 -11.248002216643126 -1.5509856006724139 0 0 0 0 -82.090798517892836 39.226511712196952 0 39.226511712196952 175.64378143712383 0 0 0 0 -492.16044714595773 -52.735304787334826 0 -52.735304787334826 164.95176690697554 0 0 0 0 -26.871493793849368 -108.61754013056634 0 -108.61754013056634 12.699177858718031 0 0 0 0 -46.390754499845571 -35.180126472565235 0 -35.180126472565235 74.471309601343819 0 0 0 0 -4.0140409819359775 -32.071320192323583 0 -32.071320192323583 71.352253659242706 0 0 0 0 2.4785115459089866 -21.929417099876446 0 -21.929417099876446 69.449011696007801 0 0 0 0 -1.360860400326537 -3.6273300638228676 0 -3.6273300638228676 0.36797137954777526 0 0 0 0 103.98838371445891 -70.799934531696636 0 -70.799934531696636 18.328412747176117 0 0 0 0 -29.19017106879619 -41.486319729501702 0 -41.486319729501702 83.848081755101703 0 0 0 0 -14.586231730016152 -43.265093216726655 0 -43.265093216726655 63.242019043689652 0 0 0 0 -18.174092785937319 -26.728022452794903 0 -26.728022452794903 48.969485257238375 0 0 0 0 -53.310870334367792 7.2311837472079787 0 7.2311837472079787 82.759048852136402 0 0 0 0 -36.848930296415347 -6.7343880718583478 0 -6.7343880718583478 36.803115964334609 0 0 0 0 -63.734075647079862 10.564992797254035 0 10.564992797254035 47.066197736896356 0 0 0 0 -56.457176515816741 -8.6237727487603628 0 -8.6237727487603628 5.6972010441003711 0 0 0 0 -58.115594196086363 4.7362967443266726 0 4.7362967443266726 6.1641532913385841 0 0 0 0 -80.717395280211349 5.3715878558314785 0 5.3715878558314785 22.13371970477192 0 0 0 0 -60.917958814461599 0.48068307287212519 0 0.48068307287212519 28.557452603223282 0 0 0 0 -88.647133084828965 1.2963104270544363 0 1.2963104270544363 33.535115704468353 0 0 0 0 -68.572975452523679 -21.779942146578833 0 -21.779942146578833 13.301044169118541 0 0 0 0 -36.744465253345879 -9.0949688444130175 0 -9.0949688444130175 10.175859248895449 0 0 0 0 -123.7478223694925 45.771030438236266 0 45.771030438236266 -8.9106713029031255 0 0 0 0 -106.57727055654686 -12.892712039845492 0 -12.892712039845492 28.659473588010314 0 0 0 0 -50.603537404444069 -7.3105584795939649 0 -7.3105584795939649 95.953781051113765 0 0 0 0 -47.746744509806092 1.1331838798537532 0 1.1331838798537532 15.592561453118066 0 0 0 0 -38.070561800432188 12.237467553696206 0 12.237467553696206 51.144308839711812 0 0 0 0 -21.91018019792682 -13.415006436789554 0 -13.415006436789554 68.910091905961963 0 0 0 0 23.559683006555133 -20.112662550094001 0 -20.112662550094001 2.335980959976041 0 0 0 0 23.148397430588375 -67.238859846157538 0 -67.238859846157538 78.567311632741848 0 0 0 0 -20.773128968821368 -11.661246349440573 0 -11.661246349440573 3.6286942174372285 0 0 0 0 -57.850975093111629 64.43087570135549 0 64.43087570135549 229.62324512636792 0 0 0 0 -26.402575429216085 -57.963303840373442 0 -57.963303840373442 169.88474202176462 0 0 0 0 -57.355701039043197 73.377939749581856 0 73.377939749581856 35.487977287463764 0 0 0 0 -30.461828848005098 28.116695998717432 0 28.116695998717432 95.034860479392137 0 0 0 0 -32.809950506249152 -3.2096152131698545 0 -3.2096152131698545 83.993821830793422 0 0 0 0 -35.26962162926884 -14.539060706699161 0 -14.539060706699161 46.922350306269891 0 0 0 0 -1.1599440398256595 3.6831195520874189 0 3.6831195520874189 18.626993129441843 0 0 0 0 -25.297397073409229 -5.8723933700784983 0 -5.8723933700784983 24.807881377996068 0 0 0 0 -29.525008143282321 0.77513349241735341 0 0.77513349241735341 46.745213589081686 0 0 0 0 -32.518631169281434 15.270808027554835 0 15.270808027554835 14.835706475357711 0 0 0 0 -165.33749184928456 -32.082549808510066 0 -32.082549808510066 -40.810759854655771 0 0 0 0 -410.92741146415028 -60.8533434818047 0 -60.8533434818047 226.01242246054971 0 0 0 0 -512.4470080832034 123.53582087909126 0 123.53582087909126 -74.768741688044429 0 0 0 0 -16.412834987728274 27.850497215944415 0 27.850497215944415 111.1608047933837 0 0 0 0 -971.26079660425103 -400.66293453992415 0 -400.66293453992415 68.935581873771298 0 0 0 0 -12.989177480136249 -16.049899319872516 0 -16.049899319872516 -15.232957417190327 0 0 0 0 159.71540223831107 -690.28660316013656 0 -690.28660316013656 356.60793985083046 0 0 0 0 97.898649099042814 120.80050306067071 0 120.80050306067071 63.842360165711092 0 0 0 0 267.60921812378365 70.90724283964822 0 70.90724283964822 -345.5747848647552 0 0 0 0 -33.568804365041018 -13.483912885864171 0 -13.483912885864171 -12.442824216847308 0 0 0 0 -609.2901981177929 -98.172195988206568 0 -98.172195988206568 392.63416945330664 0 0 0 0 -216.74312762348563 -202.06043052077757 0 -202.06043052077757 289.18571422868627 0 0 0 0 -399.72504518095957 18.229480780160884 0 18.229480780160884 164.48438067043605 0 0 0 0 -388.40556570503577 40.09595849050595 0 40.09595849050595 142.20460297472528 0 0 0 0 -387.29703450397938 52.23941865892084 0 52.23941865892084 214.81974753987924 0 0 0 0 -379.47662792208575 144.58812281423843 0 144.58812281423843 135.66571235482661 0 0 0 0 -449.67959784692357 131.14414824414575 0 131.14414824414575 179.95530644600331 0 0 0 0 -439.49942556351016 107.63252347110665 0 107.63252347110665 221.30734877132102 0 0 0 0 -156.71537027384693 60.137347537018059 0 60.137347537018059 40.945091648634843 0 0 0 0 -19.639872984265903 26.383412023814174 0 26.383412023814174 22.710650456613713 0 0 0 0 -214.2741434743366 20.827308294077739 0 20.827308294077739 88.902612772003522 0 0 0 0 -301.02906820709995 75.440330708379804 0 75.440330708379804 94.061455776049115 0 0 0 0 -301.44777440775943 72.980855107185562 0 72.980855107185562 151.64256410733651 0 0 0 0 -340.94484641639428 105.09322606963588 0 105.09322606963588 139.3259794345613 0 0 0 0 -261.79736199486069 128.27549987882321 0 128.27549987882321 85.901442216803844 0 0 0 0 -208.7510889920959 72.819924636657561 0 72.819924636657561 92.586657828629541 0 0 0 0 -190.74482023110249 97.533292909430884 0 97.533292909430884 18.386965794875323 0 0 0 0 -9.1705471939280585 9.5131571182131989 0 9.5131571182131989 10.690238460577985 0 0 0 0 -94.544304148439551 74.73408727118931 0 74.73408727118931 9.3351379672112671 0 0 0 0 -168.15831044704828 98.707345579320645 0 98.707345579320645 70.021191633324634 0 0 0 0 -165.67109049275314 162.15940909509618 0 162.15940909509618 -5.5209540021460271 0 0 0 0 -181.64825740204833 144.15804607950031 0 144.15804607950031 50.458851204250095 0 0 0 0 -326.02409492821607 174.2393859766571 0 174.2393859766571 61.138139354591658 0 0 0 0 -152.60503785737092 117.28493876048014 0 117.28493876048014 20.878073717708958 0 0 0 0 -21.105170123570957 7.1139139462972594 0 7.1139139462972594 39.662662258870803 0 0 0 0 -26.495990215298661 23.179361211951573 0 23.179361211951573 41.771846699716434 0 0 0 0 -42.750021648003894 59.787602360137726 0 59.787602360137726 -39.282422055027382 0 0 0 0 -479.29991048789816 143.36397513826796 0 143.36397513826796 205.29252482835227 0 0 0 0 -493.46816334886535 260.1870010460002 0 260.1870010460002 82.345446629384242 0 0 0 0 -323.83689167127886 160.11970566007949 0 160.11970566007949 139.80664016756054 0 0 0 0 -45.633470767337712 98.702096027890093 0 98.702096027890093 -112.65041101710767 0 0 0 0 -242.77997292581495 251.75210395688759 0 251.75210395688759 -132.05369562733995 0 0 0 0 -1044.2641951235782 501.85556690135718 0 501.85556690135718 28.57498957180951 0 0 0 0 -322.87455311556187 503.57439773192812 0 503.57439773192812 -687.1712113982851 0 0 0 0 -5.3721215008453953 -1.8327145483086493 0 -1.8327145483086493 -0.17158957565081223 0 0 0 0 -1029.0300293176842 -459.23518743325383 0 -459.23518743325383 751.70243518678399 0 0 0 0 -67.354248318544705 469.14534748958761 0 469.14534748958761 158.11537055949043 0 0 0 0 348.45462389022578 234.99801232009054 0 234.99801232009054 106.01404973237845 0 0 0 0 -114.09669011249935 69.47342764216171 0 69.47342764216171 -25.485451428163287 0 0 0 0 -13.580372865968059 -0.35867094373707786 0 -0.35867094373707786 8.0703475160900453 0 0 0 0 -4.7954164797202274 0.22239498154848292 0 0.22239498154848292 6.794999805088203 0 0 0 0 139.07636957199429 248.06723965214204 0 248.06723965214204 394.46587000714658 0 0 0 0 253.32888821605593 331.5046855517096 0 331.5046855517096 12.136607387114964 0 0 0 0 -1494.6356208544239 -716.43212220842497 0 -716.43212220842497 258.19764215092414 0 0 0 0 -1111.4310038947806 555.09672560932518 0 555.09672560932518 -3.0055023579991484 0 0 0 0 -665.04619635749259 -856.03102187549189 0 -856.03102187549189 -686.62249160330475 0 0 0 0 221.58642144441546 -162.25691753287407 0 -162.25691753287407 -452.38449909636142 0 0 0 0 -1080.1567923566181 -202.97869075048129 0 -202.97869075048129 254.44500112173131 0 0 0 0 -690.45838075145366 214.02289173471229 0 214.02289173471229 -263.3462314420899 0 0 0 0 -154.13290289428551 -134.63576172692621 0 -134.63576172692621 -454.40221230435202 0 0 0 0 -72.956963336109766 110.19979643740135 0 110.19979643740135 223.76515199097776 0 0 0 0 526.03153679594629 64.842291277363898 0 64.842291277363898 -460.92532780304646 0 0 0 0 -548.66010628205822 165.76031554197749 0 165.76031554197749 -455.24200652510126 0 0 0 0 113.29634996622917 118.66337141536371 0 118.66337141536371 -1180.6339405511683 0 0 0 0 828.9642727693863 -157.2022507831125 0 -157.2022507831125 -1239.9629907596513 0 0 0 0 -182.55011450864185 -71.110404218154997 0 -71.110404218154997 176.16217533218241 0 0 0 0 -54.674049959612603 38.094414103886606 0 38.094414103886606 -31.422293392065285 0 0 0 0 359.34128789612714 -960.44120198766518 0 -960.44120198766518 -684.21675619513599 0 0 0 0 -16.891697641857675 -9.1423846450956106 0 -9.1423846450956106 -4.9986496220285632 0 0 0 0 -1022.1382804106142 385.0099870205097 0 385.0099870205097 -94.770197057413043 0 0 0 0 -727.41862961419429 -753.068817437137 0 -753.068817437137 -439.95147076087596 0 0 0 0 318.72452479001731 -359.54356184277617 0 -359.54356184277617 -828.26801733753427 0 0 0 0 -1437.6252387823824 -308.75783837664716 0 -308.75783837664716 129.74812594405194 0 0 0 0 -634.59182060185412 -178.68521065286859 0 -178.68521065286859 136.09948648164595 0 0 0 0 -581.11594425077055 -169.62796568439103 0 -169.62796568439103 106.69929322687631 0 0 0 0 -606.28239731586018 -295.54079450255125 0 -295.54079450255125 39.185709093350852 0 0 0 0 -427.08813034613922 -223.0537662739589 0 -223.0537662739589 67.477454208275958 0 0 0 0 -473.81441044095118 -191.29465046002304 0 -191.29465046002304 50.373279175814559 0 0 0 0 -464.48965145309921 -116.50604704030502 0 -116.50604704030502 102.79982273494443 0 0 0 0 -535.59892331741867 -151.95088686454528 0 -151.95088686454528 88.115698037461357 0 0 0 0 -336.56822611422103 -1.2328674273323941 0 -1.2328674273323941 77.755180545415044 0 0 0 0 -345.49982753963559 -6.8282802536568852 0 -6.8282802536568852 76.214369725440974 0 0 0 0 -492.16722452476097 20.716407137525465 0 20.716407137525465 147.46494089077032 0 0 0 0 -286.51882809734252 88.038790877584375 0 88.038790877584375 89.553170383029055 0 0 0 0 -118.39930966100292 97.547458129790698 0 97.547458129790698 32.008598203290944 0 0 0 0 -110.30090670592836 15.129033345669995 0 15.129033345669995 52.289593998962118 0 0 0 0 -440.98519336698519 163.46038560756915 0 163.46038560756915 47.707715789127519 0 0 0 0 -734.57875639383565 -17.594777893982325 0 -17.594777893982325 141.73274438654107 0 0 0 0 -621.52291197414161 128.97179847503412 0 128.97179847503412 6.0933994593110583 0 0 0 0 -501.40576809128106 341.24562945683829 0 341.24562945683829 -95.668775198289268 0 0 0 0 -3.2939561559554491 -2.5905906165318342 0 -2.5905906165318342 -1.3230856790115482 0 0 0 0 65.454396123535844 -27.760054909087557 0 -27.760054909087557 -25.410585823634392 0 0 0 0 -121.52518134329148 -77.019036986617351 0 -77.019036986617351 -5.3521452824888911 0 0 0 0 7.287386361425888 62.397129553702825 0 62.397129553702825 1.35074095236223 0 0 0 0 31.156619374622096 37.888390546786582 0 37.888390546786582 18.922014839059557 0 0 0 0 0.55657778213854314 3.7020287531332698 0 3.7020287531332698 15.518228038150973 0 0 0 0 80.431628608661413 -28.930646937533083 0 -28.930646937533083 -55.602293091209049 0 0 0 0 -1.7351126100402325 -9.0075310060951779 0 -9.0075310060951779 24.794958370612221 0 0 0 0 -59.128086070042627 -48.003958756613201 0 -48.003958756613201 31.573630337435588 0 0 0 0 -0.97128950351198196 1.990019092788522 0 1.990019092788522 12.121505498323785 0 0 0 0 -51.346917406117427 -37.063584991107746 0 -37.063584991107746 -58.052115707621851 0 0 0 0 -3.7537080305046402 -40.765176984366462 0 -40.765176984366462 -98.082519974115712 0 0 0 0 4.9636353414480254 56.19241807195101 0 56.19241807195101 10.600260275783512 0 0 0 0 40.326807077857666 73.067861266882801 0 73.067861266882801 -63.409180338543479 0 0 0 0 152.46526097508468 246.4793848791146 0 246.4793848791146 -36.050569895929357 0 0 0 0 10.560824630237221 -34.082792206749019 0 -34.082792206749019 -242.49691758770541 0 0 0 0 -136.61431406668999 -150.78864666482536 0 -150.78864666482536 -156.80707422757155 0 0 0 0 -356.88126392679987 -345.09123598274732 0 -345.09123598274732 -148.5148597990175 0 0 0 0 -11.185757083414501 -243.97010317477611 0 -243.97010317477611 -161.91124862817696 0 0 0 0 -163.20594047248596 -204.96693080930845 0 -204.96693080930845 -61.942728450731465 0 0 0 0 -268.56237723268077 -153.35321329979678 0 -153.35321329979678 16.067073183011416 0 0 0 0 -301.15243473618466 -273.3903981617741 0 -273.3903981617741 -50.526259892002372 0 0 0 0 -367.14764797929092 -211.18036614174321 0 -211.18036614174321 19.652241921091672 0 0 0 0 -427.26345995964948 -226.96017969859147 0 -226.96017969859147 20.735031096970488 0 0 0 0 -357.82210814975042 -164.47664823810044 0 -164.47664823810044 2.8142499821287856 0 0 0 0 -270.03880254887918 -177.36615198767026 0 -177.36615198767026 -11.623819062520852 0 0 0 0 -453.63974944083748 -78.273898166273739 0 -78.273898166273739 34.588657942930922 0 0 0 0 -0.59051600588487219 -0.54150596188215161 0 -0.54150596188215161 -0.42128416358276422 0 0 0 0 -204.01640165352001 2.1892151799228827 0 2.1892151799228827 53.028269628890484 0 0 0 0 -110.22951861384354 -111.03480974994568 0 -111.03480974994568 -56.238713897975508 0 0 0 0 -151.59162462267113 -96.848617500673626 0 -96.848617500673626 -17.03035778620324 0 0 0 0 -34.366716461307078 -88.036862059627083 0 -88.036862059627083 6.3239984996180851 0 0 0 0 -39.516721293179216 7.9277769225839165 0 7.9277769225839165 18.677420004235501 0 0 0 0 -1.5502860667748255 -2.8538680561685794 0 -2.8538680561685794 0.74883185277068165 0 0 0 0 45.24995577867594 -120.11107300139491 0 -120.11107300139491 -56.265140625395134 0 0 0 0 -1.5579394721716397 -2.1381047338276531 0 -2.1381047338276531 0.15284703495362173 0 0 0 0 -21.430693092836009 -5.8630399885726092 0 -5.8630399885726092 10.859698603538845 0 0 0 0 -163.45207522794226 24.778061058730486 0 24.778061058730486 27.327630502514239 0 0 0 0 -503.22486003344602 -127.18387925392199 0 -127.18387925392199 92.669906493305689 0 0 0 0 -687.79795844871114 -44.395971088014448 0 -44.395971088014448 135.0944922860233 0 0 0 0 -5.9352616577965449 -6.9760999953898661 0 -6.9760999953898661 -4.0522148221833412 0 0 0 0 -318.73517008998897 -185.2248763492853 0 -185.2248763492853 -72.182005407351426 0 0 0 0 -119.18661386590611 -123.59188002541117 0 -123.59188002541117 -224.13796236474127 0 0 0 0 -230.96696751626678 -30.470675105188405 0 -30.470675105188405 104.02976152169776 0 0 0 0 -215.05397915492449 -82.41271424736415 0 -82.41271424736415 -116.9167143606046 0 0 0 0 -244.67960735828092 -103.56029665765249 0 -103.56029665765249 45.385191938255957 0 0 0 0 -212.749645830394 -179.59605641372903 0 -179.59605641372903 81.690699352333695 0 0 0 0 5.9159741363837384 -32.486810367386624 0 -32.486810367386624 -41.59427252427804 0 0 0 0 -406.24704626935272 -117.76007119071699 0 -117.76007119071699 -1.5588013107910683 0 0 0 0 -413.11540118052653 -150.96005571058345 0 -150.96005571058345 -53.288297054666145 0 0 0 0 -0.082812863887989252 -1.0310441120291216 0 -1.0310441120291216 -0.91115601079481312 0 0 0 0 187.98327466311821 26.392290752131203 0 26.392290752131203 -212.33432162787318 0 0 0 0 -389.74738417535264 -158.22005073896429 0 -158.22005073896429 -111.13823677576966 0 0 0 0 -387.25556084185519 -126.29977460955627 0 -126.29977460955627 -54.501990386315583 0 0 0 0 -353.41424288293092 -190.16471472665972 0 -190.16471472665972 -44.933987893938365 0 0 0 0 -384.40861925296485 -131.93102168377823 0 -131.93102168377823 -50.476582302410861 0 0 0 0 -399.76217614393863 -136.34630061039567 0 -136.34630061039567 -45.31752344364395 0 0 0 0 -372.25346141297632 -140.9242260318216 0 -140.9242260318216 -45.790744520457338 0 0 0 0 -409.88095996808988 -177.86577885008921 0 -177.86577885008921 -4.7830989024398605 0 0 0 0 -384.71003489273062 -147.16857863798316 0 -147.16857863798316 16.191931021476194 0 0 0 0 -379.99094411350961 -89.142237500815895 0 -89.142237500815895 -68.610214683442791 0 0 0 0 -387.09037132054982 -128.39931389339887 0 -128.39931389339887 -32.372781008815082 0 0 0 0 -396.33143637284593 -35.303571287995794 0 -35.303571287995794 -22.316849500423018 0 0 0 0 -333.63446827835833 -49.094580238869497 0 -49.094580238869497 -40.32245288488366 0 0 0 0 -457.97956656393035 6.6598959125594206 0 6.6598959125594206 -6.3870563935145128 0 0 0 0 -509.00616601731599 119.25895508483825 0 119.25895508483825 -23.824732505171085 0 0 0 0 -203.53830900087814 19.989323367104419 0 19.989323367104419 -150.81611084879978 0 0 0 0 -361.50274280946724 100.20649529085244 0 100.20649529085244 -22.925860221970765 0 0 0 0 -344.59304128566146 -91.11660286081856 0 -91.11660286081856 -199.9952811242116 0 0 0 0 -214.06497097829561 18.88038477294171 0 18.88038477294171 -117.3512268039841 0 0 0 0 -149.79504161121804 -83.904724806313965 0 -83.904724806313965 -167.42833517340341 0 0 0 0 -185.80642373695446 -52.828483498280093 0 -52.828483498280093 -115.72980822971022 0 0 0 0 -183.93534501411324 -149.35834398194447 0 -149.35834398194447 -89.875592123529259 0 0 0 0 -194.17991985427216 -42.756687568600114 0 -42.756687568600114 -199.44769458882547 0 0 0 0 -261.40529948863696 -83.382414178683348 0 -83.382414178683348 -3.6794235412099852 0 0 0 0 -195.6347087588656 -22.915491927794847 0 -22.915491927794847 1.6670626367194927 0 0 0 0 -174.03105690327538 -46.205775274201812 0 -46.205775274201812 -28.703279333916043 0 0 0 0 -93.79570955249801 6.9619064786852505 0 6.9619064786852505 -49.746810478795169 0 0 0 0 -226.23486223765758 54.519837185306756 0 54.519837185306756 15.71138677508452 0 0 0 0 -238.06856229504956 -6.8567260597200743 0 -6.8567260597200743 20.20053507898001 0 0 0 0 -107.49787576425297 20.211584027423669 0 20.211584027423669 -45.470541736879056 0 0 0 0 -409.21082174026378 -55.980989962799413 0 -55.980989962799413 68.80829367592014 0 0 0 0 -292.71381358306826 -32.555793868920091 0 -32.555793868920091 11.900537464047488 0 0 0 0 -290.45303668443194 -55.2639617586578 0 -55.2639617586578 35.45506329987893 0 0 0 0 -391.42767026751881 -107.04855854882439 0 -107.04855854882439 51.283720684962645 0 0 0 0 -405.69606006934919 -114.38411138184222 0 -114.38411138184222 47.826756793876257 0 0 0 0 -408.13414689554338 -163.13520178428985 0 -163.13520178428985 53.099552847265841 0 0 0 0 -397.48520215336612 -129.51861966139836 0 -129.51861966139836 27.034149699542127 0 0 0 0 -393.82354932554517 -137.16386457610463 0 -137.16386457610463 7.8869989611600886 0 0 0 0 -385.61178389869747 -98.945485143170458 0 -98.945485143170458 1.8770360498804166 0 0 0 0 -380.14997915605409 -91.197333660307791 0 -91.197333660307791 11.23200655981168 0 0 0 0 -384.02509408251353 -110.38023744105521 0 -110.38023744105521 22.300480094445902 0 0 0 0 -338.82530095139373 -70.597885240703363 0 -70.597885240703363 34.237014538979338 0 0 0 0 -340.66605763640837 -95.06075673374653 0 -95.06075673374653 23.629002647061043 0 0 0 0 -311.88208946082705 -119.92986259890682 0 -119.92986259890682 -15.402226865419379 0 0 0 0 -333.23956270219787 -88.669855809034601 0 -88.669855809034601 11.582729537863315 0 0 0 0 -404.645575875551 -115.59977474678249 0 -115.59977474678249 15.293185619888504 0 0 0 0 -443.20040243489348 -61.505798890014262 0 -61.505798890014262 3.8573858725977175 0 0 0 0 -527.48316103324032 -154.65135987404597 0 -154.65135987404597 -7.654453816438604 0 0 0 0 -547.80833947021893 11.807899488970577 0 11.807899488970577 30.903172089668033 0 0 0 0 -366.50068364338949 -96.142015475476455 0 -96.142015475476455 3.3702877386006662 0 0 0 0 -324.14697054403769 -159.04362412126312 0 -159.04362412126312 -33.540722354711534 0 0 0 0 -353.73134410206694 -118.95646364856623 0 -118.95646364856623 -27.028670442796141 0 0 0 0 -78.085161492541374 -66.415382231024978 0 -66.415382231024978 -59.499178088555823 0 0 0 0 -222.47878157175091 -89.872598421049801 0 -89.872598421049801 -20.38394392014402 0 0 0 0 -224.4038211045663 -85.43401622234677 0 -85.43401622234677 -15.710893072415502 0 0 0 0 -248.64297419408831 -67.537834556962139 0 -67.537834556962139 2.7333934419550587 0 0 0 0 -170.75168801361724 -93.865323622931896 0 -93.865323622931896 -30.338828236935001 0 0 0 0 -96.944703408749774 -26.403388222481794 0 -26.403388222481794 -31.6449737426681 0 0 0 0 -96.69645360526556 -48.659091077304481 0 -48.659091077304481 -6.0198507609811713 0 0 0 0 -53.377703568650759 4.6712507056440131 0 4.6712507056440131 -16.45505434811048 0 0 0 0 29.641757116594817 -5.0541353823085728 0 -5.0541353823085728 -42.545740295143332 0 0 0 0 -20.880445329647046 -13.181885637786309 0 -13.181885637786309 -40.340309207111886 0 0 0 0 -7.2533234123479247 6.9108502149362323 0 6.9108502149362323 -6.8057509123472961 0 0 0 0 7.4445253268277156 48.72771062752031 0 48.72771062752031 5.91286585725706 0 0 0 0 -43.870081120832765 -1.693978862925178 0 -1.693978862925178 16.655385829272149 0 0 0 0 -669.56666097365087 -232.07629134063291 0 -232.07629134063291 102.96538843041708 0 0 0 0 -599.60584913136699 -272.00664355359959 0 -272.00664355359959 96.219986187209656 0 0 0 0 -54.133254804568423 5.1581017245175644 0 5.1581017245175644 19.585441915809838 0 0 0 0 -1.8693751456324037 0.75767455492820801 0 0.75767455492820801 -0.745678706654747 0 0 0 0 17.123992566022935 -17.437744278713808 0 -17.437744278713808 5.4969347531250605 0 0 0 0 -5.1140009001936093 4.9756741793575898 0 4.9756741793575898 -5.6178141847582141 0 0 0 0 32.296958561379142 31.280570808754533 0 31.280570808754533 -14.303507756363842 0 0 0 0 -21.739727211916033 -15.111130364928613 0 -15.111130364928613 -56.489505161232273 0 0 0 0 -96.286092829541303 -30.723746835117481 0 -30.723746835117481 -16.176703157802649 0 0 0 0 -76.540684626343136 -13.892620319961054 0 -13.892620319961054 -54.953718448088921 0 0 0 0 -13.189505666363402 -5.0381667881432577 0 -5.0381667881432577 -93.775811951345077 0 0 0 0 -14.39624713473313 -73.551048485778665 0 -73.551048485778665 -49.763495775325509 0 0 0 0 7.5977973858171026 49.974634609925715 0 49.974634609925715 -141.83776593250241 0 0 0 0 -17.569813651556615 13.958216274546203 0 13.958216274546203 -173.57595071807032 0 0 0 0 -24.007578033058962 76.450174475955464 0 76.450174475955464 -163.22767874396891 0 0 0 0 -105.49027894269238 185.81792689319389 0 185.81792689319389 -16.015521788769775 0 0 0 0 -38.639221385659766 56.607868154705898 0 56.607868154705898 -111.13464198873174 0 0 0 0 -80.199236896369257 72.048640268895724 0 72.048640268895724 -25.755008408790673 0 0 0 0 -164.59308217318903 -9.8997043637132265 0 -9.8997043637132265 -469.62490245337358 0 0 0 0 119.42160418650747 -197.69980794541652 0 -197.69980794541652 -197.59364828325783 0 0 0 0 -345.48492497180632 -375.07687695530097 0 -375.07687695530097 -263.00183382822615 0 0 0 0 -188.37755460765811 -298.42521358991485 0 -298.42521358991485 28.860539332355984 0 0 0 0 -140.32470338333178 24.004677951610759 0 24.004677951610759 37.497883035198356 0 0 0 0 -102.05562334170099 13.012461270388599 0 13.012461270388599 49.712211016995866 0 0 0 0 -552.31430771921441 275.40758263991779 0 275.40758263991779 -100.52169656718866 0 0 0 0 -392.70946950684447 -234.39092703103279 0 -234.39092703103279 -168.64115674603818 0 0 0 0 17.484746172320229 -29.182830144786976 0 -29.182830144786976 -242.91135438961282 0 0 0 0 -706.81391171152791 -44.68153878602925 0 -44.68153878602925 -124.37609149018044 0 0 0 0 -1.6344088262134306 1.8350372223421871 0 1.8350372223421871 -2.6349751272669089 0 0 0 0 -705.00146206093632 -85.653203921860666 0 -85.653203921860666 -479.91776556220293 0 0 0 0 -16.418292672019561 138.20754087379987 0 138.20754087379987 -381.64329358063924 0 0 0 0 46.939354741425632 -60.080197308774132 0 -60.080197308774132 -179.35322050169088 0 0 0 0 -734.54232418195897 -210.14968900475719 0 -210.14968900475719 -197.69605101610705 0 0 0 0 33.743638184088923 -213.42499288921272 0 -213.42499288921272 -445.62225896838027 0 0 0 0 -0.18678069443932266 0.423678509639835 0 0.423678509639835 -2.9043206037590323 0 0 0 0 79.940706658886484 11.549677349715466 0 11.549677349715466 -81.497144170409229 0 0 0 0 -44.004256216772774 -19.758359001719327 0 -19.758359001719327 48.587688623589202 0 0 0 0 -679.01541309174354 -110.1807310650704 0 -110.1807310650704 38.029346332736168 0 0 0 0 -788.91222265682518 -234.85386623775139 0 -234.85386623775139 -66.882377292615274 0 0 0 0 -896.87577714146755 -190.41279004486023 0 -190.41279004486023 12.220031693431793 0 0 0 0 -430.91786984934879 -148.52040269864119 0 -148.52040269864119 -22.626321852224919 0 0 0 0 -6.0522314623485727 -26.084406805932758 0 -26.084406805932758 5.8947775193269081 0 0 0 0 -3.0116144238743061 -1.2799720605253384 0 -1.2799720605253384 -7.9310792072241156 0 0 0 0 -46.624586523175822 -0.27293089097429402 0 -0.27293089097429402 11.568555437761461 0 0 0 0 -29.192285238706972 -18.575836405929294 0 -18.575836405929294 25.312507390987435 0 0 0 0 -66.116194015768997 -8.9599922706775033 0 -8.9599922706775033 27.125400266477641 0 0 0 0 -62.983075123433082 -0.77878102375234448 0 -0.77878102375234448 35.325614604274051 0 0 0 0 -86.283071670623031 13.933963590267012 0 13.933963590267012 30.025916048867316 0 0 0 0 -36.223533099124325 13.859078958560531 0 13.859078958560531 29.822744099669649 0 0 0 0 -13.343952155725454 -1.5449987112753689 0 -1.5449987112753689 1.4819717672723449 0 0 0 0 -46.75280750563401 3.9424723513863604 0 3.9424723513863604 3.0083404779754623 0 0 0 0 -61.417183900353848 4.8648676864058871 0 4.8648676864058871 -8.5815329115489476 0 0 0 0 -42.493741027188662 27.606676607351801 0 27.606676607351801 -9.5763469909406922 0 0 0 0 -77.557883733832568 23.081052155325324 0 23.081052155325324 25.450166412833823 0 0 0 0 -116.34604753568419 36.481067823467583 0 36.481067823467583 58.492354336459357 0 0 0 0 -69.733110636880156 42.102726131538475 0 42.102726131538475 30.589533858945288 0 0 0 0 -65.791891031469277 43.125673851836609 0 43.125673851836609 11.632634232624696 0 0 0 0 -102.71917171584482 82.397554007961219 0 82.397554007961219 91.538300533085931 0 0 0 0 -195.33333885001048 25.1219473383062 0 25.1219473383062 120.49016828349295 0 0 0 0 -96.901717413518782 48.42663646749952 0 48.42663646749952 64.940464898965729 0 0 0 0 -78.153603777158423 -19.818704951005429 0 -19.818704951005429 27.094891219319379 0 0 0 0 -43.999258676418449 -18.437593765074723 0 -18.437593765074723 19.183806635563087 0 0 0 0 -81.544137076998595 -29.647953923223668 0 -29.647953923223668 20.185548475473297 0 0 0 0 -120.52983852646867 -11.424529686976712 0 -11.424529686976712 34.336987515525834 0 0 0 0 -55.50423046210939 -1.9702002480524703 0 -1.9702002480524703 1.2806326709154612 0 0 0 0 -166.06303259224296 -72.696443877035108 0 -72.696443877035108 66.646707700096613 0 0 0 0 -44.830820734976442 -25.595651747320517 0 -25.595651747320517 -15.231466953769541 0 0 0 0 -137.97163648940841 -90.698954475456503 0 -90.698954475456503 10.462611156329331 0 0 0 0 -146.11560998937784 -32.574624741826938 0 -32.574624741826938 69.927511962286189 0 0 0 0 -15.797967487596907 40.488504842998736 0 40.488504842998736 -3.4414386438538713 0 0 0 0 -27.624826724364539 32.39761547238777 0 32.39761547238777 -2.6611284153495944 0 0 0 0 2.6116981164304889 83.568021263853097 0 83.568021263853097 28.787955969311724 0 0 0 0 -3.2808635873198 41.822534232505291 0 41.822534232505291 -21.348405226710383 0 0 0 0 203.53339224473166 108.61087512375116 0 108.61087512375116 -10.312573298512234 0 0 0 0 68.371444863769284 -87.063228661212634 0 -87.063228661212634 2.9876489108501119 0 0 0 0 -17.745740815405952 -45.563630396205667 0 -45.563630396205667 -7.2116451473029883 0 0 0 0 -73.378895660905982 -8.3894535559188625 0 -8.3894535559188625 -4.2749126149828953 0 0 0 0 -72.264599481534233 -17.903764788902045 0 -17.903764788902045 6.2982523653345819 0 0 0 0 -69.456399483628047 -32.446713228694989 0 -32.446713228694989 11.710116904723918 0 0 0 0 -56.080344604757556 177.49851130904494 0 177.49851130904494 -55.80705295081134 0 0 0 0 -11.66259793023346 86.769087608744485 0 86.769087608744485 -77.789347672671738 0 0 0 0 -394.58812465376468 221.47814977622187 0 221.47814977622187 -76.98396360957986 0 0 0 0 401.58641186919704 -51.285865089024583 0 -51.285865089024583 5.5109510122106258 0 0 0 0 -59.922953458225237 -32.157847702097101 0 -32.157847702097101 2.7483035031662197 0 0 0 0 -52.062183565460145 205.33432526688148 0 205.33432526688148 54.728426242967998 0 0 0 0 -373.66775761957251 668.2300865940681 0 668.2300865940681 634.8689600251746 0 0 0 0 511.77565569174112 390.9691882517194 0 390.9691882517194 101.58164376801233 0 0 0 0 -220.08578872344515 -7.0391714051230565 0 -7.0391714051230565 122.23315869550675 0 0 0 0 -1509.345856450338 326.44384630422883 0 326.44384630422883 630.29749659284539 0 0 0 0 -220.93440194276627 -14.402610224955652 0 -14.402610224955652 191.5241418925209 0 0 0 0 -95.404961451975396 44.668732645056593 0 44.668732645056593 -62.458063713384149 0 0 0 0 33.705155973766523 237.35794514226689 0 237.35794514226689 206.15523845607345 0 0 0 0 25.876450929878047 -220.92782140398731 0 -220.92782140398731 -169.17120608638061 0 0 0 0 -123.47692146714689 -175.2345245688457 0 -175.2345245688457 8.9433843966271525 0 0 0 0 -160.29390373444767 -84.933023775054153 0 -84.933023775054153 -23.615526564755783 0 0 0 0 -138.7719052659013 105.47839109408051 0 105.47839109408051 101.78127242858432 0 0 0 0 -150.02252977240278 93.011183207617705 0 93.011183207617705 191.59998151014861 0 0 0 0 -759.78977932060661 -173.33863573590315 0 -173.33863573590315 291.91181663179805 0 0 0 0 -446.03925497044111 -72.916778970942687 0 -72.916778970942687 299.55920661051869 0 0 0 0 -289.94016097211716 -290.38452050637125 0 -290.38452050637125 -46.148493864500779 0 0 0 0 -519.47571994490727 -313.62953256461833 0 -313.62953256461833 368.49966542868788 0 0 0 0 -497.72496360687865 -616.74626104637593 0 -616.74626104637593 -142.29941041467373 0 0 0 0 -2637.0336016623187 -1325.70469516297 0 -1325.70469516297 -1383.9818868328566 0 0 0 0 -66.713713430953177 -32.805598976690739 0 -32.805598976690739 2.931439511929435 0 0 0 0 -1465.551297443948 -760.65208879116153 0 -760.65208879116153 158.91707189002864 0 0 0 0 -105.36475444582902 -531.02911308942521 0 -531.02911308942521 -141.94912261807985 0 0 0 0 -538.87986302070203 -780.32339321491258 0 -780.32339321491258 -190.41880225209957 0 0 0 0 -42.387118185200961 -580.21518956260491 0 -580.21518956260491 -199.92906710800435 0 0 0 0 -86.201800116461527 -384.86898330748454 0 -384.86898330748454 -299.00518480802566 0 0 0 0 -90.094786176246998 -373.71627406312973 0 -373.71627406312973 -19.567100941918625 0 0 0 0 37.889555680121703 -466.62168711538698 0 -466.62168711538698 -247.27232680309453 0 0 0 0 191.19221440561523 -356.94363531189811 0 -356.94363531189811 -174.56567167099274 0 0 0 0 298.67056298461102 -366.17296939159996 0 -366.17296939159996 -178.92481191330808 0 0 0 0 519.29880632311688 -140.72709401079328 0 -140.72709401079328 3.5944015225624071 0 0 0 0 -54.737199622564447 -33.324903200801387 0 -33.324903200801387 6.5320499923215696 0 0 0 0 -36.316891880211188 -584.82445943535606 0 -584.82445943535606 -157.44694009400115 0 0 0 0 -210.19547139220231 291.19931293607533 0 291.19931293607533 -663.35166173864764 0 0 0 0 -304.6054133780126 199.22491491324172 0 199.22491491324172 -729.19998151335699 0 0 0 0 380.78415255243817 142.65010843367475 0 142.65010843367475 320.82219336146909 0 0 0 0 -98.183852969290456 17.52525994904363 0 17.52525994904363 -584.30923460203394 0 0 0 0 -12.859812311707909 -1.9892155432397942 0 -1.9892155432397942 -0.41402701043424628 0 0 0 0 337.0567736654848 -380.68626895285388 0 -380.68626895285388 -122.74292254148116 0 0 0 0 524.63475351278612 1404.8270652013789 0 1404.8270652013789 -155.27097148594294 0 0 0 0 -17.792271961325241 -194.28104125466007 0 -194.28104125466007 73.223564836582227 0 0 0 0 -14.11267703583043 -4.6503958635086704 0 -4.6503958635086704 -1.676061792719977 0 0 0 0 -7.0862321288277599 -129.50064885077293 0 -129.50064885077293 84.972012478180659 0 0 0 0 25.41244041997561 -109.29795938716109 0 -109.29795938716109 94.257632116759396 0 0 0 0 -208.05334073533595 -175.36967656668139 0 -175.36967656668139 82.656441978837393 0 0 0 0 -14.161441817501327 -208.21773127536335 0 -208.21773127536335 -53.237778676731978 0 0 0 0 223.90459041116992 -89.738395091371217 0 -89.738395091371217 -58.593637338305143 0 0 0 0 -7.6199371334081363 -34.150771148796565 0 -34.150771148796565 14.794914497109714 0 0 0 0 -637.10568905360378 101.34602467439257 0 101.34602467439257 -224.05172514506739 0 0 0 0 -140.60117895988333 -87.174124957241645 0 -87.174124957241645 171.37752611606379 0 0 0 0 -246.41916808273527 13.850160514300342 0 13.850160514300342 337.96752929432319 0 0 0 0 -213.25925774645293 -86.349365175573325 0 -86.349365175573325 185.14630794234085 0 0 0 0 -263.37936154270574 -52.729602322215015 0 -52.729602322215015 164.96574212894438 0 0 0 0 -176.80043606609979 -58.458197025107665 0 -58.458197025107665 110.91710712834447 0 0 0 0 -272.71193325678178 -139.99880817213557 0 -139.99880817213557 158.76203253260314 0 0 0 0 -192.80005081090894 -138.13181680409713 0 -138.13181680409713 83.201743961847114 0 0 0 0 -269.70388913944771 23.756057232085141 0 23.756057232085141 77.987251656521494 0 0 0 0 -203.18305804456759 -15.328415294812203 0 -15.328415294812203 64.15069987505251 0 0 0 0 -173.59969536472636 129.15314498279872 0 129.15314498279872 -81.822395633212182 0 0 0 0 -484.97502320522472 130.83482115735774 0 130.83482115735774 31.192181345337303 0 0 0 0 -9.2192818550612969 -0.29076177742593323 0 -0.29076177742593323 2.9920528506669788 0 0 0 0 -136.5512501760677 -382.14607674633351 0 -382.14607674633351 -375.15633089686617 0 0 0 0 -643.76394492590043 -213.20971893108162 0 -213.20971893108162 75.690556880344019 0 0 0 0 62.330073721746885 214.32948296859888 0 214.32948296859888 -521.89820871877828 0 0 0 0 -599.36898372531141 -440.74513962012088 0 -440.74513962012088 118.63193819875278 0 0 0 0 -2.2814431952915015 -0.51442401958145023 0 -0.51442401958145023 0.0086201656599066701 0 0 0 0 -303.79472930690099 -332.28018840810489 0 -332.28018840810489 -357.61301723235238 0 0 0 0 21.254452137778571 -21.316948843969044 0 -21.316948843969044 -34.440966520131042 0 0 0 0 76.658503308710351 -178.50278926364695 0 -178.50278926364695 -74.275967363147174 0 0 0 0 -19.040691859292565 -118.11702905763059 0 -118.11702905763059 -16.126101602091921 0 0 0 0 -1.6658380036370204 -5.1361897408865875 0 -5.1361897408865875 1.9544812988664642 0 0 0 0 15.070768350662547 110.93460608059388 0 110.93460608059388 167.07540336607281 0 0 0 0 168.46278961438657 101.02524331698692 0 101.02524331698692 -92.714107156454531 0 0 0 0 -2.6415190584023165 -32.316869549296356 0 -32.316869549296356 16.431946618512374 0 0 0 0 33.619872733846023 -52.848887947259186 0 -52.848887947259186 6.8285573175580794 0 0 0 0 -176.0024896912073 -45.854268634088839 0 -45.854268634088839 150.33655087561419 0 0 0 0 -54.080769898038284 -3.2344537381250991 0 -3.2344537381250991 5.3313381881221735 0 0 0 0 -313.68014291634609 -129.18711073926488 0 -129.18711073926488 115.89682850531699 0 0 0 0 -109.05516955016355 -147.42486771938138 0 -147.42486771938138 -37.363340158872234 0 0 0 0 0.33926201656868216 -19.891415127573055 0 -19.891415127573055 -332.10065250713888 0 0 0 0 -285.54568301220866 370.30065544126228 0 370.30065544126228 -112.66894697769567 0 0 0 0 -74.497743050327699 308.39316828767278 0 308.39316828767278 -187.36104351353839 0 0 0 0 -38.733719005139875 2.6017045708991233 0 2.6017045708991233 -0.37941878900595605 0 0 0 0 -175.98038693680428 144.75905767789072 0 144.75905767789072 -285.02742289009439 0 0 0 0 250.53569078618602 384.76037585241102 0 384.76037585241102 -1139.6265689937991 0 0 0 0 -1616.9044621484209 184.19655232592095 0 184.19655232592095 547.00694113150075 0 0 0 0 -42.037387772851829 -18.115760640038928 0 -18.115760640038928 -5.9797528614408924 0 0 0 0 -34.095835272746626 -829.82419895845305 0 -829.82419895845305 775.1335940085587 0 0 0 0 -155.84342599399679 489.85613351207303 0 489.85613351207303 -66.603940296234668 0 0 0 0 -166.36740708978323 -146.99340699621666 0 -146.99340699621666 676.1039628911185 0 0 0 0 -46.981475463702196 -17.672511033570608 0 -17.672511033570608 -4.3859330789612212 0 0 0 0 -84.423815085570823 -138.28114446071049 0 -138.28114446071049 406.8612867438776 0 0 0 0 5.698542033740523 -105.55484259492709 0 -105.55484259492709 219.43934192971824 0 0 0 0 -73.225500738291885 61.034989264446949 0 61.034989264446949 108.58462262563171 0 0 0 0 -83.915019085507083 69.761451195777681 0 69.761451195777681 -24.824127769350241 0 0 0 0 -105.05735615790218 25.025424688635098 0 25.025424688635098 351.05085370414986 0 0 0 0 -108.66364467240783 61.340636535593546 0 61.340636535593546 113.66006636877455 0 0 0 0 -26.670455916355422 56.473213781870982 0 56.473213781870982 97.695999685950596 0 0 0 0 -295.93321506454231 64.427456380644685 0 64.427456380644685 212.20978847104425 0 0 0 0 191.90834895220905 -175.63942590935562 0 -175.63942590935562 292.83691498138677 0 0 0 0 -83.727256258760463 -208.40869024880612 0 -208.40869024880612 195.19632402814182 0 0 0 0 -37.161558997633961 -12.836087084961051 0 -12.836087084961051 -2.4471822156820839 0 0 0 0 -174.30191977373761 -387.65833507246839 0 -387.65833507246839 713.09476661123358 0 0 0 0 -87.881501705080154 0.22757787928321704 0 0.22757787928321704 739.46029468283871 0 0 0 0 -234.02701940666884 -257.09521056932556 0 -257.09521056932556 527.19062539428751 0 0 0 0 173.79884888675588 -45.301861767208038 0 -45.301861767208038 152.27224861566606 0 0 0 0 111.99001330534156 -82.797552594333808 0 -82.797552594333808 204.67456819628569 0 0 0 0 -539.89050972280529 -76.178958790865408 0 -76.178958790865408 195.2080819173807 0 0 0 0 -656.29850763574359 267.1257353957651 0 267.1257353957651 341.91275816391317 0 0 0 0 -458.60462487497716 215.49549118679715 0 215.49549118679715 -288.04257120915736 0 0 0 0 -1.2508022606096176 -6.0639533292565204 0 -6.0639533292565204 -0.96105109425193547 0 0 0 0 -688.65713356846754 445.81704777100606 0 445.81704777100606 242.39179460876767 0 0 0 0 -628.9395354277367 526.70327828665722 0 526.70327828665722 -35.532623389717628 0 0 0 0 84.710612199764 -112.47905292230462 0 -112.47905292230462 46.089947488598114 0 0 0 0 1.5519770466125919 -17.447083842337634 0 -17.447083842337634 213.69374833243501 0 0 0 0 -46.966276342626998 -3.900145782364735 0 -3.900145782364735 1.9410496207965531 0 0 0 0 -2380.513366758154 -686.4527608625724 0 -686.4527608625724 -203.51251353313438 0 0 0 0 -396.08428757105867 0.82594511395541304 0 0.82594511395541304 444.20089056691336 0 0 0 0 -1.7115014032261229 -3.6639436180732403 0 -3.6639436180732403 -10.187199956302608 0 0 0 0 -9.9278243022253569 6.9449172781320101 0 6.9449172781320101 -4.9155430136665457 0 0 0 0 -2497.8423785426389 -237.20507392657623 0 -237.20507392657623 18.943904266072348 0 0 0 0 -2401.6516124519767 240.30253727283508 0 240.30253727283508 -33.098127603195017 0 0 0 0 467.40068992139277 203.85170731521487 0 203.85170731521487 -470.85921207309502 0 0 0 0 -492.45538836682863 -48.445182096553424 0 -48.445182096553424 574.06813213993837 0 0 0 0 -328.22481221138878 -335.05536672035828 0 -335.05536672035828 -1195.5893237841851 0 0 0 0 -1603.7733486148209 -555.9351534935804 0 -555.9351534935804 -236.65613637724834 0 0 0 0 110.8555258816923 56.280606025431439 0 56.280606025431439 -484.99111765487123 0 0 0 0 -51.529330804842175 -386.10042750656385 0 -386.10042750656385 -1277.9710999106846 0 0 0 0 -14.016007738951345 0.40540653914086988 0 0.40540653914086988 -0.10336865249634553 0 0 0 0 -292.02349389305164 -1336.0678544726541 0 -1336.0678544726541 -1720.1999524109979 0 0 0 0 -35.351156790216919 12.843787712651647 0 12.843787712651647 7.5757978636092957 0 0 0 0 -41.867238501425277 4.3104720393705591 0 4.3104720393705591 0.75257555406772481 0 0 0 0 -801.8587866061207 -485.65176460091243 0 -485.65176460091243 -385.99363967395266 0 0 0 0 -338.46332362997782 -558.57935453470122 0 -558.57935453470122 -944.63183421550048 0 0 0 0 -16.118801603248755 -4.2154631734458228 0 -4.2154631734458228 1.0770346844990191 0 0 0 0 -372.53858849322569 -980.97311521395943 0 -980.97311521395943 -1774.7994709589334 0 0 0 0 22.88640864350964 -278.37429172384964 0 -278.37429172384964 -892.18281599475631 0 0 0 0 -249.54855734034209 -177.42968408180968 0 -177.42968408180968 730.62827780413124 0 0 0 0 -38.773103301614583 -5.7402743001921159 0 -5.7402743001921159 2.9057795258693178 0 0 0 0 -476.90583477026667 -294.15888253509706 0 -294.15888253509706 -11.767852782171644 0 0 0 0 -400.1748128378822 -882.85024627573125 0 -882.85024627573125 -612.34064953899838 0 0 0 0 -193.76811997546247 -548.94113842141769 0 -548.94113842141769 253.08834243880585 0 0 0 0 -333.83549820979533 -260.51589244753603 0 -260.51589244753603 668.83025253232358 0 0 0 0 75.362125243635091 46.99556888630724 0 46.99556888630724 192.68130864540785 0 0 0 0 -587.81661229343445 317.83543156747339 0 317.83543156747339 1091.3405248597742 0 0 0 0 -432.32354741139216 -257.29274363067202 0 -257.29274363067202 55.424188535214284 0 0 0 0 -804.23534554786602 -229.36430071472947 0 -229.36430071472947 110.54683690896566 0 0 0 0 -1.948996151566746 -2.6530851555218788 0 -2.6530851555218788 -1.3482750179226295 0 0 0 0 695.09230283099896 -667.32769520998875 0 -667.32769520998875 237.22231542012915 0 0 0 0 477.4504797706395 -375.82038272141091 0 -375.82038272141091 151.86495047220518 0 0 0 0 -2499.3173751796057 -507.65701376261569 0 -507.65701376261569 -9.7221743658668451 0 0 0 0 243.71811112452997 -317.92373309037976 0 -317.92373309037976 264.50421082143203 0 0 0 0 -52.033657717685855 -92.492816435665134 0 -92.492816435665134 132.609332896811 0 0 0 0 -6.3375646349351804 -9.1937821061216312 0 -9.1937821061216312 -7.0664157577820585 0 0 0 0 81.141217976495682 -72.875133130152051 0 -72.875133130152051 -11.838100006583545 0 0 0 0 540.45516415643942 -352.72617301637905 0 -352.72617301637905 120.37541939366012 0 0 0 0 -0.77018039401840355 -3.1191072466133249 0 -3.1191072466133249 -1.8463153105546357 0 0 0 0 -1362.6493844051802 279.68977959292602 0 279.68977959292602 618.35477463781262 0 0 0 0 -1511.286309317642 -55.012297802622911 0 -55.012297802622911 464.70127214615763 0 0 0 0 -2724.2977745534827 -1105.8349122338964 0 -1105.8349122338964 419.85201275089037 0 0 0 0 -1076.280703072669 -321.0387566983448 0 -321.0387566983448 472.1960842880851 0 0 0 0 -433.83346888913366 -629.18112138040499 0 -629.18112138040499 288.04696774221009 0 0 0 0 -5.5694064191969801 -7.6264916492683028 0 -7.6264916492683028 -1.9587598305531326 0 0 0 0 278.94286191523133 -539.69260827549522 0 -539.69260827549522 108.34512505282044 0 0 0 0 2.6459660902037285 -51.712797851315401 0 -51.712797851315401 297.82637904444357 0 0 0 0 -3066.9819993731799 -29.113283989532917 0 -29.113283989532917 588.73531913727027 0 0 0 0 -3.1297127185408797 2.2360627218288442 0 2.2360627218288442 1.0681103242332251 0 0 0 0 125.73191761103226 296.20442235952157 0 296.20442235952157 341.23439064556794 0 0 0 0 -334.42121217673412 300.99816503115727 0 300.99816503115727 606.96621231759104 0 0 0 0 -202.26816863098065 -190.41201653775784 0 -190.41201653775784 430.99700459237016 0 0 0 0 16.056895601053839 112.08688068287051 0 112.08688068287051 160.09157715251951 0 0 0 0 -8.9531430746452472 5.5380373498034459 0 5.5380373498034459 2.0201181073519767 0 0 0 0 -2499.3969157353495 -399.60004064589435 0 -399.60004064589435 13.93481787520027 0 0 0 0 -28.955685702283517 -30.020635828071534 0 -30.020635828071534 43.458891314619564 0 0 0 0 -385.98807635339472 21.85472229067679 0 21.85472229067679 -23.593965347888592 0 0 0 0 -9.0624886264819082 -9.5412395113933712 0 -9.5412395113933712 -1.9021013548818304 0 0 0 0 -324.97125373013114 47.346789567969871 0 47.346789567969871 -13.002441080247907 0 0 0 0 -7.4698166275192648 -1.3757111105205553 0 -1.3757111105205553 -0.22141587629142304 0 0 0 0 -2231.7475921013684 -39.058300380146662 0 -39.058300380146662 12.80521268048348 0 0 0 0 -2111.4248583706212 -8.1905946869066319 0 -8.1905946869066319 0.62976887010964333 0 0 0 0 -21.31356083812716 -3.3212941126267879 0 -3.3212941126267879 -0.0020270742490641007 0 0 0 0 -7.713082998784131 0.0027286048135692909 0 0.0027286048135692909 0.295008224263202 0 0 0 0 -480.40863204976995 -25.483135061700398 0 -25.483135061700398 0.046498427814464643 0 0 0 0 -432.23506479989737 -8.4001434976260434 0 -8.4001434976260434 0.050442500524110111 0 0 0 0 -465.22630089391896 -0.56561689213309663 0 -0.56561689213309663 27.540347076567542 0 0 0 0 -448.62078035029845 78.579247533823917 0 78.579247533823917 -11.227920757544169 0 0 0 0 -543.08419460589357 -4.3196002024695801 0 -4.3196002024695801 27.386983412470137 0 0 0 0 -523.14978775211057 -48.246669400199238 0 -48.246669400199238 20.428925125592386 0 0 0 0 -509.85162058666901 -22.889705541400978 0 -22.889705541400978 8.6816666508875358 0 0 0 0 -609.62456135507091 1.0586017882598746 0 1.0586017882598746 9.2421186278698322 0 0 0 0 -563.26962206064127 -85.712008510855924 0 -85.712008510855924 -5.6124432925163177 0 0 0 0 -712.65054178107675 113.47448833311979 0 113.47448833311979 2.6379694774793032 0 0 0 0 -1192.573283108999 225.57399082508718 0 225.57399082508718 -7.6496022952959208 0 0 0 0 -617.50558840065787 0.22490735803855699 0 0.22490735803855699 29.219380650745016 0 0 0 0 -562.94221010006004 19.321321431415619 0 19.321321431415619 -0.82746189361627387 0 0 0 0 -461.81721104872122 -57.770137910709174 0 -57.770137910709174 -68.204368352699476 0 0 0 0 -458.40301113910391 -82.270166279722034 0 -82.270166279722034 4.8951487843782715 0 0 0 0 -375.2296356032457 -100.49028908579992 0 -100.49028908579992 3.7737381415727924 0 0 0 0 -341.81670833276439 -145.53198534549432 0 -145.53198534549432 -22.265044374051513 0 0 0 0 -350.84738603382903 -77.39502721358285 0 -77.39502721358285 -7.2874383946042443 0 0 0 0 -351.22773043901907 -80.595605662942617 0 -80.595605662942617 -33.10890200684657 0 0 0 0 -441.92014568077866 -64.453256977783553 0 -64.453256977783553 -11.450449517694587 0 0 0 0 -444.54405200837209 -75.648861532418465 0 -75.648861532418465 5.6527434033440258 0 0 0 0 -361.21242120675305 -66.635405099963862 0 -66.635405099963862 0.4613937335924021 0 0 0 0 -361.20092085649958 -65.642869218638793 0 -65.642869218638793 -7.9223296156095842 0 0 0 0 -356.20677182343934 -38.526664351612283 0 -38.526664351612283 0.011504718043118665 0 0 0 0 -425.29033706580958 -74.57039036245412 0 -74.57039036245412 17.157899715118678 0 0 0 0 -432.2835138562732 -51.091362397032128 0 -51.091362397032128 9.2587391205236891 0 0 0 0 -186.06424132172833 -28.328488775789641 0 -28.328488775789641 -0.053893790457747628 0 0 0 0 -272.86893575914621 -68.286342909708651 0 -68.286342909708651 -1.1807296178000257 0 0 0 0 -272.83666287706001 -69.659192666675352 0 -69.659192666675352 -18.909651719182463 0 0 0 0 -194.55811660297331 -35.176762207818612 0 -35.176762207818612 -13.684636461679153 0 0 0 0 -150.23540356652666 -64.47075336476135 0 -64.47075336476135 -35.959542901911874 0 0 0 0 -189.56059957320008 -53.773125402490273 0 -53.773125402490273 -4.5816088696645938 0 0 0 0 -276.38508693446056 -70.049270548798361 0 -70.049270548798361 -30.598291860118962 0 0 0 0 -276.31292879251851 -60.314887709966278 0 -60.314887709966278 -2.5133570367362097 0 0 0 0 -190.1868321524712 -71.796185908582885 0 -71.796185908582885 -39.733890803752047 0 0 0 0 -268.41688440415601 -89.028953858137697 0 -89.028953858137697 -62.388811661052671 0 0 0 0 -241.18780865737062 -46.124225758866693 0 -46.124225758866693 -20.941621109576189 0 0 0 0 -253.7050452985568 -76.161518263838332 0 -76.161518263838332 -54.778137131947076 0 0 0 0 -17.762165677529993 -3.8921869448514315 0 -3.8921869448514315 -68.504954560069535 0 0 0 0 -171.84061185107566 -79.055437013751828 0 -79.055437013751828 -56.173894271957323 0 0 0 0 -84.113810206261405 -25.262050371499857 0 -25.262050371499857 -46.17823138192098 0 0 0 0 -53.243004923206172 14.083293862349883 0 14.083293862349883 3.4818939058836804 0 0 0 0 -0.35360808529367205 -33.993225475024687 0 -33.993225475024687 -74.151891291831532 0 0 0 0 -22.661627297657105 12.276564051001685 0 12.276564051001685 4.5010242932960409 0 0 0 0 -32.519422792908017 12.466507664000499 0 12.466507664000499 -1.6052875777408846 0 0 0 0 -14.985178659547145 4.1639038034608831 0 4.1639038034608831 -1.6057848781048434 0 0 0 0 -37.351375196800404 10.995231850200959 0 10.995231850200959 -4.4483654113908324 0 0 0 0 -75.397642843380495 25.37663821524572 0 25.37663821524572 -0.68590264211694496 0 0 0 0 7.5245265216799453 -90.226943657502716 0 -90.226943657502716 -250.23895322731505 0 0 0 0 60.195286488771671 94.788170390546497 0 94.788170390546497 -9.983935302122859 0 0 0 0 -229.10801417753828 -163.13054776902374 0 -163.13054776902374 -27.999429277052855 0 0 0 0 -136.84043664259661 -21.071811824271961 0 -21.071811824271961 18.366759003925353 0 0 0 0 -261.00463635503547 -109.95488187566923 0 -109.95488187566923 -26.875115299451664 0 0 0 0 -0.099695168783398458 0.40189119539198259 0 0.40189119539198259 -0.98469031823457942 0 0 0 0 -322.87564254211611 -118.29169577017149 0 -118.29169577017149 -12.832014486970081 0 0 0 0 -411.55131485559104 -200.07221776091399 0 -200.07221776091399 48.270105976125933 0 0 0 0 -545.46277959615691 -34.193804094968485 0 -34.193804094968485 73.349215843584716 0 0 0 0 -568.92479167482816 -92.484252771628832 0 -92.484252771628832 41.094672932383418 0 0 0 0 -405.04961281194483 135.38223612456292 0 135.38223612456292 212.32277629599889 0 0 0 0 -913.04741482411919 -162.40769120969708 0 -162.40769120969708 535.3890756869539 0 0 0 0 -863.36578261066916 -715.94865082391459 0 -715.94865082391459 -303.65760653033038 0 0 0 0 -290.86968823989446 -213.13501292530512 0 -213.13501292530512 -61.609891625466815 0 0 0 0 -283.86166941777628 -253.62650269441721 0 -253.62650269441721 55.924648659017286 0 0 0 0 -30.44126227029119 3.4776246349160544 0 3.4776246349160544 47.968284432838118 0 0 0 0 -41.576545012841962 3.4773403647327115 0 3.4773403647327115 2.6396937197469996 0 0 0 0 -48.555415642400476 54.056760751541304 0 54.056760751541304 51.711401890413072 0 0 0 0 178.59724385690242 296.74796312016514 0 296.74796312016514 88.795436691991426 0 0 0 0 144.96272393262188 -184.78387606090291 0 -184.78387606090291 -855.33988359765362 0 0 0 0 -25.376635334344911 18.305344441858196 0 18.305344441858196 0.95295280448224651 0 0 0 0 -2.3664911025657034 4.0682951715738556 0 4.0682951715738556 -0.97362850119003308 0 0 0 0 -1125.2168722453644 505.18752247566886 0 505.18752247566886 548.10494725370631 0 0 0 0 -605.2302019912895 -1404.130745799396 0 -1404.130745799396 -926.75180134632546 0 0 0 0 -48.044678004643799 10.913355639605342 0 10.913355639605342 3.3415922874387354 0 0 0 0 -47.004497791458562 28.528776211869626 0 28.528776211869626 26.907536068588215 0 0 0 0 8.8920438777749951 252.94009541834214 0 252.94009541834214 201.29656860356181 0 0 0 0 29.842037166588852 91.61963103937353 0 91.61963103937353 21.426772707992541 0 0 0 0 -171.61112005019095 251.07267662084877 0 251.07267662084877 489.62366657594066 0 0 0 0 -273.7993874865715 335.83383954787314 0 335.83383954787314 -169.70578524837924 0 0 0 0 -612.05785827773798 -132.27314769086306 0 -132.27314769086306 719.568612090991 0 0 0 0 38.953635788224346 -177.60844075434977 0 -177.60844075434977 266.63497669898004 0 0 0 0 -47.98715119103872 19.022248424711677 0 19.022248424711677 12.995092494549453 0 0 0 0 -8.6393837470287025 8.5885081476731386 0 8.5885081476731386 -9.3124637353389232 0 0 0 0 -37.29066813497775 6.8363398907787314 0 6.8363398907787314 -20.345646423341805 0 0 0 0 -48.46624800486461 8.6628997385745379 0 8.6628997385745379 0.62637710850526673 0 0 0 0 -38.468161054943778 -1.8525390042824581 0 -1.8525390042824581 -1.9991801924962016 0 0 0 0 -37.953736049706691 14.214764065704617 0 14.214764065704617 -1.0359432914396134 0 0 0 0 -58.810920224699657 -5.8466172999420678 0 -5.8466172999420678 29.807969308482484 0 0 0 0 -35.635434693598654 19.934830159745161 0 19.934830159745161 -13.116397021280818 0 0 0 0 -38.566618919554116 -0.48508843804122392 0 -0.48508843804122392 2.8499853997940856 0 0 0 0 -47.903838451272293 4.7954189686313375 0 4.7954189686313375 2.6924277276400432 0 0 0 0 -107.22224749253655 -74.480205960443982 0 -74.480205960443982 -96.500301349191886 0 0 0 0 100.42543019217555 -19.139274672475949 0 -19.139274672475949 -176.96885104685634 0 0 0 0 -268.452946302903 -94.614206693124288 0 -94.614206693124288 -162.59940155442064 0 0 0 0 -269.88798213363043 -274.68329043166023 0 -274.68329043166023 -266.08855631916776 0 0 0 0 -21.8992676493217 -114.19776690651224 0 -114.19776690651224 -227.32452213318993 0 0 0 0 162.66353946177696 32.40072446432896 0 32.40072446432896 -152.46497859625742 0 0 0 0 -49.444271353706426 -47.779503333521916 0 -47.779503333521916 37.939757091106912 0 0 0 0 -48.112621557724196 52.43316536004204 0 52.43316536004204 11.555752256179403 0 0 0 0 126.65766720260581 124.38727680498278 0 124.38727680498278 -56.333640222144822 0 0 0 0 0.15035844851834668 -0.87028167542371904 0 -0.87028167542371904 -5.7862771775980812 0 0 0 0 3.258972815136076 25.360422717423717 0 25.360422717423717 -126.36687769486889 0 0 0 0 24.021209332553553 57.384182007771415 0 57.384182007771415 -86.391072904077191 0 0 0 0 -20.145391114341692 -96.113852008568756 0 -96.113852008568756 -175.44727131647596 0 0 0 0 567.27866584559888 -412.02647394656549 0 -412.02647394656549 297.70201523626133 0 0 0 0 -31.025900027525495 -9.1520121060398196 0 -9.1520121060398196 -23.746262214277117 0 0 0 0 -783.89652957931685 -716.77259914479782 0 -716.77259914479782 260.04767426811964 0 0 0 0 -7.9561409221082542 -7.4643844263689232 0 -7.4643844263689232 -14.40926289347842 0 0 0 0 -211.64764615755121 -107.2429436213456 0 -107.2429436213456 -37.862081834074161 0 0 0 0 -91.056601292413688 -115.65833004463889 0 -115.65833004463889 -220.05851506293948 0 0 0 0 -416.26909128026455 -263.02043946252979 0 -263.02043946252979 -125.24097734013958 0 0 0 0 -414.50745512721312 -367.16306639717118 0 -367.16306639717118 -278.72642087152599 0 0 0 0 -524.08037934929598 -337.22239201241746 0 -337.22239201241746 -236.83586111537625 0 0 0 0 -679.54375290930329 -429.96102652229183 0 -429.96102652229183 -250.54993491729738 0 0 0 0 -452.01624218287179 -325.56427488778627 0 -325.56427488778627 -340.16230364378407 0 0 0 0 -418.25722640176537 -235.78177135926126 0 -235.78177135926126 -176.65723884289537 0 0 0 0 -691.25015153070126 -116.87665815429045 0 -116.87665815429045 -45.660252859443062 0 0 0 0 -1309.4039483073575 -440.56271690661742 0 -440.56271690661742 -193.32833217245707 0 0 0 0 -665.00310253991483 -338.8168335993555 0 -338.8168335993555 -824.39134733229275 0 0 0 0 -1325.8134807794704 149.54122130060159 0 149.54122130060159 -565.81560619047195 0 0 0 0 -592.92510866252269 -209.86385168326706 0 -209.86385168326706 -448.24954137235 0 0 0 0 -2056.4626162290733 -319.57867427672227 0 -319.57867427672227 -127.97280218473679 0 0 0 0 -295.1022774308949 -256.92406066973763 0 -256.92406066973763 -468.71679787348421 0 0 0 0 -675.38750377797987 -324.61371371337509 0 -324.61371371337509 -283.92154678822271 0 0 0 0 -532.97696430851647 -13.130725889063342 0 -13.130725889063342 -251.58089015845144 0 0 0 0 -149.66525899231783 277.83566371597317 0 277.83566371597317 -84.004490675445936 0 0 0 0 -248.45241652273671 -97.009738189859945 0 -97.009738189859945 -283.60316497384702 0 0 0 0 -137.57008119700185 -173.67799841428518 0 -173.67799841428518 -292.91479921338953 0 0 0 0 -753.2493531398286 -625.9884043546889 0 -625.9884043546889 -229.87018099167153 0 0 0 0 -1447.2668562324543 -446.75551851382625 0 -446.75551851382625 89.860768039775394 0 0 0 0 -1126.5945166946185 -391.95176798348939 0 -391.95176798348939 -138.19276725024997 0 0 0 0 -1156.1940430432005 -145.42520367395264 0 -145.42520367395264 -165.85396429852608 0 0 0 0 -1228.7090373472165 -527.70534880664309 0 -527.70534880664309 95.962303345354485 0 0 0 0 -16.232783956961498 3.6816003424198946 0 3.6816003424198946 -1.4135778093547871 0 0 0 0 -1123.2116555089597 -848.73376351089883 0 -848.73376351089883 -321.36034941409434 0 0 0 0 -103.8126954145082 62.853098316842761 0 62.853098316842761 52.653478859178449 0 0 0 0 -22.147910815780051 -22.921594406999702 0 -22.921594406999702 25.059522093064913 0 0 0 0 -44.942575084074633 11.392403345226739 0 11.392403345226739 32.497560652003656 0 0 0 0 -28.797506470582448 -10.15862008602312 0 -10.15862008602312 0.6555236229802337 0 0 0 0 -42.472815364194645 17.33466246097894 0 17.33466246097894 -3.2989497866281488 0 0 0 0 -40.166436123669314 13.040956617112094 0 13.040956617112094 -2.555590906038069 0 0 0 0 -58.829688791622175 33.958641449325569 0 33.958641449325569 0.68175325979264501 0 0 0 0 -41.157098599209277 4.6825904836412349 0 4.6825904836412349 4.0739303673547367 0 0 0 0 -202.55344967581914 218.09850503954999 0 218.09850503954999 198.05906269333627 0 0 0 0 56.337584666718612 -12.492082528911851 0 -12.492082528911851 41.866455226226208 0 0 0 0 398.87715291531913 169.41117656883134 0 169.41117656883134 -6.1365559433634189 0 0 0 0 -16.173542050835774 3.718490220061156 0 3.718490220061156 0.93474503558717181 0 0 0 0 -209.40000763175522 100.43131919378322 0 100.43131919378322 12.939326666590205 0 0 0 0 -39.61591788091755 11.583858389448835 0 11.583858389448835 -0.38393636430737388 0 0 0 0 -101.43013022466039 71.404601417167669 0 71.404601417167669 114.86869039786507 0 0 0 0 -48.828403986496539 15.063768488421697 0 15.063768488421697 -2.5512665173420137 0 0 0 0 -45.570961360863294 13.39748472891506 0 13.39748472891506 -0.82277633091052849 0 0 0 0 -47.795062169610901 43.616245535697772 0 43.616245535697772 -1.1408923699041225 0 0 0 0 -82.175175811062218 12.0482634147195 0 12.0482634147195 3.8709276271429189 0 0 0 0 -39.985590640656653 15.048567400788265 0 15.048567400788265 -0.38705733286570787 0 0 0 0 -93.151718939465354 -8.1263226102047703 0 -8.1263226102047703 4.8774825750976625 0 0 0 0 -24.985747469501803 16.194240917263606 0 16.194240917263606 -22.874656579868031 0 0 0 0 -64.677427125418035 4.1178686451968929 0 4.1178686451968929 -2.2202696222315979 0 0 0 0 -12.598947423767108 0.55529381051925952 0 0.55529381051925952 -0.39955507465486573 0 0 0 0 -71.789582615322388 15.547378257761768 0 15.547378257761768 5.6591834494785758 0 0 0 0 -66.244595390264294 16.14740919462556 0 16.14740919462556 -6.7265657135609445 0 0 0 0 -104.7692811620509 11.603679879403792 0 11.603679879403792 4.4260589125101149 0 0 0 0 0.48508059811477988 0.22355483929395348 0 0.22355483929395348 -0.53634089779330829 0 0 0 0 -31.286409355772776 -22.016224113126196 0 -22.016224113126196 -37.786901731115847 0 0 0 0 -0.18244752924834229 0.051567887166044102 0 0.051567887166044102 -0.24893616538836272 0 0 0 0 -106.33673525758059 -43.229262111907381 0 -43.229262111907381 -31.420893455850354 0 0 0 0 -130.30781251101689 -13.801479091261992 0 -13.801479091261992 9.4670885853926734 0 0 0 0 -102.46906947550451 9.2436395161839684 0 9.2436395161839684 -2.816271985591527 0 0 0 0 -123.12963541106728 25.218445543087739 0 25.218445543087739 -11.981499149661582 0 0 0 0 -91.122126145215589 2.8216316783322299 0 2.8216316783322299 -32.883949655150694 0 0 0 0 -149.62665067630587 -10.968669439847227 0 -10.968669439847227 -0.018661218492159713 0 0 0 0 -177.44471551277456 -35.217757942155082 0 -35.217757942155082 -20.98114395613425 0 0 0 0 -45.666100407295744 18.447469318894424 0 18.447469318894424 -9.1783017060997096 0 0 0 0 -68.430589599025552 20.25853015381885 0 20.25853015381885 -0.019820087307424579 0 0 0 0 -92.767354487554258 3.9935270589187466 0 3.9935270589187466 -8.0944537824358349 0 0 0 0 -66.780738153895072 21.351450898876152 0 21.351450898876152 -0.028926329042562315 0 0 0 0 -66.422934920541593 23.399092365478815 0 23.399092365478815 -14.921071918391757 0 0 0 0 -43.000875505371368 28.183638394004362 0 28.183638394004362 -5.9428573897636028 0 0 0 0 -45.869561871324549 38.025951471503532 0 38.025951471503532 7.7766830383043128 0 0 0 0 -71.993012367562187 19.009587604520224 0 19.009587604520224 4.6804864862286166 0 0 0 0 16.015985204703611 -4.595647743050904 0 -4.595647743050904 -39.029102650077675 0 0 0 0 -49.786137462028989 22.185331456995797 0 22.185331456995797 -6.2317391773613311 0 0 0 0 293.76412383010029 167.47177079766084 0 167.47177079766084 -37.703245695547594 0 0 0 0 461.41487171385779 -547.91816916503967 0 -547.91816916503967 79.418553120756769 0 0 0 0 -1431.8050486226275 32.250887944232545 0 32.250887944232545 135.10714970942558 0 0 0 0 -1947.3392428312436 -377.4181203967679 0 -377.4181203967679 669.56227479691188 0 0 0 0 -34.11163739830954 77.110394087333589 0 77.110394087333589 -241.51529621707556 0 0 0 0 -318.47970616618113 -134.9364523555721 0 -134.9364523555721 -300.20665661228077 0 0 0 0 -1731.2408935049461 -456.18759384542807 0 -456.18759384542807 -172.42623126574426 0 0 0 0 -363.8890229860408 12.522324533415258 0 12.522324533415258 -766.27720241061184 0 0 0 0 -169.07806417636311 299.40554292844172 0 299.40554292844172 132.1919286616826 0 0 0 0 383.9293700721646 -298.88550765773391 0 -298.88550765773391 -300.1516134781491 0 0 0 0 430.24169974509277 -163.92282542551209 0 -163.92282542551209 -115.83763380183495 0 0 0 0 -12.072290191853199 -2.8030389970722069 0 -2.8030389970722069 3.1474512851205163 0 0 0 0 -545.08515060873469 -1590.7023318053161 0 -1590.7023318053161 -1523.1651734588104 0 0 0 0 -1774.2613711252779 336.25630294757411 0 336.25630294757411 264.35851667563406 0 0 0 0 -13.912911794965851 -6.6247784172802895 0 -6.6247784172802895 -3.2251650241032328 0 0 0 0 -52.177261506503925 21.691548646048943 0 21.691548646048943 -5.1944520125973312 0 0 0 0 -1952.2621655255207 1311.5351453892099 0 1311.5351453892099 -1199.1173212062517 0 0 0 0 -1838.499638475223 -800.43394464638095 0 -800.43394464638095 564.32267266115969 0 0 0 0 -2367.871951252353 -77.657405667060175 0 -77.657405667060175 693.58315182740262 0 0 0 0 800.94368118983402 -777.0498339164435 0 -777.0498339164435 -1331.8445575504447 0 0 0 0 -44.447803207633115 35.214599492919419 0 35.214599492919419 11.772395515853546 0 0 0 0 -34.847443877180922 25.28950251857211 0 25.28950251857211 0.022327580135065972 0 0 0 0 -1257.952210039366 -1708.5917583310156 0 -1708.5917583310156 -513.21892124097064 0 0 0 0 -1208.8758175292896 -1631.4380910448815 0 -1631.4380910448815 -581.2052626191653 0 0 0 0 -37.736364270216257 11.117925341665249 0 11.117925341665249 -0.20820904856164957 0 0 0 0 -34.838185082626524 25.638940852436434 0 25.638940852436434 12.08126150845353 0 0 0 0 -730.43851142278436 -1975.0765869142333 0 -1975.0765869142333 -451.54428090033934 0 0 0 0 -21.529736384742137 11.54719884692153 0 11.54719884692153 9.5463612039458177 0 0 0 0 -46.276891464647633 21.243504298769448 0 21.243504298769448 5.3158696497283202 0 0 0 0 -34.062738029460888 22.599054680270683 0 22.599054680270683 0.0029558490157990448 0 0 0 0 -1813.0614330798053 -122.82643462982787 0 -122.82643462982787 696.84656164854084 0 0 0 0 -345.24759924234968 -1591.9366873006784 0 -1591.9366873006784 -2377.9138829096119 0 0 0 0 -14.289860156422947 15.137699061268123 0 15.137699061268123 0.022372556908252007 0 0 0 0 -13.156728959386101 0.93497186341738825 0 0.93497186341738825 0.53544804252737599 0 0 0 0 -1517.7230203304935 -1428.5470593148357 0 -1428.5470593148357 -593.7442402834854 0 0 0 0 -17.818398800226532 0.71112567719671915 0 0.71112567719671915 2.4792030995059866 0 0 0 0 27.341443176221219 151.78668155907144 0 151.78668155907144 -107.78915692308874 0 0 0 0 -55.952978050772799 -136.56698318618425 0 -136.56698318618425 -207.9968125935759 0 0 0 0 -133.75801831289755 -127.8985240899778 0 -127.8985240899778 248.28622119186002 0 0 0 0 103.51446625571407 -232.0568913223392 0 -232.0568913223392 522.87302534913215 0 0 0 0 -134.87444404158487 -50.669527043335961 0 -50.669527043335961 551.75455485541806 0 0 0 0 5.919927473863936 21.919096961087689 0 21.919096961087689 304.27822558747448 0 0 0 0 -202.46137895257561 206.28237908500023 0 206.28237908500023 275.68764348570858 0 0 0 0 -133.28753948392114 -380.4117809818872 0 -380.4117809818872 919.42393312294689 0 0 0 0 -233.21439154271502 -59.209421351673882 0 -59.209421351673882 740.46936003635892 0 0 0 0 94.975104146560625 -396.83911473162414 0 -396.83911473162414 237.86858586744074 0 0 0 0 -33.536868901931626 -15.590484115186499 0 -15.590484115186499 -5.6300886129656691 0 0 0 0 79.352819071966223 -54.920465272000001 0 -54.920465272000001 80.857080489977307 0 0 0 0 157.5584744146181 -139.81172023102658 0 -139.81172023102658 -158.25329422605546 0 0 0 0 58.357036657223944 -48.975773538082649 0 -48.975773538082649 -15.209729642605453 0 0 0 0 -45.624839992066342 -15.396958085082176 0 -15.396958085082176 -5.6800559306386091 0 0 0 0 -130.32954233741839 -143.69424836164399 0 -143.69424836164399 602.25711127766317 0 0 0 0 77.304385404429922 -22.939719295229224 0 -22.939719295229224 -14.901746339821329 0 0 0 0 47.815789685002528 -49.621407211993301 0 -49.621407211993301 -15.023129455387107 0 0 0 0 -28.3548726688268 -1.1275517706895286 0 -1.1275517706895286 -1.654302752628892 0 0 0 0 -137.86374203422747 4.5281129056693317 0 4.5281129056693317 27.614538776984773 0 0 0 0 29.785407585328358 -22.298472974028869 0 -22.298472974028869 -14.715338044396958 0 0 0 0 103.88266108574317 -82.652390537557494 0 -82.652390537557494 -191.46112504662733 0 0 0 0 146.36315205555729 24.335037191693573 0 24.335037191693573 -77.296533445481145 0 0 0 0 -159.16354589209368 83.977021611245164 0 83.977021611245164 101.54434006119664 0 0 0 0 -9.5097067953213923 1.2493889552212352 0 1.2493889552212352 0.66625803193545963 0 0 0 0 -790.97189084198908 -58.908342169477692 0 -58.908342169477692 461.62022207071277 0 0 0 0 -32.404569892159046 12.575705716925711 0 12.575705716925711 -2.038655804208533 0 0 0 0 -383.39841474487548 -52.034954135174303 0 -52.034954135174303 83.559771401594844 0 0 0 0 -268.43027161224745 -2.4754715819126432 0 -2.4754715819126432 84.889383245024874 0 0 0 0 290.61839330676594 260.9830689297396 0 260.9830689297396 -152.48512448696783 0 0 0 0 151.11333749562618 281.39879438262778 0 281.39879438262778 -133.37661278182844 0 0 0 0 -3.9757446548901498 73.640437436387629 0 73.640437436387629 -133.93967108942161 0 0 0 0 93.401860332684009 293.80896982087415 0 293.80896982087415 48.922460362649986 0 0 0 0 91.94631062609551 60.276483644829113 0 60.276483644829113 94.521700224321762 0 0 0 0 97.81393915895751 121.23373239441162 0 121.23373239441162 -207.05938956202817 0 0 0 0 -55.1166450407909 194.30585768254423 0 194.30585768254423 -416.40364709886558 0 0 0 0 -999.9643805798114 358.13221351626657 0 358.13221351626657 -365.70704753204677 0 0 0 0 -544.87627274272381 -78.890040064022514 0 -78.890040064022514 -99.726597342323657 0 0 0 0 -238.95723778259708 -6.083036083990919 0 -6.083036083990919 -119.60192975065502 0 0 0 0 -131.50513135809524 -119.18089879149522 0 -119.18089879149522 -21.331493435882294 0 0 0 0 -81.053663609938667 158.60294214997703 0 158.60294214997703 -99.320358309778385 0 0 0 0 -1735.5139001258576 -455.41751744330418 0 -455.41751744330418 99.808887307272016 0 0 0 0 -1221.8662098198693 -486.2542761366085 0 -486.2542761366085 93.545280701789125 0 0 0 0 -841.3766444572102 -350.86848405331966 0 -350.86848405331966 80.4937959041564 0 0 0 0 -795.09350646784878 -355.84872202391534 0 -355.84872202391534 40.26813481613317 0 0 0 0 322.60549583616375 -263.14455211961831 0 -263.14455211961831 -158.40143066485507 0 0 0 0 -697.37393853349931 -225.59788748942049 0 -225.59788748942049 123.91777192943118 0 0 0 0 -1241.5060750508856 -745.51577178315347 0 -745.51577178315347 -73.720152946611961 0 0 0 0 -595.25668748859243 -487.65604215855853 0 -487.65604215855853 -26.692588374084153 0 0 0 0 -33.407964219261544 13.221490506700093 0 13.221490506700093 -2.9158476021551962 0 0 0 0 -352.85656259143434 133.87123367653066 0 133.87123367653066 289.87766685534393 0 0 0 0 143.77930301511515 329.53992327894684 0 329.53992327894684 203.848556622459 0 0 0 0 360.89378819140256 84.832790075139201 0 84.832790075139201 -97.708504891945267 0 0 0 0 215.91117377845512 -137.66506152174907 0 -137.66506152174907 -22.881088479887694 0 0 0 0 -781.41649431094538 74.433115397976565 0 74.433115397976565 184.97778169175945 0 0 0 0 -329.94015302747721 -165.68375385617492 0 -165.68375385617492 297.83498921948512 0 0 0 0 896.83801922557905 -262.30108791362818 0 -262.30108791362818 -791.78388071301015 0 0 0 0 -286.80643567188235 -236.10795530185578 0 -236.10795530185578 -82.418615802220302 0 0 0 0 393.01210972774425 320.86295258948348 0 320.86295258948348 -110.8090328313956 0 0 0 0 135.7465523337014 -5.3849378752520352 0 -5.3849378752520352 7.4667013802481961 0 0 0 0 63.788143428108015 46.365756090354807 0 46.365756090354807 7.872703875951629 0 0 0 0 -3.0822274614183698 100.06260275675959 0 100.06260275675959 145.59303446898411 0 0 0 0 -4.2504369685339043 92.179347239749404 0 92.179347239749404 12.995642067704466 0 0 0 0 -241.58614939801919 -55.603326682688021 0 -55.603326682688021 61.240596952916349 0 0 0 0 -947.71366729735928 576.65823142507338 0 576.65823142507338 -84.732174061862679 0 0 0 0 -1642.600236168455 -1020.7784080090069 0 -1020.7784080090069 -595.15407001786298 0 0 0 0 -966.78947400703328 -523.49155088115367 0 -523.49155088115367 -335.99758731706333 0 0 0 0 -4.9393240649037011 2.9125254294531047 0 2.9125254294531047 -1.9820469351962586 0 0 0 0 -6.8954506715687245 2.7432689480980628 0 2.7432689480980628 -0.68670802500227524 0 0 0 0 54.904202739175162 67.773929172240855 0 67.773929172240855 238.25255585752529 0 0 0 0 -2.3895745509070068 7.1500755486228229 0 7.1500755486228229 -4.8748196163102904 0 0 0 0 300.04019736392365 9.2180030672375324 0 9.2180030672375324 -98.401265582181622 0 0 0 0 -444.85501273010595 80.525953600054663 0 80.525953600054663 -181.2467415272713 0 0 0 0 46.322930970040034 242.90390835377866 0 242.90390835377866 -195.19247252624154 0 0 0 0 207.89372343577634 172.2003526013018 0 172.2003526013018 -242.50537717332008 0 0 0 0 -338.10225381238706 183.57807874173341 0 183.57807874173341 -39.275425723416447 0 0 0 0 -4.8808119869645452 -18.119944421981018 0 -18.119944421981018 6.6853288891851435 0 0 0 0 -453.50758075033718 -213.33559816463526 0 -213.33559816463526 -29.754796965253263 0 0 0 0 -3.21478595098732 2.0628979613177734 0 2.0628979613177734 -1.2495622708362077 0 0 0 0 93.796613448503194 348.38347562353329 0 348.38347562353329 6.3540178650409871 0 0 0 0 -215.03146246290999 -12.093674114230453 0 -12.093674114230453 237.3365831561814 0 0 0 0 153.62416888973894 229.32161418333544 0 229.32161418333544 -251.80379077884663 0 0 0 0 -111.63416642113589 -52.956886902302358 0 -52.956886902302358 -54.328945658613748 0 0 0 0 -6.8585215583786407 5.7818210770183924 0 5.7818210770183924 -2.5278865611690584 0 0 0 0 140.19845675682564 268.52925421525163 0 268.52925421525163 167.7836928941706 0 0 0 0 -183.27168748965778 -77.693736059702132 0 -77.693736059702132 -64.872100758483157 0 0 0 0 -108.14198552879111 37.020677026315582 0 37.020677026315582 6.9115759334690665 0 0 0 0 -202.72654556635825 -36.348125210956823 0 -36.348125210956823 -33.248362250484206 0 0 0 0 -216.70253043595585 -42.709727575689612 0 -42.709727575689612 49.65484522477891 0 0 0 0 -212.68971172517195 -102.92459302495763 0 -102.92459302495763 -6.633431046284386 0 0 0 0 412.31010340360081 296.19530087969406 0 296.19530087969406 224.99826425776962 0 0 0 0 248.96534232389968 728.0922077305022 0 728.0922077305022 477.00461503610666 0 0 0 0 -22.896945502427116 90.650749779657417 0 90.650749779657417 191.21160946630425 0 0 0 0 -313.82191267282178 561.94084531702993 0 561.94084531702993 547.69675976714962 0 0 0 0 -297.51582874431551 -75.60707630795423 0 -75.60707630795423 -183.27085468487076 0 0 0 0 -756.90807109414163 359.52522350650361 0 359.52522350650361 241.09474098619967 0 0 0 0 -185.7185382158932 184.90087263742043 0 184.90087263742043 -83.126223898744229 0 0 0 0 23.461634143561241 199.57975197325868 0 199.57975197325868 41.723207689208721 0 0 0 0 135.3753187848979 24.427645304929001 0 24.427645304929001 -3.1655615715644672 0 0 0 0 -44.699379348075126 -194.84722690110698 0 -194.84722690110698 -28.109508129127789 0 0 0 0 201.34737367845082 -107.88789632872727 0 -107.88789632872727 -15.642063610858713 0 0 0 0 -769.68459132721182 189.13974086480039 0 189.13974086480039 45.597211996437636 0 0 0 0 -700.87286919795952 176.94244698424154 0 176.94244698424154 25.865097472381876 0 0 0 0 1.2400894999470857 4.2769201134382371 0 4.2769201134382371 -1.8713922522585165 0 0 0 0 -668.16886387333216 183.32699884589147 0 183.32699884589147 -9.4311125732692744 0 0 0 0 12.272690565827361 -14.790382366133599 0 -14.790382366133599 116.61918131671791 0 0 0 0 -0.20889139399507783 1.2032841395920997 0 1.2032841395920997 0.80933043008683825 0 0 0 0 320.56032551723911 99.063709403906159 0 99.063709403906159 51.597193359629728 0 0 0 0 490.13870387072166 267.43431598360462 0 267.43431598360462 213.69726970350621 0 0 0 0 -530.77716284424241 -134.11505235575476 0 -134.11505235575476 271.10599560526953 0 0 0 0 -882.80537550369627 246.49704674829616 0 246.49704674829616 392.75769784238446 0 0 0 0 8.7970918070859625 182.57667456978561 0 182.57667456978561 300.24466542554205 0 0 0 0 283.93815755383548 374.70560200514933 0 374.70560200514933 305.01455336829531 0 0 0 0 -462.07232268122607 -149.22638889253176 0 -149.22638889253176 6.8624516293421038 0 0 0 0 -454.9300637938868 -127.66290517175696 0 -127.66290517175696 2.8601487605426428 0 0 0 0 -7.4691882962577267 3.629879113761632 0 3.629879113761632 2.2145423957705139 0 0 0 0 187.51647155804312 195.09156303411567 0 195.09156303411567 414.16786318223467 0 0 0 0 271.62464679856112 334.95265173306126 0 334.95265173306126 392.06358641999122 0 0 0 0 -1154.8767822641348 -479.19769865161089 0 -479.19769865161089 -63.748858680861304 0 0 0 0 -2.476851880796417 1.2490029161075142 0 1.2490029161075142 0.12461691907442152 0 0 0 0 -399.70963612308515 -273.60320501798356 0 -273.60320501798356 -207.86413937856651 0 0 0 0 -459.6572298040046 -133.91363656050316 0 -133.91363656050316 -25.094737408728633 0 0 0 0 -475.64227982221928 -118.44928604501092 0 -118.44928604501092 88.816008232083504 0 0 0 0 -483.49146310237848 -168.18824786371761 0 -168.18824786371761 19.161402801346412 0 0 0 0 -758.28170734359446 -254.60455422081344 0 -254.60455422081344 14.95567385406639 0 0 0 0 -488.75183781742089 -203.06056899341161 0 -203.06056899341161 23.329534710553276 0 0 0 0 -541.35490317554832 -118.33984891869699 0 -118.33984891869699 98.378842053740982 0 0 0 0 -641.65353564757243 194.96076895118807 0 194.96076895118807 7.9306035206462866 0 0 0 0 -91.104809822633797 31.846173794392442 0 31.846173794392442 -58.148668367574146 0 0 0 0 -82.17191936141171 -14.049906226457324 0 -14.049906226457324 -51.102862307204745 0 0 0 0 -409.87399792842916 -453.37576838972893 0 -453.37576838972893 -255.74153379882915 0 0 0 0 -77.616802787546476 -247.16797851408387 0 -247.16797851408387 -459.05049584901485 0 0 0 0 -3.9177900283626741 -1.7604929463581378 0 -1.7604929463581378 -0.99650049097828375 0 0 0 0 -437.26915348548937 -279.75416319913711 0 -279.75416319913711 -282.01720843637872 0 0 0 0 -206.90255974398406 42.594489854986975 0 42.594489854986975 -353.52358972517442 0 0 0 0 -520.10910317163507 57.149359686429193 0 57.149359686429193 -196.34066347997299 0 0 0 0 -215.46910691301127 -92.43240806425608 0 -92.43240806425608 -134.26603186756768 0 0 0 0 -691.61185196958286 -220.2156780098309 0 -220.2156780098309 -43.581567399160917 0 0 0 0 -245.85892828795477 -210.01207842856144 0 -210.01207842856144 -84.429874649873227 0 0 0 0 -336.81099559310132 -280.76755901355216 0 -280.76755901355216 -53.441429092347903 0 0 0 0 -332.64932167819643 -214.02211094400894 0 -214.02211094400894 -62.02592433523057 0 0 0 0 -359.40133805754158 -248.03103172330913 0 -248.03103172330913 -42.675973476476884 0 0 0 0 -312.64472914753424 -266.64573236171611 0 -266.64573236171611 -43.810844682726383 0 0 0 0 -316.36623608667651 -266.94467353430821 0 -266.94467353430821 -43.329979528502918 0 0 0 0 -310.46539574977214 -248.72024958851466 0 -248.72024958851466 -50.045321275293929 0 0 0 0 -288.67257347526902 -259.11726775702004 0 -259.11726775702004 -57.114386585111788 0 0 0 0 -287.21357881552831 -207.22407384803938 0 -207.22407384803938 -53.370037207410405 0 0 0 0 -329.38421322468275 -219.54051182059573 0 -219.54051182059573 -53.46453777620502 0 0 0 0 -291.26280975389091 -86.671599384400793 0 -86.671599384400793 -116.12798602674593 0 0 0 0 -167.78413595991151 -167.93550180343595 0 -167.93550180343595 -55.447409358722112 0 0 0 0 -175.32202635067733 -175.61439257818162 0 -175.61439257818162 -6.2973653769643079 0 0 0 0 -49.315538024649868 -75.133790518365856 0 -75.133790518365856 -73.71947703817284 0 0 0 0 -243.7803859259875 -95.41857256851938 0 -95.41857256851938 -75.731838464643843 0 0 0 0 -292.50239589506236 -189.08954993462817 0 -189.08954993462817 -58.487647873924615 0 0 0 0 -310.44932329152653 -248.37665445146149 0 -248.37665445146149 -53.898763794876857 0 0 0 0 -248.86192442222818 -232.04843545963752 0 -232.04843545963752 -50.388175636229562 0 0 0 0 -285.04862101619801 -280.13287615932592 0 -280.13287615932592 -56.198585635295672 0 0 0 0 -242.5342768346527 -239.94626170822721 0 -239.94626170822721 -41.897895568758713 0 0 0 0 -218.85710124461639 -178.21406221435728 0 -178.21406221435728 -19.77674585294028 0 0 0 0 -200.10226427726593 -263.43021221522702 0 -263.43021221522702 -121.8665393702201 0 0 0 0 -51.844989109245944 -50.562489557015283 0 -50.562489557015283 -11.042435015476661 0 0 0 0 -143.78299193132989 -203.11174711700744 0 -203.11174711700744 -32.983030226110699 0 0 0 0 -82.766491161057274 -77.81973540539046 0 -77.81973540539046 18.972593588550581 0 0 0 0 -145.76795675495669 -112.9109388689705 0 -112.9109388689705 175.6310006304833 0 0 0 0 1.0452626084106953 -0.91302757272551105 0 -0.91302757272551105 0.48364755150391892 0 0 0 0 40.713155026060122 104.90449582193118 0 104.90449582193118 166.23080224037744 0 0 0 0 -72.627730236084972 -61.577084828112504 0 -61.577084828112504 29.133399215602878 0 0 0 0 -7.5880696516396711 41.18158097249767 0 41.18158097249767 43.092506127479389 0 0 0 0 -4.9947608761357429 -5.8533406959107381 0 -5.8533406959107381 2.9072386265418833 0 0 0 0 -135.47914904454228 -203.52086032206191 0 -203.52086032206191 -196.44842533231957 0 0 0 0 13.881294929646174 32.689231812740033 0 32.689231812740033 -66.741818496058642 0 0 0 0 -66.859214843585505 -36.934861090323324 0 -36.934861090323324 67.838951100009297 0 0 0 0 -14.147280841245035 2.4968023377018795 0 2.4968023377018795 1.8744292738593549 0 0 0 0 -87.835062880112673 13.146204910898135 0 13.146204910898135 -8.9679917705309435 0 0 0 0 19.947945990810695 136.65993240437024 0 136.65993240437024 309.5826989449061 0 0 0 0 -83.134088936701119 -29.629035957436233 0 -29.629035957436233 14.673168961219744 0 0 0 0 -12.032840201830012 -2.5281875099373217 0 -2.5281875099373217 0.047127160107578669 0 0 0 0 -28.606963606911449 -34.134353081687891 0 -34.134353081687891 17.364240111797017 0 0 0 0 -227.0633818399474 43.470012006737534 0 43.470012006737534 493.35457170922291 0 0 0 0 -35.967828321294633 -8.950141708064244 0 -8.950141708064244 0.23693667592600409 0 0 0 0 -15.672345129596579 -26.480246084905104 0 -26.480246084905104 -6.2446199372586761 0 0 0 0 -48.105825067323167 -4.1764749840635886 0 -4.1764749840635886 15.860411975330237 0 0 0 0 -53.7582941386936 -54.655556628146996 0 -54.655556628146996 51.349623907808336 0 0 0 0 -30.085424603043066 -8.7591861304163103 0 -8.7591861304163103 -9.5590981001361754 0 0 0 0 -181.96637648390606 60.897888197374073 0 60.897888197374073 -11.305103002098576 0 0 0 0 -143.93648756280163 16.865075384752004 0 16.865075384752004 7.1913309131364542 0 0 0 0 -83.231973190137069 -27.272036897448572 0 -27.272036897448572 18.651837388075137 0 0 0 0 -217.45217998211592 5.5932764604488057 0 5.5932764604488057 59.406597340510643 0 0 0 0 4.8358725189318648 -48.523370374263493 0 -48.523370374263493 -14.131053748299294 0 0 0 0 -66.751949372148374 -80.755873475926478 0 -80.755873475926478 103.20364433225461 0 0 0 0 107.22444530051507 -4.3499729539416876 0 -4.3499729539416876 -5.3322553201222149 0 0 0 0 -196.50355187447713 53.296382558814912 0 53.296382558814912 162.07565214770318 0 0 0 0 -289.12678359533311 54.872394278939169 0 54.872394278939169 19.499816266028176 0 0 0 0 -176.60745891402439 76.50674535823633 0 76.50674535823633 11.362156313608466 0 0 0 0 -213.16277132301548 108.17524790180195 0 108.17524790180195 -43.186343329413603 0 0 0 0 -178.31888643974526 6.4152991471819973 0 6.4152991471819973 -113.20775344455677 0 0 0 0 -180.36386890766153 13.671485668255684 0 13.671485668255684 -6.3624909366335771 0 0 0 0 -198.66045213207326 -26.274198223626314 0 -26.274198223626314 -52.057284179419895 0 0 0 0 -171.6630442184487 174.06519498874937 0 174.06519498874937 -152.11337427830421 0 0 0 0 -1.1072746870224215 -1.3163485815608382 0 -1.3163485815608382 -4.8353787378792097 0 0 0 0 -385.08272314139685 121.76020678319718 0 121.76020678319718 -12.587365162350395 0 0 0 0 -310.03929991395989 131.51087665101986 0 131.51087665101986 -32.726354079808175 0 0 0 0 -340.64131072872988 47.488605284136952 0 47.488605284136952 -6.3039870419498243 0 0 0 0 -1.6698453970777152 -2.4515210692197655 0 -2.4515210692197655 -4.6461114849688183 0 0 0 0 -420.03670805072761 91.388102158371964 0 91.388102158371964 34.67055560067547 0 0 0 0 -272.9635682641092 94.563240008297015 0 94.563240008297015 8.8965376344702918 0 0 0 0 -203.7737196234084 33.525824214617842 0 33.525824214617842 5.8145119147995601 0 0 0 0 -360.26884501906898 97.984999828557875 0 97.984999828557875 -11.782127202373545 0 0 0 0 -334.81063181129502 106.90043973140951 0 106.90043973140951 -9.2339247571178475 0 0 0 0 -394.35279210888984 86.663006687393079 0 86.663006687393079 -1.8315678635099175 0 0 0 0 -359.67137527147679 74.765635993690125 0 74.765635993690125 1.9476195022675711 0 0 0 0 -363.16969110617356 105.77629152776137 0 105.77629152776137 -32.662950455304326 0 0 0 0 -529.81978421670647 78.774286709735406 0 78.774286709735406 -34.896890493286037 0 0 0 0 -411.79632432236758 294.47448789334965 0 294.47448789334965 -147.99943591590272 0 0 0 0 3.7631737506729195 -4.1628509139734504 0 -4.1628509139734504 -4.6722989902448191 0 0 0 0 -464.75142912274168 81.532531020911847 0 81.532531020911847 -108.98685293698054 0 0 0 0 -645.66255270502006 124.00211931644458 0 124.00211931644458 -45.025393838612899 0 0 0 0 -14.843999132919109 -15.26714151831451 0 -15.26714151831451 -10.877037990112466 0 0 0 0 -669.57361992323058 68.543894359800106 0 68.543894359800106 -74.694177960895331 0 0 0 0 560.77732113094498 -729.17819600790358 0 -729.17819600790358 364.91892615698362 0 0 0 0 391.19817817064177 -290.8799748583474 0 -290.8799748583474 380.20453684680342 0 0 0 0 210.90147903125762 -422.83077731919093 0 -422.83077731919093 385.668317511846 0 0 0 0 259.84902738984238 -269.07844922202958 0 -269.07844922202958 499.24514666905452 0 0 0 0 -5.3820357656996904 -0.240581496174606 0 -0.240581496174606 1.3857967246760028 0 0 0 0 5.857323478165199 -364.16001858247182 0 -364.16001858247182 584.93800081706104 0 0 0 0 -33.270402496400948 -13.371737285678005 0 -13.371737285678005 -4.1174085161915341 0 0 0 0 -275.5258677033562 107.57390939736388 0 107.57390939736388 -68.706953712275208 0 0 0 0 -69.042844002166021 5.4875754798648018 0 5.4875754798648018 33.928202788952603 0 0 0 0 151.26552992342477 -274.89876152022134 0 -274.89876152022134 363.16371798740602 0 0 0 0 -37.025123336017714 -10.923899729464612 0 -10.923899729464612 -2.079823608872998 0 0 0 0 -19.770840279659751 -18.824071125580303 0 -18.824071125580303 202.81695875468404 0 0 0 0 -201.08847954560042 -246.89311046524654 0 -246.89311046524654 671.9696874147769 0 0 0 0 -324.49187380562216 -167.11975897978414 0 -167.11975897978414 232.71164083695567 0 0 0 0 -315.65979761094786 105.84143315629854 0 105.84143315629854 -80.17033146882568 0 0 0 0 -213.0383112665877 -55.666018802225153 0 -55.666018802225153 334.4820074810068 0 0 0 0 -40.663658295779896 -376.73932051707561 0 -376.73932051707561 490.10698192908512 0 0 0 0 -222.0191064514438 9.6994590114736638 0 9.6994590114736638 -43.020534080002562 0 0 0 0 -204.63085555401358 -218.8611284631844 0 -218.8611284631844 -38.231364072669749 0 0 0 0 -417.50289153995982 46.661042305351657 0 46.661042305351657 -41.476703022954098 0 0 0 0 -824.96446057224966 -59.186716285421198 0 -59.186716285421198 -57.316702047512081 0 0 0 0 -224.47265535968472 -258.60120000090637 0 -258.60120000090637 -218.23171136511132 0 0 0 0 -510.11981870717864 -138.79879641123989 0 -138.79879641123989 -118.49908117442646 0 0 0 0 -373.33425175665252 -467.72515427424696 0 -467.72515427424696 -471.05118415079141 0 0 0 0 -787.2473953851586 -346.82880802292766 0 -346.82880802292766 -54.77360769223236 0 0 0 0 -0.79290956077309716 -2.9135088443747605 0 -2.9135088443747605 -6.4488389583591808 0 0 0 0 -3.3899122751961954 -5.779862301793294 0 -5.779862301793294 -6.6919082858501184 0 0 0 0 1480.9659878470629 -680.87309105634222 0 -680.87309105634222 -641.33427235136105 0 0 0 0 998.59950383782416 -298.49689017372293 0 -298.49689017372293 -144.77746255579041 0 0 0 0 -566.99382679742848 12.460414952410702 0 12.460414952410702 364.44118868344958 0 0 0 0 124.72193934996903 -108.49070523567298 0 -108.49070523567298 -453.15558034627804 0 0 0 0 131.60984613958135 -635.35805107715214 0 -635.35805107715214 578.01320775803879 0 0 0 0 -344.58034925725951 -119.84696717303996 0 -119.84696717303996 325.03648791307887 0 0 0 0 -817.75066236575367 -59.258456416539275 0 -59.258456416539275 -35.693571103640352 0 0 0 0 -353.94475610032168 -194.32766177926499 0 -194.32766177926499 -279.03878596152344 0 0 0 0 -155.31146729681132 49.38047481446381 0 49.38047481446381 -133.35841077018131 0 0 0 0 -1617.0574291860248 126.98585471917272 0 126.98585471917272 44.369427065941409 0 0 0 0 -762.71079087450926 109.59057914483219 0 109.59057914483219 -88.798562720461064 0 0 0 0 -618.13908962185997 -469.35249099582813 0 -469.35249099582813 -458.38067183650628 0 0 0 0 -201.13497079888839 32.986153930777959 0 32.986153930777959 45.411577394458163 0 0 0 0 -191.24719816640572 94.784058861762105 0 94.784058861762105 -203.36079127730636 0 0 0 0 11.846953336334991 121.75110510459717 0 121.75110510459717 -115.03110773816343 0 0 0 0 8.7250484163159854 48.853256650453432 0 48.853256650453432 73.354015084260709 0 0 0 0 83.935675717617414 162.9772586771785 0 162.9772586771785 51.36000933800301 0 0 0 0 55.90698287883265 51.347994272824756 0 51.347994272824756 -96.952679117069692 0 0 0 0 -120.14246780290705 3.3762430012322966 0 3.3762430012322966 -99.960592776955195 0 0 0 0 52.979794556529669 29.110410677113578 0 29.110410677113578 -170.12529335280033 0 0 0 0 -196.07344442944668 34.785221134748099 0 34.785221134748099 -64.211441420806977 0 0 0 0 1.7269047906506927 2.003869532221831 0 2.003869532221831 1.079860159200881 0 0 0 0 9.5945317902689879 4.0144812862052639 0 4.0144812862052639 1.9383481762648582 0 0 0 0 -252.24190397413452 400.14436568011615 0 400.14436568011615 -154.450217702999 0 0 0 0 -274.50201272634513 95.348138715296727 0 95.348138715296727 -280.47552716757309 0 0 0 0 -238.76780861508411 -222.64089031207283 0 -222.64089031207283 130.98536920475635 0 0 0 0 -488.46000175592053 -271.88267314828795 0 -271.88267314828795 27.404707890068948 0 0 0 0 -239.94104853891986 -140.63054851530575 0 -140.63054851530575 -103.85391697363809 0 0 0 0 -379.04474932516405 11.059517523690914 0 11.059517523690914 -44.477020213106243 0 0 0 0 -336.91266726236063 -103.64881111756722 0 -103.64881111756722 -137.1907034783712 0 0 0 0 -709.92716244961775 72.246993676789543 0 72.246993676789543 34.325422246320613 0 0 0 0 -636.40894428923275 25.955199821486985 0 25.955199821486985 -39.661772183161702 0 0 0 0 -730.52580237125221 -14.69961774471426 0 -14.69961774471426 -54.978758182085357 0 0 0 0 -778.76443860342806 -94.774886090938224 0 -94.774886090938224 85.842027754951772 0 0 0 0 -321.71743428795889 -5.5130849053442148 0 -5.5130849053442148 -74.861198935092943 0 0 0 0 -1.5359990636106389 -1.6151367000810453 0 -1.6151367000810453 -1.6029376338703489 0 0 0 0 -546.8797430076047 -64.206483658754053 0 -64.206483658754053 -49.037003992393693 0 0 0 0 -669.04488067943748 64.868869388341523 0 64.868869388341523 11.199295673289839 0 0 0 0 -528.25110029581629 -22.743803429749875 0 -22.743803429749875 -34.183978307643088 0 0 0 0 -847.2448076527653 259.42414557311349 0 259.42414557311349 12.285490180834017 0 0 0 0 -489.22656310898128 223.6001167905257 0 223.6001167905257 11.337414419839263 0 0 0 0 -213.16251905375066 -21.421072228403737 0 -21.421072228403737 -148.42064979616475 0 0 0 0 -628.6548738590609 -201.40278798190718 0 -201.40278798190718 -198.89968726537097 0 0 0 0 -443.82206207463605 359.3623694889269 0 359.3623694889269 -197.48597401608819 0 0 0 0 -791.48724191273141 -257.9654714259064 0 -257.9654714259064 -0.82398284780202857 0 0 0 0 -792.76016887842343 313.54160657461256 0 313.54160657461256 22.796700817490432 0 0 0 0 -15.942746349757655 7.0197330967989231 0 7.0197330967989231 -3.240833637092154 0 0 0 0 -48.46035621183546 51.025854732800781 0 51.025854732800781 80.624340705383929 0 0 0 0 -180.0019839146189 2.7471407790677631 0 2.7471407790677631 33.300036731083992 0 0 0 0 -6.1568245821884915 2.7586816529836184 0 2.7586816529836184 -1.4349318375670741 0 0 0 0 -129.61419934665901 356.04388138976691 0 356.04388138976691 -259.87022283230601 0 0 0 0 -112.37487002439104 -36.702446394796581 0 -36.702446394796581 -10.215732243238563 0 0 0 0 -154.06660683347218 93.233159819560797 0 93.233159819560797 -112.04135696965733 0 0 0 0 -365.96898860589499 221.55532831994554 0 221.55532831994554 -189.65265925352182 0 0 0 0 -276.24760139222963 5.7429088362307326 0 5.7429088362307326 48.623173663553473 0 0 0 0 -421.89111474317542 161.61821425932436 0 161.61821425932436 5.8033669640433345 0 0 0 0 -4.0789364777671864 3.5266883972672858 0 3.5266883972672858 -2.1654427818878452 0 0 0 0 -83.113045901467558 402.88993236790725 0 402.88993236790725 432.42998749393587 0 0 0 0 -110.39175019661343 322.00376322666261 0 322.00376322666261 419.26915654524885 0 0 0 0 -12.367550018640458 5.5614841281372698 0 5.5614841281372698 -1.1480061747173362 0 0 0 0 7.8156903587587294 21.881899364035718 0 21.881899364035718 14.141924142097537 0 0 0 0 -25.725643134745042 -70.456049053871027 0 -70.456049053871027 -61.066102558721695 0 0 0 0 28.557694823530255 3.5093844680171173 0 3.5093844680171173 -16.727636170970754 0 0 0 0 -12.996802800840669 -33.211684737615201 0 -33.211684737615201 -33.339473773144732 0 0 0 0 -3.2290940954535472 -3.8901541746449766 0 -3.8901541746449766 5.2949799808147873 0 0 0 0 -6.0472653261728624 1.5015939552449566 0 1.5015939552449566 8.4626469074486383 0 0 0 0 -23.884504318022664 -2.1289975466088435 0 -2.1289975466088435 17.179552378490371 0 0 0 0 -36.239698271216184 9.9316028368027673 0 9.9316028368027673 60.128476018799347 0 0 0 0 -59.304475750614074 -24.485560107095921 0 -24.485560107095921 37.412536837190146 0 0 0 0 -1137.7885230044558 221.31805048329028 0 221.31805048329028 333.75792437103127 0 0 0 0 -2501.5952640835822 -217.1961028064718 0 -217.1961028064718 414.07839950646627 0 0 0 0 -1084.5168819181126 380.75016935323123 0 380.75016935323123 321.26625915113158 0 0 0 0 -174.59259983053198 -55.092886133923706 0 -55.092886133923706 -126.72734812020974 0 0 0 0 -16.795759328284475 -38.251129805679057 0 -38.251129805679057 -357.62075156245919 0 0 0 0 -4.1629580466196145 -0.52354142722606412 0 -0.52354142722606412 6.1009903577196232 0 0 0 0 -2494.3569739001323 779.57064396900898 0 779.57064396900898 254.5801450633642 0 0 0 0 -9.2676292737855306 3.9156620867596104 0 3.9156620867596104 -0.75524640976228219 0 0 0 0 -602.31033950777055 817.03357507612554 0 817.03357507612554 -738.79028582193973 0 0 0 0 -1781.661909134702 -520.52521922946585 0 -520.52521922946585 721.10872033485873 0 0 0 0 -130.49986055144109 -183.10937206841731 0 -183.10937206841731 -305.58221056154161 0 0 0 0 -4.6805070740610972 0.61540326582581883 0 0.61540326582581883 -5.7389781787654783 0 0 0 0 -4.2466131191588374 1.1166782895551677 0 1.1166782895551677 1.7149257603461534 0 0 0 0 48.602736451197416 248.25257873309795 0 248.25257873309795 -151.7121665113778 0 0 0 0 90.29134131720275 32.711209867146067 0 32.711209867146067 1200.975233787171 0 0 0 0 123.51550295072593 553.33386579167006 0 553.33386579167006 196.36889149281876 0 0 0 0 -2497.3690495567294 86.499505478931624 0 86.499505478931624 800.74678156558139 0 0 0 0 -1119.7850504763192 -38.068555433156916 0 -38.068555433156916 381.56651715000453 0 0 0 0 -400.61415067199778 -515.66288872201403 0 -515.66288872201403 217.46154630691922 0 0 0 0 -2495.4163833674684 1354.7862012318835 0 1354.7862012318835 -605.21258842036104 0 0 0 0 -991.42546784647129 17.959176792671428 0 17.959176792671428 344.61714262804196 0 0 0 0 -1573.9854738487484 -703.40569536529449 0 -703.40569536529449 210.59981427490894 0 0 0 0 -2494.157294277903 172.37389492785289 0 172.37389492785289 21.28748159241481 0 0 0 0 -6.1612120044870267 4.2947243699504867 0 4.2947243699504867 -5.3187095249885736 0 0 0 0 -88.162262223537255 223.89013167167377 0 223.89013167167377 -1567.2918569976887 0 0 0 0 -0.21666640062903753 36.629721824133412 0 36.629721824133412 -291.75530292217672 0 0 0 0 -74.342309380454935 -220.88324254226194 0 -220.88324254226194 -460.60362090339549 0 0 0 0 135.1615159451394 177.9838672067367 0 177.9838672067367 -848.05796007680124 0 0 0 0 -789.68729939895456 659.24189446174853 0 659.24189446174853 -343.14523582418241 0 0 0 0 137.56120972642384 220.31559702116715 0 220.31559702116715 -292.02056423719807 0 0 0 0 208.48585780305439 160.98526511350326 0 160.98526511350326 -263.08593305515251 0 0 0 0 128.90356378555589 307.26180855140876 0 307.26180855140876 -397.23515294137451 0 0 0 0 7.8050434718315955 146.32556504642594 0 146.32556504642594 46.722053212874698 0 0 0 0 -20.293365952275053 13.42526262841011 0 13.42526262841011 -166.70618412558179 0 0 0 0 23.649337517796994 162.08304451842457 0 162.08304451842457 -320.58066338608387 0 0 0 0 15.995995664205765 13.078723271887469 0 13.078723271887469 1.041289890165551 0 0 0 0 40.500274397742032 100.8865602981175 0 100.8865602981175 -22.206349871883958 0 0 0 0 -45.56361240393602 16.965057189334829 0 16.965057189334829 0.16525483706288835 0 0 0 0 5.2151511162774113 10.202212312545157 0 10.202212312545157 -22.344263853171242 0 0 0 0 -45.141210726327046 16.061016620802018 0 16.061016620802018 0.65795404527737222 0 0 0 0 20.399287644140713 24.602490509759036 0 24.602490509759036 10.010551585853136 0 0 0 0 -202.24860277693369 49.931978346611459 0 49.931978346611459 58.84146121376898 0 0 0 0 18.984261997111332 -89.043928768344642 0 -89.043928768344642 25.801882326390114 0 0 0 0 -112.18839623384702 314.18683910679442 0 314.18683910679442 -12.664735221187357 0 0 0 0 -1120.0069245647392 -581.40119653546753 0 -581.40119653546753 -272.09485565941213 0 0 0 0 -761.68815748398993 -1058.1953845071585 0 -1058.1953845071585 -546.87325330953672 0 0 0 0 -2.9167343605406586 1.810847405357805 0 1.810847405357805 -4.3025353202218719 0 0 0 0 -584.93576270711128 -624.67808585926139 0 -624.67808585926139 -1531.4259001930693 0 0 0 0 -743.20763196061307 -1047.0627878035045 0 -1047.0627878035045 -449.64457374108576 0 0 0 0 -2500.7093047936796 -236.84984299557419 0 -236.84984299557419 18.901233508444367 0 0 0 0 -490.48628691296472 -1132.6341444457794 0 -1132.6341444457794 -791.63661231748256 0 0 0 0 -562.36249259794931 -147.27023232622844 0 -147.27023232622844 -18.201526071959165 0 0 0 0 -894.7142285041482 -668.21821243305783 0 -668.21821243305783 -749.9137388056929 0 0 0 0 216.74188286028584 532.72837182278113 0 532.72837182278113 -245.29850742759916 0 0 0 0 -354.58594403383177 -633.2281975573685 0 -633.2281975573685 -1101.6213412422817 0 0 0 0 -9.3097440811018544 2.8460753984280913 0 2.8460753984280913 -1.883049732631572 0 0 0 0 -11.920628063378928 12.139945669102396 0 12.139945669102396 -8.6193262535809563 0 0 0 0 194.62432192370761 15.28590339264565 0 15.28590339264565 -373.22087440380972 0 0 0 0 -1008.6545856222911 498.24218238714178 0 498.24218238714178 465.06437435113037 0 0 0 0 -2495.4902090312917 1231.7075840127329 0 1231.7075840127329 131.00661513544603 0 0 0 0 -2500.5771145507661 444.14154052587327 0 444.14154052587327 695.75274570475801 0 0 0 0 -963.04438736421071 195.77717012935608 0 195.77717012935608 494.45189510320472 0 0 0 0 -478.6697928881058 23.331743377234375 0 23.331743377234375 321.72638069321135 0 0 0 0 -222.55987810951319 -538.87675121528446 0 -538.87675121528446 653.29649080785452 0 0 0 0 -830.58398233560138 -327.81416342620884 0 -327.81416342620884 897.66729730404666 0 0 0 0 -238.1633459140503 579.25157195741554 0 579.25157195741554 -532.85717453870484 0 0 0 0 -5.1016063224027803 0.84031596532401842 0 0.84031596532401842 2.1804707713467559 0 0 0 0 -596.85647050626721 388.21091400833677 0 388.21091400833677 369.34598149167516 0 0 0 0 5.5568923600549169 -32.663723634694747 0 -32.663723634694747 1.7392691083143177 0 0 0 0 8.7529700871593832 2.7391206364137375 0 2.7391206364137375 -16.615817088981771 0 0 0 0 -5.818923718536098 107.33506216875239 0 107.33506216875239 96.707196655412531 0 0 0 0 -161.62436550569691 -259.66073766438336 0 -259.66073766438336 478.36121908741279 0 0 0 0 -27.96716231743909 -7.2918724093077287 0 -7.2918724093077287 1.7574992943257737 0 0 0 0 -3.1619389188042675 -2.523446013826665 0 -2.523446013826665 0.64055934023768457 0 0 0 0 -28.427365860337602 1.5957279604821011 0 1.5957279604821011 1.545073469530031 0 0 0 0 -92.549257427774137 119.62610343732405 0 119.62610343732405 240.05200425789494 0 0 0 0 -37.886210422744625 72.965584722351679 0 72.965584722351679 27.263101777816701 0 0 0 0 -155.6190608170873 178.46805425139931 0 178.46805425139931 178.22670497148312 0 0 0 0 -163.54187152343582 313.6542614774599 0 313.6542614774599 -7.3603771698285527 0 0 0 0 -6.5879301705824176 2.0204406445735899 0 2.0204406445735899 2.6420271548904655 0 0 0 0 -696.22694834494177 157.04752175877638 0 157.04752175877638 609.22934916665758 0 0 0 0 -1214.8839400953657 -1063.0596910646004 0 -1063.0596910646004 -761.02977609020161 0 0 0 0 -439.18032771040635 820.4833133084262 0 820.4833133084262 -988.92750530162289 0 0 0 0 -2481.806367192039 974.74495450963752 0 974.74495450963752 345.03264248145325 0 0 0 0 -11.038460137287302 1.4339389646398946 0 1.4339389646398946 -1.6579597252240743 0 0 0 0 -2497.5645678982801 -636.57565175212085 0 -636.57565175212085 418.84000775607871 0 0 0 0 -114.03481724261292 -63.093991862265966 0 -63.093991862265966 -155.09618650684752 0 0 0 0 -1406.0480073818908 -448.97613232434628 0 -448.97613232434628 170.79681203552423 0 0 0 0 -1482.394045924746 -152.43456773015549 0 -152.43456773015549 516.32825747701531 0 0 0 0 -22.519518337448972 -21.630421167665872 0 -21.630421167665872 -60.612626639924827 0 0 0 0 -141.76572170659347 25.79264816957317 0 25.79264816957317 14.379999024249443 0 0 0 0 -2.3860832183574416 3.2680027891480563 0 3.2680027891480563 1.2236975668367807 0 0 0 0 -288.08818294898265 152.09747811369121 0 152.09747811369121 -82.93833016322867 0 0 0 0 -244.75079934937457 11.65197174567944 0 11.65197174567944 4.5074634494287693 0 0 0 0 -42.122333954801434 -78.52146830909787 0 -78.52146830909787 -174.29656633325908 0 0 0 0 -1608.8288328526978 493.45705009817021 0 493.45705009817021 113.61600613014041 0 0 0 0 -2494.7487778450813 -2.4609176220388043 0 -2.4609176220388043 567.78703304645853 0 0 0 0 -145.07144597668594 510.90844357813313 0 510.90844357813313 -91.275678700370349 0 0 0 0 -9.905006591955555 1.6571089968336423 0 1.6571089968336423 -0.77204812764958386 0 0 0 0 -2494.4087056090029 -1140.6834791103522 0 -1140.6834791103522 -247.27310794301795 0 0 0 0 -85.109198545113031 -24.604497226403726 0 -24.604497226403726 336.92565849526358 0 0 0 0 -325.98824890282049 -157.32807848440467 0 -157.32807848440467 265.31565206515995 0 0 0 0 -681.15722250118688 22.446321407470265 0 22.446321407470265 75.321470071681901 0 0 0 0 -21.410924196196632 6.0391841637310186 0 6.0391841637310186 1.1887402746315714 0 0 0 0 -725.78165927582495 -291.87147782999261 0 -291.87147782999261 133.54592387752027 0 0 0 0 -21.375943280112551 28.192802674630911 0 28.192802674630911 16.460517697351065 0 0 0 0 -22.398542136500595 10.405669974089601 0 10.405669974089601 -2.3732450030353052 0 0 0 0 -6.9319365982968293 2.2526761792261141 0 2.2526761792261141 1.6245122906488068 0 0 0 0 73.686139467010435 -179.8475011611115 0 -179.8475011611115 165.91099290921858 0 0 0 0 -54.814822225580428 -54.519116249009215 0 -54.519116249009215 183.50263637054229 0 0 0 0 15.023618503049875 48.707523844777256 0 48.707523844777256 27.274739201916589 0 0 0 0 91.982619008127131 -105.96674939287479 0 -105.96674939287479 13.572300919679719 0 0 0 0 -38.573671529582498 -40.074602851814262 0 -40.074602851814262 226.26343895916125 0 0 0 0 116.68864104380555 -9.6454653349082662 0 -9.6454653349082662 -67.455834065708189 0 0 0 0 23.502505905056751 -16.479503501569809 0 -16.479503501569809 -18.707993042243714 0 0 0 0 -21.447759984414688 13.051518291091297 0 13.051518291091297 -27.093091915528873 0 0 0 0 -1.1779269322451 -44.437865602451247 0 -44.437865602451247 -22.666748320671786 0 0 0 0 -2.3378128241239438 0.081254351543833536 0 0.081254351543833536 0.01019459000809525 0 0 0 0 6.3042537297023955 -44.510007898362808 0 -44.510007898362808 25.895455226512439 0 0 0 0 -11.097219076706097 -48.554196052533854 0 -48.554196052533854 53.676276346150281 0 0 0 0 -1.2380624127588078 -0.23581439770975798 0 -0.23581439770975798 0.070247314541899614 0 0 0 0 -406.13954431876482 -29.805411371824846 0 -29.805411371824846 59.474848765678047 0 0 0 0 -170.197642113033 98.715718222798415 0 98.715718222798415 88.538213511477295 0 0 0 0 -183.68629953034952 46.42475057430137 0 46.42475057430137 29.514926125372369 0 0 0 0 -192.27606922361883 -0.059131611404978912 0 -0.059131611404978912 48.591667749367403 0 0 0 0 -52.614111469853697 -32.196446675612776 0 -32.196446675612776 3.4932026278607395 0 0 0 0 -183.13503417420361 -3.1778394267401495 0 -3.1778394267401495 54.794045573425791 0 0 0 0 -393.99161194840053 -19.681019253425319 0 -19.681019253425319 54.977412815149918 0 0 0 0 -183.17144306526268 18.161749306302418 0 18.161749306302418 13.632340445594878 0 0 0 0 -179.34909814955131 -6.1221344384252809 0 -6.1221344384252809 10.915654708720695 0 0 0 0 -22.950419793667152 17.980580555095827 0 17.980580555095827 2.6507505229163826 0 0 0 0 -500.35930871811433 170.61148637357468 0 170.61148637357468 42.981100653561214 0 0 0 0 -464.35325205491426 117.10577059065849 0 117.10577059065849 39.832539633561851 0 0 0 0 -414.98979937167314 -50.496309189549265 0 -50.496309189549265 39.087095350285921 0 0 0 0 -508.86727718531438 84.453249178575305 0 84.453249178575305 47.795230322132568 0 0 0 0 -380.15860333930686 12.748477257409149 0 12.748477257409149 -4.8635331909963639 0 0 0 0 -424.3553029390805 23.201342341892484 0 23.201342341892484 13.252447063914531 0 0 0 0 -399.18045773736048 -16.393270171535647 0 -16.393270171535647 -48.524956586720634 0 0 0 0 -419.84882818880033 -48.161479652673115 0 -48.161479652673115 -44.298604576578953 0 0 0 0 -512.33071357252629 -48.59609766131247 0 -48.59609766131247 28.66399273022833 0 0 0 0 -474.82824434539361 -19.275692662323056 0 -19.275692662323056 49.657400215987252 0 0 0 0 -843.62363981281851 -41.246848041502375 0 -41.246848041502375 88.270569625500286 0 0 0 0 -391.79771787744539 25.256477396082488 0 25.256477396082488 4.5003861182395895 0 0 0 0 -474.64230622133346 -19.947710596301842 0 -19.947710596301842 50.826430146903135 0 0 0 0 -260.89394353786338 -130.57547526219361 0 -130.57547526219361 -81.308200656821668 0 0 0 0 -15.634125650467467 4.4829987063671979 0 4.4829987063671979 -69.614188084094735 0 0 0 0 -8.0850409193189989 -14.948182480221874 0 -14.948182480221874 -34.302672623949981 0 0 0 0 -27.087049897047095 -12.866545347098029 0 -12.866545347098029 -2.0278200233501424 0 0 0 0 -32.374593368040223 -79.171406431227865 0 -79.171406431227865 39.99512877470633 0 0 0 0 -31.291789880342549 -90.18337332817373 0 -90.18337332817373 -57.060065709600245 0 0 0 0 -224.59238138384535 69.433486233338101 0 69.433486233338101 -1.2670614359114438 0 0 0 0 -22.53196138461923 -12.04998723588669 0 -12.04998723588669 -3.8296028274753722 0 0 0 0 -299.77230766859429 -24.019175544800589 0 -24.019175544800589 45.825100942053808 0 0 0 0 455.58677173380056 -706.26322491405961 0 -706.26322491405961 531.28719742273302 0 0 0 0 -88.394262771256763 -88.500931935083599 0 -88.500931935083599 228.65525075273968 0 0 0 0 -135.47971913937727 -240.9237413296371 0 -240.9237413296371 497.7067175410524 0 0 0 0 375.15898361637164 -150.30974087426111 0 -150.30974087426111 -15.225122778461355 0 0 0 0 524.84909816670552 -802.61885784245464 0 -802.61885784245464 -194.13531536913592 0 0 0 0 -8.6483533663557779 -5.3286721691779633 0 -5.3286721691779633 -2.8427562625460432 0 0 0 0 -1433.339572075125 266.0336302291231 0 266.0336302291231 -7.6326002706623512 0 0 0 0 -381.22048168165202 104.64096238835143 0 104.64096238835143 1.5810871508539321 0 0 0 0 -284.05890240700319 -181.63309910172384 0 -181.63309910172384 -111.14936179790794 0 0 0 0 -558.8597082122069 -237.81386886514875 0 -237.81386886514875 -24.122347113015252 0 0 0 0 -658.42164584623242 -259.34964592805386 0 -259.34964592805386 -25.449769747874214 0 0 0 0 -578.34401556531157 -265.3061225438538 0 -265.3061225438538 -25.008192851192362 0 0 0 0 -1110.3299403703713 -521.83593764558736 0 -521.83593764558736 -125.96857670917996 0 0 0 0 -497.21341309272611 -355.32182464268919 0 -355.32182464268919 -230.94739082011722 0 0 0 0 -308.57837656029733 -83.758697799954177 0 -83.758697799954177 -230.11128010674486 0 0 0 0 -93.530939168391342 -21.340275256525928 0 -21.340275256525928 -136.35840605701674 0 0 0 0 -11.102138831384366 -3.5737862795043327 0 -3.5737862795043327 2.3448333470255696 0 0 0 0 -97.687959358576336 -25.506251463623357 0 -25.506251463623357 12.383761448233884 0 0 0 0 -94.842579519114224 -50.353068874328642 0 -50.353068874328642 -26.35440695565012 0 0 0 0 1.7154474688933234 -0.39278175565765139 0 -0.39278175565765139 -0.18153697248975487 0 0 0 0 -151.90873032551099 -95.568976328202879 0 -95.568976328202879 -70.029594356940606 0 0 0 0 -161.9579745874762 -58.948970178087762 0 -58.948970178087762 -10.996094905277459 0 0 0 0 -293.54068162864132 -182.07621111610541 0 -182.07621111610541 -25.96025925641689 0 0 0 0 -371.94033241934449 -152.85723809037285 0 -152.85723809037285 -24.447597328249373 0 0 0 0 -235.6205281461971 -77.948036236079147 0 -77.948036236079147 -85.631680218906865 0 0 0 0 -294.46543678166745 -171.67967278433869 0 -171.67967278433869 -80.579227166785756 0 0 0 0 -373.38772096966932 -118.58209333244497 0 -118.58209333244497 -115.99590683433387 0 0 0 0 -370.42376147941468 -134.63947114250425 0 -134.63947114250425 -103.19322208049479 0 0 0 0 -500.26229237161169 -165.4610049656151 0 -165.4610049656151 -36.825200162844865 0 0 0 0 -374.35931655863158 -193.9951996989922 0 -193.9951996989922 -30.384617234426401 0 0 0 0 -548.08021720796387 -112.53470323403326 0 -112.53470323403326 -46.277514667175069 0 0 0 0 -498.61365303225466 -71.125691838724791 0 -71.125691838724791 -23.423360681892724 0 0 0 0 -493.32254818742558 -53.001900805656462 0 -53.001900805656462 -142.70046384441932 0 0 0 0 -442.5135045121533 -31.879273306880826 0 -31.879273306880826 -153.81355960082072 0 0 0 0 -0.80825107363436643 -0.29891716880194963 0 -0.29891716880194963 -1.8934394786227411 0 0 0 0 -425.76322824728049 141.92564989653152 0 141.92564989653152 -65.227729894918554 0 0 0 0 -450.46749233669107 35.072853188290878 0 35.072853188290878 -76.473739270550624 0 0 0 0 -373.3157618391815 -34.090778143615672 0 -34.090778143615672 -191.89890360210262 0 0 0 0 -326.97044493364865 110.78774186914258 0 110.78774186914258 -41.979835080965728 0 0 0 0 -288.99379376009165 -8.1896619276715228 0 -8.1896619276715228 -114.34865275196501 0 0 0 0 -256.34965496284349 -19.287962400229716 0 -19.287962400229716 -178.68880215922408 0 0 0 0 -236.11348899813311 -21.963027110001917 0 -21.963027110001917 -176.01105344572682 0 0 0 0 -285.00030352539034 56.283382489527753 0 56.283382489527753 -112.67894829162199 0 0 0 0 -340.70068421751921 40.541051773163503 0 40.541051773163503 -78.675728808099961 0 0 0 0 -299.12983023230481 -15.059094254863851 0 -15.059094254863851 -241.03174021261114 0 0 0 0 -310.68539473068813 -42.22562487858103 0 -42.22562487858103 -251.23712587089784 0 0 0 0 -284.98867890727706 18.635266303856923 0 18.635266303856923 -215.52393201927654 0 0 0 0 -320.57599851504528 -41.074034252122217 0 -41.074034252122217 -177.25680235403581 0 0 0 0 -295.3410485761251 -14.36037829285037 0 -14.36037829285037 -369.42492607226029 0 0 0 0 -312.98862183787969 -84.135138513376972 0 -84.135138513376972 -248.38120381311089 0 0 0 0 -294.66851933299085 -22.243488152253619 0 -22.243488152253619 -297.54238895167543 0 0 0 0 -284.18645548243512 -97.578640728903935 0 -97.578640728903935 -301.62729513147303 0 0 0 0 -284.08136024608359 -91.818515380632476 0 -91.818515380632476 -381.82638553222125 0 0 0 0 -347.45018031543077 -39.85647539220929 0 -39.85647539220929 -244.30422698358657 0 0 0 0 -307.83918264482418 -151.32560014641956 0 -151.32560014641956 -209.70562804961077 0 0 0 0 -334.56508677105012 -121.76704402196606 0 -121.76704402196606 -168.80816790209047 0 0 0 0 -344.30192373631871 -128.79405671709247 0 -128.79405671709247 -124.18282824543493 0 0 0 0 -401.14811037418258 -155.19441142773394 0 -155.19441142773394 -120.53009689589766 0 0 0 0 -330.53422350729124 -116.24091615879803 0 -116.24091615879803 -238.347641846908 0 0 0 0 -368.30449645257613 -202.38916780348245 0 -202.38916780348245 -355.12375907689204 0 0 0 0 -319.65724758092256 -192.84768685254943 0 -192.84768685254943 -302.17386279278264 0 0 0 0 -365.86290965904846 -123.40484842755916 0 -123.40484842755916 -258.43952399690539 0 0 0 0 -1036.7434500304698 493.71610821079025 0 493.71610821079025 337.37252118146171 0 0 0 0 -994.37941517875879 422.63161199187743 0 422.63161199187743 -515.97424501787827 0 0 0 0 -0.73281635105666965 0.057392104247732334 0 0.057392104247732334 -4.6999628573883712 0 0 0 0 -372.74723527717015 -74.040604273781895 0 -74.040604273781895 -16.619865612432363 0 0 0 0 -394.87220774558955 -135.68863290801343 0 -135.68863290801343 -68.917085020139325 0 0 0 0 -335.78258421416103 -33.749048187738062 0 -33.749048187738062 -20.346118286361904 0 0 0 0 -355.06323107796925 -114.2918193393499 0 -114.2918193393499 -197.49085143891875 0 0 0 0 -383.87361294416041 -153.39764739437936 0 -153.39764739437936 -170.2908915004391 0 0 0 0 -373.00891373449122 -98.239717638439402 0 -98.239717638439402 -348.37722232032888 0 0 0 0 -361.79327058877971 -179.45330111157625 0 -179.45330111157625 -254.14670427505598 0 0 0 0 -985.85903642557969 65.081838595435784 0 65.081838595435784 -684.52794320789917 0 0 0 0 -351.23770216125922 -152.92886590903976 0 -152.92886590903976 -632.02930766740565 0 0 0 0 -444.79114102636231 102.39358056966375 0 102.39358056966375 -895.7505153558177 0 0 0 0 -358.21168471430428 -92.47182417210729 0 -92.47182417210729 -623.3464897726567 0 0 0 0 -421.33251031664258 -162.97409253816022 0 -162.97409253816022 -390.52155920736664 0 0 0 0 -379.15291709106532 -68.387899017145628 0 -68.387899017145628 -605.13234360884508 0 0 0 0 -1064.2287913096079 285.75173753610147 0 285.75173753610147 -464.7167318897009 0 0 0 0 -510.84092770963616 161.65178490752464 0 161.65178490752464 -781.27851224483652 0 0 0 0 -572.16063984432549 -52.399343661779881 0 -52.399343661779881 -234.52052537835425 0 0 0 0 -1017.95945752444 -288.68152487527954 0 -288.68152487527954 -160.41804317120113 0 0 0 0 -582.15306883933954 -373.82093826593564 0 -373.82093826593564 -293.50511798227967 0 0 0 0 -564.92328047477349 -228.8603891745629 0 -228.8603891745629 -199.40072294483434 0 0 0 0 -540.05875442926481 -359.08821372034322 0 -359.08821372034322 -238.91888118283043 0 0 0 0 -283.16710312920623 -264.58818463277203 0 -264.58818463277203 -296.47673160615352 0 0 0 0 -328.58741833335807 -104.8569515202239 0 -104.8569515202239 -308.89814166123466 0 0 0 0 -322.88672195864638 -121.78654498553601 0 -121.78654498553601 -502.58641997769416 0 0 0 0 -400.07940933798091 -106.86548504004713 0 -106.86548504004713 -386.06320957890426 0 0 0 0 -411.18772565444306 -55.908466565328183 0 -55.908466565328183 -413.99121190730307 0 0 0 0 -529.16564536176156 126.33540538745069 0 126.33540538745069 -479.51913522769405 0 0 0 0 -378.65784365950094 -19.788715179706571 0 -19.788715179706571 -257.30099139272261 0 0 0 0 -326.94240274999902 -11.526005823720539 0 -11.526005823720539 -260.15524919974945 0 0 0 0 -379.87172022725645 -85.912297940422405 0 -85.912297940422405 -141.54191948462358 0 0 0 0 -387.1826619695421 -69.06771145480684 0 -69.06771145480684 -180.1442665640609 0 0 0 0 -474.41918755850202 -96.758575605063356 0 -96.758575605063356 -125.25162104426272 0 0 0 0 -545.58524322939047 11.045349413277791 0 11.045349413277791 -215.21604237473957 0 0 0 0 -376.88567747223897 -30.979930830079113 0 -30.979930830079113 -318.74276828021198 0 0 0 0 -686.54188337523374 -45.665387557378267 0 -45.665387557378267 -174.19972582113337 0 0 0 0 -646.77619297869751 -269.49764949639513 0 -269.49764949639513 -143.03050632475788 0 0 0 0 -506.2766401956178 -125.03063467909124 0 -125.03063467909124 -139.78805613929308 0 0 0 0 -317.56738929115818 -259.3190098511393 0 -259.3190098511393 -209.65615509124109 0 0 0 0 -500.73025154038623 -210.44696531352383 0 -210.44696531352383 -138.93857121996007 0 0 0 0 -445.17336641248767 -315.17598522067055 0 -315.17598522067055 -158.10122014589479 0 0 0 0 -397.07498715064867 -223.23706776056679 0 -223.23706776056679 -115.36539503570884 0 0 0 0 -374.04889876981542 -290.14948425992623 0 -290.14948425992623 -100.82242469291259 0 0 0 0 -485.58823287769337 -252.50133417953964 0 -252.50133417953964 -109.59202702960306 0 0 0 0 -539.31529369535565 -130.20216808055591 0 -130.20216808055591 -125.91751132978766 0 0 0 0 -428.11236712209939 -182.36297716114689 0 -182.36297716114689 -105.59044520766173 0 0 0 0 -399.64733928859096 -167.9647960660256 0 -167.9647960660256 -105.13416896174658 0 0 0 0 -385.3069570430016 -190.91335663979544 0 -190.91335663979544 -70.361104544895284 0 0 0 0 -343.23358493252454 -231.49534225361208 0 -231.49534225361208 -80.201062799945817 0 0 0 0 -407.77114629434027 -249.3530245101924 0 -249.3530245101924 -71.036423347991786 0 0 0 0 -302.61211660267873 -251.22159577217644 0 -251.22159577217644 -60.090163573863265 0 0 0 0 -318.8662337315327 -256.12953769783871 0 -256.12953769783871 -61.504568766741386 0 0 0 0 -350.04469952813633 -190.26687328307241 0 -190.26687328307241 -77.640683568184613 0 0 0 0 -264.55549633149349 -212.27758618752969 0 -212.27758618752969 -72.530054113255915 0 0 0 0 -317.14333576913486 -107.22595493262168 0 -107.22595493262168 -106.29527877923422 0 0 0 0 -208.58762098205261 -99.575049114300356 0 -99.575049114300356 -108.06805942446817 0 0 0 0 -361.72409456164132 -72.734940649590413 0 -72.734940649590413 -132.92096434669793 0 0 0 0 -332.13604720333387 -137.50254051712017 0 -137.50254051712017 -114.46832653007203 0 0 0 0 -216.53208560486382 -202.72582333144908 0 -202.72582333144908 -46.770662199095568 0 0 0 0 -176.81236894014 -214.32979401196474 0 -214.32979401196474 -79.763581711258894 0 0 0 0 -116.24062604732899 -136.80472416877251 0 -136.80472416877251 -37.534631512038629 0 0 0 0 -218.92072898158403 -186.73437727756371 0 -186.73437727756371 -45.555703792374516 0 0 0 0 -139.70863386526617 -122.95056512951226 0 -122.95056512951226 -82.124175218565938 0 0 0 0 -200.4496018259706 -215.720795613181 0 -215.720795613181 -74.020552632693807 0 0 0 0 -291.90195113819937 -249.49567242948171 0 -249.49567242948171 -42.153107088039064 0 0 0 0 -292.88708777064312 -262.79704132982522 0 -262.79704132982522 -68.538832780318444 0 0 0 0 -324.09078489087187 -279.93798112059142 0 -279.93798112059142 -68.699566910778003 0 0 0 0 -300.34281306754565 -247.29491931611005 0 -247.29491931611005 -98.082725726834042 0 0 0 0 -236.90279942894995 -259.3960981648101 0 -259.3960981648101 -90.185683511733828 0 0 0 0 -246.50598230340984 -235.57614280717985 0 -235.57614280717985 -61.390328321806692 0 0 0 0 -154.25644482567441 -214.08671250799512 0 -214.08671250799512 -126.55650404964717 0 0 0 0 -272.64439502008463 -284.13874458089055 0 -284.13874458089055 -112.74607234440418 0 0 0 0 -219.17269920760009 -227.08134998258629 0 -227.08134998258629 -118.78589902008002 0 0 0 0 -313.11202168930322 -252.03481864101286 0 -252.03481864101286 -148.81497547490972 0 0 0 0 -293.20142648138062 -289.95918069101913 0 -289.95918069101913 -147.85498152743639 0 0 0 0 -188.34427628650155 -217.07262476157348 0 -217.07262476157348 -177.80994325861604 0 0 0 0 -303.98589201403593 -290.25733348569065 0 -290.25733348569065 -201.97478632887987 0 0 0 0 -207.15471637029259 -248.51904867410497 0 -248.51904867410497 -126.24265317163645 0 0 0 0 -176.3010542686352 -237.21755591006024 0 -237.21755591006024 -189.3600797166464 0 0 0 0 -93.36211654485669 -163.27230855482912 0 -163.27230855482912 -141.92232047920913 0 0 0 0 -104.78776468650176 -146.17917688854709 0 -146.17917688854709 -102.8395517193876 0 0 0 0 -77.923695680263336 -92.015426445522507 0 -92.015426445522507 -5.857097701535622 0 0 0 0 -60.955378434577142 -118.97654723432333 0 -118.97654723432333 -109.89964728286384 0 0 0 0 -112.91527148845489 -150.24806545403464 0 -150.24806545403464 -51.341648093921776 0 0 0 0 -163.22899788063296 -191.81351126755229 0 -191.81351126755229 -56.471952013287591 0 0 0 0 -105.28168899206503 -145.68546277812243 0 -145.68546277812243 -32.483665377158559 0 0 0 0 -65.240177249830595 -80.350511433692589 0 -80.350511433692589 20.559104118870891 0 0 0 0 -110.2339954718118 -155.63699322435048 0 -155.63699322435048 -42.168525133863113 0 0 0 0 -0.37680819348315708 -73.593865089290489 0 -73.593865089290489 4.6966032143595839 0 0 0 0 -50.137127347377827 -71.056309070394036 0 -71.056309070394036 -8.5241611532900379 0 0 0 0 -60.686855009309511 -75.545625481171442 0 -75.545625481171442 70.431701793874254 0 0 0 0 -18.229684500227449 123.85660621759371 0 123.85660621759371 127.50939139789921 0 0 0 0 -35.015536780163529 -34.560177789330851 0 -34.560177789330851 145.36813683357923 0 0 0 0 -6.3749239383323584 14.964921867582859 0 14.964921867582859 17.963249386462053 0 0 0 0 -11.077299350607291 2.0660987265226751 0 2.0660987265226751 0.76196788564152929 0 0 0 0 -34.127864831927582 15.609871563572085 0 15.609871563572085 68.018190850435076 0 0 0 0 -13.513287555790157 -10.927276159067333 0 -10.927276159067333 -40.695045011140678 0 0 0 0 26.482719177874969 89.910353262325316 0 89.910353262325316 -12.306447747331658 0 0 0 0 -37.418449921191495 -14.651576550066011 0 -14.651576550066011 -12.260683942417472 0 0 0 0 128.07822241680697 143.81279230420796 0 143.81279230420796 -77.96815650856206 0 0 0 0 -4.107347489182132 -0.85370037035448476 0 -0.85370037035448476 -0.84158976403540842 0 0 0 0 -189.84974365448579 -221.30479505635981 0 -221.30479505635981 -289.94172965104667 0 0 0 0 -164.96863485188805 -256.1622801493213 0 -256.1622801493213 -279.15088452764894 0 0 0 0 -280.62502075023076 -233.09262082921418 0 -233.09262082921418 -234.0513488814081 0 0 0 0 -182.62845624123293 -193.979756993009 0 -193.979756993009 -234.48610833812199 0 0 0 0 -103.21526550505223 -238.13708372769588 0 -238.13708372769588 -292.92667747126507 0 0 0 0 -50.850581104532466 -108.97638227370317 0 -108.97638227370317 -151.28074448207917 0 0 0 0 -40.376057430097717 -109.24978575480168 0 -109.24978575480168 -183.40940585744789 0 0 0 0 21.730452991236234 -34.562523358943054 0 -34.562523358943054 -115.46565466641448 0 0 0 0 173.01375179358001 51.800808071827305 0 51.800808071827305 -175.43599404144538 0 0 0 0 104.79152398153383 -16.928686931176117 0 -16.928686931176117 -213.00337202413266 0 0 0 0 53.713371016456222 -89.52719386792046 0 -89.52719386792046 -241.40266799327179 0 0 0 0 -5.1697460757013403 3.1026100243752701 0 3.1026100243752701 -0.2831669143595863 0 0 0 0 -57.762059737884556 268.7474700576945 0 268.7474700576945 -471.78680477366879 0 0 0 0 -365.76030357781201 -128.64023675669097 0 -128.64023675669097 -41.085675013461014 0 0 0 0 2.0658039291738532 -1.7466401594710987 0 -1.7466401594710987 -50.76145397506366 0 0 0 0 -394.99613582987877 561.01582330800079 0 561.01582330800079 -378.6974819045713 0 0 0 0 0.65605824082125253 -1.780120633978683 0 -1.780120633978683 0.64693850093163352 0 0 0 0 -16.448790772879875 144.27797809742356 0 144.27797809742356 -266.43302666422278 0 0 0 0 -4.8874031280089127 1.6585110750590388 0 1.6585110750590388 0.29976851160978413 0 0 0 0 -1.4071644675470054 2.3436151691962124 0 2.3436151691962124 0.75834952394279354 0 0 0 0 -75.486533582559787 -26.973472567480258 0 -26.973472567480258 316.80233928689586 0 0 0 0 3.3758602625732976 4.8936860657543377 0 4.8936860657543377 -0.78466322519350795 0 0 0 0 36.428539514003205 18.524694568341715 0 18.524694568341715 -20.11120501613641 0 0 0 0 -109.10871964897524 294.30610087742366 0 294.30610087742366 -67.541362460067262 0 0 0 0 -34.637682186523307 228.83968889319635 0 228.83968889319635 -85.521693345552194 0 0 0 0 -40.228539955303859 145.02762636860575 0 145.02762636860575 -433.09962794619696 0 0 0 0 -121.12552195505123 284.74517251849829 0 284.74517251849829 -107.32267071437218 0 0 0 0 -167.75844833997689 196.29913518037984 0 196.29913518037984 -151.53371455333217 0 0 0 0 -25.611179013278161 52.586596562240288 0 52.586596562240288 -16.641133737221253 0 0 0 0 -167.23101721391686 181.59066348024658 0 181.59066348024658 -46.026370676474016 0 0 0 0 -0.060258134327519031 -0.23676013129959728 0 -0.23676013129959728 -8.9413648900918687 0 0 0 0 -120.65256598443375 268.42725360239103 0 268.42725360239103 -75.164414679627953 0 0 0 0 -255.32310528639937 345.05405056234576 0 345.05405056234576 -96.070679055020264 0 0 0 0 -282.33165085680139 230.1908291590216 0 230.1908291590216 84.583706674216955 0 0 0 0 -1047.3000864220667 862.27200657835874 0 862.27200657835874 -68.287731251084097 0 0 0 0 -286.09440104285022 108.23715321680845 0 108.23715321680845 134.74285009309824 0 0 0 0 -339.66850734682521 31.967773868865223 0 31.967773868865223 131.09320007539355 0 0 0 0 -349.89594317372485 -52.947865822826891 0 -52.947865822826891 34.032750696400797 0 0 0 0 -328.49698977664229 -10.843097615491672 0 -10.843097615491672 45.32483538418262 0 0 0 0 -257.07118353272381 36.467039680944197 0 36.467039680944197 43.299714814428221 0 0 0 0 -176.20740246721107 6.9956983134167103 0 6.9956983134167103 -25.986235779334777 0 0 0 0 -149.02154317963868 134.17850849427566 0 134.17850849427566 31.133319774825964 0 0 0 0 -329.7804101994443 -108.98517088481827 0 -108.98517088481827 -52.478392745380518 0 0 0 0 -271.87276917576673 -148.31216357998125 0 -148.31216357998125 -158.86568073686448 0 0 0 0 -291.13972455081966 -31.765948223852803 0 -31.765948223852803 -29.185809117077781 0 0 0 0 -210.6822776014269 -45.609782229655508 0 -45.609782229655508 -10.657783775287044 0 0 0 0 -265.86141986495386 -24.027420160852955 0 -24.027420160852955 1.8702464630579243 0 0 0 0 -174.94512892422063 40.794768902274484 0 40.794768902274484 0.41439984106142447 0 0 0 0 -54.273084971322533 36.707349518587534 0 36.707349518587534 -30.951099116206933 0 0 0 0 -151.58224144202904 17.200968629390047 0 17.200968629390047 -3.1909429592201377 0 0 0 0 -106.64560060087388 28.149628625591333 0 28.149628625591333 -10.109998577500789 0 0 0 0 -132.38288883743371 18.259322652090304 0 18.259322652090304 -5.657534756897121 0 0 0 0 -128.42889738738086 -23.148697463236601 0 -23.148697463236601 -11.066648960323619 0 0 0 0 -138.71280401481636 -22.047226765308039 0 -22.047226765308039 -4.2779178354418548 0 0 0 0 -97.28960430494044 -21.804136346321457 0 -21.804136346321457 12.044648477719534 0 0 0 0 -116.31465920184564 -7.2957374329773899 0 -7.2957374329773899 1.3502244058818178 0 0 0 0 -99.461425576570036 8.1000295743277775 0 8.1000295743277775 -5.0795857577927563 0 0 0 0 -91.581596335905488 14.276843907854982 0 14.276843907854982 -1.2104577178270119 0 0 0 0 -81.673006459659518 13.01490487774106 0 13.01490487774106 -8.4800147674649793 0 0 0 0 -97.062969205825084 27.096284194142342 0 27.096284194142342 -14.867048904008243 0 0 0 0 -30.391667096286255 -29.224648843388422 0 -29.224648843388422 33.933858116538509 0 0 0 0 -76.291423436428886 -121.52564702432674 0 -121.52564702432674 240.72516046236285 0 0 0 0 -275.26050202298211 -302.80941262040955 0 -302.80941262040955 96.054613976976839 0 0 0 0 -25.535190612579754 28.5050767024577 0 28.5050767024577 29.108354697239179 0 0 0 0 123.94536341001731 167.33118615190119 0 167.33118615190119 -551.64492174422139 0 0 0 0 -53.123081982357689 -31.68930124173346 0 -31.68930124173346 -102.14898216369693 0 0 0 0 1.3595112494028712 -1.5765440962610882 0 -1.5765440962610882 0.81314708937256697 0 0 0 0 1.07724840828471 0.1879134775848712 0 0.1879134775848712 -7.7101805515077881 0 0 0 0 34.44215008923311 -14.373485187691074 0 -14.373485187691074 -174.06396447052384 0 0 0 0 -102.1842768301758 25.189433247285052 0 25.189433247285052 -15.165863236487894 0 0 0 0 -63.102686272866613 -6.538304327837853 0 -6.538304327837853 2.9048138867897455 0 0 0 0 -61.900223644701327 -3.309863504661962 0 -3.309863504661962 13.877486262924066 0 0 0 0 -61.124357403008617 -7.5603026733938918 0 -7.5603026733938918 20.263858006058193 0 0 0 0 -35.830527326656778 -3.7769869958962374 0 -3.7769869958962374 11.008685596963126 0 0 0 0 -77.548142331526833 -15.084729060485415 0 -15.084729060485415 -0.91684535422160707 0 0 0 0 -27.462321811846323 178.87974225418998 0 178.87974225418998 222.46125208629746 0 0 0 0 -49.905377267142264 20.22506208225478 0 20.22506208225478 19.128282932335978 0 0 0 0 -32.323392077509197 234.02121658402939 0 234.02121658402939 96.907114300651301 0 0 0 0 -683.75678164851115 -25.633305377414217 0 -25.633305377414217 652.02337631887531 0 0 0 0 -260.32769686594111 -119.34064389471496 0 -119.34064389471496 76.494816172790706 0 0 0 0 59.66472767775349 138.07870200171442 0 138.07870200171442 102.50066104219513 0 0 0 0 -98.270970543362566 -13.938262720225591 0 -13.938262720225591 3.2527233570685157 0 0 0 0 17.788482899326482 75.835734103127834 0 75.835734103127834 230.30988778402752 0 0 0 0 -22.03558404753316 -9.1353378641885428 0 -9.1353378641885428 6.2966654668638675 0 0 0 0 79.31365120895498 -81.963655543397181 0 -81.963655543397181 393.4805473101078 0 0 0 0 -254.7089786911838 -83.926549937332311 0 -83.926549937332311 416.85469007076426 0 0 0 0 -249.3684169524422 -142.49557808785721 0 -142.49557808785721 -2.5013223451463773 0 0 0 0 -28.578799787238388 4.4519090967146511 0 4.4519090967146511 4.1325419066739784 0 0 0 0 -39.459961239394033 -3.325827051847682 0 -3.325827051847682 6.5374503671516777 0 0 0 0 -22.818441032537869 9.8626927098844064 0 9.8626927098844064 17.257054063005807 0 0 0 0 -193.6530459849746 44.674893555969902 0 44.674893555969902 -63.90106743268916 0 0 0 0 -79.915989253651659 -52.618888445183281 0 -52.618888445183281 -14.653958914828962 0 0 0 0 -42.284630831389094 -15.828177681127634 0 -15.828177681127634 4.8254843010215618 0 0 0 0 -3.9042155384806279 -3.7480107108789227 0 -3.7480107108789227 5.0247248615397355 0 0 0 0 -95.481535727773007 -15.372861165285933 0 -15.372861165285933 -7.1085443604519583 0 0 0 0 -223.89341522824907 -157.45593065952085 0 -157.45593065952085 3.4347391189730843 0 0 0 0 -13.96581271441655 -7.206648948393628 0 -7.206648948393628 1.5073603390389518 0 0 0 0 -4.6893466471110621 0.29801779411504725 0 0.29801779411504725 -4.4613041227529582 0 0 0 0 -89.11001238362951 17.274517447218926 0 17.274517447218926 13.790870521590705 0 0 0 0 -84.468480635488959 4.1189470344481833 0 4.1189470344481833 33.185837689470645 0 0 0 0 -57.926484821214217 6.1183330375952778 0 6.1183330375952778 -8.5559964733402012 0 0 0 0 -61.530410551487876 3.7129149770278218 0 3.7129149770278218 14.317461368851639 0 0 0 0 -95.183213659845933 4.8108364360404039 0 4.8108364360404039 16.225902139667369 0 0 0 0 -92.235743459135847 -25.325108789165199 0 -25.325108789165199 62.457698995051601 0 0 0 0 -87.554738030688895 2.7655549516314295 0 2.7655549516314295 26.116810941367419 0 0 0 0 -75.079311849316099 -11.018882370403947 0 -11.018882370403947 -1.949736518250512 0 0 0 0 -60.563446054030464 -20.525535516803416 0 -20.525535516803416 21.967419094178695 0 0 0 0 -64.382555125291447 -13.609481801498504 0 -13.609481801498504 10.521790916650332 0 0 0 0 -47.850735715739575 -12.166767107413079 0 -12.166767107413079 10.096872835915576 0 0 0 0 -58.388718535542466 -1.603949824153915 0 -1.603949824153915 8.1284985660699931 0 0 0 0 -34.290700978046516 -33.562990068318754 0 -33.562990068318754 -14.390061066590533 0 0 0 0 -30.400649232216665 -7.8281925047801622 0 -7.8281925047801622 5.3576857324524099 0 0 0 0 -31.672826029943032 -7.3861931668592149 0 -7.3861931668592149 0.1396322932220242 0 0 0 0 -49.460216632512129 -7.3394752370368224 0 -7.3394752370368224 13.295357315564615 0 0 0 0 -52.921733327235415 -12.05233976213276 0 -12.05233976213276 8.8122519310788618 0 0 0 0 -13.976817595779663 13.002733505617179 0 13.002733505617179 14.684118268785294 0 0 0 0 -46.994295237319562 -0.40428197288440515 0 -0.40428197288440515 8.7453714475583411 0 0 0 0 -21.322226422644242 11.922777274076026 0 11.922777274076026 12.331035535371212 0 0 0 0 98.681044805212878 -1.9552162650970786 0 -1.9552162650970786 9.2426511527846742 0 0 0 0 -46.913195755046715 8.9831083741393076 0 8.9831083741393076 10.907676882638498 0 0 0 0 -66.897267121962159 -181.00555893822275 0 -181.00555893822275 -52.169818026584835 0 0 0 0 99.012857738920502 -10.53936984689517 0 -10.53936984689517 -48.977140228556891 0 0 0 0 -83.851569234749604 -12.541326280248313 0 -12.541326280248313 4.8199796680971758 0 0 0 0 -21.176199766328615 9.2957342508068823 0 9.2957342508068823 12.71416337876183 0 0 0 0 -62.942768745717331 -4.9432275372039527 0 -4.9432275372039527 14.153687230178633 0 0 0 0 216.6552623403386 130.33118979460846 0 130.33118979460846 -199.84533311337691 0 0 0 0 -14.010037811071134 15.227361785247574 0 15.227361785247574 15.192190951250511 0 0 0 0 -422.37926225691444 4.1209078687643341 0 4.1209078687643341 374.67915140200785 0 0 0 0 -559.52919642852157 319.80334839562693 0 319.80334839562693 -256.06330966136375 0 0 0 0 -117.00265961014156 285.21672930804561 0 285.21672930804561 70.716116543716453 0 0 0 0 -345.84145056990246 242.00025539973831 0 242.00025539973831 157.16014254955007 0 0 0 0 -104.41369245693022 -78.577806770157622 0 -78.577806770157622 -55.189346385973977 0 0 0 0 -493.33870307887696 -347.02271212841333 0 -347.02271212841333 -605.54950394466869 0 0 0 0 -294.10013711075044 106.6886051706324 0 106.6886051706324 -152.89611704900381 0 0 0 0 -784.98499958812681 9.1247154936236257 0 9.1247154936236257 -5.9949858262798443 0 0 0 0 -329.35298666616836 -251.76892492635398 0 -251.76892492635398 -279.33412249548019 0 0 0 0 -224.38138273865661 19.990545610237405 0 19.990545610237405 79.486134585688887 0 0 0 0 -454.00172438700065 -16.775181016626902 0 -16.775181016626902 85.123128916091446 0 0 0 0 -507.1594936545107 -144.28881111400415 0 -144.28881111400415 -44.173298798653377 0 0 0 0 -537.44623223942654 -21.830775722691328 0 -21.830775722691328 80.742653150966362 0 0 0 0 -902.2496313535612 -67.02172620952615 0 -67.02172620952615 153.2592587155923 0 0 0 0 -542.90133098881597 -36.389720855143878 0 -36.389720855143878 124.85562264916371 0 0 0 0 -192.71142427680206 -101.50704466392062 0 -101.50704466392062 30.009903659563179 0 0 0 0 -526.92135570070241 -65.489677672823973 0 -65.489677672823973 114.67861872007876 0 0 0 0 -523.96909203689052 -51.089548551422752 0 -51.089548551422752 88.785800420969281 0 0 0 0 0.15792013312193376 20.009667436086829 0 20.009667436086829 17.715892756717039 0 0 0 0 -17.170045046988378 16.687127593021813 0 16.687127593021813 10.54840111082706 0 0 0 0 -172.10016934645 -34.989198822401704 0 -34.989198822401704 112.57076613901336 0 0 0 0 -12.437397878438787 33.050493774582719 0 33.050493774582719 29.925068339050085 0 0 0 0 -5.5603402268544855 -0.9463426090988456 0 -0.9463426090988456 1.37648087890258 0 0 0 0 -47.865941533259658 -0.23071234425608367 0 -0.23071234425608367 17.365591578086857 0 0 0 0 10.357140658514254 -142.70898037858115 0 -142.70898037858115 51.494686149433619 0 0 0 0 4.7721332017369527 -7.3578134649819669 0 -7.3578134649819669 -3.8786203890526907 0 0 0 0 -10.354165340165309 25.911966080906836 0 25.911966080906836 17.350883471937777 0 0 0 0 -21.670758534056056 25.414160890175207 0 25.414160890175207 18.178173890576993 0 0 0 0 -113.58370122865017 5.9891240201354776 0 5.9891240201354776 19.977953707556026 0 0 0 0 -91.254192743010208 -3.589888632335942 0 -3.589888632335942 -10.826722835190594 0 0 0 0 -81.351897387915869 -44.692211469305391 0 -44.692211469305391 -13.492469283288301 0 0 0 0 -18.331413934844321 -21.690720024189254 0 -21.690720024189254 -7.5277464283468714 0 0 0 0 -20.709291881101997 23.69949229662037 0 23.69949229662037 15.712130709160592 0 0 0 0 -184.18926530328827 -45.596685420680387 0 -45.596685420680387 6.6331200836225435 0 0 0 0 -266.87305692510472 25.922205352229099 0 25.922205352229099 -26.908367289535192 0 0 0 0 -271.8056542704353 7.1865998680527241 0 7.1865998680527241 -12.925336262814554 0 0 0 0 -554.7787161893184 303.45707003958188 0 303.45707003958188 33.28996513963952 0 0 0 0 -14.193919423332009 -23.618650218439555 0 -23.618650218439555 -12.779296038379089 0 0 0 0 -11.091633940890461 -27.083738598311584 0 -27.083738598311584 -15.712252369090493 0 0 0 0 -401.80005526599007 -40.635866123177053 0 -40.635866123177053 -189.7465323498499 0 0 0 0 -123.51705728204615 -19.156294805479774 0 -19.156294805479774 30.507500324474677 0 0 0 0 -123.15647015986008 -45.029562842585946 0 -45.029562842585946 -51.829823517549812 0 0 0 0 -99.665484578963515 -34.587406482246479 0 -34.587406482246479 18.758829610892462 0 0 0 0 -154.76858057394566 16.704852002238567 0 16.704852002238567 -17.711606382237733 0 0 0 0 -73.116428755580273 20.164000291457796 0 20.164000291457796 -10.103578886862579 0 0 0 0 -113.78566695687141 -42.986442645633701 0 -42.986442645633701 43.789443285135349 0 0 0 0 -113.18398707702363 -46.634360432644826 0 -46.634360432644826 36.46643966859574 0 0 0 0 -166.81857667379882 -18.703249029443214 0 -18.703249029443214 40.788146162652083 0 0 0 0 -157.57905724994998 -38.116921249688403 0 -38.116921249688403 60.164284451948333 0 0 0 0 -157.16770991873273 -36.090935983723284 0 -36.090935983723284 30.17087244467757 0 0 0 0 -64.130051738145994 -52.667224987450709 0 -52.667224987450709 31.848779240261138 0 0 0 0 -63.620019214173226 -48.502230689237649 0 -48.502230689237649 49.040311762774763 0 0 0 0 0.26706691542494809 -73.930878800479491 0 -73.930878800479491 5.0642626223752814 0 0 0 0 -13.664158399940597 4.1762565444898314 0 4.1762565444898314 15.041295439650309 0 0 0 0 -64.620184285031428 7.9829324516406359 0 7.9829324516406359 16.129123654885007 0 0 0 0 -56.52576320185608 -12.498367098531183 0 -12.498367098531183 53.294976588348931 0 0 0 0 -140.29500309123978 11.04492087700055 0 11.04492087700055 39.755287288571708 0 0 0 0 -8.6555312989154594 -1.1398108662932387 0 -1.1398108662932387 0.20997238251344186 0 0 0 0 -167.75268152344961 -55.43417361675089 0 -55.43417361675089 51.198864527021215 0 0 0 0 -204.65476126936119 -26.104212450318983 0 -26.104212450318983 52.732484120388108 0 0 0 0 -79.933540295479361 -7.4303666302214424 0 -7.4303666302214424 11.641067750609182 0 0 0 0 -63.815611038476618 37.483633423387687 0 37.483633423387687 48.100758843791823 0 0 0 0 -55.560739596828725 7.3698025618325689 0 7.3698025618325689 8.7287288787402453 0 0 0 0 -54.662805399741274 28.743881638723565 0 28.743881638723565 35.153226090084445 0 0 0 0 -74.316639154124459 1.7552572243860141 0 1.7552572243860141 59.147050931474382 0 0 0 0 -61.431582936673522 2.1854174944194091 0 2.1854174944194091 6.8392110528231651 0 0 0 0 -71.969653516285689 27.12423863477602 0 27.12423863477602 75.496130649474139 0 0 0 0 -70.468528924225893 33.317804479626716 0 33.317804479626716 47.783136353630198 0 0 0 0 -63.804715747927276 40.887167566778544 0 40.887167566778544 35.090893463729934 0 0 0 0 -61.068934762130198 36.26108550376199 0 36.26108550376199 1.3824805313472552 0 0 0 0 -45.103570131359788 30.22607911465721 0 30.22607911465721 32.034396021057319 0 0 0 0 -52.935259814585265 34.375558288021921 0 34.375558288021921 -5.3684188456377342 0 0 0 0 -61.215203642904726 44.67528686736523 0 44.67528686736523 20.623637004322063 0 0 0 0 -4.6856942855902162 34.321156716685891 0 34.321156716685891 11.928630518352293 0 0 0 0 -58.3090929684206 11.169245661088212 0 11.169245661088212 -9.5022658349032554 0 0 0 0 -7.1107286481323548 -1.1321958241667796 0 -1.1321958241667796 0.43100204151603005 0 0 0 0 4.0546317819889737 31.464162256008194 0 31.464162256008194 11.689043218495044 0 0 0 0 -63.761496215453917 25.729137208887437 0 25.729137208887437 -8.7669955549845326 0 0 0 0 -81.347819861284961 9.9324331030974236 0 9.9324331030974236 -4.3255395625183155 0 0 0 0 -38.921159537694216 33.19101907435526 0 33.19101907435526 -56.177666909663685 0 0 0 0 -39.070303211509781 20.962466110236846 0 20.962466110236846 -16.02633476324786 0 0 0 0 -199.62802143660815 102.3236731695323 0 102.3236731695323 -37.390531814233555 0 0 0 0 -98.741215591447826 32.824919758526789 0 32.824919758526789 9.1920649390322069 0 0 0 0 -87.926942099914868 62.33332064465958 0 62.33332064465958 -12.114056970110141 0 0 0 0 -246.90255995329176 7.3220224429824157 0 7.3220224429824157 39.621586609139968 0 0 0 0 -259.74255681445834 2.1258323197630489 0 2.1258323197630489 75.578509293965681 0 0 0 0 -199.4204270409333 -11.875097167782883 0 -11.875097167782883 49.239217200452458 0 0 0 0 -228.02681027449916 -57.048915606906064 0 -57.048915606906064 67.091498658384353 0 0 0 0 -146.510104127045 -19.353321362510542 0 -19.353321362510542 44.920946990121138 0 0 0 0 -89.531476293421747 8.6251389542176184 0 8.6251389542176184 48.975945064800783 0 0 0 0 -161.2325289618916 -2.0304452949729921 0 -2.0304452949729921 50.977097249134886 0 0 0 0 -125.22635851401719 -35.895953137392326 0 -35.895953137392326 46.521914355772878 0 0 0 0 -176.48603729768763 -56.495361991082518 0 -56.495361991082518 42.332472564030013 0 0 0 0 -102.03128586642879 41.060917742670654 0 41.060917742670654 12.418817989458319 0 0 0 0 -76.492170346704825 50.572061496850665 0 50.572061496850665 42.221828259573158 0 0 0 0 -83.229708541874288 18.711265342892489 0 18.711265342892489 38.969841975736244 0 0 0 0 -49.094034609262508 37.469394380837571 0 37.469394380837571 47.125103843409761 0 0 0 0 -68.748275885392104 54.68227316227626 0 54.68227316227626 102.94199161591996 0 0 0 0 -74.948217732024204 -11.346177023271935 0 -11.346177023271935 129.24273312891449 0 0 0 0 -46.830150424685144 72.837052787917173 0 72.837052787917173 67.993938515129457 0 0 0 0 -23.900793013363334 0.084722305031958989 0 0.084722305031958989 6.7729600661720619 0 0 0 0 -84.597549607292422 43.712996895897732 0 43.712996895897732 110.79293010034803 0 0 0 0 -95.422790825379707 4.4629701352387201 0 4.4629701352387201 89.489990082564873 0 0 0 0 -111.82399060013358 10.62683231737924 0 10.62683231737924 74.40427256438079 0 0 0 0 -112.87530675662356 -33.637920889710131 0 -33.637920889710131 32.398380782909499 0 0 0 0 -80.857163172928594 -4.0805746475290086 0 -4.0805746475290086 59.619043962597971 0 0 0 0 -78.547239593780887 -64.021670745181581 0 -64.021670745181581 15.303834075156374 0 0 0 0 -72.329054397499476 -0.9111598812964985 0 -0.9111598812964985 52.650211914161218 0 0 0 0 -90.728797586414601 17.358521395552913 0 17.358521395552913 63.725936927863131 0 0 0 0 -74.10766487134515 30.675750431929146 0 30.675750431929146 72.928307690347538 0 0 0 0 -51.856790993093 31.637480093364502 0 31.637480093364502 68.2243990250455 0 0 0 0 -47.082550427473507 28.909891822970565 0 28.909891822970565 60.860717853175174 0 0 0 0 -24.150316619229216 17.734554450359951 0 17.734554450359951 56.243137920333425 0 0 0 0 -54.261850375634708 16.32356267752893 0 16.32356267752893 -2.1001765698439208 0 0 0 0 -74.880499606570083 52.120063614314176 0 52.120063614314176 -1.1399653064985955 0 0 0 0 -62.669687634446746 10.184988448335503 0 10.184988448335503 20.461576260146558 0 0 0 0 -70.547984073506086 9.9753067978639933 0 9.9753067978639933 26.774098127830825 0 0 0 0 -58.249503580538203 45.420736434440187 0 45.420736434440187 55.15512026963529 0 0 0 0 -61.046504032097083 14.725187935108988 0 14.725187935108988 3.1843144120054512 0 0 0 0 -58.571040340577497 8.66579088253809 0 8.66579088253809 -14.905279774771543 0 0 0 0 -561.75645358122074 288.78734940547793 0 288.78734940547793 151.24695189516774 0 0 0 0 2.9185663195538538 6.0155910048676402 0 6.0155910048676402 -5.4065384910182024 0 0 0 0 -783.08105918296019 -71.861762492339068 0 -71.861762492339068 -76.492707765893897 0 0 0 0 -470.55546443938329 87.589885683182729 0 87.589885683182729 -23.754470224865258 0 0 0 0 -427.16080246259116 338.7891515741311 0 338.7891515741311 41.677366396692889 0 0 0 0 -31.584464350922588 -100.4611667346046 0 -100.4611667346046 24.094658487547349 0 0 0 0 -451.74941827578436 129.62247794084101 0 129.62247794084101 36.612695419685451 0 0 0 0 -8.7930566695021071 -17.306765699122252 0 -17.306765699122252 36.494600141982573 0 0 0 0 -7.9887045079024679 -0.14092567350724483 0 -0.14092567350724483 -2.0388460753725988 0 0 0 0 -451.5911696047059 -282.66213450934214 0 -282.66213450934214 -100.55135247983799 0 0 0 0 -153.86203088696311 -69.923512349893599 0 -69.923512349893599 40.713269453813155 0 0 0 0 -254.83373035714158 -191.11469230347529 0 -191.11469230347529 -12.714048129731736 0 0 0 0 -88.213132032278168 7.6812729121669587 0 7.6812729121669587 6.7626349382679223 0 0 0 0 -174.76210832284778 110.62180337230438 0 110.62180337230438 -91.672770894435189 0 0 0 0 -126.64970540734794 2.0779844287462765 0 2.0779844287462765 15.884056237006803 0 0 0 0 -49.737085629733244 28.840474117169229 0 28.840474117169229 17.846260215123444 0 0 0 0 -7.9531523153111374 -2.0645226710237177 0 -2.0645226710237177 -0.16946373647454394 0 0 0 0 -14.858195603013145 44.136755841666755 0 44.136755841666755 15.733939536907108 0 0 0 0 -168.69649069334628 6.7736827628523315 0 6.7736827628523315 16.841647437018764 0 0 0 0 -18.192955330198743 68.049988067959589 0 68.049988067959589 -19.715159827171192 0 0 0 0 -136.96441342211256 23.75465519616273 0 23.75465519616273 15.953635287252837 0 0 0 0 11.275403172017295 4.6467817448444944 0 4.6467817448444944 -2.5889853610514275 0 0 0 0 -142.09933249144729 -85.707821167278553 0 -85.707821167278553 30.399491985150235 0 0 0 0 -230.09160066883624 -115.12363422926524 0 -115.12363422926524 38.036392902269426 0 0 0 0 -331.0111136517196 0.61310385416413737 0 0.61310385416413737 70.877249419202599 0 0 0 0 -274.22471676419264 109.33297309953377 0 109.33297309953377 252.15690560467419 0 0 0 0 -675.73394564199134 -25.910291151996717 0 -25.910291151996717 293.37931600170032 0 0 0 0 -167.47525862608114 -53.416749821295809 0 -53.416749821295809 63.320810600410823 0 0 0 0 -170.56463075493889 -45.250425996986735 0 -45.250425996986735 70.73543838358728 0 0 0 0 -179.27402431171527 -62.604194836304487 0 -62.604194836304487 66.478648356581743 0 0 0 0 -210.79278402841737 -84.336417217710505 0 -84.336417217710505 108.39352865579258 0 0 0 0 -173.46414265374921 -57.174873718186291 0 -57.174873718186291 61.015973017365468 0 0 0 0 -179.14054257748307 -50.184514032827565 0 -50.184514032827565 67.924108831430203 0 0 0 0 -97.875623883070148 -234.16358302793537 0 -234.16358302793537 94.419244174868709 0 0 0 0 -291.89419808356683 -9.4391436535013327 0 -9.4391436535013327 127.75251644087348 0 0 0 0 -13.322451014697467 46.093423734169804 0 46.093423734169804 8.7879533121532152 0 0 0 0 191.46237220685271 -46.243589334452395 0 -46.243589334452395 18.922372324861385 0 0 0 0 -136.00751774261153 107.38562289103038 0 107.38562289103038 -27.759523693843221 0 0 0 0 -189.81671662930103 -5.260604067970803 0 -5.260604067970803 11.756183780124047 0 0 0 0 -195.81602739072741 35.385904387460755 0 35.385904387460755 45.545719361278316 0 0 0 0 -211.87739831169893 -6.8374864797060582 0 -6.8374864797060582 17.297726757614328 0 0 0 0 -205.14949628356771 -2.0102369005535365 0 -2.0102369005535365 -25.559115710544575 0 0 0 0 -319.4419216363749 21.978157146869307 0 21.978157146869307 -30.470944579228672 0 0 0 0 -386.00624492373754 -4.9685329342437399 0 -4.9685329342437399 -9.0008408033536398 0 0 0 0 12.513615432349788 1.6500349605220705 0 1.6500349605220705 -2.0117169706169591 0 0 0 0 -339.86314822096756 -17.892816702256368 0 -17.892816702256368 -7.0420586107286454 0 0 0 0 -378.07184186222003 -44.827470808308703 0 -44.827470808308703 -24.153213363180726 0 0 0 0 -12.332036298579329 1.2147381320334532 0 1.2147381320334532 0.26410664749304935 0 0 0 0 -387.41879404415522 -60.82253131062339 0 -60.82253131062339 33.414209926232843 0 0 0 0 -36.433901116552072 45.100007299540842 0 45.100007299540842 5.2927881840876285 0 0 0 0 216.33158073810006 413.9755922534315 0 413.9755922534315 -559.90600904118264 0 0 0 0 -107.19431948660491 33.178840817186071 0 33.178840817186071 35.384214230241241 0 0 0 0 -407.30943026279647 -140.61002516350936 0 -140.61002516350936 169.37367334249097 0 0 0 0 -591.85269086101357 161.3768101174544 0 161.3768101174544 92.667218219363804 0 0 0 0 -265.49331264243301 287.73376726707056 0 287.73376726707056 -326.70794748774506 0 0 0 0 -6.3484665907523148 -2.1936825486904903 0 -2.1936825486904903 -1.1501302147544146 0 0 0 0 -18.732521318656207 -5.9616606384582109 0 -5.9616606384582109 -2.1743739155792627 0 0 0 0 -69.164035770693317 62.277395016227956 0 62.277395016227956 -81.359331033010903 0 0 0 0 -74.772631796620544 55.847458797925924 0 55.847458797925924 -70.464216549574985 0 0 0 0 -32.807687141495762 -48.319638604058134 0 -48.319638604058134 9.1524962023542002 0 0 0 0 -74.427472472157888 -163.4794019998649 0 -163.4794019998649 -262.26567344935034 0 0 0 0 -430.63147989608802 -242.1586607486465 0 -242.1586607486465 208.57720567450593 0 0 0 0 -120.79582437241606 59.095568148719394 0 59.095568148719394 208.26394696168015 0 0 0 0 -74.801036319434843 -42.84233049489967 0 -42.84233049489967 12.792270464079877 0 0 0 0 -152.15882776059277 -12.330716291367935 0 -12.330716291367935 56.946137558479677 0 0 0 0 -83.474596546589055 -43.628194730904582 0 -43.628194730904582 26.753926686372779 0 0 0 0 -89.369721238829698 -7.7082368971023598 0 -7.7082368971023598 1.6947494757560708 0 0 0 0 -3.5458673169808606 10.187624387431031 0 10.187624387431031 0.82751129743676832 0 0 0 0 -275.68193302041618 4.5838006178289277 0 4.5838006178289277 83.842052673738877 0 0 0 0 -227.18604196800152 -184.51864057449879 0 -184.51864057449879 -112.37187456253679 0 0 0 0 -233.76413738078554 -144.88937021781348 0 -144.88937021781348 -274.64501436078694 0 0 0 0 -488.77527906555042 -220.40767150534754 0 -220.40767150534754 -745.00823146700941 0 0 0 0 -525.51215665993914 -175.53449603708853 0 -175.53449603708853 -78.821278389980847 0 0 0 0 -382.57918562268242 89.953304466052089 0 89.953304466052089 -151.93651620072183 0 0 0 0 -536.13388663070509 -155.79474960365334 0 -155.79474960365334 37.07889125263533 0 0 0 0 -54.533216511738125 38.579282771178164 0 38.579282771178164 6.6293663337921211 0 0 0 0 -42.773275745516003 108.5995570649952 0 108.5995570649952 -139.04266988496397 0 0 0 0 -226.09115932505665 -107.57061812113676 0 -107.57061812113676 61.339202733651035 0 0 0 0 -120.19801953501519 -506.57023245627727 0 -506.57023245627727 -131.481206674063 0 0 0 0 -788.47917456240248 -588.26929564824491 0 -588.26929564824491 -134.29333799145198 0 0 0 0 -941.75862012377183 -89.187395124858654 0 -89.187395124858654 -35.303972464369849 0 0 0 0 -475.83156386290284 -212.7879601529915 0 -212.7879601529915 -58.182211872785501 0 0 0 0 -83.959590737005783 -881.76571291573828 0 -881.76571291573828 -178.27965875881364 0 0 0 0 -95.489158420758031 -439.61664437825954 0 -439.61664437825954 -54.040692351784337 0 0 0 0 -218.23936834330652 -162.37215090846604 0 -162.37215090846604 -48.447726190281628 0 0 0 0 -93.763577589154011 -359.53767612469727 0 -359.53767612469727 37.469400418251439 0 0 0 0 -137.362286032062 -284.23748729332743 0 -284.23748729332743 -332.11086075459673 0 0 0 0 -468.49307875411614 -349.85875115067688 0 -349.85875115067688 -188.82796468887125 0 0 0 0 10.051032167689755 -299.89470371032166 0 -299.89470371032166 -291.67571932596684 0 0 0 0 -214.95336362288435 -443.10899051099597 0 -443.10899051099597 -331.32492415514196 0 0 0 0 -133.60878349887753 -399.98420212957848 0 -399.98420212957848 -741.70515883221015 0 0 0 0 -88.191104373148846 -262.71751941488338 0 -262.71751941488338 -393.32208177508687 0 0 0 0 -89.964362948136113 -387.11308526187827 0 -387.11308526187827 -447.31398274502487 0 0 0 0 -171.41455176347154 -359.48018631576474 0 -359.48018631576474 -648.29545442422182 0 0 0 0 -490.37209191390139 -470.86595886330309 0 -470.86595886330309 -430.75170412441724 0 0 0 0 -329.06718636877849 -427.86793326152832 0 -427.86793326152832 -673.50890913436888 0 0 0 0 -151.56044737649563 -428.9952296428313 0 -428.9952296428313 -754.89831421559575 0 0 0 0 -155.41315084269081 -68.296857149199241 0 -68.296857149199241 -535.91196052553801 0 0 0 0 -144.12459733758533 -475.99655228587176 0 -475.99655228587176 -738.16811866069975 0 0 0 0 17.337594779306528 29.154059200128358 0 29.154059200128358 -17.629669625893712 0 0 0 0 -0.5175581281868773 -0.13572731292478757 0 -0.13572731292478757 -0.47238388017591593 0 0 0 0 -118.74604556235863 -188.17428067501783 0 -188.17428067501783 -324.13978309043114 0 0 0 0 4.5486047043232247 -24.195355932292841 0 -24.195355932292841 -166.12117760538331 0 0 0 0 -122.70061899352368 -181.17823953461954 0 -181.17823953461954 -223.98319224820034 0 0 0 0 -406.19567697074308 -358.15366178698173 0 -358.15366178698173 -195.93961133908192 0 0 0 0 -143.56361811559327 -280.88903447050666 0 -280.88903447050666 -305.25715130774711 0 0 0 0 -145.69980950908302 -270.79773473513973 0 -270.79773473513973 -168.62337955942075 0 0 0 0 -438.06087650599147 -167.79048178822995 0 -167.79048178822995 -13.923386487411108 0 0 0 0 -406.40218521773204 -145.10472849344893 0 -145.10472849344893 -87.939796476269294 0 0 0 0 -273.34345752832451 -92.553730883873641 0 -92.553730883873641 -68.481311716338496 0 0 0 0 -349.90661889189778 -50.905794422208487 0 -50.905794422208487 -43.747138054288371 0 0 0 0 -266.41818963850528 -86.822418043133439 0 -86.822418043133439 -74.918738549605109 0 0 0 0 -201.41644431016903 -91.880523219058887 0 -91.880523219058887 -78.18777006432947 0 0 0 0 -242.72034039609571 -37.984522204543282 0 -37.984522204543282 -42.25021359128084 0 0 0 0 -209.06533053307794 -52.541750635307835 0 -52.541750635307835 -24.86793780798007 0 0 0 0 -264.58941637343378 -49.605199504727352 0 -49.605199504727352 -24.247792347016002 0 0 0 0 -244.80729840228014 -9.8962198483441171 0 -9.8962198483441171 18.246348208218478 0 0 0 0 -205.7960129701496 -35.265909768228539 0 -35.265909768228539 3.925109468888877 0 0 0 0 -160.54219305802053 -108.16248811364289 0 -108.16248811364289 -64.195126557167896 0 0 0 0 -49.098712482977135 -54.405901897885997 0 -54.405901897885997 -38.66936285514339 0 0 0 0 -149.60728215445488 -54.788107190820028 0 -54.788107190820028 -53.074769564944745 0 0 0 0 -140.29459355630297 -67.004557729139606 0 -67.004557729139606 5.3181452478220308 0 0 0 0 -168.27648702899751 -41.491353509164128 0 -41.491353509164128 4.8205282584947327 0 0 0 0 -184.35077127677141 5.2961906139139501 0 5.2961906139139501 28.673675608084523 0 0 0 0 -149.96121863059716 -25.827438054378604 0 -25.827438054378604 17.326290432520182 0 0 0 0 -137.77846584883355 -27.335939072032147 0 -27.335939072032147 1.2529033684604656 0 0 0 0 -126.2804624376331 -42.300081783072528 0 -42.300081783072528 20.701932775294154 0 0 0 0 -119.56935837282253 -23.013185162643936 0 -23.013185162643936 19.252151790075004 0 0 0 0 -41.311301945719606 -49.439306600343571 0 -49.439306600343571 -0.032742683188189403 0 0 0 0 -123.67503723514119 35.811896512939597 0 35.811896512939597 -21.266423611693881 0 0 0 0 -103.17371682310613 23.427921428687114 0 23.427921428687114 -30.415793623405307 0 0 0 0 -58.616922262153409 -31.928254287605643 0 -31.928254287605643 -17.755873682565284 0 0 0 0 -129.71562625444892 -47.236061374255883 0 -47.236061374255883 16.598318139564071 0 0 0 0 -67.348728986503659 5.502779960915074 0 5.502779960915074 21.619046295983125 0 0 0 0 -58.870124984617178 4.4168457246220214 0 4.4168457246220214 19.37715430319372 0 0 0 0 -128.96672919335833 -57.803262447359884 0 -57.803262447359884 -4.9114691531017343 0 0 0 0 -83.744256032886369 37.588762220183042 0 37.588762220183042 -41.06247445281366 0 0 0 0 -88.948627145245709 7.8421564335071832 0 7.8421564335071832 11.384065965620822 0 0 0 0 -101.94110881143661 11.774994506864203 0 11.774994506864203 2.27395298694762 0 0 0 0 -121.24469286650253 3.7384803026003901 0 3.7384803026003901 -48.285467657075969 0 0 0 0 -126.18148628431641 19.809978355753174 0 19.809978355753174 -4.5906176463506654 0 0 0 0 -88.149940905448602 29.354682716997218 0 29.354682716997218 -29.270621046726774 0 0 0 0 -35.824609726176774 -28.248493315429485 0 -28.248493315429485 -15.404095217781652 0 0 0 0 -98.121383027752472 56.835100474209867 0 56.835100474209867 -74.30057358912461 0 0 0 0 -98.026577327427958 36.703050500471676 0 36.703050500471676 -36.721981450608382 0 0 0 0 -64.901413696738928 47.854674755531846 0 47.854674755531846 -84.764071971959083 0 0 0 0 -33.317614871562711 -18.935435673454286 0 -18.935435673454286 -6.8561994463702121 0 0 0 0 -55.079779947739553 17.585208991604077 0 17.585208991604077 -90.349240478026786 0 0 0 0 -38.609683216913254 -85.6584174255172 0 -85.6584174255172 11.304983946813991 0 0 0 0 4.8247405909096415 -23.661749068754034 0 -23.661749068754034 1.188033262020042 0 0 0 0 -51.00907970091589 -65.1423709242315 0 -65.1423709242315 -29.367196770925148 0 0 0 0 16.667145676547079 -23.148346308034434 0 -23.148346308034434 -69.561841930987612 0 0 0 0 11.483287396347578 -57.806389132114532 0 -57.806389132114532 -25.096007511621792 0 0 0 0 16.862251393688894 -15.378452920933569 0 -15.378452920933569 -3.9238635327619704 0 0 0 0 -5.7347613347571667 -4.3674569573210089 0 -4.3674569573210089 -1.1784547971947639 0 0 0 0 -26.941620720782804 7.3231401492035646 0 7.3231401492035646 -3.4039482083204944 0 0 0 0 -940.94391109079879 -872.15627408714317 0 -872.15627408714317 -550.12693828189049 0 0 0 0 48.451992551696094 -211.768267256792 0 -211.768267256792 -1279.6396487446891 0 0 0 0 -6.3106117612034929 1.4922874796550403 0 1.4922874796550403 -2.7412675572054548 0 0 0 0 -687.22406964244283 -902.57453009379014 0 -902.57453009379014 -975.08996983998054 0 0 0 0 -823.80149298119613 -406.99633838204045 0 -406.99633838204045 -522.17852286572656 0 0 0 0 -90.294529181363487 -59.267466507572351 0 -59.267466507572351 -181.41423916690292 0 0 0 0 -71.146102340484504 47.160883019337007 0 47.160883019337007 -111.01415871166591 0 0 0 0 -35.975214794596468 55.436084907808208 0 55.436084907808208 -139.81307650725125 0 0 0 0 -46.321902191181834 9.7639632744087521 0 9.7639632744087521 -153.57840538141591 0 0 0 0 -59.73503025142054 57.426090286236104 0 57.426090286236104 -69.144814967551611 0 0 0 0 -82.55079632343768 25.00799520918352 0 25.00799520918352 20.373918536462071 0 0 0 0 -65.066537696259502 103.17043355035071 0 103.17043355035071 80.405775387601807 0 0 0 0 -69.543120148893649 78.506192225651375 0 78.506192225651375 -51.673060433764704 0 0 0 0 16.287582987992209 118.09240819253318 0 118.09240819253318 -116.43348678750912 0 0 0 0 73.723747712729164 163.6217728384247 0 163.6217728384247 -362.49949541105161 0 0 0 0 -15.747860882280293 96.627158454370715 0 96.627158454370715 118.69364685141591 0 0 0 0 100.81090687173855 150.99161716451135 0 150.99161716451135 129.57949389882117 0 0 0 0 -121.47483497691974 -0.79634140362293238 0 -0.79634140362293238 59.808080811109278 0 0 0 0 -21.740459939715304 6.0615014392260989 0 6.0615014392260989 5.5131261672899878 0 0 0 0 -81.116977735997864 12.95044868838805 0 12.95044868838805 8.5965787800082385 0 0 0 0 -87.771290549279911 20.175508667081971 0 20.175508667081971 17.195386694241904 0 0 0 0 -22.007628678769834 101.13392547203057 0 101.13392547203057 35.254874972798461 0 0 0 0 -1515.5046470363898 1466.3078340818297 0 1466.3078340818297 -1013.7708338266484 0 0 0 0 -2496.4431113320206 954.03280293741 0 954.03280293741 100.75585435615169 0 0 0 0 -337.70127713778015 235.60735492172944 0 235.60735492172944 -211.00095358745557 0 0 0 0 -32.999908598137239 1.4308505970479413 0 1.4308505970479413 -6.7708631523707954 0 0 0 0 -515.54689152246215 72.244139455666641 0 72.244139455666641 108.47667202723699 0 0 0 0 -143.00743673908528 79.708217685281397 0 79.708217685281397 564.52372775429944 0 0 0 0 -122.74114612811536 352.5252243034347 0 352.5252243034347 417.33080093537524 0 0 0 0 112.69344546019784 694.71315342737989 0 694.71315342737989 -392.96984843502446 0 0 0 0 -1022.6838409708711 -1629.4963494818746 0 -1629.4963494818746 -1451.0161995272135 0 0 0 0 -14.24101397471008 -2.8571251421513835 0 -2.8571251421513835 -2.1704986982439998 0 0 0 0 -1844.3463235743675 -986.60660539069886 0 -986.60660539069886 -667.638469683013 0 0 0 0 -2495.1889728333936 -1630.0077397054736 0 -1630.0077397054736 -1207.8611878538341 0 0 0 0 154.45119011909992 -165.84125394763151 0 -165.84125394763151 -792.13844597303614 0 0 0 0 -9.7051112334242404 2.2337274766401984 0 2.2337274766401984 -1.7117532012812369 0 0 0 0 -1700.1664727483294 -1389.0346782370784 0 -1389.0346782370784 -1164.6623023376947 0 0 0 0 -1510.6038197750331 -959.41247711723031 0 -959.41247711723031 -744.91006109771376 0 0 0 0 -1591.518520877129 -836.89444082012881 0 -836.89444082012881 -615.31983074864945 0 0 0 0 -2500.4934574657877 -916.35115753416096 0 -916.35115753416096 -271.66246228487864 0 0 0 0 -1607.0562994603933 -423.5548761139994 0 -423.5548761139994 -51.515869131002134 0 0 0 0 -1666.3192631110905 -466.08111802949679 0 -466.08111802949679 -42.092589289783049 0 0 0 0 -1432.8064305543066 -793.43048200851297 0 -793.43048200851297 -603.44802536164275 0 0 0 0 -919.58139826017214 -761.41764784905752 0 -761.41764784905752 -701.26728581931104 0 0 0 0 -886.58491875730624 -612.99729066825455 0 -612.99729066825455 -892.85177858705447 0 0 0 0 -895.24478238271331 -522.88373275673052 0 -522.88373275673052 -816.80681352012925 0 0 0 0 -1156.9147200086245 -489.70178930639736 0 -489.70178930639736 -391.33067911213931 0 0 0 0 -889.436429891226 -443.91297546529654 0 -443.91297546529654 -487.336887579159 0 0 0 0 -414.6519033672339 -740.99274902576553 0 -740.99274902576553 -921.52219647020206 0 0 0 0 -891.58422732499639 -546.53973714835172 0 -546.53973714835172 -469.15706529727464 0 0 0 0 -504.02927582347729 -256.31548155542748 0 -256.31548155542748 -283.30176145657992 0 0 0 0 -891.82530450160812 -327.75014537556689 0 -327.75014537556689 -316.15349367112407 0 0 0 0 -1481.1344799020144 -259.34674207774418 0 -259.34674207774418 36.679824927338132 0 0 0 0 -978.02994788860633 -125.64832121128774 0 -125.64832121128774 71.847309390669864 0 0 0 0 -457.61990675010748 -316.77209405570829 0 -316.77209405570829 -272.19398094353369 0 0 0 0 -578.70352078227097 -139.12544221043652 0 -139.12544221043652 141.67675496049424 0 0 0 0 -983.61264024169941 -120.80648214605981 0 -120.80648214605981 142.58074065028381 0 0 0 0 -1494.4324421092206 -116.50288189988304 0 -116.50288189988304 342.60911499559614 0 0 0 0 -1506.2487746835013 103.24156951454572 0 103.24156951454572 491.89455333832484 0 0 0 0 -2498.9687516491194 -147.67013700562583 0 -147.67013700562583 429.1921463632529 0 0 0 0 -0.55438514583664045 0.59217951539242364 0 0.59217951539242364 -1.8615928212097153 0 0 0 0 279.10071013527886 -134.4820002470257 0 -134.4820002470257 58.07664890719002 0 0 0 0 -653.90053688769694 -150.76586442507514 0 -150.76586442507514 28.892799067589692 0 0 0 0 0.46443588633258059 1.3887817797048427 0 1.3887817797048427 -2.1999492678928125 0 0 0 0 168.46507291608941 146.78742205500018 0 146.78742205500018 57.975081525064553 0 0 0 0 76.794892849977259 58.55922677575893 0 58.55922677575893 48.182695894922915 0 0 0 0 -2.559314376047034 3.5867792975833055 0 3.5867792975833055 -4.152289953822331 0 0 0 0 337.48350257589482 61.362426362142287 0 61.362426362142287 -16.246679239315654 0 0 0 0 85.113634501115484 96.529305724168978 0 96.529305724168978 29.664501522981482 0 0 0 0 -427.12718381735249 -131.74243639859696 0 -131.74243639859696 -54.461961673220003 0 0 0 0 -286.25393655313383 -47.918423184170706 0 -47.918423184170706 -4.7311801112919056 0 0 0 0 -436.4475757768887 -13.403972441874998 0 -13.403972441874998 56.091392023720459 0 0 0 0 -337.28086460124905 -10.708184722066107 0 -10.708184722066107 28.605393512377987 0 0 0 0 -257.96582407038295 44.228888581718593 0 44.228888581718593 54.144810556782431 0 0 0 0 -322.92604115565337 -31.479531255158804 0 -31.479531255158804 20.964983809202749 0 0 0 0 -226.63157073246111 -72.928905102367821 0 -72.928905102367821 46.110424772011811 0 0 0 0 -341.69365300350546 2.1080694761468237 0 2.1080694761468237 14.805253799490401 0 0 0 0 -567.28988338387353 48.415803169169124 0 48.415803169169124 -11.964378319082918 0 0 0 0 -354.24221302190563 -55.690697065691666 0 -55.690697065691666 -32.102137513324976 0 0 0 0 -520.52034821988491 -14.600798871030634 0 -14.600798871030634 -17.723350635346719 0 0 0 0 -459.63901546994384 52.114000204682206 0 52.114000204682206 -119.15174369030791 0 0 0 0 -341.60378810021211 -75.648608857050817 0 -75.648608857050817 -17.222723932229314 0 0 0 0 -352.53785814970615 -73.717021496097288 0 -73.717021496097288 -41.100050519323226 0 0 0 0 -324.0478456524188 -29.946376268082037 0 -29.946376268082037 -105.63237410300657 0 0 0 0 -263.66522005832667 -82.158502158098656 0 -82.158502158098656 -46.990107995264594 0 0 0 0 -311.57732545480394 -39.643258461436176 0 -39.643258461436176 -61.756113627355148 0 0 0 0 -281.28244520999579 -67.907874932588811 0 -67.907874932588811 7.8966552878255243 0 0 0 0 -295.7921180980411 -87.919572455058415 0 -87.919572455058415 -18.745233720356282 0 0 0 0 -301.91286271715035 -102.14288306603885 0 -102.14288306603885 32.695821833044647 0 0 0 0 -248.74904287064419 98.185518495942233 0 98.185518495942233 41.941715929862312 0 0 0 0 -351.27876171280559 101.45672595945892 0 101.45672595945892 60.478325385241305 0 0 0 0 -386.58215454246965 -39.196779982299631 0 -39.196779982299631 40.895264656305244 0 0 0 0 0.65421295317663919 0.67355412656365132 0 0.67355412656365132 -1.6424376664141778 0 0 0 0 57.867768719570449 22.859183051174568 0 22.859183051174568 12.328171719112618 0 0 0 0 -826.81803005834809 162.26025869083418 0 162.26025869083418 70.779154078440484 0 0 0 0 70.768710083466431 73.180128409259396 0 73.180128409259396 44.486403302532267 0 0 0 0 0.47061871978885961 1.0000187356914338 0 1.0000187356914338 -2.4932923352331087 0 0 0 0 29.071951779733354 62.479211197811026 0 62.479211197811026 62.106336136955633 0 0 0 0 -6.4635377406339103 3.2218292888480846 0 3.2218292888480846 61.033996670488726 0 0 0 0 -6.461468616041202 2.557419649436119 0 2.557419649436119 17.89921950572807 0 0 0 0 -44.776963824788254 -1.8125195650891328 0 -1.8125195650891328 39.284230699687328 0 0 0 0 -25.954939462128095 32.837901692618303 0 32.837901692618303 30.199025180562025 0 0 0 0 -44.292914580037177 9.5709616844801531 0 9.5709616844801531 -4.2797586750118626 0 0 0 0 -124.71638089125372 17.162995306576029 0 17.162995306576029 28.329248963338813 0 0 0 0 -104.2489548906924 35.317710504646584 0 35.317710504646584 22.182929296099999 0 0 0 0 -132.07261197784828 42.145221201214667 0 42.145221201214667 26.279381578591078 0 0 0 0 -185.23372667665171 17.898729846915217 0 17.898729846915217 37.500438824629782 0 0 0 0 -105.61124239708261 8.0089168262004762 0 8.0089168262004762 33.511883114898865 0 0 0 0 38.658059860372305 15.318078916348695 0 15.318078916348695 3.6302828754629388 0 0 0 0 -22.98389092758589 -15.893611630909803 0 -15.893611630909803 28.62652673025309 0 0 0 0 -47.106276391583378 4.6353338455893436 0 4.6353338455893436 24.911537688089226 0 0 0 0 -75.917008669781353 28.151070934849749 0 28.151070934849749 27.988052223341469 0 0 0 0 -467.86541973152634 -24.702540129073896 0 -24.702540129073896 124.83610193797972 0 0 0 0 -660.32183650010847 -91.019437988773007 0 -91.019437988773007 234.52070605774543 0 0 0 0 -548.34576389039285 95.339132439627519 0 95.339132439627519 143.80363422786445 0 0 0 0 -367.53050423432796 44.945076082284231 0 44.945076082284231 153.47464826890064 0 0 0 0 -262.50267659507517 59.787313344919468 0 59.787313344919468 82.010860276416153 0 0 0 0 -382.71207476685777 91.581703683685674 0 91.581703683685674 73.661165305598615 0 0 0 0 -204.57743347142241 126.31290806895345 0 126.31290806895345 30.003528602607048 0 0 0 0 -185.8356499446636 67.364054471767759 0 67.364054471767759 17.092992708988277 0 0 0 0 -169.12768683752074 67.564073312109997 0 67.564073312109997 16.110009228119452 0 0 0 0 -246.61240742757582 37.82251488046662 0 37.82251488046662 55.219327039288579 0 0 0 0 -204.07956950667904 41.951035248306866 0 41.951035248306866 52.26314876358866 0 0 0 0 -261.96538804118973 18.938901646968816 0 18.938901646968816 55.655501621655731 0 0 0 0 -348.01639948839875 11.743017415738592 0 11.743017415738592 74.982156857538314 0 0 0 0 -293.98992305627326 -8.0213256798122075 0 -8.0213256798122075 40.184696490958459 0 0 0 0 -264.34233154775211 23.922409969475439 0 23.922409969475439 72.110748397776376 0 0 0 0 -299.20144560375047 -15.906978951671135 0 -15.906978951671135 72.178056277097355 0 0 0 0 -310.36377378671295 -39.197491022420238 0 -39.197491022420238 72.752672003959077 0 0 0 0 -331.03171240905795 -26.460354911314177 0 -26.460354911314177 124.53538174876923 0 0 0 0 -283.71244155831118 3.6158663835735751 0 3.6158663835735751 -2.7246290521043193 0 0 0 0 -281.52611576240088 15.759862769458323 0 15.759862769458323 49.03001571717482 0 0 0 0 -238.14788721038349 28.10855993877567 0 28.10855993877567 45.79266263858085 0 0 0 0 -257.42552276133392 4.9360591365715436 0 4.9360591365715436 22.635672957568659 0 0 0 0 -205.91953307117183 8.7222600194439224 0 8.7222600194439224 36.764825072958047 0 0 0 0 -214.02825613851019 23.192699919040251 0 23.192699919040251 40.36127717178465 0 0 0 0 -217.95103985993592 -1.9380479376367248 0 -1.9380479376367248 29.928058211122334 0 0 0 0 -231.55394354302916 9.3703559991413385 0 9.3703559991413385 5.0541892504770658 0 0 0 0 -210.20551103117032 33.74994262222117 0 33.74994262222117 31.807085609104519 0 0 0 0 -244.72544333695441 38.406798991447374 0 38.406798991447374 6.4189959758177793 0 0 0 0 -261.87573771191819 28.007821459456864 0 28.007821459456864 0.22261335377879732 0 0 0 0 -270.96327312901485 -5.0690782715819296 0 -5.0690782715819296 -35.899548626793148 0 0 0 0 -79.459628030235763 3.725080871120781 0 3.725080871120781 40.653042714652088 0 0 0 0 82.61542164653747 73.351831286195988 0 73.351831286195988 78.454531906519378 0 0 0 0 -78.750540894765436 25.463670831014269 0 25.463670831014269 21.183890244983559 0 0 0 0 0.99131127573528488 0.29747979807066116 0 0.29747979807066116 -1.7953898646837736 0 0 0 0 -100.38922853349504 34.484288796927785 0 34.484288796927785 25.74094605922744 0 0 0 0 -131.07313065855124 9.8566584271952706 0 9.8566584271952706 23.208690612398641 0 0 0 0 -158.36183071802225 33.818446391516318 0 33.818446391516318 37.379995472425641 0 0 0 0 -177.54747840754862 23.314421719058373 0 23.314421719058373 37.540860866144612 0 0 0 0 -158.91244107157581 -4.7734157581398904 0 -4.7734157581398904 28.076505892016939 0 0 0 0 -130.3029001792238 20.995676764835025 0 20.995676764835025 25.19035860793656 0 0 0 0 -77.009730698886415 1.751672385083566 0 1.751672385083566 5.8423873298015678 0 0 0 0 -172.04188617123145 -35.31652189555507 0 -35.31652189555507 77.194369151321098 0 0 0 0 -132.0983917995818 -21.807147242255724 0 -21.807147242255724 29.494844256317265 0 0 0 0 -199.80183601850877 -7.4082001854826558 0 -7.4082001854826558 50.16127753575347 0 0 0 0 -145.44628405148251 13.198502741414359 0 13.198502741414359 25.073447619087574 0 0 0 0 -140.72949943691492 -77.905535016852809 0 -77.905535016852809 25.482469556645924 0 0 0 0 0.075876394070753861 1.6158937977893544 0 1.6158937977893544 -2.3324159186534263 0 0 0 0 170.13453823689633 125.33028159788273 0 125.33028159788273 16.430896917155223 0 0 0 0 127.78640089733017 -37.229995927433322 0 -37.229995927433322 76.19475952417497 0 0 0 0 29.389794999144215 -62.965663728520667 0 -62.965663728520667 74.909292519919632 0 0 0 0 31.397115623498394 -176.9975838794096 0 -176.9975838794096 -53.14645385622498 0 0 0 0 -329.03472473377769 7.2617764769252062 0 7.2617764769252062 65.113885582142757 0 0 0 0 61.955396917830512 -41.789885731975573 0 -41.789885731975573 69.997320419497555 0 0 0 0 -226.08861987275304 45.796492557597048 0 45.796492557597048 78.205856811016488 0 0 0 0 -203.75616628723947 249.7709766051878 0 249.7709766051878 40.046300996840728 0 0 0 0 0.41299058778821518 1.0028554612814204 0 1.0028554612814204 -1.7375081367107494 0 0 0 0 -94.262018725059534 226.44027167849288 0 226.44027167849288 43.983285278201947 0 0 0 0 -3.2277046907273998 2.5323341246758453 0 2.5323341246758453 -2.0478991295696112 0 0 0 0 31.241771082452033 381.99509768892904 0 381.99509768892904 83.302693598163728 0 0 0 0 -311.23467046496444 -281.89327205081054 0 -281.89327205081054 -24.403661924079643 0 0 0 0 176.13752095957443 370.45489248357819 0 370.45489248357819 -158.8652434365822 0 0 0 0 -380.19230268467072 36.347421133963962 0 36.347421133963962 -35.085496596901436 0 0 0 0 -217.51705837448753 -97.341588421224969 0 -97.341588421224969 -37.298621672519403 0 0 0 0 -218.10907932257578 49.142716312828952 0 49.142716312828952 -79.745222714264401 0 0 0 0 -84.725133779305907 51.873216199917351 0 51.873216199917351 -85.067457658853982 0 0 0 0 -222.52899862442791 80.59042507709637 0 80.59042507709637 0.56181348025708644 0 0 0 0 -150.46622379662767 -81.30349214439957 0 -81.30349214439957 205.12348604078579 0 0 0 0 173.04180330599229 -32.289744031528244 0 -32.289744031528244 -79.276968575581577 0 0 0 0 -241.31499589165105 63.100823729352214 0 63.100823729352214 2.5821301910860939 0 0 0 0 -324.5390428654573 -59.839344919554151 0 -59.839344919554151 -131.45851217247491 0 0 0 0 -602.31747001801341 207.01633795046473 0 207.01633795046473 29.520022005639021 0 0 0 0 54.665200269580964 -72.693382504233341 0 -72.693382504233341 -92.095193768244826 0 0 0 0 18.245532586610352 287.52250986710578 0 287.52250986710578 161.14733243663449 0 0 0 0 -9.3457602670425857 7.3553512624535333 0 7.3553512624535333 -3.8665821941411593 0 0 0 0 -235.20460429820923 -187.31792188560752 0 -187.31792188560752 -69.408826604962996 0 0 0 0 -127.23198340151248 59.534705642164226 0 59.534705642164226 127.83076556758897 0 0 0 0 4.2290513150619518 10.203783457578993 0 10.203783457578993 -91.515828518841772 0 0 0 0 -579.81339371636568 -441.83654593140227 0 -441.83654593140227 162.81590814548326 0 0 0 0 -39.214229107683423 10.93707294306796 0 10.93707294306796 1.6050464017826016 0 0 0 0 -55.977351513385656 104.80528770909677 0 104.80528770909677 49.042554586876008 0 0 0 0 -246.25488660449707 22.198571050025166 0 22.198571050025166 76.229635929608776 0 0 0 0 6.5050380280299578 -7.3843449479300034 0 -7.3843449479300034 28.52477570572637 0 0 0 0 -29.130515108909606 2.176057915220877 0 2.176057915220877 2.3170719668407056 0 0 0 0 -11.92315946136781 3.3183397679420921 0 3.3183397679420921 -1.4331616275658305 0 0 0 0 -51.057171362916051 -16.936339213798192 0 -16.936339213798192 2.8888664186079041 0 0 0 0 83.629840940619033 115.08958968234674 0 115.08958968234674 -7.9484277910250967 0 0 0 0 -22.830274900199058 -1.5810072783513238 0 -1.5810072783513238 1.8114722704685695 0 0 0 0 -23.119155698847862 -8.4565308442529386 0 -8.4565308442529386 -9.2576268638886177 0 0 0 0 -35.526698900772317 4.1213992746097574 0 4.1213992746097574 14.189334092264744 0 0 0 0 -784.69061240712472 -484.76082136585956 0 -484.76082136585956 -248.7966106033482 0 0 0 0 -540.58359491241936 -268.74535614337015 0 -268.74535614337015 -122.61356183979296 0 0 0 0 -5.8706626787057274 0.32510494692073344 0 0.32510494692073344 -1.7408758613537412 0 0 0 0 -731.60204088280079 8.0420376561278317 0 8.0420376561278317 104.2175918983736 0 0 0 0 -4.4494792361605651 -0.84237081359560051 0 -0.84237081359560051 0.35460590795019797 0 0 0 0 -212.68340875559716 174.51859410897987 0 174.51859410897987 -159.96664177957337 0 0 0 0 -21.91303488437552 4.8896590485246634 0 4.8896590485246634 -16.713411586393704 0 0 0 0 -17.259174779064779 -2.0485514110373515 0 -2.0485514110373515 -6.882594217746373 0 0 0 0 -62.144500729915308 -22.738778779453469 0 -22.738778779453469 1.9561053934925212 0 0 0 0 -16.893512942111556 4.3752977359428087 0 4.3752977359428087 -28.733413539524463 0 0 0 0 -3.1174689095478385 6.0448686019914852 0 6.0448686019914852 -4.5329639286609371 0 0 0 0 0.087876932994111812 -0.17833052451314302 0 -0.17833052451314302 -0.23800679807789038 0 0 0 0 -466.96107467868569 43.139821863730958 0 43.139821863730958 58.154514101027416 0 0 0 0 -499.28043049117696 31.153067720443687 0 31.153067720443687 105.55746215405634 0 0 0 0 -455.86064621657351 33.472230983339614 0 33.472230983339614 13.938975115592257 0 0 0 0 -312.94026362260047 -46.530111561096874 0 -46.530111561096874 -2.2659832591507438 0 0 0 0 -391.98174193775776 -10.496346773777759 0 -10.496346773777759 8.0429477973848407 0 0 0 0 -301.66881540454415 -12.200347045840658 0 -12.200347045840658 -5.0084837095946568 0 0 0 0 -280.19642690952196 -17.917229585279102 0 -17.917229585279102 -10.661053019928659 0 0 0 0 252.85192391380042 -106.80821754133467 0 -106.80821754133467 -46.716375715521281 0 0 0 0 -336.98019940407539 -8.2059776657820294 0 -8.2059776657820294 38.891253504594943 0 0 0 0 -335.94999559039934 -18.203687486773106 0 -18.203687486773106 7.0218491472646747 0 0 0 0 -392.94200577191077 -19.841877725845734 0 -19.841877725845734 36.018115302175829 0 0 0 0 -353.81939969809173 -146.77260268685131 0 -146.77260268685131 27.480751917860289 0 0 0 0 -405.63827414223124 -42.266749973599644 0 -42.266749973599644 49.551457590404425 0 0 0 0 -547.1435065625119 -57.479926429468378 0 -57.479926429468378 48.373813377447448 0 0 0 0 -351.03367285565764 -129.52677341771505 0 -129.52677341771505 -79.622060979002072 0 0 0 0 -169.4161541103922 1.5844349891840466 0 1.5844349891840466 -169.35398067179131 0 0 0 0 -157.35393046598983 -48.74105299542407 0 -48.74105299542407 -47.456002895689835 0 0 0 0 32.831410551697445 -35.604548080821672 0 -35.604548080821672 -167.61003661891391 0 0 0 0 -16.796488031435729 -257.92554243834252 0 -257.92554243834252 -157.00278534130484 0 0 0 0 -330.59461735783771 -141.34228448193107 0 -141.34228448193107 184.92924398276818 0 0 0 0 -732.92405834185047 -268.8617369288404 0 -268.8617369288404 5.295558899891148 0 0 0 0 -325.96602843591245 -130.04297386179587 0 -130.04297386179587 -584.5273914273148 0 0 0 0 -103.28488168303124 -95.155114867195962 0 -95.155114867195962 -145.07879896668146 0 0 0 0 -896.96961694677157 127.34864887837512 0 127.34864887837512 -130.941516922353 0 0 0 0 -2.4757807457432079 1.6869751615753685 0 1.6869751615753685 -1.5202638189677984 0 0 0 0 -84.344121703430574 266.5387162837028 0 266.5387162837028 -212.44255184922622 0 0 0 0 -40.712817671679659 -1.6238763828412175 0 -1.6238763828412175 24.573564290630202 0 0 0 0 -23.679818836451886 -46.457379220815767 0 -46.457379220815767 -27.937737892592622 0 0 0 0 -16.476539129307639 39.179651413886518 0 39.179651413886518 12.800875042291722 0 0 0 0 -8.1489209491984553 6.7691198150449239 0 6.7691198150449239 -5.4317166481129604 0 0 0 0 14.095186026872398 43.255834441048592 0 43.255834441048592 -14.037055069012695 0 0 0 0 0.11328528589329778 0.56143793908822914 0 0.56143793908822914 -2.1822392344082129 0 0 0 0 -91.248394803435076 -13.199173525434617 0 -13.199173525434617 31.290602828923056 0 0 0 0 -140.61544611887439 -118.54755346047978 0 -118.54755346047978 -70.609454691972815 0 0 0 0 -120.42507260737693 47.874029538187415 0 47.874029538187415 -18.506043655955551 0 0 0 0 6.6152022183823647 -39.937624915345921 0 -39.937624915345921 -92.478386152506346 0 0 0 0 -193.69769398737117 -74.315679282952487 0 -74.315679282952487 -27.217253131065604 0 0 0 0 -198.05849621680341 -140.58641261112652 0 -140.58641261112652 -97.366586534664748 0 0 0 0 -294.95274430162681 -149.4331948333072 0 -149.4331948333072 -183.27333879951755 0 0 0 0 -253.79940489428554 -65.441476366760185 0 -65.441476366760185 -59.09336894342357 0 0 0 0 -545.47963488590904 -161.87892582874349 0 -161.87892582874349 -59.847188763838062 0 0 0 0 -356.74633724503428 -145.63565518874262 0 -145.63565518874262 -66.305711073583325 0 0 0 0 -556.11436758356649 -216.4520560475344 0 -216.4520560475344 -296.01309616348385 0 0 0 0 -480.01770455160295 -64.93780324893865 0 -64.93780324893865 -95.383164521877006 0 0 0 0 -738.57603350454156 50.782556641611393 0 50.782556641611393 -243.94952434589095 0 0 0 0 -515.61731846932526 -132.53367705644087 0 -132.53367705644087 -153.87913002523806 0 0 0 0 -749.54139955360733 -10.813551555772278 0 -10.813551555772278 -44.054773754914208 0 0 0 0 -166.05786123407961 -93.888901878374554 0 -93.888901878374554 -161.42669997324799 0 0 0 0 -489.3019454382229 -138.65660170417755 0 -138.65660170417755 -26.919151661289334 0 0 0 0 -723.80261774316386 -42.09440370422692 0 -42.09440370422692 -17.712815256787394 0 0 0 0 -629.48999285319587 205.66323540297662 0 205.66323540297662 -112.4369387369253 0 0 0 0 2.2074285113776568 -96.386218926013498 0 -96.386218926013498 -233.43877918982639 0 0 0 0 -3.0683911575966079 1.9074870551841983 0 1.9074870551841983 -1.6614642054264772 0 0 0 0 142.24474394773279 -149.90504188435557 0 -149.90504188435557 -117.61937528336671 0 0 0 0 -64.840880123134411 139.0029449882926 0 139.0029449882926 6.1711285748735918 0 0 0 0 -6.5049631924385523 5.3335572189405909 0 5.3335572189405909 -4.5027520732361879 0 0 0 0 3.8424345871735568 -72.520094910054894 0 -72.520094910054894 -159.67340768233885 0 0 0 0 28.161428050181712 62.704421915592775 0 62.704421915592775 -139.95825958299179 0 0 0 0 -24.098648837840301 -16.584349691054058 0 -16.584349691054058 79.935413919550228 0 0 0 0 -31.28631243800919 -47.784731445784473 0 -47.784731445784473 55.576871639481396 0 0 0 0 1.9930333553147648 41.46786149092874 0 41.46786149092874 148.48296574715096 0 0 0 0 -71.323054097636486 -54.906742741576636 0 -54.906742741576636 37.326851977431943 0 0 0 0 -10.933190050675876 -62.979617896086268 0 -62.979617896086268 22.658207519187499 0 0 0 0 -49.871321594655456 -104.27172436400633 0 -104.27172436400633 -36.887736838301862 0 0 0 0 -165.18579070092164 -108.29796422507331 0 -108.29796422507331 -30.069434221760275 0 0 0 0 -71.391950463665125 -94.686153944253647 0 -94.686153944253647 -100.81266441648864 0 0 0 0 -87.152184103615582 -42.889362773774025 0 -42.889362773774025 58.524702486514116 0 0 0 0 -23.315210644868785 -78.054384319057135 0 -78.054384319057135 61.640173711174612 0 0 0 0 -37.555541387620906 24.678512868657435 0 24.678512868657435 -121.9570627200134 0 0 0 0 -20.533206788466487 -33.438989694847749 0 -33.438989694847749 -29.397488008716891 0 0 0 0 -125.59250160919692 -58.43743534419707 0 -58.43743534419707 -31.79608242351128 0 0 0 0 -2.2311188305529868 31.710142373410108 0 31.710142373410108 -0.88403218149619534 0 0 0 0 -10.942168697597268 2.6738716746023172 0 2.6738716746023172 0.20076429695667586 0 0 0 0 0.28965227086882805 110.11176458101227 0 110.11176458101227 229.86726433288118 0 0 0 0 158.90014152565709 -76.452468692872571 0 -76.452468692872571 61.382609013676301 0 0 0 0 -70.387166832530056 1.8549893220692866 0 1.8549893220692866 259.07308864820266 0 0 0 0 -10.427357682128786 -87.418821918736683 0 -87.418821918736683 223.78581141668644 0 0 0 0 -33.565722441620892 4.3349348735877129 0 4.3349348735877129 104.81097846306147 0 0 0 0 -162.49945779035261 283.62934591584525 0 283.62934591584525 122.85831075608201 0 0 0 0 -5.1329275904381859 1.2352495171531572 0 1.2352495171531572 -0.072221486502617172 0 0 0 0 -2.5486031051321589 -0.53031375653490187 0 -0.53031375653490187 0.43812128489429725 0 0 0 0 47.980369737750152 -120.99946129486398 0 -120.99946129486398 -64.135486805256477 0 0 0 0 160.10335330068347 111.72440350483052 0 111.72440350483052 -2.789978786841175 0 0 0 0 -147.98591506440971 172.67413901602791 0 172.67413901602791 -14.84597886372535 0 0 0 0 -43.212529815733433 -20.536594934540517 0 -20.536594934540517 -48.689876630353638 0 0 0 0 -128.87709533764428 185.83121886667243 0 185.83121886667243 -44.504655022738916 0 0 0 0 -472.1717826741442 46.737177173947885 0 46.737177173947885 46.370364341339268 0 0 0 0 -544.31223350217624 226.20474296399794 0 226.20474296399794 115.77927996396136 0 0 0 0 -1045.1820317379534 -13.216966941811393 0 -13.216966941811393 106.18559278246818 0 0 0 0 -845.32908980491629 -211.77665317899664 0 -211.77665317899664 -67.454015221260079 0 0 0 0 -931.50703267057543 -112.56001091841705 0 -112.56001091841705 -94.788852648243392 0 0 0 0 -743.46857791471848 -33.790083432680944 0 -33.790083432680944 -131.64537413814315 0 0 0 0 -850.84103817680079 -83.629212484168875 0 -83.629212484168875 -57.701650612140156 0 0 0 0 -532.73917472523317 -118.20637360104229 0 -118.20637360104229 -55.105151976605384 0 0 0 0 -420.40050463460648 -172.67707884850006 0 -172.67707884850006 -243.93419107924444 0 0 0 0 -635.86527922905589 -9.664761639295989 0 -9.664761639295989 -166.19448757172268 0 0 0 0 -432.23079630688153 -285.5394350472709 0 -285.5394350472709 -71.841503158366095 0 0 0 0 -371.17748770881735 -268.57806811994192 0 -268.57806811994192 -127.77847474040209 0 0 0 0 -411.73836247002328 -262.0022969178242 0 -262.0022969178242 -75.302897250158139 0 0 0 0 -342.24779546586615 -195.93758079837176 0 -195.93758079837176 -22.027401452181948 0 0 0 0 -167.6133869948826 -191.17760038770143 0 -191.17760038770143 -155.96215801992605 0 0 0 0 -580.34444036183595 -359.3513573421094 0 -359.3513573421094 -200.58532579560438 0 0 0 0 -174.74721138199311 -262.5745856324753 0 -262.5745856324753 -178.7680307085609 0 0 0 0 6.2256365716675646 -58.430551018043388 0 -58.430551018043388 -112.76055595205071 0 0 0 0 -605.11664146970361 -215.83888115038684 0 -215.83888115038684 -53.455899891810532 0 0 0 0 -5.5532366138399993 100.65478862222636 0 100.65478862222636 3.6000907968154934 0 0 0 0 -26.345931073170505 -25.789636124695562 0 -25.789636124695562 29.143327115407146 0 0 0 0 -4.5968134556889026 0.45728334779740365 0 0.45728334779740365 0.34358769945337042 0 0 0 0 -103.81822993668902 65.735117004860967 0 65.735117004860967 73.850552740762851 0 0 0 0 -44.064372335364169 73.502060667732621 0 73.502060667732621 -9.383734041416119 0 0 0 0 -180.72725268410431 58.799703914651332 0 58.799703914651332 -22.935294334300579 0 0 0 0 -209.50919772789348 -41.441434814650165 0 -41.441434814650165 -2.0307829806705655 0 0 0 0 -396.35958149780708 -74.781497883152269 0 -74.781497883152269 14.091904579830725 0 0 0 0 -106.88322149731175 15.638348181827723 0 15.638348181827723 -12.778778671165128 0 0 0 0 -75.875226475618547 -32.507874168641138 0 -32.507874168641138 55.323846647077062 0 0 0 0 46.169626273585891 1.2220719441647816 0 1.2220719441647816 7.369905700072195 0 0 0 0 55.96011859743885 30.955595221942531 0 30.955595221942531 -45.043360275028704 0 0 0 0 45.859633260537521 31.247063192621681 0 31.247063192621681 8.1997629235551415 0 0 0 0 37.668442476664495 -22.353047943498268 0 -22.353047943498268 -57.492330526099067 0 0 0 0 38.732982001252822 20.460830965663263 0 20.460830965663263 -25.340157031498393 0 0 0 0 124.98384868101857 -5.0533256092646752 0 -5.0533256092646752 60.819673574424655 0 0 0 0 -571.90061317148866 485.16868720764944 0 485.16868720764944 -309.9430290853918 0 0 0 0 -76.67137170343085 159.89755725955689 0 159.89755725955689 -96.838816503567614 0 0 0 0 -23.026686368280934 249.26216022311326 0 249.26216022311326 -63.448425630980182 0 0 0 0 -86.542322077661083 229.19556676193884 0 229.19556676193884 166.51259089205996 0 0 0 0 -355.56082424943361 -488.90703916343875 0 -488.90703916343875 229.03436818739374 0 0 0 0 -0.84031834444674303 -0.45191800064983667 0 -0.45191800064983667 0.27135684284423789 0 0 0 0 -345.06790207253289 -306.98036188592073 0 -306.98036188592073 36.890796198972566 0 0 0 0 -1038.9429944249969 -548.52044622078597 0 -548.52044622078597 -44.789174361813821 0 0 0 0 -404.13804980337591 -269.63741632919357 0 -269.63741632919357 -67.649056116288193 0 0 0 0 -280.93325722630107 -274.67250959344648 0 -274.67250959344648 -68.081920739443603 0 0 0 0 -386.30651440758265 -213.13865102952116 0 -213.13865102952116 -17.186694110250073 0 0 0 0 -151.98161036296369 -150.00339716252051 0 -150.00339716252051 -28.572546521766981 0 0 0 0 -72.319723063966194 -7.9246626980371673 0 -7.9246626980371673 155.30266173212885 0 0 0 0 27.078829653131834 -194.79879681127022 0 -194.79879681127022 179.77041145044876 0 0 0 0 -30.508979854207311 -19.18529544094228 0 -19.18529544094228 -10.465879661461241 0 0 0 0 67.025700093225169 -446.73459524430871 0 -446.73459524430871 -197.16082524549529 0 0 0 0 -12.611228220072071 -6.2268202952304108 0 -6.2268202952304108 -2.8121303419949402 0 0 0 0 -1570.8428105554995 802.67378435314129 0 802.67378435314129 -154.15941797180892 0 0 0 0 -777.15699289690747 445.09352897138956 0 445.09352897138956 -116.38866913861722 0 0 0 0 -897.13848123853313 -74.681742685422932 0 -74.681742685422932 293.21178492928993 0 0 0 0 -693.53676021446154 -222.69609427866192 0 -222.69609427866192 273.47731774117347 0 0 0 0 -275.05514684111404 -264.14793003486557 0 -264.14793003486557 125.62325984174959 0 0 0 0 -530.04489629378804 149.47845999863648 0 149.47845999863648 35.220670133452813 0 0 0 0 -1516.5036476887071 -282.12640900932098 0 -282.12640900932098 -90.907834339211377 0 0 0 0 -150.98255020919896 -267.44234738649118 0 -267.44234738649118 -1017.9854569701073 0 0 0 0 187.89077430752604 125.9967903035826 0 125.9967903035826 -19.938926725006013 0 0 0 0 -118.3973023150611 77.928168129160667 0 77.928168129160667 40.993645897252918 0 0 0 0 -177.52432901471911 21.674680567763744 0 21.674680567763744 -18.560860482506428 0 0 0 0 -0.19409978803291139 -0.00082924871669121103 0 -0.00082924871669121103 4.1782766038171317 0 0 0 0 -83.883751224908337 -66.792976349144922 0 -66.792976349144922 36.510292821559233 0 0 0 0 -247.94307494716486 8.5144596082975568 0 8.5144596082975568 173.41198081704442 0 0 0 0 -200.81942097522551 100.75479742631831 0 100.75479742631831 119.93729474980182 0 0 0 0 -148.48372685261984 -4.5063734936671267 0 -4.5063734936671267 -42.275512539908959 0 0 0 0 -493.91298005290446 -260.01866321209172 0 -260.01866321209172 -53.883262525772352 0 0 0 0 -291.87666559507852 -164.37071245722768 0 -164.37071245722768 -42.793351729356999 0 0 0 0 -410.55093217342437 86.273883986516239 0 86.273883986516239 35.875611137018723 0 0 0 0 -113.62268144239351 42.27890660309663 0 42.27890660309663 3.038226236352557 0 0 0 0 -169.40321757971833 84.340949321218659 0 84.340949321218659 68.018186274346817 0 0 0 0 -117.92421187581931 -38.373464851776589 0 -38.373464851776589 142.36656656650848 0 0 0 0 -79.313040960267244 -6.922410858116109 0 -6.922410858116109 89.277914741472387 0 0 0 0 -103.25584578892813 21.483774962480993 0 21.483774962480993 120.72303502515388 0 0 0 0 -97.903456688871302 51.356511743398954 0 51.356511743398954 43.751350083633497 0 0 0 0 -24.84226739218866 74.594414486118922 0 74.594414486118922 36.382274588747464 0 0 0 0 1.4772803595401331 1.4768724335618302 0 1.4768724335618302 13.075190271961279 0 0 0 0 -253.12354142218283 -34.445838116034068 0 -34.445838116034068 29.66396048820377 0 0 0 0 -235.24239225907513 -52.642952654645455 0 -52.642952654645455 -19.345390832641215 0 0 0 0 -326.61075060335861 -38.578531824016636 0 -38.578531824016636 -6.6039871100758774 0 0 0 0 -496.06053854615584 -68.335090770936162 0 -68.335090770936162 103.8360236128533 0 0 0 0 -13.409707291682665 1.3028079120245195 0 1.3028079120245195 22.47684868881154 0 0 0 0 -12.529438689009112 -6.2917164552095528 0 -6.2917164552095528 -10.122613354615169 0 0 0 0 -553.89346882783059 224.04999582508503 0 224.04999582508503 -47.332168719185574 0 0 0 0 266.65549670413748 -144.06056969874999 0 -144.06056969874999 -111.7978935912879 0 0 0 0 -943.71745537965762 13.505944227942109 0 13.505944227942109 -2.5310924570967472 0 0 0 0 -28.700332217874191 33.249426171977532 0 33.249426171977532 2.5244243466490985 0 0 0 0 -450.39469080032723 -58.229324798906873 0 -58.229324798906873 3.3689538500583467 0 0 0 0 -99.648485963788573 14.8271895311875 0 14.8271895311875 16.340840190548569 0 0 0 0 -23.472694831838353 0.036813960528427003 0 0.036813960528427003 13.618029749512477 0 0 0 0 -394.99383396866597 144.38169339682213 0 144.38169339682213 -164.334084550439 0 0 0 0 -590.36542811851086 199.20913095282413 0 199.20913095282413 211.98183952283492 0 0 0 0 -65.782833417812071 8.3460275261550123 0 8.3460275261550123 38.393413593814898 0 0 0 0 24.626793635790818 -8.0240856164323304 0 -8.0240856164323304 -40.131957071211218 0 0 0 0 -35.80797169677578 -14.115666598489721 0 -14.115666598489721 0.97714584450531128 0 0 0 0 -0.827648028753174 -6.7647773554458581 0 -6.7647773554458581 -17.229818601054831 0 0 0 0 -72.262460109930544 3.4806349548161961 0 3.4806349548161961 52.892056795929705 0 0 0 0 -84.728300397972362 9.4590972535728781 0 9.4590972535728781 56.644259486492956 0 0 0 0 -80.260631911925884 3.3699424839583116 0 3.3699424839583116 59.891963140403277 0 0 0 0 -35.118325603249104 -46.165761704874058 0 -46.165761704874058 71.009097243684664 0 0 0 0 -72.694776968441147 -24.651878490666434 0 -24.651878490666434 107.58175158127415 0 0 0 0 -46.054047509793236 -20.844559074805602 0 -20.844559074805602 67.193631383427601 0 0 0 0 -39.879412490341217 -28.726434903574315 0 -28.726434903574315 -16.683730629441705 0 0 0 0 -49.475379412809616 -93.810501824707842 0 -93.810501824707842 144.26312961862277 0 0 0 0 633.66654411958189 -598.70855708320391 0 -598.70855708320391 441.17974101628715 0 0 0 0 2.3741255312756806 -13.468465750357469 0 -13.468465750357469 -6.2949579890521585 0 0 0 0 -7.9673540351873129 1.3695196343243881 0 1.3695196343243881 7.955637426195306 0 0 0 0 53.513575612083514 -218.35889430120869 0 -218.35889430120869 124.42842918972201 0 0 0 0 247.48173117519764 -560.49918733343566 0 -560.49918733343566 563.26439553584532 0 0 0 0 361.30022634576744 -929.64698775876786 0 -929.64698775876786 1481.3156727892786 0 0 0 0 1249.2854404227346 -758.03640282219476 0 -758.03640282219476 -207.59094874157199 0 0 0 0 -163.60258126966073 -32.233987802013871 0 -32.233987802013871 618.96313975385237 0 0 0 0 -48.484380292531569 -18.844427745250869 0 -18.844427745250869 81.975617951313552 0 0 0 0 95.419021684730978 -189.29125404736624 0 -189.29125404736624 109.70886548803526 0 0 0 0 -50.337373836682673 -29.715325769073161 0 -29.715325769073161 53.240111927908401 0 0 0 0 -43.834684951974225 -22.787891169504984 0 -22.787891169504984 -1.4561882118809804 0 0 0 0 0.034977581188286422 -91.659547384031612 0 -91.659547384031612 10.35256934850895 0 0 0 0 183.90097809992585 -118.18586087405015 0 -118.18586087405015 -41.009993444290558 0 0 0 0 229.44831287417355 -8.9654731717425875 0 -8.9654731717425875 -384.84855903644711 0 0 0 0 97.471159776083368 -27.123474779139087 0 -27.123474779139087 -136.89821788769837 0 0 0 0 -68.43536645722088 314.4735375661669 0 314.4735375661669 -346.71382655884145 0 0 0 0 546.27929751798365 255.05841404297689 0 255.05841404297689 -1007.9561086136882 0 0 0 0 529.33016943888651 -298.39597463699101 0 -298.39597463699101 -113.1814829347577 0 0 0 0 113.02082587397945 247.38436672863224 0 247.38436672863224 -348.52644890733609 0 0 0 0 -214.78908386118565 412.36633261198278 0 412.36633261198278 -202.20014041278381 0 0 0 0 -1.514636736792454 187.64162001026892 0 187.64162001026892 -89.494071992972323 0 0 0 0 106.93101373345053 74.859598336558975 0 74.859598336558975 -124.5447941414568 0 0 0 0 83.575200842849881 66.119404887779638 0 66.119404887779638 -106.6634611635609 0 0 0 0 41.739144432824105 143.38566567782846 0 143.38566567782846 -196.57248853999863 0 0 0 0 133.37438939567073 62.198238976646053 0 62.198238976646053 -23.132287164532499 0 0 0 0 100.72366306030017 25.29257188292047 0 25.29257188292047 -11.555711129342853 0 0 0 0 125.03885063986309 24.167566767378048 0 24.167566767378048 -73.633922407361752 0 0 0 0 -501.26835729905633 -84.380281504170853 0 -84.380281504170853 -1.6040470888083433 0 0 0 0 -299.60815223771033 -155.80865107409045 0 -155.80865107409045 -131.11578696817378 0 0 0 0 -20.851034226081644 38.224366131935199 0 38.224366131935199 12.207681906799221 0 0 0 0 -381.9590804853874 70.826842492865353 0 70.826842492865353 -34.282746065846368 0 0 0 0 -626.3013958769011 -166.0375837218985 0 -166.0375837218985 -87.440674044382831 0 0 0 0 -334.56800120566481 -90.086113055552119 0 -90.086113055552119 -148.71540036187071 0 0 0 0 -13.457148321720618 0.12416999248335969 0 0.12416999248335969 -0.86439547982457654 0 0 0 0 -885.19488562855668 -65.174396370285649 0 -65.174396370285649 40.134263387242754 0 0 0 0 -678.46433418506683 -13.753278835418712 0 -13.753278835418712 -51.796914861832192 0 0 0 0 -677.52589809936626 -23.90581136241849 0 -23.90581136241849 -15.324931208626367 0 0 0 0 -938.13557876031882 -49.048610327501592 0 -49.048610327501592 -15.079250123011661 0 0 0 0 10.76029272675807 -0.37658353869204597 0 -0.37658353869204597 -2.1476357824775292 0 0 0 0 36.536413324927707 33.392179521489652 0 33.392179521489652 21.859125953831608 0 0 0 0 43.376574135927513 -29.472876578309751 0 -29.472876578309751 -7.4764333938373966 0 0 0 0 99.866561018307038 -6.5024843973860698 0 -6.5024843973860698 -1.1244627435098664 0 0 0 0 -828.35142300506573 253.72653508178064 0 253.72653508178064 554.05704602534661 0 0 0 0 -239.95601034278843 91.61408342563027 0 91.61408342563027 24.46123156998874 0 0 0 0 -161.31217055768138 -102.55755970457312 0 -102.55755970457312 3.4987089377482334 0 0 0 0 -226.85281338691857 -150.52075672286537 0 -150.52075672286537 41.726016050455655 0 0 0 0 -275.14510896705315 -63.230394198128721 0 -63.230394198128721 -9.8115873844271846 0 0 0 0 -280.96635579150461 -129.28100360656481 0 -129.28100360656481 33.719596987584282 0 0 0 0 -583.45625049452065 -60.025797896514177 0 -60.025797896514177 81.142358273933041 0 0 0 0 -360.83552290603984 -66.193782622504159 0 -66.193782622504159 80.881372348905188 0 0 0 0 -584.70667225586658 93.410425145558293 0 93.410425145558293 77.368344974201136 0 0 0 0 -454.41355226292399 290.28627228993355 0 290.28627228993355 0.010200955898653774 0 0 0 0 -363.0936164633531 173.95337178807222 0 173.95337178807222 -28.659039364252067 0 0 0 0 -61.928543369558696 -10.758527787539109 0 -10.758527787539109 -2.3831621797094664 0 0 0 0 -249.65105925745775 262.34517097397816 0 262.34517097397816 -1.39180722948322 0 0 0 0 -716.61609717868669 949.66852860414724 0 949.66852860414724 -967.45656726149173 0 0 0 0 -648.90586607792397 79.752230798194233 0 79.752230798194233 453.19245732715717 0 0 0 0 -608.5847858723173 289.84760653256217 0 289.84760653256217 26.550388548021147 0 0 0 0 -206.39013557265571 269.25691762211773 0 269.25691762211773 135.91189595496689 0 0 0 0 -212.75254494602268 -1155.4139708582443 0 -1155.4139708582443 353.78950002640795 0 0 0 0 -2092.037434868078 278.33335100819841 0 278.33335100819841 374.300597714167 0 0 0 0 -781.26835133967143 -1022.5245073385749 0 -1022.5245073385749 -968.43251198060534 0 0 0 0 -218.92911449050007 999.23308559094676 0 999.23308559094676 -1617.1640227104858 0 0 0 0 -1919.5240445822992 138.58339492067626 0 138.58339492067626 131.61471092062538 0 0 0 0 -262.34015545197872 -39.162878622977445 0 -39.162878622977445 100.40596131482508 0 0 0 0 -534.96014036594897 -188.00549320733444 0 -188.00549320733444 518.4360032191596 0 0 0 0 -21.246641199793928 -3.2351429943342147 0 -3.2351429943342147 -1.717703897659435 0 0 0 0 -279.66935969241604 -514.36983004278545 0 -514.36983004278545 -968.15673110926775 0 0 0 0 -83.167947386099513 -107.64542597151194 0 -107.64542597151194 -126.52939488926222 0 0 0 0 266.32502032240427 -414.87027017938908 0 -414.87027017938908 -86.618485092749552 0 0 0 0 786.0479574065057 -313.00553698264196 0 -313.00553698264196 -260.06098763064108 0 0 0 0 748.98723442592564 -902.98468220682548 0 -902.98468220682548 -38.418081277814451 0 0 0 0 -5.1940014953231657 -5.8920620101047589 0 -5.8920620101047589 -6.7112875250428941 0 0 0 0 -1632.3382958450502 442.04635144929722 0 442.04635144929722 99.092994621466005 0 0 0 0 -1346.873812245027 -419.04349856033377 0 -419.04349856033377 -18.690981593490505 0 0 0 0 -185.57096619003755 -668.16989556337558 0 -668.16989556337558 193.06497345414755 0 0 0 0 -733.02412626083515 67.162142709396903 0 67.162142709396903 165.50602846727861 0 0 0 0 -811.73751676254415 44.386807819865219 0 44.386807819865219 161.19809470492427 0 0 0 0 -859.89698553818937 322.75750328008161 0 322.75750328008161 -108.3120259117195 0 0 0 0 -590.4500741688837 105.32196408305913 0 105.32196408305913 17.195913294280217 0 0 0 0 -15.117221295808744 -16.09644767760307 0 -16.09644767760307 -12.130701880313548 0 0 0 0 -608.29609883613966 -36.050389552023105 0 -36.050389552023105 51.905485115727373 0 0 0 0 -461.91119712676561 -53.586100588258574 0 -53.586100588258574 44.702389198791366 0 0 0 0 267.09080302026268 -475.53376822149801 0 -475.53376822149801 353.24742600362731 0 0 0 0 -572.36502487285816 221.16819754970496 0 221.16819754970496 232.65248909007914 0 0 0 0 -218.71024580842732 -74.511476742052423 0 -74.511476742052423 266.38285966569811 0 0 0 0 -167.58163182525823 10.71625575733168 0 10.71625575733168 200.95667563201914 0 0 0 0 -35.479525487779028 -165.12578708386081 0 -165.12578708386081 239.11510637256879 0 0 0 0 -26.05090502168391 -18.549090455996264 0 -18.549090455996264 -13.049290752616082 0 0 0 0 -35.680004495348186 -58.30279126036411 0 -58.30279126036411 124.25281697424634 0 0 0 0 9.5397382135743101 -160.00654091346865 0 -160.00654091346865 111.6747951001206 0 0 0 0 -30.656939370134236 -13.3558111791173 0 -13.3558111791173 5.5424915652467721 0 0 0 0 -117.24628916534311 -44.048989282460468 0 -44.048989282460468 215.82385439959012 0 0 0 0 -28.459840625719018 -5.4656003034188076 0 -5.4656003034188076 -1.4406069335822667 0 0 0 0 -19.614274755659153 -16.493884242618549 0 -16.493884242618549 -15.594938656481645 0 0 0 0 21.167009595178342 -62.897977396873245 0 -62.897977396873245 -178.17477484608858 0 0 0 0 -612.08290074920569 -400.98733012366148 0 -400.98733012366148 -297.08697237063825 0 0 0 0 -10.784497063822677 1.0011548280121951 0 1.0011548280121951 -0.011129323584166267 0 0 0 0 -876.03073303528618 570.38679746398827 0 570.38679746398827 -18.186795652842612 0 0 0 0 -658.43447704574191 562.05177243372077 0 562.05177243372077 -1030.5931896695633 0 0 0 0 -1334.8894110172241 26.99430929602925 0 26.99430929602925 390.2457753120317 0 0 0 0 -644.80113853039688 -86.081694605213613 0 -86.081694605213613 164.13717517479054 0 0 0 0 -1264.4181877027031 -205.69299590927 0 -205.69299590927 150.57720258401753 0 0 0 0 -371.41503196631584 -69.944333152582658 0 -69.944333152582658 2.3473133547988709 0 0 0 0 -272.59511868212485 -84.295174518885688 0 -84.295174518885688 -19.962013173141713 0 0 0 0 -283.15229526346343 -10.882759663054344 0 -10.882759663054344 10.982770203205291 0 0 0 0 -113.68388624112004 -51.751091957225981 0 -51.751091957225981 -17.917130249880302 0 0 0 0 -348.60898364244247 21.099903930475648 0 21.099903930475648 32.970385347977754 0 0 0 0 -319.45712632200957 -45.084548006330806 0 -45.084548006330806 -1.1559977375832702 0 0 0 0 73.581184018991735 149.8990475631131 0 149.8990475631131 17.701680628327949 0 0 0 0 -414.15575197350631 -94.986997183450057 0 -94.986997183450057 29.055419809165869 0 0 0 0 41.962395305155951 108.2712183762626 0 108.2712183762626 55.101293737399999 0 0 0 0 -28.569616698783246 35.268621227685074 0 35.268621227685074 19.936943861454992 0 0 0 0 -68.277677810656314 197.88376685743373 0 197.88376685743373 47.368540386849418 0 0 0 0 -92.805950424095499 176.55706644363829 0 176.55706644363829 44.833693703251384 0 0 0 0 -210.21229133927773 35.647115124473657 0 35.647115124473657 260.09289557286695 0 0 0 0 -243.94039627032316 129.56547236337579 0 129.56547236337579 148.03440005703123 0 0 0 0 -102.95492790558274 66.138349371170989 0 66.138349371170989 156.45772424846831 0 0 0 0 -145.5106234496925 31.777775208698813 0 31.777775208698813 133.25543311864203 0 0 0 0 -130.68973269321214 -23.690462814715829 0 -23.690462814715829 228.16223588116782 0 0 0 0 -100.79331285308945 70.943949683706251 0 70.943949683706251 76.559022352049396 0 0 0 0 -18.770351522174678 82.311776032691171 0 82.311776032691171 76.037988255855453 0 0 0 0 -78.734036141060642 21.746817735537661 0 21.746817735537661 50.596676073762865 0 0 0 0 -33.31463851668537 30.830218843156516 0 30.830218843156516 26.892751651082801 0 0 0 0 -68.039395412894009 44.328203835569639 0 44.328203835569639 95.408011015293596 0 0 0 0 -61.81101623979157 -16.242832664438993 0 -16.242832664438993 57.621978929095349 0 0 0 0 -71.6503107405224 -7.2800582697100253 0 -7.2800582697100253 142.69739906563836 0 0 0 0 -43.374027520575552 -17.580767275658214 0 -17.580767275658214 -0.53511698810688191 0 0 0 0 -38.961642617469352 -8.5921509953917621 0 -8.5921509953917621 22.003428522874025 0 0 0 0 -39.492313600053762 -4.1567209591275969 0 -4.1567209591275969 1.524687554849379 0 0 0 0 -17.077503827831137 5.1118276815047574 0 5.1118276815047574 9.5404595106115071 0 0 0 0 -227.75719938957354 -74.907951288058598 0 -74.907951288058598 -32.054290302399295 0 0 0 0 -360.25493840561103 -77.595834476516984 0 -77.595834476516984 38.078940612892893 0 0 0 0 -48.559582736550965 -3.3480815532420252 0 -3.3480815532420252 21.964143748620991 0 0 0 0 -53.929654117636424 -0.40746404946839831 0 -0.40746404946839831 9.2741264510301011 0 0 0 0 -345.78749977666848 -229.23398070461599 0 -229.23398070461599 -124.10258797349525 0 0 0 0 0.78162871693167446 15.2269402226409 0 15.2269402226409 4.1804274696059185 0 0 0 0 -443.774654093761 -112.63458837608323 0 -112.63458837608323 40.514577722076865 0 0 0 0 -374.4568937873164 -47.619073822488872 0 -47.619073822488872 36.813718422740294 0 0 0 0 -386.25477333977233 -12.202330578451893 0 -12.202330578451893 -68.463336288720171 0 0 0 0 -351.32767518021046 -25.596224208779859 0 -25.596224208779859 1.5540767420934571 0 0 0 0 -534.23011942573976 -0.83875031213574402 0 -0.83875031213574402 58.658615719896886 0 0 0 0 -345.15746026238048 -68.386258700214967 0 -68.386258700214967 -9.1935042470886401 0 0 0 0 -368.54877563976697 -101.97276308636447 0 -101.97276308636447 -56.690438379503462 0 0 0 0 -0.40272221651195006 0.49205154051196942 0 0.49205154051196942 0.14675027969029664 0 0 0 0 -330.42644388945337 -68.602448858167008 0 -68.602448858167008 -49.08437463433529 0 0 0 0 -56.81072588061204 -9.2015746432637968 0 -9.2015746432637968 10.751834839622461 0 0 0 0 -26.491386376128048 15.030048574179546 0 15.030048574179546 2.4026527364495109 0 0 0 0 -17.818049531547331 3.439893122897729 0 3.439893122897729 4.4107930010859491 0 0 0 0 -52.383394365373533 -11.251909894829623 0 -11.251909894829623 10.054629770796623 0 0 0 0 29.744458708139973 38.763151882293869 0 38.763151882293869 3.7605208077475254 0 0 0 0 -2.1043802304959618 4.5729143418772225 0 4.5729143418772225 -5.8797102707181574 0 0 0 0 -242.99038119373608 -0.27237215937930159 0 -0.27237215937930159 -9.0270531345669269 0 0 0 0 -8.805933511935109 -10.241076498446546 0 -10.241076498446546 11.912212240320059 0 0 0 0 -37.257300692974241 32.590525995499775 0 32.590525995499775 32.857085224743514 0 0 0 0 -447.58085140472053 -100.38118671681374 0 -100.38118671681374 33.039550088973627 0 0 0 0 -375.55504960553537 -101.23696694610305 0 -101.23696694610305 -45.810891252712736 0 0 0 0 -339.68137598808858 -29.293461840576356 0 -29.293461840576356 22.009627355259454 0 0 0 0 -295.14531180215454 -64.695852017585821 0 -64.695852017585821 -19.119194996090755 0 0 0 0 -336.55086892066947 -45.741500253845516 0 -45.741500253845516 -13.660013794207998 0 0 0 0 -342.78799377885343 -46.963690376561772 0 -46.963690376561772 31.5540401782755 0 0 0 0 -339.74798784412383 -33.37374884582141 0 -33.37374884582141 -29.6463940420158 0 0 0 0 -340.31663638240207 -63.300408302821779 0 -63.300408302821779 20.039801984949463 0 0 0 0 68.622352146345747 -187.85265634460666 0 -187.85265634460666 -258.02675314123553 0 0 0 0 -1.258600967073475 -0.54620883117211605 0 -0.54620883117211605 -0.95902387012190893 0 0 0 0 -347.22450874768379 -69.087048098587729 0 -69.087048098587729 44.753293546850045 0 0 0 0 -401.82529380204761 323.25294727867004 0 323.25294727867004 -187.63178210419392 0 0 0 0 -289.67001113437823 -128.31702223313732 0 -128.31702223313732 -1.8665500134602553 0 0 0 0 -476.17892047576754 110.55546512103467 0 110.55546512103467 41.799221489474803 0 0 0 0 -134.55483188876588 19.493955518740677 0 19.493955518740677 -32.771042969848281 0 0 0 0 -73.956542918310333 47.644387042154904 0 47.644387042154904 -27.19591921837582 0 0 0 0 85.306287011855147 48.241537229200844 0 48.241537229200844 -102.41921320593792 0 0 0 0 2.4994948946618933 110.32645541702368 0 110.32645541702368 -141.68530453323092 0 0 0 0 -1.2649899298436882 2.1998692658669228 0 2.1998692658669228 -1.8372689083681379 0 0 0 0 -80.225608087437649 84.333649537737074 0 84.333649537737074 174.00607046698315 0 0 0 0 -25.238164177088322 259.10856214439787 0 259.10856214439787 30.390712420074124 0 0 0 0 -52.172155049786852 68.165050941378468 0 68.165050941378468 -42.731537856516979 0 0 0 0 -25.357542984939528 125.19886940708238 0 125.19886940708238 -27.824240634965463 0 0 0 0 -148.79805176755281 33.476758886715743 0 33.476758886715743 -6.2574455777194089 0 0 0 0 -219.56795955677387 114.16644721322882 0 114.16644721322882 38.563942251648768 0 0 0 0 -272.8205227942799 -0.77945997649612764 0 -0.77945997649612764 -23.775281379499575 0 0 0 0 52.567577417005396 119.15368756627322 0 119.15368756627322 -78.27299237048328 0 0 0 0 -358.57095425679131 -119.77822770925263 0 -119.77822770925263 -42.066003743811962 0 0 0 0 -16.099489901672602 1.9876418212808993 0 1.9876418212808993 3.3096236389484552 0 0 0 0 -375.25341205819069 91.694474229151069 0 91.694474229151069 112.90866320984969 0 0 0 0 -368.46881838549507 -32.007495405433474 0 -32.007495405433474 -122.61251161345535 0 0 0 0 -166.26274017420138 78.22386523997011 0 78.22386523997011 46.838086794819901 0 0 0 0 -129.358284166153 -11.414214518687459 0 -11.414214518687459 -19.594652160885744 0 0 0 0 -154.21548344032183 129.94091055299668 0 129.94091055299668 -101.31588330184786 0 0 0 0 -132.84006344596293 30.928766420358443 0 30.928766420358443 33.294156495412608 0 0 0 0 -182.9914763874676 37.64776022645583 0 37.64776022645583 46.182411284056798 0 0 0 0 -1.6708348072475592 -2.4405937889027811 0 -2.4405937889027811 -0.46242414226685824 0 0 0 0 48.091446816252756 -67.34515144789566 0 -67.34515144789566 56.015591220651913 0 0 0 0 -300.8405155608462 193.73737743366109 0 193.73737743366109 -19.801935943947683 0 0 0 0 -268.66048897914055 38.547416668323422 0 38.547416668323422 -46.426944155350611 0 0 0 0 -192.92017454288677 102.11421968865943 0 102.11421968865943 6.3536532517609885 0 0 0 0 -80.694978646307163 3.2133386359155338 0 3.2133386359155338 -41.40197208305608 0 0 0 0 -210.23882410590645 -33.317133314570924 0 -33.317133314570924 126.60141222726816 0 0 0 0 57.896524568310269 -55.605990687400663 0 -55.605990687400663 73.360005310715678 0 0 0 0 -111.18588415386853 -47.484678448842715 0 -47.484678448842715 174.00880775200403 0 0 0 0 -205.22358624749313 -4.4029367165276199 0 -4.4029367165276199 89.714063002850253 0 0 0 0 -97.107667646419856 4.6620833474044048 0 4.6620833474044048 51.695142741546078 0 0 0 0 -158.2086439491959 -11.309330880852031 0 -11.309330880852031 120.12258784543337 0 0 0 0 -102.95972845134622 -62.22682515041015 0 -62.22682515041015 103.59301329060054 0 0 0 0 -67.467565453981308 -15.444540400828373 0 -15.444540400828373 109.45871316015655 0 0 0 0 -83.380413087046819 -4.384547678173961 0 -4.384547678173961 -0.60607227820321818 0 0 0 0 -96.473480652737635 29.140653590800866 0 29.140653590800866 211.42203545777966 0 0 0 0 -17.303087826715227 -49.660264493444629 0 -49.660264493444629 85.139539259831508 0 0 0 0 -131.15609335858971 48.324578285067901 0 48.324578285067901 60.352725632265447 0 0 0 0 -23.443823667478888 4.906956980046715 0 4.906956980046715 13.298732069051727 0 0 0 0 -38.531623726811631 34.828750523368171 0 34.828750523368171 15.547889732204112 0 0 0 0 -47.15636846827735 -0.72138065063968959 0 -0.72138065063968959 -1.8491918730030061 0 0 0 0 -26.050128326668574 -9.4680294351563123 0 -9.4680294351563123 -10.030007936407021 0 0 0 0 -16.16918298321616 -14.210128396871596 0 -14.210128396871596 7.5134409403062818 0 0 0 0 -34.457442572609125 -127.57639058200766 0 -127.57639058200766 144.16719807544769 0 0 0 0 -10.195548754436459 1.6786395223236923 0 1.6786395223236923 19.719113151705642 0 0 0 0 9.8210620855479647 -10.787200737598596 0 -10.787200737598596 25.983948304729438 0 0 0 0 34.754015443532808 27.064280706643956 0 27.064280706643956 24.154924963416306 0 0 0 0 13.363732891798918 120.76553507062292 0 120.76553507062292 83.998228342358743 0 0 0 0 0.77367078079213059 0.49340736027482279 0 0.49340736027482279 -1.9721913384151328 0 0 0 0 -163.33372124383459 8.1813040629895113 0 8.1813040629895113 26.607849895749496 0 0 0 0 43.82418169376615 -64.197523918771367 0 -64.197523918771367 50.794586595362489 0 0 0 0 -237.52255980432528 -9.6685102542228378 0 -9.6685102542228378 46.059903675435294 0 0 0 0 -251.13069814407481 -0.41083821075520888 0 -0.41083821075520888 42.370479102060017 0 0 0 0 -254.95682249844049 -89.754858779688959 0 -89.754858779688959 25.396466394219715 0 0 0 0 -242.41113109877188 -69.355108882435161 0 -69.355108882435161 49.199672020709841 0 0 0 0 -240.9751552747839 -122.28694352855973 0 -122.28694352855973 33.506104967746069 0 0 0 0 -301.08917950382602 -57.618972355260667 0 -57.618972355260667 90.047648529512117 0 0 0 0 -397.45804548975866 -176.65359750943935 0 -176.65359750943935 127.6876046658781 0 0 0 0 -243.79277055539023 -126.49942121743095 0 -126.49942121743095 169.25671481666905 0 0 0 0 -144.99458361134111 -121.62376765913456 0 -121.62376765913456 76.800654253898756 0 0 0 0 -236.78750893792312 -79.076570238159547 0 -79.076570238159547 130.7693209584595 0 0 0 0 -126.59939707138255 -167.06413747442048 0 -167.06413747442048 186.55522886340532 0 0 0 0 -259.3938312799728 -95.643864238333663 0 -95.643864238333663 268.04593090119806 0 0 0 0 -134.92475659638424 74.706894769161408 0 74.706894769161408 35.580644385538108 0 0 0 0 -91.435099185061901 -9.1800687298530406 0 -9.1800687298530406 -0.38210477967392403 0 0 0 0 -266.51676767354365 -6.1578185839716753 0 -6.1578185839716753 191.98856638800044 0 0 0 0 -77.925340804084556 47.363214054619675 0 47.363214054619675 36.560237720423174 0 0 0 0 -122.83009504019356 -27.4558521787676 0 -27.4558521787676 140.57634258994131 0 0 0 0 -169.2772847066808 173.64675049074322 0 173.64675049074322 159.00842146672994 0 0 0 0 -86.24416377034683 -47.161429290465094 0 -47.161429290465094 92.478652349113872 0 0 0 0 -375.30152768170342 -776.00534200313405 0 -776.00534200313405 -368.95301608180262 0 0 0 0 -12.224131672554833 0.45536920169993866 0 0.45536920169993866 -0.65484789876805438 0 0 0 0 -375.45745511823952 -316.69202489542067 0 -316.69202489542067 71.157785695030725 0 0 0 0 -308.92879899246691 405.48827274510586 0 405.48827274510586 -501.48867822500324 0 0 0 0 -876.3664779590581 539.28441563041179 0 539.28441563041179 -88.831333456084394 0 0 0 0 -437.93084622869446 170.29708942913112 0 170.29708942913112 191.75770078333289 0 0 0 0 -11.016037249606597 118.39610832085646 0 118.39610832085646 -226.25804858733136 0 0 0 0 -426.02816402948906 256.86172476289732 0 256.86172476289732 -46.061681285308168 0 0 0 0 -26.073001102200578 -42.820123301019336 0 -42.820123301019336 -13.566429695982151 0 0 0 0 -77.901970490071108 57.635781677249042 0 57.635781677249042 -71.849462459864753 0 0 0 0 -73.02438782589752 1.5007044155766636 0 1.5007044155766636 17.600742023353178 0 0 0 0 -35.393420630738547 -1.9944268155786631 0 -1.9944268155786631 7.8904574894652342 0 0 0 0 -33.84007680103241 -13.799361326084181 0 -13.799361326084181 20.119410872795925 0 0 0 0 16.306843177114388 26.002392823671585 0 26.002392823671585 -62.186629170677406 0 0 0 0 -126.4153322647162 50.677329526132553 0 50.677329526132553 147.89287021709256 0 0 0 0 -75.171300033758598 -18.437848228570601 0 -18.437848228570601 64.497917659280574 0 0 0 0 -32.224280375098459 1.8400243285453444 0 1.8400243285453444 0.29727992736573816 0 0 0 0 61.809826443670318 11.198186054650705 0 11.198186054650705 -60.515818733352063 0 0 0 0 -13.780741901450465 -14.513523140081341 0 -14.513523140081341 -12.871080368043213 0 0 0 0 72.372962068243936 -275.47965011153678 0 -275.47965011153678 203.82387008440492 0 0 0 0 -98.791305686995116 -100.98998634561985 0 -100.98998634561985 221.49423106900304 0 0 0 0 -59.727931374376567 128.95650660016281 0 128.95650660016281 -101.43585794073783 0 0 0 0 69.249759092075692 -246.98713503048032 0 -246.98713503048032 -112.27622752300061 0 0 0 0 -13.040997978476133 -12.631798107058607 0 -12.631798107058607 -11.234372618220757 0 0 0 0 -996.26634375055073 -296.63859978634332 0 -296.63859978634332 -315.60975545853057 0 0 0 0 -535.33398288958688 280.66397322093087 0 280.66397322093087 -130.36349995118917 0 0 0 0 -229.85947893285902 -19.565716623086246 0 -19.565716623086246 -92.230202261287104 0 0 0 0 -187.51531115599664 160.07299397921429 0 160.07299397921429 -17.520820959798584 0 0 0 0 -831.03583163354756 -248.07348994725589 0 -248.07348994725589 -109.1236758773573 0 0 0 0 -1187.3577020937128 -274.01363946645449 0 -274.01363946645449 144.12198055251622 0 0 0 0 -2.8726704556597422 1.1287513706292529 0 1.1287513706292529 -0.99656368347995183 0 0 0 0 -1456.7535558939053 -42.64229275170419 0 -42.64229275170419 -144.6359908926438 0 0 0 0 -1438.0284320477294 -678.74305125606656 0 -678.74305125606656 -173.68117715957351 0 0 0 0 -1354.3655192702302 -632.99653728453586 0 -632.99653728453586 -148.91421673203149 0 0 0 0 -1033.2969173109195 -185.3186235667921 0 -185.3186235667921 -646.98235927808742 0 0 0 0 -1468.0196306773823 -325.47530897318848 0 -325.47530897318848 -10.733240421697701 0 0 0 0 -253.08060954810662 323.77678542795525 0 323.77678542795525 25.98078404437365 0 0 0 0 -5.4516013305231361 -5.452269373188086 0 -5.452269373188086 -5.5131718546843747 0 0 0 0 158.37237181172895 -494.32574138487689 0 -494.32574138487689 -733.22673601098995 0 0 0 0 -1059.873091762056 -601.61738028936702 0 -601.61738028936702 -571.78073345439543 0 0 0 0 96.30841088637726 -38.386720647075435 0 -38.386720647075435 -16.295522466258262 0 0 0 0 142.69902308923622 -320.26495694248644 0 -320.26495694248644 170.00851459520527 0 0 0 0 -60.181940358392239 -63.241408394521386 0 -63.241408394521386 63.389312419373823 0 0 0 0 224.56784788346275 -111.07717658554657 0 -111.07717658554657 -472.67538893992696 0 0 0 0 -35.385400085856418 -34.118809170814075 0 -34.118809170814075 -248.2212119572182 0 0 0 0 -297.81528001131937 -165.8090270979892 0 -165.8090270979892 -90.912059721903915 0 0 0 0 -326.00080809697289 -60.724246948420159 0 -60.724246948420159 -250.61915380754908 0 0 0 0 -305.35864898958698 -463.73003732157633 0 -463.73003732157633 -307.01071654360186 0 0 0 0 -277.74956662205517 -353.93317633597428 0 -353.93317633597428 -151.94216253462969 0 0 0 0 -565.63179821796166 -383.58747228867776 0 -383.58747228867776 -38.888111628365493 0 0 0 0 -457.28605802861023 -179.10422685913002 0 -179.10422685913002 -55.158525810685525 0 0 0 0 -376.81587394330109 44.892848916430012 0 44.892848916430012 -495.74272625317326 0 0 0 0 -1128.8605845949187 -443.19667855261076 0 -443.19667855261076 182.00267127602183 0 0 0 0 -432.81931408516721 -861.40605729214928 0 -861.40605729214928 -586.51758660473502 0 0 0 0 -517.63039806660163 -142.31449618754186 0 -142.31449618754186 280.51307970240782 0 0 0 0 -621.94698881022168 -248.6505834174063 0 -248.6505834174063 193.16321742513969 0 0 0 0 -363.05104119901534 -53.893736468956931 0 -53.893736468956931 178.4673220432247 0 0 0 0 -278.50253115293629 -65.864160567120379 0 -65.864160567120379 29.253434334225744 0 0 0 0 -417.05322513232977 -173.5121684090671 0 -173.5121684090671 43.528460567266166 0 0 0 0 -432.22881776273425 -182.65927814931297 0 -182.65927814931297 38.6309465342419 0 0 0 0 -278.29191554163481 -192.49698207829408 0 -192.49698207829408 -41.725507837292298 0 0 0 0 -256.54605832144443 -163.8912718454078 0 -163.8912718454078 -25.769595232789243 0 0 0 0 -259.10071131182485 -81.978724460333297 0 -81.978724460333297 5.2754516202006698 0 0 0 0 -122.23281698446226 -53.436542685145014 0 -53.436542685145014 -15.187478558221301 0 0 0 0 -176.28970982486862 -104.33261760910545 0 -104.33261760910545 -34.921561887395001 0 0 0 0 -156.52247536000141 -17.580782684586922 0 -17.580782684586922 8.4783516313787004 0 0 0 0 -607.00269057266041 -237.83778564441533 0 -237.83778564441533 46.681698460184464 0 0 0 0 -479.50351088356473 -224.88061711063557 0 -224.88061711063557 43.694918783015879 0 0 0 0 -437.08610736088212 -277.03378457315853 0 -277.03378457315853 10.135699407727941 0 0 0 0 -490.30756991409424 -283.57189252867931 0 -283.57189252867931 43.945718872458428 0 0 0 0 -512.89933472433495 -302.46280262135326 0 -302.46280262135326 3.8314832517495461 0 0 0 0 -389.21018014298807 -280.9232087999344 0 -280.9232087999344 -20.016525795726466 0 0 0 0 -345.14331281652176 -287.31151715424676 0 -287.31151715424676 -101.9358586423723 0 0 0 0 -566.04631433804411 -376.44330182345982 0 -376.44330182345982 -64.812554992506193 0 0 0 0 -514.23585073454103 -273.23086649799262 0 -273.23086649799262 19.259492131407796 0 0 0 0 -631.72861417927629 -281.91580376427896 0 -281.91580376427896 18.675366588930672 0 0 0 0 -687.1015325551615 -335.88881602247272 0 -335.88881602247272 -20.782189197349453 0 0 0 0 -786.98226580450239 -293.41694274412532 0 -293.41694274412532 -37.543892435777707 0 0 0 0 -908.14213737769785 -359.48156396811754 0 -359.48156396811754 -62.200962780699228 0 0 0 0 -563.40744992798068 -506.81324465147941 0 -506.81324465147941 -210.59085044904441 0 0 0 0 -407.22668523631955 -350.40401261732222 0 -350.40401261732222 -134.12766987287887 0 0 0 0 -372.85430179424884 -379.37797313453575 0 -379.37797313453575 -185.72141805297451 0 0 0 0 -381.60884289618571 -325.21019298690726 0 -325.21019298690726 -118.91638329237276 0 0 0 0 -223.99353091267312 -217.97459203710741 0 -217.97459203710741 -81.857340952910818 0 0 0 0 -349.39806243079738 -355.02519413440041 0 -355.02519413440041 -169.79406454466243 0 0 0 0 -150.20470883350481 -151.17855300178257 0 -151.17855300178257 -114.63767935942178 0 0 0 0 -79.718426242431633 -219.66887072221152 0 -219.66887072221152 -294.75294841482128 0 0 0 0 -14.879631978559036 -6.5386223970580435 0 -6.5386223970580435 0.091809567747471954 0 0 0 0 -77.631817468625741 -17.835130161056668 0 -17.835130161056668 -19.21270501420895 0 0 0 0 -57.491973190868521 -31.364223319211305 0 -31.364223319211305 -264.31333929854372 0 0 0 0 6.8740773437721145 -111.90562049897289 0 -111.90562049897289 -172.9560107708985 0 0 0 0 -21.632445263378642 -282.34060964143248 0 -282.34060964143248 -626.38739496748167 0 0 0 0 -6.4839615988115753 2.5977736329505685 0 2.5977736329505685 5.0132902217667983 0 0 0 0 -137.64871230542212 -252.73313696158311 0 -252.73313696158311 -308.02497655943989 0 0 0 0 -14.490176038866519 -1.9240227880784158 0 -1.9240227880784158 0.19023119205336325 0 0 0 0 -605.85184661428912 -720.48837979043583 0 -720.48837979043583 -912.82629470284292 0 0 0 0 -58.172084662916404 -202.06410944329241 0 -202.06410944329241 -1112.1683165075256 0 0 0 0 -868.92007132648882 -617.82382111898778 0 -617.82382111898778 -240.74689495514417 0 0 0 0 -297.83606408795487 -552.83537556241288 0 -552.83537556241288 -603.16946014842779 0 0 0 0 -69.882996991706023 -24.46756183276284 0 -24.46756183276284 -28.414051740848208 0 0 0 0 -51.097836728273251 -2.9695723192448895 0 -2.9695723192448895 -26.391611433084108 0 0 0 0 -82.886681830425005 -15.37076495924066 0 -15.37076495924066 12.466136858704886 0 0 0 0 -93.244867470052441 -61.299792704548395 0 -61.299792704548395 -30.636689491661855 0 0 0 0 -172.46091026214481 -86.713666633995985 0 -86.713666633995985 -14.729576997517142 0 0 0 0 -82.018207206967418 -59.806623776197284 0 -59.806623776197284 -68.849899198704861 0 0 0 0 -162.5853973825574 -152.52161125142939 0 -152.52161125142939 -88.458135630794459 0 0 0 0 -151.05387709240676 -113.82115005232208 0 -113.82115005232208 -57.442540880055731 0 0 0 0 -195.58654493838094 -210.58510032228787 0 -210.58510032228787 -147.27269862248977 0 0 0 0 -79.271700827390305 -122.13697388918263 0 -122.13697388918263 -141.78139330754124 0 0 0 0 -74.142421910503799 -92.905344542050898 0 -92.905344542050898 -104.40278093679581 0 0 0 0 4.231072377569717 1.302101726115211 0 1.302101726115211 -68.995923483003935 0 0 0 0 -114.44793014576362 -91.263993669502497 0 -91.263993669502497 -72.225397698373854 0 0 0 0 -41.053490246274123 -111.33708561393041 0 -111.33708561393041 -150.72760362226563 0 0 0 0 -49.089822723955876 -14.272463196065019 0 -14.272463196065019 48.119118873650962 0 0 0 0 -18.382609892275664 -1.6132952238426732 0 -1.6132952238426732 1.1594451534296355 0 0 0 0 -18.980643516529199 43.198731246505986 0 43.198731246505986 -1.7682193523278329 0 0 0 0 -16.558181680607518 7.5081603410514957 0 7.5081603410514957 -0.77026859420385385 0 0 0 0 1.600385023800925 -4.6828134931601539 0 -4.6828134931601539 -39.994331460298781 0 0 0 0 -45.132149213609182 -31.151592503897291 0 -31.151592503897291 -40.782462234026752 0 0 0 0 3.1169402269470083 22.668840557808096 0 22.668840557808096 -32.196766836770621 0 0 0 0 -51.597728036516401 8.4155868609449271 0 8.4155868609449271 -5.1785827851654176 0 0 0 0 -5.4622014660377065 0.47177879323711913 0 0.47177879323711913 -1.594308919568729 0 0 0 0 1.519828017871248 -0.81098133142040751 0 -0.81098133142040751 -33.006723720616719 0 0 0 0 -1.9796337188257631 -1.6903690568541583 0 -1.6903690568541583 -5.5831199660223199 0 0 0 0 -10.468604220433317 -2.2710271303263538 0 -2.2710271303263538 0.67546670805020526 0 0 0 0 -15.754862770079853 -8.6513518080042786 0 -8.6513518080042786 -4.376053785379554 0 0 0 0 -16.869159744853789 -6.0487205208947898 0 -6.0487205208947898 -6.0566775532906831 0 0 0 0 -17.604213244756011 -18.138510341110333 0 -18.138510341110333 -14.333710380196408 0 0 0 0 -25.645363327156886 -21.80374747022006 0 -21.80374747022006 -1.4355881739261349 0 0 0 0 -10.062267734634506 -12.264234627534732 0 -12.264234627534732 -11.754651431670084 0 0 0 0 -2.2777278410697948 -3.7032084604291988 0 -3.7032084604291988 0.4923990486573393 0 0 0 0 -1.0000953647962394 -3.0113586595731245 0 -3.0113586595731245 0.57622768497984023 0 0 0 0 -17.292755344862144 -14.39241191440442 0 -14.39241191440442 -8.5510435676333145 0 0 0 0 -17.851781046334509 -12.818226609497742 0 -12.818226609497742 -6.287857974470171 0 0 0 0 -9.0449152655431639 -8.5344287578633988 0 -8.5344287578633988 -5.025270255358917 0 0 0 0 -17.296049159519331 -5.5594388414006115 0 -5.5594388414006115 0.25823920206487294 0 0 0 0 -17.119471769484335 -2.4539783732698197 0 -2.4539783732698197 6.0528409769633242 0 0 0 0 -18.813634866723419 -7.7637749114146573 0 -7.7637749114146573 3.5625472393449797 0 0 0 0 88.63589657605462 -138.94950375410667 0 -138.94950375410667 35.999200029082658 0 0 0 0 59.650872042982883 39.385909756397723 0 39.385909756397723 -171.42275937957629 0 0 0 0 -1166.0093094975236 76.291114370495961 0 76.291114370495961 175.39885048110182 0 0 0 0 -481.163260354871 231.00867327313813 0 231.00867327313813 -21.694344239218481 0 0 0 0 -462.1839574033753 -162.54205719425011 0 -162.54205719425011 -71.407831872788393 0 0 0 0 -389.73800399640686 112.87451314173899 0 112.87451314173899 -25.195950059557617 0 0 0 0 -441.46627832412491 5.4894215656137817 0 5.4894215656137817 -3.0461152607294935 0 0 0 0 58.81487800285322 -66.626748868708432 0 -66.626748868708432 -129.56761834089502 0 0 0 0 65.365680587440693 93.753152750267645 0 93.753152750267645 -46.699771497539132 0 0 0 0 8.0064068054512063 -18.893237365212912 0 -18.893237365212912 -7.7913450096734778 0 0 0 0 44.088465664436626 90.09698394964721 0 90.09698394964721 -27.591725195300683 0 0 0 0 -348.69263291936204 -172.39520862014251 0 -172.39520862014251 75.647232349993828 0 0 0 0 -293.75556938776162 -112.55217723136212 0 -112.55217723136212 -74.349789724601578 0 0 0 0 -417.87798559684961 69.235569193847141 0 69.235569193847141 17.365030905138724 0 0 0 0 -39.819517539380286 -21.300887994126015 0 -21.300887994126015 -22.092253682234059 0 0 0 0 0.31805434853023762 -0.24268653900924164 0 -0.24268653900924164 0.91294863860483666 0 0 0 0 -39.545447356004843 -26.038826476753911 0 -26.038826476753911 -11.716754382883437 0 0 0 0 -44.567805924678396 -40.088382508653922 0 -40.088382508653922 -14.806200035504673 0 0 0 0 -34.583414756500133 -36.826630831766806 0 -36.826630831766806 -3.0940257820775514 0 0 0 0 2.5941648417665419 -37.910157014916194 0 -37.910157014916194 -18.755191217192987 0 0 0 0 -0.45962978428664419 -7.4964908742075993 0 -7.4964908742075993 -15.626503986330448 0 0 0 0 13.622475647709507 -5.5698908883057356 0 -5.5698908883057356 -25.991645920613792 0 0 0 0 15.126396506017954 -9.8616925004020004 0 -9.8616925004020004 -17.638961189938982 0 0 0 0 -0.53179284638190438 -16.591812276842802 0 -16.591812276842802 -21.48854457997345 0 0 0 0 -1.5345754008670993 -8.2269186503502514 0 -8.2269186503502514 -15.534786724388791 0 0 0 0 -10.298202116524408 -21.654075034598463 0 -21.654075034598463 -19.562320896157019 0 0 0 0 -20.586610483567256 -27.528767279282448 0 -27.528767279282448 -19.836332015101561 0 0 0 0 -11.13265618926107 -20.065732702516527 0 -20.065732702516527 -21.186362655374978 0 0 0 0 -1119.1004035677115 -158.77958576497701 0 -158.77958576497701 339.14168590955956 0 0 0 0 -63.893920115001492 -199.10102871366553 0 -199.10102871366553 -344.73783229712831 0 0 0 0 37.381928593463726 -20.602324468014558 0 -20.602324468014558 -43.930671722836678 0 0 0 0 153.68132769375279 -145.07637844023463 0 -145.07637844023463 -16.613364292972392 0 0 0 0 -359.8108591443729 269.74171264528678 0 269.74171264528678 570.63818792444704 0 0 0 0 -7.8650643117756189 -1.5792698301490402 0 -1.5792698301490402 1.050184203966245 0 0 0 0 -661.96468874189304 88.737642157837399 0 88.737642157837399 -235.78388399661875 0 0 0 0 -766.34152338178956 -263.76029882234525 0 -263.76029882234525 -81.239826563803035 0 0 0 0 -818.44520305420974 -274.66332333102923 0 -274.66332333102923 -221.3107797294131 0 0 0 0 -501.70665366042886 22.108472828256481 0 22.108472828256481 12.584648774128027 0 0 0 0 -1093.308631869188 -178.09944057285247 0 -178.09944057285247 -79.913603995017411 0 0 0 0 -991.47944699313507 -419.16919640482081 0 -419.16919640482081 -199.22040884659737 0 0 0 0 -1089.1442759346619 -414.4625683051911 0 -414.4625683051911 -80.699907203082205 0 0 0 0 -911.86397865003619 -255.32485346282647 0 -255.32485346282647 115.98704684281574 0 0 0 0 -1299.5924212960604 -536.94239337819749 0 -536.94239337819749 -60.383761135892883 0 0 0 0 -859.28526769215659 -517.52929241705976 0 -517.52929241705976 -614.31275684805178 0 0 0 0 -595.85959544438265 -48.121097031727686 0 -48.121097031727686 63.492821223758369 0 0 0 0 -91.806315287094549 -230.1352327973583 0 -230.1352327973583 -246.05351503822658 0 0 0 0 1.259095222922042 10.432232046431693 0 10.432232046431693 -49.15754095532634 0 0 0 0 -1.5850691418390976 -4.0716011371098233 0 -4.0716011371098233 -10.410258596658878 0 0 0 0 -21.284246008476885 122.73494042600885 0 122.73494042600885 -266.40810381952247 0 0 0 0 -1.2167202202241914 -1.7260240581134667 0 -1.7260240581134667 -4.2086198418184928 0 0 0 0 4.1193334116233018 1.5616388927631988 0 1.5616388927631988 -77.38416282915648 0 0 0 0 3.744675750557974 6.2376182139856837 0 6.2376182139856837 -99.317884778202142 0 0 0 0 -13.471189035901261 -26.715767711094543 0 -26.715767711094543 -80.971226676861988 0 0 0 0 2.8587544597539818 -6.2127945273840979 0 -6.2127945273840979 -78.568689401749737 0 0 0 0 -7.3696392245019524 -5.8583305610582475 0 -5.8583305610582475 -30.689053578045844 0 0 0 0 -18.613894386301581 -8.02092727460977 0 -8.02092727460977 -30.971992420170455 0 0 0 0 -6.9078235170272819 -16.534550791352331 0 -16.534550791352331 -12.329536258068629 0 0 0 0 -24.023787317401911 -9.801850718635194 0 -9.801850718635194 -9.2947439479398781 0 0 0 0 -19.181066509278935 -2.9101823715152904 0 -2.9101823715152904 1.054286724438839 0 0 0 0 -182.17050168058677 183.36387200134538 0 183.36387200134538 -5.9970177738091479 0 0 0 0 -115.5229816081046 18.761350979892313 0 18.761350979892313 43.029269328135342 0 0 0 0 -2.2344937147383863 -3.6500499003238271 0 -3.6500499003238271 -12.967713299019135 0 0 0 0 120.49204089999739 -46.165417910156066 0 -46.165417910156066 -137.75788222910978 0 0 0 0 -265.95329154378805 174.02624934398602 0 174.02624934398602 -71.963835346652104 0 0 0 0 -151.75769815751937 -15.077212586938913 0 -15.077212586938913 55.32679280863249 0 0 0 0 -138.86140363176673 72.299437169915109 0 72.299437169915109 -70.383993148884429 0 0 0 0 196.42886564340006 72.363274747125615 0 72.363274747125615 52.188701420394864 0 0 0 0 79.529489525770259 -42.832769476892508 0 -42.832769476892508 13.31548804209865 0 0 0 0 -136.40787147618994 93.32167547353788 0 93.32167547353788 108.18931430816622 0 0 0 0 -5.9546302290395943 1.7340185591674526 0 1.7340185591674526 -5.0802754258907044 0 0 0 0 -5.9992868311998144 0.35395750842331886 0 0.35395750842331886 -8.301070417764004 0 0 0 0 37.353426154313638 -48.475752336306869 0 -48.475752336306869 33.104020159056518 0 0 0 0 0.092968205067258225 -0.36130112224028021 0 -0.36130112224028021 -2.150074502510877 0 0 0 0 -5.6769134519728972 -1.4766024197059393 0 -1.4766024197059393 -7.8746023096499478 0 0 0 0 -2.4251677613901848 -0.4173389990880878 0 -0.4173389990880878 -1.9000209274496171 0 0 0 0 -6.3846340189909556 1.1070026913519566 0 1.1070026913519566 -3.7282857460912835 0 0 0 0 -7.9803861180589593 -4.0646425910854589 0 -4.0646425910854589 -8.6124004101707214 0 0 0 0 -21.102846483296162 -2.7276070337361489 0 -2.7276070337361489 0.85749892322201049 0 0 0 0 -3.7918769465106728 -0.61169528641973692 0 -0.61169528641973692 -0.085070726608774461 0 0 0 0 -904.63678217862662 214.77062488634533 0 214.77062488634533 -417.43843212040701 0 0 0 0 -1441.8146634388363 -735.4611072484164 0 -735.4611072484164 -292.44041774626749 0 0 0 0 -1382.8431567881939 130.32244360860386 0 130.32244360860386 -55.618709623553514 0 0 0 0 -466.69986463068426 -30.804564766113117 0 -30.804564766113117 -36.001646021149554 0 0 0 0 -472.04457197487636 10.774711816359968 0 10.774711816359968 -353.86971827596653 0 0 0 0 -590.71745085521388 -20.880443468181738 0 -20.880443468181738 -11.539854028839528 0 0 0 0 -608.12877429526043 66.545044508286878 0 66.545044508286878 66.325361598602512 0 0 0 0 -1045.4945088989812 -80.62841930022023 0 -80.62841930022023 3.8036016699820721 0 0 0 0 -852.01636788434485 -216.20077735513843 0 -216.20077735513843 81.447202719805091 0 0 0 0 -564.04331036241786 -175.36516980386372 0 -175.36516980386372 82.540698193917009 0 0 0 0 -747.35874429677415 -20.922775208489952 0 -20.922775208489952 70.987412719010536 0 0 0 0 -473.01992231111899 -27.244083304239467 0 -27.244083304239467 50.566278455131567 0 0 0 0 -285.42980812351834 60.070303571723571 0 60.070303571723571 7.7536332341725824 0 0 0 0 -483.54679551803588 -6.4154145461081953 0 -6.4154145461081953 61.363784931254258 0 0 0 0 -316.90826207063537 15.866074375360256 0 15.866074375360256 21.500312107794116 0 0 0 0 -438.35354045517761 -61.094885285332396 0 -61.094885285332396 37.585043169391369 0 0 0 0 -620.65740563571239 -108.22674567355853 0 -108.22674567355853 70.82695584343513 0 0 0 0 -428.5709236082397 -87.330863891739043 0 -87.330863891739043 41.778740091869679 0 0 0 0 -2.7343551511982014 11.185431822680755 0 11.185431822680755 -9.9711400127048364 0 0 0 0 -2.9990405846182435 5.1405480383992419 0 5.1405480383992419 -9.1352798475706116 0 0 0 0 -15.419163893207951 3.2985722880944195 0 3.2985722880944195 -5.0325009800995417 0 0 0 0 -15.169291411963968 2.7745478552261602 0 2.7745478552261602 -3.9476942254054848 0 0 0 0 -2.3047464322343938 2.4609046523416467 0 2.4609046523416467 -1.350819045186614 0 0 0 0 -85.410295885665164 59.888151155230389 0 59.888151155230389 -49.380645847722377 0 0 0 0 -96.650032453802396 11.374638598756121 0 11.374638598756121 -52.530563206123787 0 0 0 0 -286.24484075592272 78.988532035391415 0 78.988532035391415 25.52130945575891 0 0 0 0 -285.66091991670828 -52.962433715004657 0 -52.962433715004657 45.324030300993172 0 0 0 0 -18.202519159242911 16.952980568767316 0 16.952980568767316 6.3734891981243891 0 0 0 0 -25.251383685862265 5.4857203341441618 0 5.4857203341441618 -3.9751718344182336 0 0 0 0 -49.378926090396817 7.7877055582803223 0 7.7877055582803223 8.9321025730564543 0 0 0 0 -0.058033598390459629 0.16055179717660462 0 0.16055179717660462 0.50206958779626731 0 0 0 0 -24.30000008006391 3.3443304990091178 0 3.3443304990091178 -1.1951455605383785 0 0 0 0 -19.935314372819448 4.6410246341824859 0 4.6410246341824859 -4.4969835440403472 0 0 0 0 -2.6011430847519863 -0.65258703439187471 0 -0.65258703439187471 1.53652462480744 0 0 0 0 -129.06046629064076 -22.162248859859186 0 -22.162248859859186 -26.908056489623544 0 0 0 0 -233.66867016868849 -43.712285147995942 0 -43.712285147995942 -11.299076262474955 0 0 0 0 -339.4088072026525 -114.17948531869956 0 -114.17948531869956 -4.8363475383690684 0 0 0 0 -259.0366266285464 1.4928041541795665 0 1.4928041541795665 -2.7509680143934929 0 0 0 0 -366.64342663901425 -69.461507197857145 0 -69.461507197857145 37.405533766599092 0 0 0 0 -12.54557512004326 9.6511787668277726 0 9.6511787668277726 3.3923094626382522 0 0 0 0 -51.135001362117364 -4.1547050781230155 0 -4.1547050781230155 1.5469712184578128 0 0 0 0 134.24616055705337 -206.03603459817458 0 -206.03603459817458 46.406677641106171 0 0 0 0 -21.710916595913957 -13.218605822530471 0 -13.218605822530471 4.1818609296013642 0 0 0 0 -84.646312286794455 -323.57175955485826 0 -323.57175955485826 372.09538109160411 0 0 0 0 517.56591903010349 -202.82374946144805 0 -202.82374946144805 40.994894255381269 0 0 0 0 -6.7192675139041231 -1.6508456908573734 0 -1.6508456908573734 4.3929699882805791 0 0 0 0 -3.4750886078006396 -0.41594438799556954 0 -0.41594438799556954 -1.6251126554827011 0 0 0 0 11.544256082884203 -94.648728796842605 0 -94.648728796842605 265.87194929997867 0 0 0 0 -509.15947324168792 78.171220782664534 0 78.171220782664534 21.918491633825923 0 0 0 0 -147.68920870224974 -443.40935663286575 0 -443.40935663286575 60.476723417647122 0 0 0 0 -337.51108102784838 87.371219200404212 0 87.371219200404212 141.83029951841638 0 0 0 0 301.27224325757106 -490.61827451641659 0 -490.61827451641659 -669.4104983917307 0 0 0 0 -306.5364589377532 -97.873051751384907 0 -97.873051751384907 146.72611875715691 0 0 0 0 -153.59177131750585 46.907028738406098 0 46.907028738406098 254.84199675069084 0 0 0 0 -3.2941207532233037 -1.5761057667505929 0 -1.5761057667505929 0.41382442841447176 0 0 0 0 39.131744415027242 -46.32165407516792 0 -46.32165407516792 16.77620126015708 0 0 0 0 9.2597787006293402 -56.804820321887775 0 -56.804820321887775 72.185334145587035 0 0 0 0 24.68901073557663 -40.32199182224673 0 -40.32199182224673 16.929411175308598 0 0 0 0 -16.914804182495573 -9.3024957441115248 0 -9.3024957441115248 -9.1223668524681898 0 0 0 0 -19.700425274662848 -2.4345009669931983 0 -2.4345009669931983 -18.622874256262861 0 0 0 0 -3.3555644280189716 -0.11861843825731277 0 -0.11861843825731277 0.049597497648522282 0 0 0 0 -18.951305941398005 1.2783190671856914 0 1.2783190671856914 -1.433745528344275 0 0 0 0 -12.897160659556567 -0.45793956059373864 0 -0.45793956059373864 0.32814950294179002 0 0 0 0 -22.619293982735144 2.4193721611328556 0 2.4193721611328556 -1.5216669136478913 0 0 0 0 -20.156359340483505 -3.1739659991420126 0 -3.1739659991420126 0.63173913196260401 0 0 0 0 -399.36814491749601 -113.8133643557501 0 -113.8133643557501 -10.744972114588457 0 0 0 0 -376.99237284010826 -223.06760949255371 0 -223.06760949255371 -79.661723695726067 0 0 0 0 -8.7259455268891841 -2.5387580267887411 0 -2.5387580267887411 1.5047311363988873 0 0 0 0 -821.86617662259368 148.88566170612393 0 148.88566170612393 -167.16773423102006 0 0 0 0 -14.045275600803862 -21.616888963264596 0 -21.616888963264596 -10.694432388317207 0 0 0 0 -861.15819137171638 86.506427884404388 0 86.506427884404388 311.24881871679935 0 0 0 0 -197.89609364403805 191.60068662607944 0 191.60068662607944 7.1658809234019003 0 0 0 0 -737.87085565152938 303.34023945003912 0 303.34023945003912 95.052178777393038 0 0 0 0 -496.07232312575343 -16.458161879712577 0 -16.458161879712577 80.464012669800979 0 0 0 0 -311.43908620299499 74.484893700802601 0 74.484893700802601 32.638374353503394 0 0 0 0 -212.8822075812254 -107.67155372902141 0 -107.67155372902141 182.47223368291847 0 0 0 0 -179.24905957827013 -202.00346148354663 0 -202.00346148354663 181.92412650614438 0 0 0 0 47.962971475710219 -97.705111838723354 0 -97.705111838723354 97.525180669031386 0 0 0 0 -281.45235146004779 36.645880491789228 0 36.645880491789228 43.370709200451415 0 0 0 0 -255.81927265859031 78.794859254304058 0 78.794859254304058 -215.45178644496531 0 0 0 0 -628.76378541145004 54.763616102397911 0 54.763616102397911 -210.60489801247479 0 0 0 0 -489.04357964834617 -39.399488572502975 0 -39.399488572502975 90.323204468917368 0 0 0 0 -565.77528055286552 220.79637727543331 0 220.79637727543331 -101.93846289494695 0 0 0 0 -803.08427593504257 114.25117932579647 0 114.25117932579647 -57.208966312323696 0 0 0 0 -1082.3406899773199 324.14846538519521 0 324.14846538519521 -116.12162563046606 0 0 0 0 21.427070408448344 -50.388938216839733 0 -50.388938216839733 83.857419014485501 0 0 0 0 -1078.1840215158718 374.23600510076051 0 374.23600510076051 51.907394360674601 0 0 0 0 201.75952338847674 -208.48269028102666 0 -208.48269028102666 77.036798559766567 0 0 0 0 -10.921794277707608 -15.892577325245814 0 -15.892577325245814 -5.8079211399553206 0 0 0 0 77.33914967855344 -162.5705303826366 0 -162.5705303826366 198.0845283502193 0 0 0 0 329.72841438423166 -265.51040372267335 0 -265.51040372267335 157.96597293977675 0 0 0 0 -7.2105482264197551 -9.9724760842269475 0 -9.9724760842269475 -2.6893519506600345 0 0 0 0 788.38400133613959 -473.42357978462712 0 -473.42357978462712 59.712211390256925 0 0 0 0 -2.4393925034942043 -2.8958935438739353 0 -2.8958935438739353 -1.1614106357857901 0 0 0 0 -731.63755377586131 163.66936863847184 0 163.66936863847184 -212.82568201468291 0 0 0 0 -1884.7641074661478 11.899933227739439 0 11.899933227739439 51.950773425081366 0 0 0 0 -719.64145080407889 -36.28719050445541 0 -36.28719050445541 -146.52471568246918 0 0 0 0 -357.60874340879491 -215.84547563778455 0 -215.84547563778455 -82.957985371465668 0 0 0 0 -720.49551729115046 -160.25440190080715 0 -160.25440190080715 -132.500584286243 0 0 0 0 -511.5339057056085 -288.10480486700112 0 -288.10480486700112 -94.693198627835045 0 0 0 0 -348.80207743257688 19.607373677765679 0 19.607373677765679 -35.25994346610014 0 0 0 0 -382.82285889732702 -161.99662661445916 0 -161.99662661445916 10.533183220718456 0 0 0 0 -508.05162101495989 -309.98298297376346 0 -309.98298297376346 17.157454246857924 0 0 0 0 -17.944650449000619 -593.34135691241204 0 -593.34135691241204 111.67494100248234 0 0 0 0 -453.72819000565323 -442.97423501112439 0 -442.97423501112439 62.401501290900796 0 0 0 0 -171.86242261752659 -116.30190555569541 0 -116.30190555569541 250.81363187059605 0 0 0 0 65.191144052632808 -63.236431479300563 0 -63.236431479300563 -137.38839707726891 0 0 0 0 38.065087175822555 -34.361316722456081 0 -34.361316722456081 -109.73010215067279 0 0 0 0 61.357697744355391 -88.398743253091254 0 -88.398743253091254 -112.59552440123508 0 0 0 0 35.961753826417407 6.5246490121378429 0 6.5246490121378429 -147.38016388808023 0 0 0 0 77.555746658384578 -40.239341825448577 0 -40.239341825448577 -117.40783456958491 0 0 0 0 -59.87707032336175 -71.960896070610943 0 -71.960896070610943 -101.36140662503999 0 0 0 0 -26.251915552857099 -20.55935223030383 0 -20.55935223030383 -22.785789228529822 0 0 0 0 0.018462659895742473 0.62721663126523985 0 0.62721663126523985 0.007362379766178262 0 0 0 0 163.62349650553119 -40.354374911505047 0 -40.354374911505047 -92.528379516649693 0 0 0 0 55.927324091544506 -43.435239422353106 0 -43.435239422353106 16.696530074011928 0 0 0 0 41.773079514562141 -86.312072732575189 0 -86.312072732575189 -92.056810323181423 0 0 0 0 -62.347302999809472 -65.162997654191315 0 -65.162997654191315 17.232211627963856 0 0 0 0 43.742972218072282 -35.188571395306113 0 -35.188571395306113 -95.127863589525532 0 0 0 0 -202.15308241474304 -25.752451584714038 0 -25.752451584714038 -186.2279047569879 0 0 0 0 -213.04445031836804 -39.146730101886988 0 -39.146730101886988 -65.38185270105356 0 0 0 0 -51.500928956924326 -72.556924563121228 0 -72.556924563121228 -87.319110144816847 0 0 0 0 38.309086355252475 -34.110872096824437 0 -34.110872096824437 -190.03659060386883 0 0 0 0 -48.504728237285235 -116.89639174703706 0 -116.89639174703706 -162.20573267270925 0 0 0 0 -101.67130639801326 30.287588966599571 0 30.287588966599571 -50.154798444367543 0 0 0 0 -123.55157790331123 -51.400185596772303 0 -51.400185596772303 -237.98305351145262 0 0 0 0 -38.645393315209731 -47.52106432968867 0 -47.52106432968867 -26.724578269167523 0 0 0 0 14.611157678184099 -36.757985065078856 0 -36.757985065078856 -12.847405454669911 0 0 0 0 55.224834745702537 26.153786464474251 0 26.153786464474251 25.449097971399283 0 0 0 0 69.77023702266797 -94.19346868000639 0 -94.19346868000639 -37.804249589793926 0 0 0 0 122.29070045465414 -38.195696537903132 0 -38.195696537903132 -145.0852243055495 0 0 0 0 -7.572486726427087 -2.5077051125399521 0 -2.5077051125399521 341.28602515859552 0 0 0 0 -170.39984554044531 -214.56193423981637 0 -214.56193423981637 -255.83562768345269 0 0 0 0 -18.156011315488236 -2.7128879866561055 0 -2.7128879866561055 2.7094380041463744 0 0 0 0 -228.21914953319538 -181.97143422744489 0 -181.97143422744489 -23.279390907431207 0 0 0 0 -65.08112725211322 -117.74924122280623 0 -117.74924122280623 -166.89779904832017 0 0 0 0 -87.255441598648531 -62.903085845280927 0 -62.903085845280927 -32.555928433298732 0 0 0 0 -27.4462889422839 114.3623865937077 0 114.3623865937077 191.5990778958394 0 0 0 0 -22.338455585099304 -3.0161281006815877 0 -3.0161281006815877 3.4393366538931804 0 0 0 0 35.909056038555718 -112.5895704865643 0 -112.5895704865643 137.9845130510389 0 0 0 0 -55.775800134690144 -65.27557139711962 0 -65.27557139711962 138.49799065783236 0 0 0 0 -24.075578425794937 -3.4751674964029586 0 -3.4751674964029586 3.9395103740265678 0 0 0 0 -51.545773995745549 -46.502065602583116 0 -46.502065602583116 -26.460120584947163 0 0 0 0 46.288011219072359 -49.939491979112518 0 -49.939491979112518 74.117293405090095 0 0 0 0 195.35846551950817 -102.92982867844239 0 -102.92982867844239 46.650086505990203 0 0 0 0 129.49672299671511 -133.59852717855892 0 -133.59852717855892 43.947480126065784 0 0 0 0 -29.436148349397627 -111.74850961942462 0 -111.74850961942462 92.822060959490045 0 0 0 0 -1.2024893432414103 -2.4589449780465387 0 -2.4589449780465387 -2.616690931337164 0 0 0 0 -45.279124830553883 -65.513392663102195 0 -65.513392663102195 83.482147418443674 0 0 0 0 -165.28006443068807 -171.60866621922764 0 -171.60866621922764 50.988067625407439 0 0 0 0 -259.65301443476346 -144.23596194499601 0 -144.23596194499601 96.602135231277316 0 0 0 0 -343.83964604799166 -217.81874625146406 0 -217.81874625146406 107.23095868671771 0 0 0 0 -333.08461919169531 -219.44566969955667 0 -219.44566969955667 66.528917075712343 0 0 0 0 -313.51018737975869 -209.58141238491962 0 -209.58141238491962 70.331448282066958 0 0 0 0 -180.4483434043359 -119.2377410071872 0 -119.2377410071872 79.936048189899793 0 0 0 0 -201.11743495212795 -184.12702073124319 0 -184.12702073124319 -28.43111243732892 0 0 0 0 -520.08251319374904 -836.2045104914796 0 -836.2045104914796 -948.46943811743313 0 0 0 0 -346.69390463710442 -552.42884595535986 0 -552.42884595535986 -122.77086418737144 0 0 0 0 -232.00620213041475 -292.41426930841453 0 -292.41426930841453 -334.83169256341853 0 0 0 0 -255.68944491330967 -294.84718331553609 0 -294.84718331553609 -73.691789163480735 0 0 0 0 -21.08405408541369 -3.6391553601877664 0 -3.6391553601877664 3.6301344719000217 0 0 0 0 -179.37147559049845 18.42753756075399 0 18.42753756075399 435.54122395204104 0 0 0 0 -12.879389001153413 40.757387457972698 0 40.757387457972698 -68.852190653395155 0 0 0 0 -208.69013009678383 -271.23583369310563 0 -271.23583369310563 -63.667390515583065 0 0 0 0 -99.562595216832051 -117.36145739649055 0 -117.36145739649055 -67.98335166811853 0 0 0 0 -208.96254814619533 17.64059907575097 0 17.64059907575097 243.17120380391589 0 0 0 0 -7.3527216895890888 -131.28390605472487 0 -131.28390605472487 130.26350827752458 0 0 0 0 150.41148635617719 -185.22882737665259 0 -185.22882737665259 145.59567275008726 0 0 0 0 -0.24145457423304251 -0.40249647215400941 0 -0.40249647215400941 -1.176971895875548 0 0 0 0 229.92486967065997 -215.42617450303533 0 -215.42617450303533 77.341496176112742 0 0 0 0 -452.70196132161436 170.20010542399086 0 170.20010542399086 122.41255476527476 0 0 0 0 -222.46593740905882 47.407812599080216 0 47.407812599080216 11.980579177510663 0 0 0 0 -180.48662554404291 72.211107479833117 0 72.211107479833117 -78.929628673902243 0 0 0 0 -145.95492094026486 -51.41768980735651 0 -51.41768980735651 -4.4770661718971496 0 0 0 0 -36.637526947505194 -54.257426011113921 0 -54.257426011113921 -16.880895492814489 0 0 0 0 -44.177779666722927 -85.051850661870048 0 -85.051850661870048 26.059823957233675 0 0 0 0 -403.96385355314669 7.2409943163762591 0 7.2409943163762591 244.64421057129948 0 0 0 0 132.84524174476246 -201.78432961543922 0 -201.78432961543922 111.38183120292433 0 0 0 0 221.63500839710014 23.749972537687881 0 23.749972537687881 -39.163852452933497 0 0 0 0 -38.74719908618863 -3.2010204085822807 0 -3.2010204085822807 -20.476405554751409 0 0 0 0 -3.0047147728711323 -3.2245106373491055 0 -3.2245106373491055 -0.063508073861632042 0 0 0 0 33.055165308407595 -99.821301053790648 0 -99.821301053790648 -50.385067963102756 0 0 0 0 -1121.1832706122987 -683.81521981851483 0 -683.81521981851483 -155.49422424161958 0 0 0 0 -5.1842735377923361 -1.2389064080696759 0 -1.2389064080696759 -2.192760732970652 0 0 0 0 -67.326193866331778 -120.11146507698516 0 -120.11146507698516 -425.54814136450932 0 0 0 0 -9.0565699740949768 -2.0502916797112043 0 -2.0502916797112043 1.4506465696990123 0 0 0 0 -468.03031599460519 208.51396915970759 0 208.51396915970759 896.95429770068222 0 0 0 0 -20.281600188383891 25.700913547334039 0 25.700913547334039 -68.183015466739334 0 0 0 0 -19.287135336855158 -10.877294115424839 0 -10.877294115424839 -105.78975530818707 0 0 0 0 -241.66816658294556 560.80478193061208 0 560.80478193061208 -115.48358119638699 0 0 0 0 -16.042724757154218 5.9286871853772887 0 5.9286871853772887 -3.8343092175406959 0 0 0 0 -21.371135807014582 32.572132822790572 0 32.572132822790572 -60.239013432859338 0 0 0 0 -40.885300100992026 17.817576229723727 0 17.817576229723727 -41.070646140975441 0 0 0 0 -10.343933964207281 -32.347984062214664 0 -32.347984062214664 -44.084394003899433 0 0 0 0 -10.482145072834101 -29.502276202493476 0 -29.502276202493476 0.13360454527264665 0 0 0 0 -25.972353441168408 -6.9929979439219299 0 -6.9929979439219299 -1.1328257787508376 0 0 0 0 -94.633295747420561 36.938067735564573 0 36.938067735564573 -12.624532402270233 0 0 0 0 -37.32369082975827 -3.095855506190043 0 -3.095855506190043 -1.9614989355993169 0 0 0 0 -42.086477784477779 46.667672468911142 0 46.667672468911142 -11.284013087526091 0 0 0 0 -99.362770024785277 -7.2075726515186034 0 -7.2075726515186034 28.888104528253962 0 0 0 0 -128.42828761451528 53.483822146041348 0 53.483822146041348 173.40713649707504 0 0 0 0 -75.308811604075572 14.042414047198356 0 14.042414047198356 -2.5251474503581628 0 0 0 0 -199.17455379669991 3.4876631176121009 0 3.4876631176121009 170.02378937668084 0 0 0 0 -78.370710425537254 -13.562519316635644 0 -13.562519316635644 78.07624101759211 0 0 0 0 -131.96135862438678 166.45968909697831 0 166.45968909697831 278.03967593160542 0 0 0 0 6.2365526648900413 100.34075802501479 0 100.34075802501479 33.782175649533656 0 0 0 0 -78.73778559034966 25.723156646955584 0 25.723156646955584 -3.8883049360986046 0 0 0 0 -29.679463951830257 243.88033035481521 0 243.88033035481521 138.03970382440366 0 0 0 0 8.5071250732472663 36.898709330862658 0 36.898709330862658 -73.50309561476206 0 0 0 0 -5.3244955910959106 22.513483756958976 0 22.513483756958976 -83.750410101475609 0 0 0 0 -352.59733374693531 -104.04058912913513 0 -104.04058912913513 35.355007161197136 0 0 0 0 -349.30160147705283 -198.40817957856143 0 -198.40817957856143 23.176342726106668 0 0 0 0 -370.26761564951084 -137.30697934838327 0 -137.30697934838327 -32.824071910857583 0 0 0 0 -378.23079473544021 -213.14728569419719 0 -213.14728569419719 97.322312314651754 0 0 0 0 -357.80533987624494 -152.34943829539793 0 -152.34943829539793 62.024321418062755 0 0 0 0 -294.79940384881411 -187.34151086606335 0 -187.34151086606335 80.071360725320574 0 0 0 0 -149.48100339260782 -144.86919466993959 0 -144.86919466993959 53.908257835519635 0 0 0 0 -213.20322609368122 -94.931606323068081 0 -94.931606323068081 71.862105061203692 0 0 0 0 -296.64677057816516 -145.40018196170786 0 -145.40018196170786 60.388599709336404 0 0 0 0 -52.404996604211192 -83.515251935891229 0 -83.515251935891229 25.669976788495205 0 0 0 0 -48.464447294491038 -23.625124848402265 0 -23.625124848402265 66.037797664889695 0 0 0 0 -94.407794199407363 29.24758857392635 0 29.24758857392635 -1.4226590983907954 0 0 0 0 -9.7702379702471589 -2.7914395671968997 0 -2.7914395671968997 -4.0424719511228169 0 0 0 0 -55.059585627135029 -8.6503689175362766 0 -8.6503689175362766 -2.5972498964864776 0 0 0 0 -47.126019967632601 -5.9895603310897059 0 -5.9895603310897059 8.4124992795268554 0 0 0 0 -177.33064455777276 -88.63071964358096 0 -88.63071964358096 10.723936439328099 0 0 0 0 -198.18346961243515 50.058147564976935 0 50.058147564976935 92.026745801071229 0 0 0 0 -299.77119971087814 -90.881185345993799 0 -90.881185345993799 -16.775798392789511 0 0 0 0 -61.805500602944292 -14.119304310308909 0 -14.119304310308909 -1.9675389801742256 0 0 0 0 -358.06234703947484 -100.30366815617163 0 -100.30366815617163 -18.296812070284886 0 0 0 0 -9.7108009340084251 -8.3923446506250095 0 -8.3923446506250095 3.7456016853733374 0 0 0 0 -336.38367913016555 -102.24816441467374 0 -102.24816441467374 19.43903843375665 0 0 0 0 -298.47177588575505 -98.933877361858322 0 -98.933877361858322 -47.549799783782873 0 0 0 0 -312.27094890984517 -133.68618993481141 0 -133.68618993481141 -65.963877071450042 0 0 0 0 -102.80721547000576 -32.814693019225615 0 -32.814693019225615 122.66111503509774 0 0 0 0 -64.549936652303899 -14.361413541540493 0 -14.361413541540493 -2.9430640253234674 0 0 0 0 -92.289290508269914 -17.929453016118714 0 -17.929453016118714 105.39008208248742 0 0 0 0 -206.37988437181775 -98.372215915101151 0 -98.372215915101151 46.723724677812243 0 0 0 0 -141.34856720011885 -87.902271761501652 0 -87.902271761501652 26.649360893453377 0 0 0 0 -933.04607394147752 -231.68317521487165 0 -231.68317521487165 181.38383769803477 0 0 0 0 18.755361323457691 -194.33758918655485 0 -194.33758918655485 -43.00562971515501 0 0 0 0 -20.462716979240675 2.3040548555584763 0 2.3040548555584763 -2.3397314886376392 0 0 0 0 -270.04719106293487 -359.6653472680191 0 -359.6653472680191 -129.31936854200467 0 0 0 0 -245.53777176783478 -159.67828382380594 0 -159.67828382380594 -241.73327889857046 0 0 0 0 -94.279184466658961 -30.437352423989076 0 -30.437352423989076 -3.4757969546354843 0 0 0 0 -469.02423098285726 -220.53187923876885 0 -220.53187923876885 -79.286859234203803 0 0 0 0 -354.33420062849109 -76.51821442074106 0 -76.51821442074106 -100.11123178595381 0 0 0 0 -319.30442921357462 -420.55731254249531 0 -420.55731254249531 -79.903579233970049 0 0 0 0 -97.041174840382737 -28.142055923018468 0 -28.142055923018468 -1.9926234257364985 0 0 0 0 -390.18211603441341 -153.84735335499727 0 -153.84735335499727 -171.03271217547308 0 0 0 0 -444.65508844937267 -245.50340858883942 0 -245.50340858883942 -136.22751607895771 0 0 0 0 -24.338225564262913 -7.5368389310634214 0 -7.5368389310634214 0.80892424396946794 0 0 0 0 -195.59101761509919 -111.58935948203634 0 -111.58935948203634 -17.381319906604858 0 0 0 0 -95.719176339873229 -92.574353719575811 0 -92.574353719575811 -30.614604617528585 0 0 0 0 -0.79351800669240191 0.45281667274966253 0 0.45281667274966253 2.8700934845533226 0 0 0 0 -139.77531397217263 -84.92375826935222 0 -84.92375826935222 -111.50816000071609 0 0 0 0 -301.0174760362861 -206.66185248278634 0 -206.66185248278634 -59.368365462745714 0 0 0 0 -315.98188114511322 -177.12252441569944 0 -177.12252441569944 -118.20982362440577 0 0 0 0 -357.82321120305278 -170.72423651359804 0 -170.72423651359804 23.655662673568486 0 0 0 0 -417.91699021773093 -215.82049221214447 0 -215.82049221214447 7.7873585192683095 0 0 0 0 -284.62594642931708 -159.01515186167262 0 -159.01515186167262 -19.520910258270305 0 0 0 0 -322.37043887240634 -185.13809888713411 0 -185.13809888713411 -15.221346169354547 0 0 0 0 -360.49956040630877 -142.01028892899762 0 -142.01028892899762 134.27157885482666 0 0 0 0 -390.54150118461257 -207.91858877515688 0 -207.91858877515688 105.6582213704728 0 0 0 0 -389.21242079506919 -217.1486383444726 0 -217.1486383444726 167.57043511712459 0 0 0 0 -375.99664615784513 -217.19926646246586 0 -217.19926646246586 414.75379820819762 0 0 0 0 -192.21532173228843 -25.105713054135776 0 -25.105713054135776 98.805981115606755 0 0 0 0 -51.106126292113004 -153.40215467028906 0 -153.40215467028906 176.53485268273562 0 0 0 0 -207.64376054345121 -18.704850583106236 0 -18.704850583106236 313.20033373929573 0 0 0 0 -2.5438400415426337 -0.18143723827187586 0 -0.18143723827187586 2.8449874895031009 0 0 0 0 -304.63282289743074 -249.62052902921505 0 -249.62052902921505 310.09620760350703 0 0 0 0 -193.05674911294227 31.693890086720785 0 31.693890086720785 298.48639901329966 0 0 0 0 -336.91651668480881 -400.99261128164596 0 -400.99261128164596 -111.17928011114236 0 0 0 0 -86.759886329964502 -110.49840806215616 0 -110.49840806215616 -170.02692948802121 0 0 0 0 -0.34300770389065782 -0.28476239598213127 0 -0.28476239598213127 3.014787635229446 0 0 0 0 -43.776024595474155 -7.6710906537182382 0 -7.6710906537182382 -95.64469395564538 0 0 0 0 55.320014243616242 -62.40271625344144 0 -62.40271625344144 27.681555174071036 0 0 0 0 -18.46311966011217 -139.0751262763365 0 -139.0751262763365 190.94074898600957 0 0 0 0 -44.445472577260261 -18.27720183560632 0 -18.27720183560632 -10.902250651291524 0 0 0 0 -27.662489228849438 -7.7130308935701635 0 -7.7130308935701635 -5.4249901223720371 0 0 0 0 1.7976380228316575 -2.163447556062092 0 -2.163447556062092 8.6450349099734574 0 0 0 0 -77.588462790723497 11.812853371869096 0 11.812853371869096 -36.120425992137825 0 0 0 0 -285.82984402695911 -53.317869738033551 0 -53.317869738033551 16.084606448593149 0 0 0 0 -173.17982121088426 -80.074986427580825 0 -80.074986427580825 12.602762842723678 0 0 0 0 -105.32740061389632 -15.560334781447636 0 -15.560334781447636 10.646929628870083 0 0 0 0 -29.250641084429844 -30.930336425520636 0 -30.930336425520636 -2.2777610112152615 0 0 0 0 -30.153190146220368 -24.754311901321671 0 -24.754311901321671 -28.103607904567525 0 0 0 0 -122.78663835539101 6.1560911644819498 0 6.1560911644819498 -22.257862236329856 0 0 0 0 -95.358848645880244 25.190488297156435 0 25.190488297156435 -38.962330570624545 0 0 0 0 -168.24496989334239 62.7635113600154 0 62.7635113600154 43.657045788472715 0 0 0 0 -151.80497585904595 34.475085710434541 0 34.475085710434541 91.879259959695901 0 0 0 0 -26.673823519271167 -47.935719379958179 0 -47.935719379958179 35.761652590381345 0 0 0 0 -75.326237727664193 -10.141247787618113 0 -10.141247787618113 22.69908047043009 0 0 0 0 -71.220104213433842 -3.4093107292464992 0 -3.4093107292464992 -7.2081481424631875 0 0 0 0 -130.40841458439263 52.346531160214454 0 52.346531160214454 -177.54708000280607 0 0 0 0 -301.01404865685436 94.881320689177755 0 94.881320689177755 -3.3672655158588896 0 0 0 0 -178.23033971491895 35.365404808328094 0 35.365404808328094 24.943651377982405 0 0 0 0 -198.3963490982253 -23.907063327793708 0 -23.907063327793708 43.057131908069096 0 0 0 0 -322.15676236270019 -12.452749341216304 0 -12.452749341216304 42.643780018286634 0 0 0 0 -115.82480203884188 54.930402646621587 0 54.930402646621587 57.750592643842083 0 0 0 0 -227.5320453764823 39.964153828579299 0 39.964153828579299 61.88392697837935 0 0 0 0 -185.23407425345158 101.90676726246056 0 101.90676726246056 88.85028952212997 0 0 0 0 -244.05531249361684 76.090045290713533 0 76.090045290713533 19.707376611920154 0 0 0 0 -27.040663279525688 3.5859545673770299 0 3.5859545673770299 89.098343792768674 0 0 0 0 -212.39218266254875 14.979854194742074 0 14.979854194742074 95.466744622724491 0 0 0 0 -163.09519764702691 -30.8457972029546 0 -30.8457972029546 228.33339471383169 0 0 0 0 -102.46421682331675 -22.207311578066765 0 -22.207311578066765 47.033174645174313 0 0 0 0 -185.38447000253291 47.488951280377023 0 47.488951280377023 86.843079466147628 0 0 0 0 -346.89109076290515 149.04737125938732 0 149.04737125938732 156.34949238844956 0 0 0 0 -191.29375557854905 90.956042167934356 0 90.956042167934356 162.39360496907739 0 0 0 0 -184.38872713903743 32.878837738866764 0 32.878837738866764 138.84316829778982 0 0 0 0 -342.1590536426811 -26.089083268157083 0 -26.089083268157083 150.73551661218244 0 0 0 0 -294.52321054379627 106.69043322724701 0 106.69043322724701 -65.359092074235377 0 0 0 0 -162.6808458448013 213.20416744014437 0 213.20416744014437 73.824172438404275 0 0 0 0 -2.3367456669817948 -0.29359047152067319 0 -0.29359047152067319 0.24630490555846585 0 0 0 0 -258.86520493009766 -73.921688539820366 0 -73.921688539820366 52.919006290855123 0 0 0 0 -369.85750663990802 94.066886115231682 0 94.066886115231682 20.325450815292243 0 0 0 0 -371.1660036800763 90.775456481461447 0 90.775456481461447 23.840318874508739 0 0 0 0 -59.870337612976073 37.791905260934527 0 37.791905260934527 260.22850473164499 0 0 0 0 33.244513659982431 -44.730385076821165 0 -44.730385076821165 312.0619136437399 0 0 0 0 -83.753328106821527 -18.045953522944842 0 -18.045953522944842 382.67365655382673 0 0 0 0 -1.0615085135073623 0.11564240654772995 0 0.11564240654772995 0.11692206160889995 0 0 0 0 6.7470403647290471 38.302784873662695 0 38.302784873662695 177.50841788068828 0 0 0 0 6.8596562776365317 -43.608011160923525 0 -43.608011160923525 172.61038408458444 0 0 0 0 -80.864508292147548 22.504048596261782 0 22.504048596261782 176.44454718448105 0 0 0 0 -107.53276149102203 -40.235007196270544 0 -40.235007196270544 180.78495683550864 0 0 0 0 -12.525305480030511 98.106839557483454 0 98.106839557483454 74.516402221459884 0 0 0 0 -68.628256065588175 -22.911566045793506 0 -22.911566045793506 209.33793176034351 0 0 0 0 -5.0915933853630229 -0.74325618878537725 0 -0.74325618878537725 0.65031660106100575 0 0 0 0 -15.420707998368925 23.773519805727119 0 23.773519805727119 41.258074280517235 0 0 0 0 2.3163674913112118 24.026197650198128 0 24.026197650198128 -29.75298679935031 0 0 0 0 36.438096132020291 18.943385448864092 0 18.943385448864092 -20.194584003485033 0 0 0 0 -1.1444904928835244 -0.65879719295636274 0 -0.65879719295636274 0.2473531501737849 0 0 0 0 17.384971261384635 -5.5079444017937931 0 -5.5079444017937931 9.0919460550446729 0 0 0 0 13.315156524123267 12.688070584499542 0 12.688070584499542 -71.707366338349857 0 0 0 0 -70.226761140267627 -27.071778498596586 0 -27.071778498596586 -28.013121874294853 0 0 0 0 20.237668684962955 -17.690559552229843 0 -17.690559552229843 -26.309169983378979 0 0 0 0 -35.605888859535298 -35.670801949778138 0 -35.670801949778138 -20.912666753272333 0 0 0 0 -1.7497658442395081 -1.9083642068796873 0 -1.9083642068796873 -3.2924842620499266 0 0 0 0 48.237660935316399 -6.3420084612257597 0 -6.3420084612257597 -40.422077878160508 0 0 0 0 25.212130714812929 -34.316365734855935 0 -34.316365734855935 13.333111976820874 0 0 0 0 3.8351336209293159 -1.3050075202812221 0 -1.3050075202812221 -5.3065314236569279 0 0 0 0 -254.35644007576138 17.666039675278398 0 17.666039675278398 -30.987752174008619 0 0 0 0 -224.46155243593421 59.808768298002974 0 59.808768298002974 -40.136418215987305 0 0 0 0 -54.515170364173628 -41.376822582906243 0 -41.376822582906243 -44.791148575337274 0 0 0 0 -0.45941400586573522 0.1615304187511839 0 0.1615304187511839 0.27585155688677432 0 0 0 0 -56.063440977097798 12.717103926683308 0 12.717103926683308 -84.714199564679348 0 0 0 0 -424.17619559924424 62.441703858671758 0 62.441703858671758 12.69773908097136 0 0 0 0 -163.77766596729452 136.5596171295706 0 136.5596171295706 -82.987490739897567 0 0 0 0 -433.08347485644936 102.07684007233252 0 102.07684007233252 -158.40856415430176 0 0 0 0 -474.79159073122219 -95.832300793556783 0 -95.832300793556783 -75.944200788151193 0 0 0 0 -474.45114657860177 3.011945323224154 0 3.011945323224154 16.192027015653252 0 0 0 0 -635.91939317087872 -59.920872927049459 0 -59.920872927049459 1.3607198391182465 0 0 0 0 -641.88002005649741 -126.6750889478767 0 -126.6750889478767 -6.2280955849632846 0 0 0 0 -1155.5161256528772 -189.32173662786295 0 -189.32173662786295 -32.819695033975904 0 0 0 0 -543.0318272159866 -138.06943566405607 0 -138.06943566405607 -106.65998962614412 0 0 0 0 -253.8529051018786 -280.80802705498832 0 -280.80802705498832 -332.50183335708175 0 0 0 0 -678.87605067773802 -720.60394970799621 0 -720.60394970799621 -763.17966754178451 0 0 0 0 -243.48493675296686 -199.82235770939542 0 -199.82235770939542 -152.88985156633771 0 0 0 0 -231.2787566811391 -229.0820614933026 0 -229.0820614933026 -175.93197370848202 0 0 0 0 -587.47652385914262 -392.72322959098187 0 -392.72322959098187 -97.48449427298965 0 0 0 0 -439.4901400594681 -295.52648806370644 0 -295.52648806370644 56.863865050878303 0 0 0 0 -371.71385917018051 -256.43818476109982 0 -256.43818476109982 -11.578554579272804 0 0 0 0 -372.95430218809088 -284.39359454497571 0 -284.39359454497571 -5.3379240974954882 0 0 0 0 -317.9717564413113 -236.00271816216983 0 -236.00271816216983 25.79660006285485 0 0 0 0 -386.66041359842529 -257.09231688655836 0 -257.09231688655836 75.957396701530797 0 0 0 0 -366.16277335318046 -244.71225373605148 0 -244.71225373605148 125.09693930997855 0 0 0 0 -391.90196541019588 -229.77316768145707 0 -229.77316768145707 116.80253870642173 0 0 0 0 -359.70238572631831 -149.10563362388268 0 -149.10563362388268 158.64504953626874 0 0 0 0 -343.92746706687467 -224.91602049661151 0 -224.91602049661151 116.77469711068807 0 0 0 0 -370.93510495642113 -41.535267147805826 0 -41.535267147805826 47.406927417062889 0 0 0 0 -120.48344773324698 -111.71452527987367 0 -111.71452527987367 74.435863658423841 0 0 0 0 -288.13967473988487 -24.968568430079813 0 -24.968568430079813 112.52491405278442 0 0 0 0 -246.44673088480886 -7.6400498403485244 0 -7.6400498403485244 33.939423901280861 0 0 0 0 -235.88441772828446 -113.61512100764776 0 -113.61512100764776 85.822495792022437 0 0 0 0 -332.15650861882796 -50.702964093165861 0 -50.702964093165861 24.189517197485657 0 0 0 0 -394.66883470350422 66.15691665961026 0 66.15691665961026 -1.7974526788466392 0 0 0 0 -447.31064470072801 -152.74374751147244 0 -152.74374751147244 66.528801492870116 0 0 0 0 -467.94690609237659 -203.33014736644509 0 -203.33014736644509 25.602169604218034 0 0 0 0 -32.229674218352557 203.56396573370861 0 203.56396573370861 -2295.2874449610895 0 0 0 0 -138.58796836411784 777.04958125441954 0 777.04958125441954 -1088.2935418722905 0 0 0 0 -201.20767783351312 296.61608013006406 0 296.61608013006406 187.0597590601692 0 0 0 0 398.75650146857515 146.48064472021395 0 146.48064472021395 -81.720032568262468 0 0 0 0 -4.0350388150327703 1.3423483125895643 0 1.3423483125895643 3.6276419191860647 0 0 0 0 -849.37441235355072 -618.83450391456142 0 -618.83450391456142 320.62360382728536 0 0 0 0 -2497.5217641553591 1856.3380006147117 0 1856.3380006147117 -537.10254433720263 0 0 0 0 -898.71986529568676 1646.557744536382 0 1646.557744536382 -2047.0185981569075 0 0 0 0 -17.344721710480535 6.0905145137578662 0 6.0905145137578662 -0.80281220375607532 0 0 0 0 -1703.4774796983656 1125.1840652524513 0 1125.1840652524513 118.97693743795284 0 0 0 0 -725.3717638784583 1081.692362055034 0 1081.692362055034 -173.91318664499664 0 0 0 0 -1428.5786033296317 1632.5332360547595 0 1632.5332360547595 -576.11304501846291 0 0 0 0 -138.56641927465535 633.28843256414689 0 633.28843256414689 -506.3419041312801 0 0 0 0 -770.11039461180644 905.89226386171708 0 905.89226386171708 -145.7500482807593 0 0 0 0 -426.4401145311931 654.93836329823625 0 654.93836329823625 -34.338316687891371 0 0 0 0 -384.02598797282735 632.65086086988288 0 632.65086086988288 -111.07713964841537 0 0 0 0 -600.05415881433873 112.04013966443753 0 112.04013966443753 248.17802907158614 0 0 0 0 -238.82312481711324 253.63400808728534 0 253.63400808728534 82.151706698342409 0 0 0 0 0.66425755679001952 1.2043198478206145 0 1.2043198478206145 0.37202848544137285 0 0 0 0 -263.66351038030189 275.27328285570127 0 275.27328285570127 241.9506504929501 0 0 0 0 -347.48423501259094 1.2980343561137033 0 1.2980343561137033 971.833900904129 0 0 0 0 4.7960291269237985 9.4565170735870439 0 9.4565170735870439 -2.4199761218373643 0 0 0 0 -334.04702280569472 299.21323569393257 0 299.21323569393257 547.75914038974679 0 0 0 0 -205.76324491398191 301.37528264435718 0 301.37528264435718 145.19681493039002 0 0 0 0 149.3880197270264 400.47771606742572 0 400.47771606742572 157.13927573853425 0 0 0 0 -35.455655430647312 89.423143570234174 0 89.423143570234174 -114.29188676963577 0 0 0 0 -45.860926311157527 50.915631600886968 0 50.915631600886968 -17.732915024355776 0 0 0 0 -479.81611802001589 289.08102517774796 0 289.08102517774796 151.67174283980057 0 0 0 0 -207.16364628024166 250.25713923874287 0 250.25713923874287 -222.37598501878094 0 0 0 0 -443.89888512330799 158.6298680546995 0 158.6298680546995 31.271205511000517 0 0 0 0 -281.25561053611455 59.608518004515531 0 59.608518004515531 79.55443770383954 0 0 0 0 -591.20125669528352 16.098389573834993 0 16.098389573834993 74.804077765984488 0 0 0 0 -559.32212013202115 85.665649899744892 0 85.665649899744892 206.35185542452973 0 0 0 0 -13.271503097246423 15.096742328262138 0 15.096742328262138 -8.7999256379347859 0 0 0 0 856.12684859838555 453.20402208699477 0 453.20402208699477 193.48042483076995 0 0 0 0 -533.89803396928255 928.17617834473924 0 928.17617834473924 623.72946379148334 0 0 0 0 -1481.4948933188316 -81.811664588484206 0 -81.811664588484206 373.56319855570803 0 0 0 0 -20.079998104072239 19.629009347518711 0 19.629009347518711 -7.3783913914222143 0 0 0 0 652.7899040086686 1071.5727575804617 0 1071.5727575804617 36.317789836032262 0 0 0 0 -969.80087496687338 269.83390368764123 0 269.83390368764123 463.1378650635902 0 0 0 0 651.43075465972697 -102.61692558199114 0 -102.61692558199114 95.140670302670515 0 0 0 0 -2496.2692658076776 -264.18813018857713 0 -264.18813018857713 751.80704107982353 0 0 0 0 -1636.8908722681845 -768.429761301285 0 -768.429761301285 657.47481532784423 0 0 0 0 -1515.0750929356368 3.8075759116908587 0 3.8075759116908587 158.25255432138712 0 0 0 0 -2837.7503120706315 151.11261970364268 0 151.11261970364268 186.42126017127572 0 0 0 0 -2500.4389168190814 -34.24511125417753 0 -34.24511125417753 -44.548115539677951 0 0 0 0 -3127.4241817344559 -164.45740573793682 0 -164.45740573793682 184.15623212851784 0 0 0 0 -4.6493930307836244 5.6562634477559257 0 5.6562634477559257 -5.4043216276146611 0 0 0 0 660.34781409542757 388.49868370683538 0 388.49868370683538 385.97642313914594 0 0 0 0 -2746.1219406165492 -196.60404409448421 0 -196.60404409448421 39.279032939617743 0 0 0 0 -1827.4063608589031 -20.95644777810017 0 -20.95644777810017 72.720061767721589 0 0 0 0 -2500.078326410232 265.18251643418699 0 265.18251643418699 361.59725914121429 0 0 0 0 -7.8937950040013245 16.302261580931933 0 16.302261580931933 -19.158304376822663 0 0 0 0 -1664.0384914866056 168.50258417581682 0 168.50258417581682 -15.308375427830981 0 0 0 0 -787.19370764401151 -196.31206215163616 0 -196.31206215163616 102.31316751248301 0 0 0 0 -1594.693917540774 609.17205801875434 0 609.17205801875434 -96.027804129742123 0 0 0 0 -1651.7668501681544 490.52820996613593 0 490.52820996613593 244.20770124037028 0 0 0 0 13.94375263211532 300.36858737001558 0 300.36858737001558 294.75486092303618 0 0 0 0 -147.85371900712198 93.823617083718091 0 93.823617083718091 162.87590289772379 0 0 0 0 -19.413718914820493 173.59697122076159 0 173.59697122076159 -44.337387987678085 0 0 0 0 -375.45801090298346 278.57661233590414 0 278.57661233590414 -303.09511846891087 0 0 0 0 -27.357231786475495 100.13413428615604 0 100.13413428615604 52.176784580478852 0 0 0 0 -18.936600511904807 23.76945957885561 0 23.76945957885561 -34.076583777258072 0 0 0 0 507.07819928344907 304.67368055884072 0 304.67368055884072 -11.943118423641636 0 0 0 0 242.41074769174429 133.85381067606079 0 133.85381067606079 242.75619246015322 0 0 0 0 -696.56082869974125 443.25653112712916 0 443.25653112712916 362.94452180022654 0 0 0 0 26.321228405982765 731.21707213283685 0 731.21707213283685 379.85327351627348 0 0 0 0 -4.1032151932266459 5.0674137617456054 0 5.0674137617456054 -4.3494950304632027 0 0 0 0 1162.8957147833444 916.32449541176118 0 916.32449541176118 225.35990364784129 0 0 0 0 761.86849039774643 417.6480352363198 0 417.6480352363198 -33.021425504371223 0 0 0 0 629.29946734817713 406.99358680742375 0 406.99358680742375 547.36755928572029 0 0 0 0 1044.6578111978324 736.22398073736599 0 736.22398073736599 316.52255971343288 0 0 0 0 -1505.7089595250945 -392.72522106349243 0 -392.72522106349243 -23.501511411970796 0 0 0 0 -576.10459086227638 160.09832757558797 0 160.09832757558797 123.92429472968905 0 0 0 0 -504.32562392892942 278.03336081470434 0 278.03336081470434 304.03749611640433 0 0 0 0 -393.00382824245389 -299.46307469018871 0 -299.46307469018871 367.86819637912959 0 0 0 0 -190.95539325012214 -163.18212525943608 0 -163.18212525943608 459.1597032290565 0 0 0 0 -1238.9605623450661 436.22399414426832 0 436.22399414426832 374.09896400391199 0 0 0 0 -549.27273727407555 520.56480167852294 0 520.56480167852294 42.52372323421605 0 0 0 0 334.18250854129292 254.89585572943906 0 254.89585572943906 -31.233776044730121 0 0 0 0 -684.64148537462097 -167.24427589408151 0 -167.24427589408151 569.93807435171675 0 0 0 0 13.546534091990907 -652.12085081249234 0 -652.12085081249234 658.8451288277829 0 0 0 0 -1001.8213194730924 50.030069917158471 0 50.030069917158471 1181.5022185488024 0 0 0 0 -600.8218561840913 408.31020366201483 0 408.31020366201483 944.00994161746712 0 0 0 0 -18.818601314814259 -115.75404705164829 0 -115.75404705164829 59.715975386465288 0 0 0 0 -99.203173834701772 8.5536056491168679 0 8.5536056491168679 8.8958480822068644 0 0 0 0 -9.1063542534278525 -10.930006496406087 0 -10.930006496406087 8.2475485187584834 0 0 0 0 -232.71536047307018 -49.809363120681155 0 -49.809363120681155 224.39287223323845 0 0 0 0 -62.909825794377412 -207.71487524435497 0 -207.71487524435497 367.25459707500522 0 0 0 0 -48.064266977696889 -22.007488956356156 0 -22.007488956356156 16.671426257466578 0 0 0 0 -129.50989777779432 -68.872067060119889 0 -68.872067060119889 58.903239704232874 0 0 0 0 -74.655059135554637 -20.493887382562377 0 -20.493887382562377 18.176881605245221 0 0 0 0 -52.845267206711959 -2.7298888961258285 0 -2.7298888961258285 17.224257588290129 0 0 0 0 -140.62246730348852 -49.348372904575626 0 -49.348372904575626 95.966104616101802 0 0 0 0 -135.92454199088388 -70.522040811013994 0 -70.522040811013994 157.33628409075573 0 0 0 0 99.255171752825845 508.68601810982545 0 508.68601810982545 540.24855094096711 0 0 0 0 -107.47795008669917 19.310694590152913 0 19.310694590152913 -0.16096394824940496 0 0 0 0 -198.3825787284004 23.779984328390128 0 23.779984328390128 16.935116948265204 0 0 0 0 -7.0574687568665695 11.79727912613717 0 11.79727912613717 6.0540890649489558 0 0 0 0 1.5445611439936329 -410.35268306766557 0 -410.35268306766557 478.01618017781948 0 0 0 0 302.11673432839234 -222.98739280018526 0 -222.98739280018526 171.15524083698983 0 0 0 0 87.316430764069082 -81.257568473986794 0 -81.257568473986794 187.93582020370013 0 0 0 0 -225.01291416314052 -48.911683893312784 0 -48.911683893312784 317.48337492757128 0 0 0 0 -127.12457273277687 -134.22648252574345 0 -134.22648252574345 232.85233916795733 0 0 0 0 -97.477494258899242 -157.55862508249629 0 -157.55862508249629 34.138743238613642 0 0 0 0 6.9343187400481838 -242.80252710688865 0 -242.80252710688865 -446.57351522587123 0 0 0 0 -387.99893947198507 -181.32932625827698 0 -181.32932625827698 1186.4182412124555 0 0 0 0 -65.560225974957575 -64.763764791075573 0 -64.763764791075573 -80.0140778889795 0 0 0 0 -5.6879462443105524 -1.2123304843720151 0 -1.2123304843720151 0.15875170000263461 0 0 0 0 -639.48410181132203 -466.75957634851329 0 -466.75957634851329 224.61155844292443 0 0 0 0 120.14501256195217 19.30451556968228 0 19.30451556968228 153.81731919942285 0 0 0 0 -11.770440807168356 -13.620378778924017 0 -13.620378778924017 1.9572517984167526 0 0 0 0 -8.603959350120931 -65.187083444311838 0 -65.187083444311838 12.287147754358557 0 0 0 0 -57.593610450603592 -29.997162014505648 0 -29.997162014505648 65.946685185197225 0 0 0 0 41.31526226121531 -354.67523242443229 0 -354.67523242443229 884.61749693998627 0 0 0 0 -19.628246365646191 -67.562867896801663 0 -67.562867896801663 666.68450110415142 0 0 0 0 34.560393892286754 -47.566604742921058 0 -47.566604742921058 603.19896779793226 0 0 0 0 -393.18470295419684 91.111049209233215 0 91.111049209233215 650.98470292523393 0 0 0 0 -291.41527966386275 67.508544995770762 0 67.508544995770762 247.07208710902501 0 0 0 0 -146.90649673431108 -197.98257662221619 0 -197.98257662221619 543.196067832273 0 0 0 0 2.8281464501633309 -66.742225141089989 0 -66.742225141089989 386.0710675333155 0 0 0 0 -582.78927281500728 228.58086783219494 0 228.58086783219494 72.945641334975335 0 0 0 0 -20.800650518162001 -96.662655918845417 0 -96.662655918845417 369.84550050185203 0 0 0 0 -2.0463777941440853 -1.0118507298423864 0 -1.0118507298423864 0.43068958473562002 0 0 0 0 -622.96652226864353 265.91077747539663 0 265.91077747539663 6.8732430959064459 0 0 0 0 -690.95798733583069 165.59098834402283 0 165.59098834402283 67.111496797487504 0 0 0 0 -614.674994819532 227.99050498824698 0 227.99050498824698 232.11176386303265 0 0 0 0 -600.39043799809224 329.75209904872304 0 329.75209904872304 131.60826566967469 0 0 0 0 -533.09956956872884 279.86123523267219 0 279.86123523267219 103.83522550724479 0 0 0 0 -723.53534027890419 241.44417759450937 0 241.44417759450937 137.74916919909924 0 0 0 0 -554.29577084064658 241.48874759735156 0 241.48874759735156 137.62465358444379 0 0 0 0 -618.30580496253788 265.69114367547024 0 265.69114367547024 183.41333456804477 0 0 0 0 -626.96668266220149 237.21093991264388 0 237.21093991264388 91.05441513499909 0 0 0 0 -610.06663229909464 91.440176108264382 0 91.440176108264382 171.48729485061693 0 0 0 0 -622.33491054696242 26.133443136274281 0 26.133443136274281 -158.11889654903769 0 0 0 0 -576.66525761551748 158.34291265764051 0 158.34291265764051 66.273658283513157 0 0 0 0 -582.62584363920541 158.67234382331617 0 158.67234382331617 351.04427826666557 0 0 0 0 -653.51253082779294 -42.966576368074868 0 -42.966576368074868 68.124896630935211 0 0 0 0 -569.94754015292347 137.33366006552592 0 137.33366006552592 140.80824348283204 0 0 0 0 -1.2186431752656972 -1.2732310819175368 0 -1.2732310819175368 -3.6984195552740577 0 0 0 0 -728.97965906656464 -47.759553585078265 0 -47.759553585078265 42.338515038976823 0 0 0 0 -438.32866750572066 187.19559949597271 0 187.19559949597271 -146.90448325419538 0 0 0 0 -289.20765653515082 -77.35117447596275 0 -77.35117447596275 -48.79505949855502 0 0 0 0 -247.15253126216703 297.35101759456558 0 297.35101759456558 -93.585272156579833 0 0 0 0 -776.82517800963251 -48.437457563069756 0 -48.437457563069756 -34.872219743849428 0 0 0 0 -254.22174274804274 37.139822919847802 0 37.139822919847802 -32.114845023135324 0 0 0 0 -618.37452837733872 -86.062439045664178 0 -86.062439045664178 -291.54023570968502 0 0 0 0 19.752082586139295 75.441612476264197 0 75.441612476264197 -329.53493032038386 0 0 0 0 -1.8624416832160051 -1.5254508523999277 0 -1.5254508523999277 -1.3457208180778872 0 0 0 0 -1076.5959260712843 -202.20353465913126 0 -202.20353465913126 -113.60734485850435 0 0 0 0 -1209.9446631767132 -815.85528580669938 0 -815.85528580669938 -438.22574062085243 0 0 0 0 -148.03872491228776 -458.21683448883186 0 -458.21683448883186 -325.56222696593204 0 0 0 0 -784.70069213787428 -708.08152823285468 0 -708.08152823285468 -680.32616621802026 0 0 0 0 -90.538639837926894 -275.65670564780589 0 -275.65670564780589 -656.7680134376842 0 0 0 0 -14.541425313589272 -2.4037929732093488 0 -2.4037929732093488 1.6084378091369498 0 0 0 0 -300.46883492280904 -635.02663867747742 0 -635.02663867747742 -1091.886307967321 0 0 0 0 -65.03802935046042 -364.02010291773149 0 -364.02010291773149 -863.40824431485544 0 0 0 0 -104.992837669648 -292.41733332397951 0 -292.41733332397951 -589.8079528748649 0 0 0 0 -195.2912383164512 -350.70432409852037 0 -350.70432409852037 -592.75311841073335 0 0 0 0 -539.99969477193008 -417.44060842542081 0 -417.44060842542081 -424.23122428280385 0 0 0 0 -167.32127891920391 -309.59781450037735 0 -309.59781450037735 -602.63643254914496 0 0 0 0 -1.7219436874832184 -0.19973857343811829 0 -0.19973857343811829 1.3241992411551644 0 0 0 0 -161.14113823096704 -156.10904610455873 0 -156.10904610455873 -503.26168951101045 0 0 0 0 -102.43244157355775 -194.72857067864575 0 -194.72857067864575 -384.52678901357194 0 0 0 0 -114.80376928586338 -310.98297188133483 0 -310.98297188133483 -843.39720023516202 0 0 0 0 -161.56952484452268 -292.06498285409225 0 -292.06498285409225 -234.02394126643048 0 0 0 0 -194.01725198605709 -280.04115643500268 0 -280.04115643500268 -321.47259552343985 0 0 0 0 -164.33716679828649 -283.07660838217816 0 -283.07660838217816 -417.99648002481035 0 0 0 0 -188.17531424313347 -248.65264669442013 0 -248.65264669442013 -262.84634329691198 0 0 0 0 -243.23002362571424 -345.62455394609015 0 -345.62455394609015 -288.54572341131575 0 0 0 0 -207.7540965229673 -241.91531112750567 0 -241.91531112750567 -146.26457376777444 0 0 0 0 -265.28481634017953 -346.37524142990628 0 -346.37524142990628 -55.614000186596513 0 0 0 0 -130.50096541514631 -313.80133184709757 0 -313.80133184709757 -239.74999791854952 0 0 0 0 -126.05994883643871 -283.62366333957539 0 -283.62366333957539 -251.76158262936997 0 0 0 0 -250.95770040216303 -353.30253891720713 0 -353.30253891720713 -413.68164775364676 0 0 0 0 -273.05503080248309 -281.34735831115177 0 -281.34735831115177 -197.80443838455403 0 0 0 0 -289.44687757152496 -369.9448999571074 0 -369.9448999571074 -283.3352386994693 0 0 0 0 -252.23459530119726 -310.10511630743576 0 -310.10511630743576 -184.64323065949782 0 0 0 0 -528.00698696551444 -220.27652208412485 0 -220.27652208412485 77.055344611347437 0 0 0 0 -192.78259639779571 -177.96151721973911 0 -177.96151721973911 60.911892628525777 0 0 0 0 -330.85648134814983 -140.04633458484739 0 -140.04633458484739 162.89515408694683 0 0 0 0 -238.17593134000569 -159.0793026733655 0 -159.0793026733655 149.14017667336566 0 0 0 0 -244.1478671199875 -196.16078025157833 0 -196.16078025157833 234.93000321678528 0 0 0 0 -144.53432110055655 -100.81309107163872 0 -100.81309107163872 168.58841440912147 0 0 0 0 -208.12162253701172 -289.71122376870335 0 -289.71122376870335 86.599195427513678 0 0 0 0 -168.32241523823905 -246.51072744392843 0 -246.51072744392843 1.3870545646148003 0 0 0 0 -239.08898639929325 -304.67285263939061 0 -304.67285263939061 119.32713046484832 0 0 0 0 -169.458801171495 -215.50105871820347 0 -215.50105871820347 211.22716251194242 0 0 0 0 -169.60736986092525 -241.46794586268879 0 -241.46794586268879 118.42070685093097 0 0 0 0 -187.86275233517563 -313.37771720915657 0 -313.37771720915657 181.71800513486482 0 0 0 0 -151.5743204413593 -234.38990788948684 0 -234.38990788948684 241.29789760005474 0 0 0 0 -150.19313399932435 -302.05029933776353 0 -302.05029933776353 331.5116228108285 0 0 0 0 -136.25882654028283 -213.00355384619257 0 -213.00355384619257 296.91070505844755 0 0 0 0 -149.48567174182972 -268.45694923287192 0 -268.45694923287192 238.54908031003129 0 0 0 0 -162.13369799948123 -238.04082908737598 0 -238.04082908737598 378.88195276857186 0 0 0 0 -77.366520329596824 -226.74923744546243 0 -226.74923744546243 376.860824926541 0 0 0 0 -107.35423363088921 -202.81497231014728 0 -202.81497231014728 442.71576341431739 0 0 0 0 -122.39364876518812 -243.5060394164085 0 -243.5060394164085 372.7061929056469 0 0 0 0 -160.18944006749371 -303.87452740488283 0 -303.87452740488283 451.05975118838876 0 0 0 0 -123.82864658369363 -205.64714887752802 0 -205.64714887752802 296.88910505462718 0 0 0 0 -130.73066341739536 -99.786097535480849 0 -99.786097535480849 290.66312581327566 0 0 0 0 -124.88624895368412 -168.32965143713864 0 -168.32965143713864 240.39937999650829 0 0 0 0 -204.28313905997857 -197.1776071055645 0 -197.1776071055645 303.96528810114569 0 0 0 0 -101.15202004391176 -193.74336068110131 0 -193.74336068110131 303.5086936302356 0 0 0 0 -153.31979666568805 -174.87469258752628 0 -174.87469258752628 374.88830081491733 0 0 0 0 -72.971312244255387 -176.78065223136718 0 -176.78065223136718 374.32565564573611 0 0 0 0 -148.11780265950074 -209.93365023880028 0 -209.93365023880028 448.83393957119165 0 0 0 0 -89.106402781886572 -212.25263003447685 0 -212.25263003447685 456.47323299160894 0 0 0 0 -76.817636504980328 -120.06503436598518 0 -120.06503436598518 425.39402168406332 0 0 0 0 -73.60541029223532 -187.66744930903951 0 -187.66744930903951 431.67339809978989 0 0 0 0 -48.387182023339847 -178.13077919566376 0 -178.13077919566376 330.69303921266737 0 0 0 0 -28.948183430919016 -93.579015151682597 0 -93.579015151682597 250.55570647173244 0 0 0 0 -57.046164790696821 -143.61990569631291 0 -143.61990569631291 437.83610777396643 0 0 0 0 -134.45451743277476 -8.0064722123983358 0 -8.0064722123983358 216.42209584181933 0 0 0 0 -142.89242299035686 -144.56222238498708 0 -144.56222238498708 236.26164982898626 0 0 0 0 -111.59930089120462 -4.9014790998808166 0 -4.9014790998808166 -24.706020488401691 0 0 0 0 -78.061068289069226 -68.670264529943552 0 -68.670264529943552 85.539229841198903 0 0 0 0 -90.333519626859925 67.250967950016218 0 67.250967950016218 4.7236346873146431 0 0 0 0 -3.6317869554209423 -2.614974079811148 0 -2.614974079811148 -0.94117913576166634 0 0 0 0 9.4950034427893115 -150.81186185462923 0 -150.81186185462923 167.16528493220756 0 0 0 0 -12.847403145155113 -30.669209650416406 0 -30.669209650416406 347.75330753292587 0 0 0 0 -20.715536966069521 -143.58712026367377 0 -143.58712026367377 486.10977359559865 0 0 0 0 23.913749695733713 -193.43595748195082 0 -193.43595748195082 581.49011408635329 0 0 0 0 42.774361764277273 -64.749371808344563 0 -64.749371808344563 557.21056520780985 0 0 0 0 -106.82835643210274 -136.88601951351268 0 -136.88601951351268 518.18078198895591 0 0 0 0 -40.400702555960379 -182.02041283256813 0 -182.02041283256813 531.44097725179813 0 0 0 0 41.651768967843964 -96.680488188167146 0 -96.680488188167146 449.20429647820572 0 0 0 0 -84.67996192658029 -113.53712735174543 0 -113.53712735174543 597.59504460870721 0 0 0 0 -23.057368843530639 -138.51292304887551 0 -138.51292304887551 749.00859189309017 0 0 0 0 6.1475843695370713 -192.23396538744578 0 -192.23396538744578 624.68337555605353 0 0 0 0 -77.799126533805975 -122.91276543818742 0 -122.91276543818742 640.45191624016729 0 0 0 0 -73.569803365335247 -152.59971696847583 0 -152.59971696847583 777.77428412944937 0 0 0 0 -44.264186296419211 -186.23926537267303 0 -186.23926537267303 674.52598160469711 0 0 0 0 -72.302931150938093 -190.43184462535044 0 -190.43184462535044 1012.9008387537001 0 0 0 0 -82.900884421238246 0.24346659525473413 0 0.24346659525473413 11.606805546866369 0 0 0 0 -89.743750361245475 63.573504499059254 0 63.573504499059254 971.51516995645613 0 0 0 0 -71.365560679398186 -128.59001139539149 0 -128.59001139539149 898.27955360358771 0 0 0 0 73.103976565020275 -242.62413530779463 0 -242.62413530779463 872.35913796302293 0 0 0 0 -15.564262224608683 -201.28044238187908 0 -201.28044238187908 799.99666718178366 0 0 0 0 -49.120885096530401 -172.98237223535477 0 -172.98237223535477 860.20456517878029 0 0 0 0 -81.93742531848693 -275.66166086046462 0 -275.66166086046462 1131.3824591281234 0 0 0 0 43.539137534120528 -223.23791380080092 0 -223.23791380080092 740.00554625275049 0 0 0 0 82.849743775113893 -138.47271430653154 0 -138.47271430653154 746.8964091651153 0 0 0 0 17.575134927099498 -68.340701552031874 0 -68.340701552031874 988.13785021850572 0 0 0 0 121.89293182756228 -182.51630539340431 0 -182.51630539340431 787.27999614450073 0 0 0 0 119.76497575479152 -420.71201021956131 0 -420.71201021956131 1212.865426214968 0 0 0 0 -18.880956284317882 3.5575304458190189 0 3.5575304458190189 9.4175044918698276 0 0 0 0 42.136923458270758 -48.028121870078394 0 -48.028121870078394 -76.444410487696587 0 0 0 0 -88.198356728819988 -8.9660992689844079 0 -8.9660992689844079 37.287002006968578 0 0 0 0 -59.97316289598978 -14.317604877936116 0 -14.317604877936116 22.22696498646841 0 0 0 0 -207.01230089313094 98.151076815386205 0 98.151076815386205 48.518653742587958 0 0 0 0 -182.14524886552019 86.57836959315334 0 86.57836959315334 -26.654647908084826 0 0 0 0 -169.079284338246 -59.059814162114208 0 -59.059814162114208 11.873534329331051 0 0 0 0 -183.88001023319703 -20.814785331832354 0 -20.814785331832354 138.82069322950633 0 0 0 0 -144.51597041915829 -19.519740354755413 0 -19.519740354755413 69.325819858389991 0 0 0 0 -109.98030081548427 -56.230820714589754 0 -56.230820714589754 -47.346528612043585 0 0 0 0 -219.14091857506355 228.45625488572728 0 228.45625488572728 -175.32065923763525 0 0 0 0 -528.10630458977994 -259.26878081645418 0 -259.26878081645418 -35.34870545988565 0 0 0 0 1.0639781735985612 -2.0792785789132329 0 -2.0792785789132329 -1.2653218241689537 0 0 0 0 -103.56264201493551 -42.442390319012986 0 -42.442390319012986 -23.139608804189265 0 0 0 0 -94.675588437637671 -17.367475738294864 0 -17.367475738294864 30.581177672408558 0 0 0 0 -72.365727074827532 -23.806818610944902 0 -23.806818610944902 -3.5644602818638305 0 0 0 0 -108.7206032910326 57.68872780657955 0 57.68872780657955 39.038496054525808 0 0 0 0 -83.233730326147452 48.515690701777544 0 48.515690701777544 16.671331741162703 0 0 0 0 -103.21470808993399 65.05719472230976 0 65.05719472230976 22.110688172059639 0 0 0 0 -118.38535620737571 86.013691388709617 0 86.013691388709617 -40.760877642264859 0 0 0 0 -90.897933035377719 61.031885045861998 0 61.031885045861998 -60.391802324592163 0 0 0 0 12.948436625542518 20.404947216398551 0 20.404947216398551 -5.1267139358675085 0 0 0 0 12.17611240659404 19.264926534290161 0 19.264926534290161 -10.56821446937084 0 0 0 0 -114.96475695077606 66.047404387189772 0 66.047404387189772 27.170357742536908 0 0 0 0 -50.524403776498275 14.193808222794928 0 14.193808222794928 13.152026161320919 0 0 0 0 -124.83504707102838 95.056219737610945 0 95.056219737610945 -9.3738918513397493 0 0 0 0 -66.688928074592695 82.111553463164455 0 82.111553463164455 -44.959255328838481 0 0 0 0 -114.3227138646057 59.481853391400534 0 59.481853391400534 -53.08238706280531 0 0 0 0 -7.2723771687644145 2.5680824118978904 0 2.5680824118978904 -0.1514899148677058 0 0 0 0 -61.801778908142296 124.14666446359251 0 124.14666446359251 1040.0780258821137 0 0 0 0 46.219029439671431 -293.30063455817969 0 -293.30063455817969 1406.8475368515437 0 0 0 0 71.651402180432342 -161.35135564283758 0 -161.35135564283758 642.7746050620741 0 0 0 0 171.46819417064398 -6.2304340340290878 0 -6.2304340340290878 835.82603384832044 0 0 0 0 151.72098618578184 -213.11824202520529 0 -213.11824202520529 606.79045584101368 0 0 0 0 32.744131402505445 -210.91166727012637 0 -210.91166727012637 653.48125119929557 0 0 0 0 62.836440593309817 -264.4060196013254 0 -264.4060196013254 626.93110646990908 0 0 0 0 -69.067912964252173 -306.81160168992733 0 -306.81160168992733 636.11675971522345 0 0 0 0 -103.90743093376659 -176.49304285010018 0 -176.49304285010018 942.59474403256843 0 0 0 0 -71.20872535227312 8.7153740542352889 0 8.7153740542352889 3.8216567002411415 0 0 0 0 6.0195276879821904 -143.19693393531139 0 -143.19693393531139 893.24017508875204 0 0 0 0 -35.670492317367462 -64.22974964066367 0 -64.22974964066367 912.29691076069264 0 0 0 0 -48.480028861148639 -191.50738777205291 0 -191.50738777205291 859.02399370902765 0 0 0 0 -100.06844541340979 -152.83583464541255 0 -152.83583464541255 843.82129234361048 0 0 0 0 -95.52868513847352 -191.32895388450447 0 -191.32895388450447 674.80430031817582 0 0 0 0 -64.849901408859296 -133.99800780700082 0 -133.99800780700082 700.31504174543647 0 0 0 0 31.396830365600181 -115.04179602461633 0 -115.04179602461633 631.42404812581344 0 0 0 0 -81.104040753476511 -180.22776803179494 0 -180.22776803179494 754.36347921152856 0 0 0 0 -103.80720677380305 -198.98875034111779 0 -198.98875034111779 603.0335523430482 0 0 0 0 -122.90663588531606 -167.42318532580003 0 -167.42318532580003 530.82197910339823 0 0 0 0 -30.811661990519497 -162.26133068628587 0 -162.26133068628587 530.04155557770559 0 0 0 0 -41.723468565527583 -191.53130131440957 0 -191.53130131440957 448.29149059573263 0 0 0 0 -116.99588694841077 -305.63302122040585 0 -305.63302122040585 557.52235174528369 0 0 0 0 -122.60646973262737 -275.33160121125127 0 -275.33160121125127 630.84213761197725 0 0 0 0 -42.45426026439236 -280.59912354573999 0 -280.59912354573999 549.51125627469628 0 0 0 0 -54.427527429565089 -281.01645322482898 0 -281.01645322482898 628.15479556340938 0 0 0 0 -41.355153508251533 -187.36394673673772 0 -187.36394673673772 662.62272952234218 0 0 0 0 29.205730806519568 -229.09071926676165 0 -229.09071926676165 552.74614413518918 0 0 0 0 -86.235177408074378 -253.17862031960311 0 -253.17862031960311 567.60103715061325 0 0 0 0 -10.631791399442591 -186.0385760269512 0 -186.0385760269512 504.76730266454661 0 0 0 0 -113.42391910604056 -231.26555923612281 0 -231.26555923612281 495.18940119367699 0 0 0 0 -110.25445948742504 -291.63117507157352 0 -291.63117507157352 462.54640716675328 0 0 0 0 -133.95033244265142 -267.26020668597658 0 -267.26020668597658 470.68565252065076 0 0 0 0 -68.119864277563465 -236.68936697998146 0 -236.68936697998146 473.69342592588509 0 0 0 0 -180.16125018703679 -326.04366480436516 0 -326.04366480436516 558.63245654664797 0 0 0 0 -202.14444328269383 -242.13028025858807 0 -242.13028025858807 494.8735672515337 0 0 0 0 -200.31993198511918 -284.35887034054679 0 -284.35887034054679 476.09869111044048 0 0 0 0 -214.03536986375912 -283.19145830717196 0 -283.19145830717196 548.27479706687859 0 0 0 0 -321.96483676306889 -232.31157127930237 0 -232.31157127930237 579.53843685571769 0 0 0 0 -125.17287068346468 -292.84132837707637 0 -292.84132837707637 551.24436408494853 0 0 0 0 384.61718946039127 -438.16295841950421 0 -438.16295841950421 229.60403643546431 0 0 0 0 -172.20902737916549 -260.60180196110292 0 -260.60180196110292 354.84322315662075 0 0 0 0 -1.3404784726468222 -0.95145993591844302 0 -0.95145993591844302 0.5778404048170529 0 0 0 0 105.1616230399577 271.86636048374481 0 271.86636048374481 -464.75115834707276 0 0 0 0 -649.2857145422422 -37.193321912990086 0 -37.193321912990086 580.44095934422853 0 0 0 0 -9.9150871160966858 3.9136893114963573 0 3.9136893114963573 -2.4378899105372014 0 0 0 0 -242.5410249427041 -296.22205709046148 0 -296.22205709046148 620.44095456576383 0 0 0 0 -128.12235975861404 272.1758898593207 0 272.1758898593207 -337.51592159317886 0 0 0 0 -88.398106994936825 -205.25197764502059 0 -205.25197764502059 579.28850601158092 0 0 0 0 -553.3456591860886 260.80949234123909 0 260.80949234123909 306.76680978817285 0 0 0 0 -71.009245766919776 93.324002064776323 0 93.324002064776323 52.5650437689564 0 0 0 0 52.582266673514823 -33.170689574389172 0 -33.170689574389172 -20.92971451304804 0 0 0 0 -327.87679500701233 94.835099161999153 0 94.835099161999153 25.882651783444999 0 0 0 0 -274.9520156729377 -29.290598220907327 0 -29.290598220907327 14.235628017672752 0 0 0 0 -29.099447041691747 -346.96743218187356 0 -346.96743218187356 299.08852984357821 0 0 0 0 -1.8179331720123244 -1.8355449676833331 0 -1.8355449676833331 6.3064075412893779 0 0 0 0 -152.70404335114881 60.657045089588053 0 60.657045089588053 -32.787319524683426 0 0 0 0 -186.08817654854647 -27.57839681034352 0 -27.57839681034352 57.280529337732332 0 0 0 0 -99.396291991506587 33.93152894986212 0 33.93152894986212 109.75555041858865 0 0 0 0 137.36224096681872 -102.4854207721346 0 -102.4854207721346 -4.4762631134308322 0 0 0 0 -118.04434464250517 -69.606045040306753 0 -69.606045040306753 60.516074779546216 0 0 0 0 -151.70929894504661 -35.952698504925138 0 -35.952698504925138 14.612299307163084 0 0 0 0 -153.06168304028688 -23.216570728737906 0 -23.216570728737906 65.858160924993314 0 0 0 0 -146.39355900834562 10.005124843814201 0 10.005124843814201 -26.932196169831514 0 0 0 0 -230.64503580157907 12.377315302502211 0 12.377315302502211 39.274871105573538 0 0 0 0 -22.74953101646679 -144.44967504909141 0 -144.44967504909141 53.338684693732375 0 0 0 0 -168.3578871875834 -76.141096794044643 0 -76.141096794044643 85.385683256396817 0 0 0 0 68.967587273049503 -24.823336466977594 0 -24.823336466977594 -27.883066766547358 0 0 0 0 -601.53799579297447 195.16041469684762 0 195.16041469684762 24.028481164960439 0 0 0 0 -192.32640762497977 -19.064944418273853 0 -19.064944418273853 -38.812531645939316 0 0 0 0 -365.68981934004296 -163.75353380637762 0 -163.75353380637762 166.56270507577528 0 0 0 0 8.1166192301861884 -186.09991410027669 0 -186.09991410027669 130.39131131837837 0 0 0 0 -17.628812519733401 -216.92086549830219 0 -216.92086549830219 277.69168182552937 0 0 0 0 -71.643608006506838 -143.28878297088352 0 -143.28878297088352 215.65398101125845 0 0 0 0 -189.95008578195848 -165.12790149941424 0 -165.12790149941424 245.70592065515825 0 0 0 0 -167.0009207860021 -222.50313848273706 0 -222.50313848273706 313.63107873959757 0 0 0 0 -136.62077764933383 -295.74479861752462 0 -295.74479861752462 317.02367116700032 0 0 0 0 -192.22432583339105 -232.24849802083554 0 -232.24849802083554 441.91394051483928 0 0 0 0 -189.85000131718698 -316.56063849208533 0 -316.56063849208533 317.05981772060579 0 0 0 0 -168.02896843349663 -244.26182412178821 0 -244.26182412178821 193.57152460264683 0 0 0 0 -123.49974521859804 -284.22290540237492 0 -284.22290540237492 29.103255897329745 0 0 0 0 -155.77189681336677 -328.37391381556716 0 -328.37391381556716 6.1592200959548791 0 0 0 0 -136.65740937228838 -305.55618605831091 0 -305.55618605831091 178.96017971888307 0 0 0 0 -103.66193639637277 -144.93489163105369 0 -144.93489163105369 61.878535899382769 0 0 0 0 -58.102912728994852 -228.46223250908906 0 -228.46223250908906 -265.86220040929175 0 0 0 0 -116.10744696333859 -232.27225554386496 0 -232.27225554386496 -58.632349207308835 0 0 0 0 30.128614690052927 17.369826231284151 0 17.369826231284151 5.6376058844120962 0 0 0 0 1.474729900362874 -3.2812412789812555 0 -3.2812412789812555 -0.42186490969955681 0 0 0 0 -73.040442872719723 -252.59494827723324 0 -252.59494827723324 -273.60380264168816 0 0 0 0 8.3464328164118342 47.76337413844044 0 47.76337413844044 -34.307377925031687 0 0 0 0 -13.281362494031782 2.4663426757340403 0 2.4663426757340403 -18.190524543550055 0 0 0 0 -92.967248445776931 -186.26821946308644 0 -186.26821946308644 46.284052309609081 0 0 0 0 -110.08031712004504 -167.59728474400134 0 -167.59728474400134 201.9327511468739 0 0 0 0 0.29894905165937757 -1.1351552826085154 0 -1.1351552826085154 1.2077167429496862 0 0 0 0 -146.06529246590799 6.8622469727980615 0 6.8622469727980615 42.024022393945984 0 0 0 0 -1289.5397539844489 -246.47123863201932 0 -246.47123863201932 32.785782777737495 0 0 0 0 -478.46721424858424 -106.80071431640846 0 -106.80071431640846 33.299256750135555 0 0 0 0 -277.10322698333403 -123.74132703282521 0 -123.74132703282521 -140.13469120015043 0 0 0 0 -313.09491271704519 8.5418834274297524 0 8.5418834274297524 10.641467769722567 0 0 0 0 120.95652946480914 -115.08852349952281 0 -115.08852349952281 1.6482276612496207 0 0 0 0 -14.482691512650881 -12.285693354720664 0 -12.285693354720664 -8.4786312872133998 0 0 0 0 77.886140347269247 -28.179498612041698 0 -28.179498612041698 -20.324689792741765 0 0 0 0 63.542485678935918 6.7755303138483214 0 6.7755303138483214 -85.575948146667542 0 0 0 0 230.79584470066038 -365.97269517221946 0 -365.97269517221946 251.57136547087097 0 0 0 0 79.983340913731809 114.09834640764143 0 114.09834640764143 -236.38947260886835 0 0 0 0 -14.447621523133805 -14.575680187534779 0 -14.575680187534779 -12.146742101893837 0 0 0 0 -13.048311168526062 -14.296597627901111 0 -14.296597627901111 -12.896767613792997 0 0 0 0 316.61898633065766 -536.33484364327387 0 -536.33484364327387 462.77316170159884 0 0 0 0 276.19753871304783 -136.57402146238041 0 -136.57402146238041 37.317744990638516 0 0 0 0 -79.172866048938886 -149.83913821729706 0 -149.83913821729706 278.96116332570671 0 0 0 0 -111.89423567131598 -207.01543141169429 0 -207.01543141169429 64.781594857173104 0 0 0 0 -81.158479846577393 -369.43887270484561 0 -369.43887270484561 -259.62886223824171 0 0 0 0 -5.6875188327120867 -6.4863547363093552 0 -6.4863547363093552 -6.3423365038354804 0 0 0 0 382.83616597270884 42.911195011238306 0 42.911195011238306 70.995225110392084 0 0 0 0 526.93586801328502 -697.6214759768942 0 -697.6214759768942 -588.58153900186653 0 0 0 0 -121.4319780327628 109.57281327485708 0 109.57281327485708 -425.63382916443152 0 0 0 0 -29.521702845939217 -284.46788873427295 0 -284.46788873427295 99.947231005248796 0 0 0 0 -1403.8858311340082 18.572327635529746 0 18.572327635529746 389.23690778253285 0 0 0 0 -1429.3437873961848 -537.36329743134547 0 -537.36329743134547 405.17040568792527 0 0 0 0 -1233.1453627596384 -324.20091580069243 0 -324.20091580069243 164.07301257268796 0 0 0 0 -1095.8622280191266 -1082.8391028878591 0 -1082.8391028878591 -264.07008668529579 0 0 0 0 -252.95778172290011 -1099.9610571218941 0 -1099.9610571218941 -726.64122821422325 0 0 0 0 259.20712315983837 -472.37886823385008 0 -472.37886823385008 -384.69712597657508 0 0 0 0 -592.8660532723552 -641.68667735659142 0 -641.68667735659142 -415.07689366375052 0 0 0 0 -578.16328381978201 -741.06413197052507 0 -741.06413197052507 -76.15853786107391 0 0 0 0 -7.7053666409345993 2.7506931306661713 0 2.7506931306661713 -1.2884223421375314 0 0 0 0 -24.552629043322668 23.250337045459446 0 23.250337045459446 -63.590088097029366 0 0 0 0 -23.632566729680548 30.531584989136718 0 30.531584989136718 -362.77985100666706 0 0 0 0 -635.22355371486447 -160.51841148709934 0 -160.51841148709934 -103.27692903238494 0 0 0 0 -419.53588641866372 148.85256381633189 0 148.85256381633189 -91.164663302882218 0 0 0 0 -156.92299984236161 -111.71160593614513 0 -111.71160593614513 -150.07626155257049 0 0 0 0 -151.26782174284381 225.98795294601905 0 225.98795294601905 -127.21530947688575 0 0 0 0 -24.621049750241241 40.188167695608534 0 40.188167695608534 135.66785559778145 0 0 0 0 -106.91304081185808 -214.12293012656301 0 -214.12293012656301 -316.45757441315527 0 0 0 0 -193.57426796304208 -161.51774198091516 0 -161.51774198091516 -117.99744940552773 0 0 0 0 -158.30395929173801 29.620001440764952 0 29.620001440764952 77.655097995719188 0 0 0 0 -197.82486646392135 -247.41435095948736 0 -247.41435095948736 -115.706340276226 0 0 0 0 -221.83076446344239 -401.73120526195783 0 -401.73120526195783 -635.94200151183622 0 0 0 0 -208.29324334967532 -243.80874425776756 0 -243.80874425776756 -315.87814679066628 0 0 0 0 -157.02975291605617 -278.69749856393832 0 -278.69749856393832 -442.33212052252838 0 0 0 0 -133.65705946847265 -158.6645561441469 0 -158.6645561441469 -497.12550114876012 0 0 0 0 -352.271126921838 -18.337950364417566 0 -18.337950364417566 -503.07096529102387 0 0 0 0 -126.56075608178435 -126.93901272302969 0 -126.93901272302969 -748.87806606694676 0 0 0 0 179.39393123291302 -32.201093027455215 0 -32.201093027455215 -303.36828929999797 0 0 0 0 -219.77101626329386 -172.92304010556393 0 -172.92304010556393 -344.7935568024202 0 0 0 0 -44.825955932803481 -101.91109851975057 0 -101.91109851975057 -516.99385646517067 0 0 0 0 -249.8435569841713 -10.079405289269971 0 -10.079405289269971 -274.21535942622825 0 0 0 0 -285.06700947363788 -76.966878480856849 0 -76.966878480856849 -362.88323932045819 0 0 0 0 -537.37012474528092 -61.009167871363331 0 -61.009167871363331 -236.1639941262506 0 0 0 0 -530.68637077976382 -112.41934862814787 0 -112.41934862814787 -364.15608270695134 0 0 0 0 -236.90518930452163 -191.02597948843623 0 -191.02597948843623 -402.52199953476293 0 0 0 0 -234.93543244259854 -196.6337541320147 0 -196.6337541320147 -492.7675093532207 0 0 0 0 -453.90641550526516 -283.31461485116063 0 -283.31461485116063 -410.66081353887512 0 0 0 0 -447.55696540093049 -208.63193932087279 0 -208.63193932087279 -367.79292618910267 0 0 0 0 -425.41163507666352 -254.06689183563913 0 -254.06689183563913 -439.03526248147318 0 0 0 0 -413.16139810901223 -150.64938592751241 0 -150.64938592751241 -263.9184499634307 0 0 0 0 -196.66657730718725 -244.78546076291195 0 -244.78546076291195 -294.95040727622109 0 0 0 0 -270.86443526559378 -262.28808030895834 0 -262.28808030895834 -388.38551724575564 0 0 0 0 -277.01526370036299 -205.5777567015848 0 -205.5777567015848 -309.87386047191785 0 0 0 0 -757.74761524443602 -420.08773814539745 0 -420.08773814539745 -712.83489575693147 0 0 0 0 -1121.3589224814423 -540.21997694041147 0 -540.21997694041147 -275.74308560551071 0 0 0 0 -659.41883806724218 -302.82648939936189 0 -302.82648939936189 -344.92134403589534 0 0 0 0 -686.56678952192669 -261.34658069805334 0 -261.34658069805334 -359.04323014717102 0 0 0 0 -882.04163373834308 -396.18470397512203 0 -396.18470397512203 -338.75218032256635 0 0 0 0 -710.61635508209656 -229.88077917471185 0 -229.88077917471185 -272.92365860819109 0 0 0 0 -936.55646795657231 -311.94871950900597 0 -311.94871950900597 -65.787232256701145 0 0 0 0 -1076.811639306532 -249.89105720305599 0 -249.89105720305599 -88.777312856693698 0 0 0 0 -934.16302565229626 -191.61812040377558 0 -191.61812040377558 -77.2988483893796 0 0 0 0 -963.76819437756421 -65.232118512343277 0 -65.232118512343277 -211.68064288335859 0 0 0 0 -556.96422834384339 -197.35248325291437 0 -197.35248325291437 -266.06807760167476 0 0 0 0 -538.77869377904062 -38.420145159931451 0 -38.420145159931451 -251.21256851655596 0 0 0 0 -970.46381076902799 158.03615319213631 0 158.03615319213631 -235.57151932774445 0 0 0 0 -17.860925766548462 10.728099748509351 0 10.728099748509351 -138.99832183132128 0 0 0 0 -1258.1171566383473 -155.67737395459943 0 -155.67737395459943 -65.699002335311206 0 0 0 0 -4.1630498683250394 2.7923781765583726 0 2.7923781765583726 -5.2365044439287809 0 0 0 0 -644.61181402875263 411.79387212551592 0 411.79387212551592 -96.461416068961057 0 0 0 0 -1146.8070769576534 -27.661291617220343 0 -27.661291617220343 93.470002660779642 0 0 0 0 -688.38857343914788 79.982371279572931 0 79.982371279572931 112.74640283306326 0 0 0 0 -669.13143165937072 52.642542589557479 0 52.642542589557479 145.20938867837572 0 0 0 0 -624.02148044831119 -94.49734123194105 0 -94.49734123194105 93.944552015597878 0 0 0 0 -736.56166925063735 66.293176365444651 0 66.293176365444651 199.24823316372181 0 0 0 0 -577.88819196704571 -107.54157599734924 0 -107.54157599734924 -303.8871039086016 0 0 0 0 -388.77516971384466 -154.84257443998078 0 -154.84257443998078 -41.212085167433315 0 0 0 0 -266.93620200442092 12.509054660096979 0 12.509054660096979 -255.33687459239582 0 0 0 0 -230.64157887136389 -123.83165040519367 0 -123.83165040519367 -242.53341163287175 0 0 0 0 -124.40264908354175 3.7284378916693441 0 3.7284378916693441 -93.056124045661818 0 0 0 0 -223.28286216869674 -6.5948340829407357 0 -6.5948340829407357 43.311140892898266 0 0 0 0 -119.10179980494649 -244.90269043634544 0 -244.90269043634544 82.334299930163695 0 0 0 0 -492.40532511095807 37.098728507757329 0 37.098728507757329 -67.619945865872182 0 0 0 0 -313.78212855858419 -149.55287436486185 0 -149.55287436486185 216.40775390751469 0 0 0 0 -266.36452142184771 -3.812401857452457 0 -3.812401857452457 106.56048460239185 0 0 0 0 -112.02883654541438 -186.05713754604136 0 -186.05713754604136 281.05352823209137 0 0 0 0 -69.037431888558785 -120.1246700470839 0 -120.1246700470839 196.0747114294627 0 0 0 0 26.57361578662676 -190.62333987501682 0 -190.62333987501682 280.8139325378433 0 0 0 0 -30.704615485930844 -75.658371481833285 0 -75.658371481833285 377.12787220628809 0 0 0 0 -265.08504639532475 84.185685983557164 0 84.185685983557164 334.09317863089655 0 0 0 0 -207.20330405977438 -147.86967895649775 0 -147.86967895649775 310.19266554774413 0 0 0 0 -21.006994027353358 -111.77879268437687 0 -111.77879268437687 312.39992453330115 0 0 0 0 68.282109742664034 106.90301276996308 0 106.90301276996308 328.30152410301616 0 0 0 0 -293.57112866011448 356.5440121931174 0 356.5440121931174 702.99215798242176 0 0 0 0 -5.706289956236688 -0.47301131658745632 0 -0.47301131658745632 0.68047926975416617 0 0 0 0 -858.45605044226977 -733.78398891311394 0 -733.78398891311394 -1109.0913975357441 0 0 0 0 -865.9250451981934 81.619565060667355 0 81.619565060667355 575.63803831105815 0 0 0 0 -439.31911445427613 -74.958336131998863 0 -74.958336131998863 -341.92472558454392 0 0 0 0 -946.4032099922988 -270.32968436419708 0 -270.32968436419708 113.87620110781813 0 0 0 0 -691.40547054576382 4.7235335175619184 0 4.7235335175619184 188.526852850654 0 0 0 0 -628.87670336418523 16.808737307855836 0 16.808737307855836 133.09337111816171 0 0 0 0 -608.92042094576755 77.614062922692483 0 77.614062922692483 262.24703771601321 0 0 0 0 -690.34976725922752 -1.9081431310132757 0 -1.9081431310132757 213.30344256355465 0 0 0 0 -284.55875522616043 42.563233860997968 0 42.563233860997968 258.69314426735787 0 0 0 0 -338.3143696940615 -95.527637087177595 0 -95.527637087177595 -12.18208660889627 0 0 0 0 -581.20281275504021 -136.35890211898118 0 -136.35890211898118 38.398167748536025 0 0 0 0 -362.45795776080558 33.592421278188624 0 33.592421278188624 -73.956772946824913 0 0 0 0 -1.3732092414608097 -2.6298008178216321 0 -2.6298008178216321 -10.339471935728071 0 0 0 0 -627.96938395354141 55.760659336928377 0 55.760659336928377 97.058486983303737 0 0 0 0 -429.20067284914398 46.593945541964317 0 46.593945541964317 -24.904456345216659 0 0 0 0 -646.15659293885983 -39.372609300627232 0 -39.372609300627232 29.236532771876455 0 0 0 0 -656.30379497754257 -67.616699262141054 0 -67.616699262141054 106.08151674772876 0 0 0 0 -837.28300671595207 -127.04660729133536 0 -127.04660729133536 90.305529827088094 0 0 0 0 -787.68820750917575 63.880510462882043 0 63.880510462882043 135.19106357632995 0 0 0 0 -1234.5488131986203 -46.138632283595484 0 -46.138632283595484 133.33840456772441 0 0 0 0 -586.56083753007988 -107.83150180003395 0 -107.83150180003395 -3.0210841027326296 0 0 0 0 -861.9179019430012 -170.65182947232051 0 -170.65182947232051 -7.4915388985255049 0 0 0 0 -519.24400623898146 -173.92243609062376 0 -173.92243609062376 -214.37148193813664 0 0 0 0 -840.99425493660692 -117.820150084327 0 -117.820150084327 6.0508941148627855 0 0 0 0 -1373.5622557909228 -260.96426888899487 0 -260.96426888899487 -30.674216519965057 0 0 0 0 -680.23740845805514 127.42421700288673 0 127.42421700288673 -174.81488076917344 0 0 0 0 -666.72411069737427 -220.99941488338823 0 -220.99941488338823 -468.03197126916666 0 0 0 0 -568.44405626910157 -12.357608910143654 0 -12.357608910143654 -119.14938016512315 0 0 0 0 -471.35477849169547 -94.2334865231403 0 -94.2334865231403 -83.407136812979843 0 0 0 0 -332.36515841904475 104.54393416398398 0 104.54393416398398 -47.600152715344052 0 0 0 0 -319.65604429205996 84.586020675189502 0 84.586020675189502 -112.67836558053449 0 0 0 0 -458.66541953247361 10.586968287953823 0 10.586968287953823 22.029730391121944 0 0 0 0 -209.26853015186134 31.519257443534343 0 31.519257443534343 -136.79628421390862 0 0 0 0 -0.61012893466581986 -3.1787700946006296 0 -3.1787700946006296 -13.657833041826214 0 0 0 0 -244.46705490398017 151.51667069393829 0 151.51667069393829 -86.060412298896722 0 0 0 0 -666.67424547679934 94.47280977398492 0 94.47280977398492 96.065238840533084 0 0 0 0 -94.696562711782462 -139.3581592233287 0 -139.3581592233287 6.9953156927649616 0 0 0 0 3.8335366512728797 -25.875215697401018 0 -25.875215697401018 -90.782439499361089 0 0 0 0 -3.4555589546197751 -0.45541136812652638 0 -0.45541136812652638 -12.109183237614818 0 0 0 0 -119.08466285665781 -80.037384608629509 0 -80.037384608629509 -64.76500218657884 0 0 0 0 -428.61806452525707 -118.63901131948455 0 -118.63901131948455 8.9384807888418436 0 0 0 0 10.348860643258377 119.15576884674692 0 119.15576884674692 -66.959884800020063 0 0 0 0 -9.3712342820218524 11.86472011690735 0 11.86472011690735 -16.948662341442464 0 0 0 0 -4.3903169603257766 2.1655997644427813 0 2.1655997644427813 -1.6017509422024752 0 0 0 0 -232.96217611134489 63.316098740541406 0 63.316098740541406 2.4204759407243728 0 0 0 0 -33.750843262134367 38.173205167476738 0 38.173205167476738 -18.056625209193044 0 0 0 0 -181.76840650071244 -320.80607598245729 0 -320.80607598245729 -125.63374569425491 0 0 0 0 -574.34883786625505 -56.236019155175882 0 -56.236019155175882 87.240548764093546 0 0 0 0 -8.9742524953481961 12.371998280446149 0 12.371998280446149 -16.042947469326148 0 0 0 0 -249.57936415592849 142.82740937588096 0 142.82740937588096 -172.69460033961377 0 0 0 0 -252.12510040813504 -179.76373509141149 0 -179.76373509141149 -9.4448195465374738 0 0 0 0 -58.009555320277286 118.91750197817692 0 118.91750197817692 -309.86755481754244 0 0 0 0 -249.22200460533713 -183.25666907811978 0 -183.25666907811978 -312.10661450459054 0 0 0 0 -1034.9485455604149 86.639229628824694 0 86.639229628824694 -154.65979090255223 0 0 0 0 -657.25260085248919 -429.01268383428396 0 -429.01268383428396 150.82702622604643 0 0 0 0 -1156.2985617900522 62.755522712738525 0 62.755522712738525 181.70823285540928 0 0 0 0 -1.8382846047213022 -0.16077682312026553 0 -0.16077682312026553 0.79998087281238828 0 0 0 0 -1525.7537600888281 263.07313588747837 0 263.07313588747837 112.21980929097003 0 0 0 0 -963.88056324450372 -373.01488021979679 0 -373.01488021979679 109.0325143559694 0 0 0 0 -577.04616360612863 77.146864883776288 0 77.146864883776288 -146.66943586242633 0 0 0 0 -1314.2712967885527 108.29638889650505 0 108.29638889650505 177.45807344422229 0 0 0 0 -1353.1455740052807 173.0519075524945 0 173.0519075524945 194.34558487884419 0 0 0 0 -3.2589298361913492 -1.4270070669265991 0 -1.4270070669265991 0.65374388349301782 0 0 0 0 -565.19500866654835 108.63124792149546 0 108.63124792149546 -30.377339309500258 0 0 0 0 -959.98185942542113 72.52891557709961 0 72.52891557709961 78.531206372041197 0 0 0 0 -617.17814320406978 22.483348009223846 0 22.483348009223846 -1.9950197198957085 0 0 0 0 -2.2640422397221798 -0.8247809067282148 0 -0.8247809067282148 -0.31729970142558983 0 0 0 0 -2306.8137149029535 497.8421957782989 0 497.8421957782989 68.537298152350331 0 0 0 0 -2405.2436490926593 -258.15392198717473 0 -258.15392198717473 132.25398593362729 0 0 0 0 -162.58588170809162 403.76291059929849 0 403.76291059929849 -577.88729679199878 0 0 0 0 -1642.617574949556 -831.04624449907237 0 -831.04624449907237 -492.27751173305705 0 0 0 0 -16.617787478775298 9.4730098341866871 0 9.4730098341866871 -3.2717636090136217 0 0 0 0 -1698.7132342681825 -47.391424776098148 0 -47.391424776098148 323.96322986307041 0 0 0 0 -1386.1937363702768 -379.7767080895556 0 -379.7767080895556 282.12129373285552 0 0 0 0 -1382.8508361423956 -135.48599267846157 0 -135.48599267846157 139.79037690049756 0 0 0 0 -1581.4737708301618 345.8328841845148 0 345.8328841845148 100.3144282491391 0 0 0 0 -1263.5982246059757 73.10600600339842 0 73.10600600339842 349.59066727251815 0 0 0 0 -1646.471145733427 -88.453173800787397 0 -88.453173800787397 438.11331518433178 0 0 0 0 -1580.1625322055143 96.479800723490683 0 96.479800723490683 522.8770158595396 0 0 0 0 -1559.0736301252982 11.52298869481649 0 11.52298869481649 330.05014771440619 0 0 0 0 -1338.7538177754504 -94.067854755056942 0 -94.067854755056942 363.42573149325153 0 0 0 0 -1734.2452091375162 754.04862577675192 0 754.04862577675192 454.22745941692165 0 0 0 0 -1829.362670249815 469.18107760340718 0 469.18107760340718 597.0341292292627 0 0 0 0 -1272.3225793924466 127.07560205533622 0 127.07560205533622 78.236787406180611 0 0 0 0 -527.33881279450361 322.72931562483359 0 322.72931562483359 116.53024140242258 0 0 0 0 -0.66581330117915627 0.84210616854361575 0 0.84210616854361575 3.9269516208625372 0 0 0 0 -1217.5995255933958 594.84221624554561 0 594.84221624554561 181.21339641635632 0 0 0 0 -1226.0095607270996 1418.5893938159984 0 1418.5893938159984 -813.02759905540177 0 0 0 0 -2496.2739418805686 1116.33221003315 0 1116.33221003315 449.86052561960184 0 0 0 0 -2495.3583482325375 -474.18977057982011 0 -474.18977057982011 -48.515752131396631 0 0 0 0 -235.03242247948219 557.5816482031189 0 557.5816482031189 -1097.3204887618408 0 0 0 0 -9.6123684225741499 6.2760982563812391 0 6.2760982563812391 -1.5340422981628534 0 0 0 0 179.24659296021855 -116.48266419908623 0 -116.48266419908623 -671.6967498015814 0 0 0 0 -7.5631188077090741 4.7950280035471025 0 4.7950280035471025 14.809010182360186 0 0 0 0 -488.14942269347375 -115.23921371826714 0 -115.23921371826714 -0.42900143858059891 0 0 0 0 -546.37581779404718 -46.540694152769447 0 -46.540694152769447 117.80240811915064 0 0 0 0 -10.968524162949393 3.6147870308328933 0 3.6147870308328933 0.55333389676211731 0 0 0 0 -316.89400610140729 -360.87695788792053 0 -360.87695788792053 -329.38712749967453 0 0 0 0 -50.286964055107092 12.813914924405253 0 12.813914924405253 -15.677389668177966 0 0 0 0 -65.924717991425496 21.614729821127355 0 21.614729821127355 3.618951288826679 0 0 0 0 -28.514673107534222 10.942644541152141 0 10.942644541152141 14.197378932311869 0 0 0 0 -7.393260655275931 1.720892222453493 0 1.720892222453493 9.6553591199190656 0 0 0 0 -1562.3660022212134 -186.03211710456802 0 -186.03211710456802 -18.357985274384291 0 0 0 0 -2500.2899245458175 671.89357732528322 0 671.89357732528322 87.297941680227765 0 0 0 0 -66.118828418475459 19.985390581990714 0 19.985390581990714 -1.133604322134488 0 0 0 0 -32.059471609956745 -339.94592001639217 0 -339.94592001639217 697.37921092300962 0 0 0 0 -2499.5390110278131 672.08372425640755 0 672.08372425640755 87.275427230429216 0 0 0 0 -89.097289600553268 32.847274660255152 0 32.847274660255152 -7.0823471827949334 0 0 0 0 0.0026060789000226237 2.8533341649320931 0 2.8533341649320931 1.5961577723878504 0 0 0 0 -5.8282786993116851 -6.6944577316591065 0 -6.6944577316591065 6.9248608927299564 0 0 0 0 -715.66714769423197 492.02354899499926 0 492.02354899499926 61.230059127375853 0 0 0 0 -12.108103191946221 -2.2813704398876666 0 -2.2813704398876666 12.875793332124633 0 0 0 0 -695.87238119610993 204.73260533532607 0 204.73260533532607 275.65831505549772 0 0 0 0 133.07777180651101 -175.90335388088647 0 -175.90335388088647 -268.91268767941256 0 0 0 0 -940.58831751187608 949.7612648014059 0 949.7612648014059 -422.89970857722597 0 0 0 0 -2327.9359709935861 445.15028697333855 0 445.15028697333855 208.99361080150265 0 0 0 0 -1433.8796266901909 89.512923553262794 0 89.512923553262794 -1010.0715510086861 0 0 0 0 -2065.1139749828726 -476.56550063819486 0 -476.56550063819486 -279.81950297423418 0 0 0 0 -1898.0915112620387 12.763393512877201 0 12.763393512877201 203.72037538050336 0 0 0 0 -1265.0523165863633 -49.269092795633696 0 -49.269092795633696 -54.59951761479374 0 0 0 0 -1331.9610385942651 611.74156531201675 0 611.74156531201675 234.85475519586083 0 0 0 0 -965.8226621041722 387.26849758912033 0 387.26849758912033 354.28763530037122 0 0 0 0 -1040.6144829595542 728.8416976969238 0 728.8416976969238 481.44246732643978 0 0 0 0 -1208.4558164681312 473.50473442166867 0 473.50473442166867 168.68150577057315 0 0 0 0 -1031.1229820929511 292.83271272417818 0 292.83271272417818 288.13180112857327 0 0 0 0 -727.65745675100698 71.005023879922874 0 71.005023879922874 114.02295807019141 0 0 0 0 -801.21292999107027 367.62855699352087 0 367.62855699352087 67.168637771849077 0 0 0 0 -872.76213707318675 798.32798872357773 0 798.32798872357773 -41.957533289227335 0 0 0 0 -613.80960503571623 532.32127954453563 0 532.32127954453563 169.64609622254682 0 0 0 0 -970.45849540066592 827.69970028779414 0 827.69970028779414 190.86286246658244 0 0 0 0 -1045.1573710300217 833.77762942394691 0 833.77762942394691 192.358409959624 0 0 0 0 -1458.8170716024397 1131.7068810503406 0 1131.7068810503406 75.757674672710834 0 0 0 0 -1458.2288785609817 1054.9149265291376 0 1054.9149265291376 137.67204971018367 0 0 0 0 -2495.2629635606809 1015.2686398566184 0 1015.2686398566184 672.83812274557488 0 0 0 0 -1550.6560469951382 384.62969351457798 0 384.62969351457798 1059.5792538227961 0 0 0 0 -2387.0187099487011 -636.62016713466255 0 -636.62016713466255 -477.51276236748271 0 0 0 0 -2499.1418351560824 -165.97945443982826 0 -165.97945443982826 -983.92059511531784 0 0 0 0 -2078.1322240851368 -308.01517537797605 0 -308.01517537797605 -311.21515435706408 0 0 0 0 -2929.6720293202161 482.51523191624744 0 482.51523191624744 -256.11900931648256 0 0 0 0 -898.2578169585322 337.95170172456693 0 337.95170172456693 -281.68202945245713 0 0 0 0 -901.11323893804001 1021.1093613367751 0 1021.1093613367751 -291.45429363353151 0 0 0 0 -9.1283717680208554 -5.0545960716425995 0 -5.0545960716425995 -4.3166128995291242 0 0 0 0 -594.97056521331706 -319.03946132008633 0 -319.03946132008633 -972.95470543746842 0 0 0 0 -2292.9276917954194 -367.13905935600388 0 -367.13905935600388 -779.84082138216775 0 0 0 0 -2435.5314626535692 -138.97707493812595 0 -138.97707493812595 -770.60805714810317 0 0 0 0 -1399.7608338576465 -481.66822965694405 0 -481.66822965694405 -1003.5396822710793 0 0 0 0 -1839.8355337344055 455.84428170308507 0 455.84428170308507 -387.4767608306388 0 0 0 0 -1907.7630881714504 -410.62848360236012 0 -410.62848360236012 -1054.7655595285414 0 0 0 0 -2313.9631296255793 -0.98316014391550732 0 -0.98316014391550732 -897.13068650161563 0 0 0 0 -2500.1756530206803 -40.135754440261934 0 -40.135754440261934 -621.46968768546731 0 0 0 0 -2230.4465198310609 163.72459930875033 0 163.72459930875033 -503.40313475424762 0 0 0 0 -2261.6731078383345 65.531958610989548 0 65.531958610989548 -446.28547715392358 0 0 0 0 -1932.4572198134592 252.48547855477767 0 252.48547855477767 -357.29212504945434 0 0 0 0 -2499.3883608334872 151.94063090546308 0 151.94063090546308 -188.7416384919774 0 0 0 0 -2256.9110502112271 403.80011209754622 0 403.80011209754622 45.619850473810224 0 0 0 0 -2038.4550169590984 335.84185597741651 0 335.84185597741651 204.7282189406618 0 0 0 0 -1189.0449803746342 443.65318420900633 0 443.65318420900633 212.66504199794164 0 0 0 0 -2500.4444281250194 577.00946384211034 0 577.00946384211034 459.3556077945438 0 0 0 0 -1906.5187889140507 350.92468346548713 0 350.92468346548713 49.508324309399214 0 0 0 0 -1553.8583067470245 4.4457648330284343 0 4.4457648330284343 171.1278108474869 0 0 0 0 -1659.5488382620169 -126.04438328895606 0 -126.04438328895606 365.09323764991115 0 0 0 0 -1754.2195391181158 -153.57534106472744 0 -153.57534106472744 128.69757405847156 0 0 0 0 -1438.9891869728453 -81.769234369963101 0 -81.769234369963101 144.63142536166998 0 0 0 0 -1854.0931101912793 -46.329833212202701 0 -46.329833212202701 162.6231725806075 0 0 0 0 -2017.4795577921686 68.922158138633904 0 68.922158138633904 -140.20450525861395 0 0 0 0 -1611.9712347034729 229.12532751940734 0 229.12532751940734 -88.678546366687669 0 0 0 0 -1653.673800356104 -127.34790415233675 0 -127.34790415233675 -106.69287190541607 0 0 0 0 -1861.0343640384453 -10.246370230407365 0 -10.246370230407365 -158.05408497909531 0 0 0 0 -2197.6156254048838 -120.42596780545716 0 -120.42596780545716 -185.6663069994861 0 0 0 0 -1962.185744216531 -307.63355604949368 0 -307.63355604949368 -351.61319990915717 0 0 0 0 -1930.3048921021382 160.44887688569187 0 160.44887688569187 -599.60722892989213 0 0 0 0 -2093.8689579342645 -72.174521642734874 0 -72.174521642734874 -700.78324774183864 0 0 0 0 -2050.826271919952 -9.5869276436872042 0 -9.5869276436872042 -732.83370153825729 0 0 0 0 -2825.9663759038885 84.443116698725589 0 84.443116698725589 -520.37233822645499 0 0 0 0 -2053.2464277380568 53.020817071989313 0 53.020817071989313 -1323.141704172933 0 0 0 0 -9.6944650972863684 5.7296059848223493 0 5.7296059848223493 -5.3866171495496875 0 0 0 0 -2588.8720118292331 -880.61685013170302 0 -880.61685013170302 -259.563868581203 0 0 0 0 -302.7618900154921 -62.740354498459055 0 -62.740354498459055 -951.59522777500388 0 0 0 0 -678.47440768886008 -496.55698321515956 0 -496.55698321515956 -713.67351197094649 0 0 0 0 -393.15056909720442 -780.15497369173499 0 -780.15497369173499 -439.39289901841403 0 0 0 0 -757.68856860072992 -574.26782659055152 0 -574.26782659055152 -384.75535668248085 0 0 0 0 -892.02305500788862 -800.59682692135038 0 -800.59682692135038 -437.4506865014755 0 0 0 0 -315.88667982331935 144.79619144040043 0 144.79619144040043 -708.82175036379613 0 0 0 0 -17.254195767585571 13.078449229022581 0 13.078449229022581 -10.439712919655324 0 0 0 0 -195.62422899741796 50.078140675036593 0 50.078140675036593 -466.45859669928359 0 0 0 0 -779.38370222105004 -682.29181259175266 0 -682.29181259175266 -22.687351323153052 0 0 0 0 -631.12904256768525 -240.31338265640261 0 -240.31338265640261 -89.793312096962836 0 0 0 0 -1077.0177841368459 -1188.5223034390563 0 -1188.5223034390563 -349.51146325860054 0 0 0 0 -1812.6583320265127 -743.39599929396604 0 -743.39599929396604 -618.75784481693324 0 0 0 0 -1953.4434888135147 -270.03463005860607 0 -270.03463005860607 -290.36018298696877 0 0 0 0 -1777.3583956151124 -351.88787917281707 0 -351.88787917281707 -252.33871854083714 0 0 0 0 -1671.2380465757306 -216.75462835385338 0 -216.75462835385338 -106.80833005634487 0 0 0 0 -1515.2822763778822 -287.35442197027851 0 -287.35442197027851 -86.259280882737613 0 0 0 0 -1283.7029636300431 -347.22167591058349 0 -347.22167591058349 -147.74562304327645 0 0 0 0 -1587.668540732062 -471.64211473573306 0 -471.64211473573306 -197.05244857099504 0 0 0 0 -1358.3102247570496 -428.98747338058797 0 -428.98747338058797 -402.18441927740537 0 0 0 0 -484.85470331664328 -404.55622717497715 0 -404.55622717497715 -133.64838255924042 0 0 0 0 -4.0001573276205704 2.6404814181364671 0 2.6404814181364671 -3.0437893294610925 0 0 0 0 -1358.3294781342152 -422.39063778714291 0 -422.39063778714291 -217.51897808498569 0 0 0 0 -1340.0474214246351 -492.39859772708218 0 -492.39859772708218 -139.32780797878729 0 0 0 0 -740.78227230509583 -243.90982200204905 0 -243.90982200204905 -113.91839859420179 0 0 0 0 -819.58634222434193 -328.27787494448023 0 -328.27787494448023 -94.112692755120975 0 0 0 0 -1410.689034098199 -286.53665944298132 0 -286.53665944298132 264.5682455042944 0 0 0 0 -1377.6746814958951 -321.50033947535024 0 -321.50033947535024 96.549246662349788 0 0 0 0 -1527.5390006372108 -233.91219517917636 0 -233.91219517917636 84.031694625417572 0 0 0 0 -1311.6629782962918 -837.50545475039644 0 -837.50545475039644 -500.22279122378495 0 0 0 0 -6.5971087189705457 2.7623215560366177 0 2.7623215560366177 -1.7032263246940538 0 0 0 0 -729.47140661917365 -676.14284321687637 0 -676.14284321687637 -526.01450837486937 0 0 0 0 -7.4308348149655359 8.2124480815025009 0 8.2124480815025009 -10.647975578523727 0 0 0 0 -148.24558912417706 -201.91430238377882 0 -201.91430238377882 -227.98117650905101 0 0 0 0 -14.755788689717832 9.7817587691304055 0 9.7817587691304055 -6.8512311745161965 0 0 0 0 -186.08245488792454 -188.65626812381083 0 -188.65626812381083 -232.27314620944446 0 0 0 0 -837.006212683802 -340.86619703628867 0 -340.86619703628867 -217.43157039524431 0 0 0 0 -127.85582234812318 -783.81921942742611 0 -783.81921942742611 -662.28323272256785 0 0 0 0 -1313.0625500888709 -564.85079895497074 0 -564.85079895497074 -117.83648797898604 0 0 0 0 -1112.8727876988269 -513.22971686439996 0 -513.22971686439996 -444.76910676937223 0 0 0 0 -1112.8118845237186 -1008.5051341461985 0 -1008.5051341461985 -633.0427968642889 0 0 0 0 -809.54094202745182 -691.67396158707288 0 -691.67396158707288 -438.16044652029632 0 0 0 0 -698.9887314576772 -707.19909588923656 0 -707.19909588923656 -438.62025660576251 0 0 0 0 -600.15113113558618 -688.50397749280546 0 -688.50397749280546 -633.94018024534853 0 0 0 0 -121.79852596706041 -556.97816839207553 0 -556.97816839207553 119.36077698970007 0 0 0 0 -288.12569595472451 -438.40910116991836 0 -438.40910116991836 -502.53733405824823 0 0 0 0 -306.35410289048741 -313.40754023268801 0 -313.40754023268801 -216.68984105232812 0 0 0 0 -33.059717060415664 -29.338695944576337 0 -29.338695944576337 -22.018859419262032 0 0 0 0 -136.58542024338385 -330.37458194681312 0 -330.37458194681312 -687.31375792695326 0 0 0 0 -535.68842156494793 -728.76556056050413 0 -728.76556056050413 -725.65924867515059 0 0 0 0 -498.78772547354311 -749.77614941585671 0 -749.77614941585671 -801.50885922088855 0 0 0 0 -1680.916826656292 -1481.7217949312271 0 -1481.7217949312271 -1168.7764223070953 0 0 0 0 -1638.0176284588724 -489.07363333346649 0 -489.07363333346649 -1106.8620922530499 0 0 0 0 -1716.0261379051371 -1174.7905115943577 0 -1174.7905115943577 -2030.8691681427299 0 0 0 0 -5.3876854318924572 -2.589840183709228 0 -2.589840183709228 -3.179413778759443 0 0 0 0 2540.0412397973705 940.44958871879862 0 940.44958871879862 -1230.3425666974072 0 0 0 0 -5567.1675545591643 -2903.2285109925233 0 -2903.2285109925233 -1835.9973607630091 0 0 0 0 763.21824486745754 -678.46581795640668 0 -678.46581795640668 -2171.1683870181187 0 0 0 0 -325.08096779989137 -348.46162761548021 0 -348.46162761548021 -270.79952989697631 0 0 0 0 50.75501269227243 256.53177172875439 0 256.53177172875439 245.43354295691825 0 0 0 0 161.72725179923873 -464.89236768434967 0 -464.89236768434967 -209.78538052036674 0 0 0 0 -1047.1799827646173 -430.58877748142731 0 -430.58877748142731 -753.93533271325578 0 0 0 0 -295.30209151179588 -536.71150433112416 0 -536.71150433112416 -791.78392263984642 0 0 0 0 -753.78370624009403 -744.99625557536456 0 -744.99625557536456 -732.06875379573466 0 0 0 0 -1074.3825912364991 -656.24697913617456 0 -656.24697913617456 -681.57641433328536 0 0 0 0 -1461.3605784415267 -683.66813516455659 0 -683.66813516455659 -981.09089570478864 0 0 0 0 -1073.001765564899 -771.90785123470232 0 -771.90785123470232 -1225.5488652861241 0 0 0 0 -1484.3236609830565 -1004.1444062819992 0 -1004.1444062819992 -840.04376474946912 0 0 0 0 -868.17805719625903 -547.73373492959945 0 -547.73373492959945 -1094.8568626674787 0 0 0 0 -1793.1439236584411 -857.73747403050947 0 -857.73747403050947 -535.72746592224757 0 0 0 0 -1428.9584697174432 -465.1551353809773 0 -465.1551353809773 -1747.3587174463173 0 0 0 0 -1490.7624942705443 -973.40815493531409 0 -973.40815493531409 -986.6608613459066 0 0 0 0 -1971.8559915258666 -1424.5105620264076 0 -1424.5105620264076 -1409.6391578611365 0 0 0 0 -2604.5423371093057 -873.46453424885112 0 -873.46453424885112 -597.39565166777902 0 0 0 0 -1666.1679426021292 -806.4491299936999 0 -806.4491299936999 -572.0361883432779 0 0 0 0 -1989.4669541097537 -692.64171111650467 0 -692.64171111650467 -573.21343019550659 0 0 0 0 -1783.5660193354561 -1126.1305276852308 0 -1126.1305276852308 -780.29234410017671 0 0 0 0 -1394.4027246847691 -994.93001242553146 0 -994.93001242553146 -598.35994096293143 0 0 0 0 -1395.3071515185657 -994.04124814279612 0 -994.04124814279612 -532.9291417258064 0 0 0 0 -1190.2584817127063 -808.11776973704173 0 -808.11776973704173 -590.70398551371545 0 0 0 0 -1556.2912608903716 -910.39610731897119 0 -910.39610731897119 -613.69915691932783 0 0 0 0 -1274.7932759048417 -1016.3278309181715 0 -1016.3278309181715 -878.46130357808215 0 0 0 0 -976.12917695874057 -859.66348753803049 0 -859.66348753803049 -524.45722824329823 0 0 0 0 -938.6828348916315 -932.1736112050512 0 -932.1736112050512 -808.68066006893878 0 0 0 0 -1043.5246520623477 -785.60585659587832 0 -785.60585659587832 -432.22745622921684 0 0 0 0 -802.59220407891553 -602.49494098334253 0 -602.49494098334253 -429.60083008590482 0 0 0 0 -1616.0351739880934 -814.83874696904195 0 -814.83874696904195 -217.62389617450526 0 0 0 0 -1647.044920904038 -940.54583774869798 0 -940.54583774869798 -322.57768855216727 0 0 0 0 -12.730387737600466 19.064889790548463 0 19.064889790548463 13.340788308095295 0 0 0 0 -1210.1304081767084 -557.18584952318292 0 -557.18584952318292 -283.23883592808852 0 0 0 0 17.271566388186329 113.79030873545196 0 113.79030873545196 333.13994664874008 0 0 0 0 -51.769092280621408 13.749107456901868 0 13.749107456901868 349.7380900465082 0 0 0 0 -98.295893363640062 134.12143816961316 0 134.12143816961316 404.07406982567136 0 0 0 0 -122.50183430999459 7.7328076687961129 0 7.7328076687961129 231.60905740082831 0 0 0 0 -208.49416155193467 -43.930195873462878 0 -43.930195873462878 339.54798745872085 0 0 0 0 -417.15126630647865 -260.82506971965995 0 -260.82506971965995 250.31690346099913 0 0 0 0 -152.79143344511976 -211.41975587675279 0 -211.41975587675279 -44.067258224855323 0 0 0 0 -317.56495234323665 -87.414536117285024 0 -87.414536117285024 455.18208953338512 0 0 0 0 -310.19266914062973 -388.87370504400519 0 -388.87370504400519 63.881561288686498 0 0 0 0 -10.412574597811584 -4.8784225612697583 0 -4.8784225612697583 -3.1183528139178662 0 0 0 0 -690.54765869150106 563.24073581013863 0 563.24073581013863 -345.03010540755076 0 0 0 0 -265.78806992134923 -245.189199459154 0 -245.189199459154 -246.56528961459276 0 0 0 0 -987.07154783239821 -420.3568354064646 0 -420.3568354064646 713.1273052643819 0 0 0 0 527.87236851626585 1067.9343906936717 0 1067.9343906936717 -1015.2147654977853 0 0 0 0 -9.5098026268242748 21.548231900040918 0 21.548231900040918 -8.1063193386034289 0 0 0 0 -906.85031647558935 -131.05063601257041 0 -131.05063601257041 -408.38779409834751 0 0 0 0 -1033.4032229151926 -236.56656219580418 0 -236.56656219580418 -174.73482000441709 0 0 0 0 -1061.1120003542346 -322.6417555936597 0 -322.6417555936597 -441.158031506523 0 0 0 0 -920.95421243796227 -175.26031014804028 0 -175.26031014804028 -543.96673602493593 0 0 0 0 -1108.4243559474053 -248.04746102397576 0 -248.04746102397576 -558.40906753328022 0 0 0 0 -2477.6901399070084 157.79455152969319 0 157.79455152969319 -481.83432766550504 0 0 0 0 -1082.4709170365095 428.49370515643773 0 428.49370515643773 -1081.3012997891819 0 0 0 0 -1734.8620714514545 399.79197159712021 0 399.79197159712021 -585.82924699117291 0 0 0 0 -1641.5417134176751 275.4894508329171 0 275.4894508329171 -420.26421590330801 0 0 0 0 -1693.8827849540903 73.903142985740715 0 73.903142985740715 10.497404430516099 0 0 0 0 -1899.8688013939754 332.19161648733052 0 332.19161648733052 -221.33794367994324 0 0 0 0 -1811.8819210108741 382.6576504127836 0 382.6576504127836 -229.09737325558808 0 0 0 0 -1870.5829398854985 515.03000264303137 0 515.03000264303137 -431.42369721236082 0 0 0 0 -1888.2128627808925 471.01890751833184 0 471.01890751833184 -280.25983528990082 0 0 0 0 -1276.6721227725211 288.76165726352292 0 288.76165726352292 -256.04846635568305 0 0 0 0 -4.2898380920201902 5.3212236397139208 0 5.3212236397139208 -5.219502233645791 0 0 0 0 -4488.1583424423116 1221.7523492322866 0 1221.7523492322866 -102.43624611690211 0 0 0 0 -2658.3552622147326 150.44431775936482 0 150.44431775936482 23.168756457716881 0 0 0 0 727.97423430540948 189.30383652492424 0 189.30383652492424 -158.93576765452281 0 0 0 0 -820.12772078184935 -68.386102058454298 0 -68.386102058454298 212.90357446489179 0 0 0 0 -419.20215118868509 61.857757005895735 0 61.857757005895735 175.28074922048472 0 0 0 0 -7.7663320218422598 15.881740804625068 0 15.881740804625068 -13.591928021486479 0 0 0 0 607.17690845612378 59.993303877272865 0 59.993303877272865 34.912485809447389 0 0 0 0 -444.31275007948534 126.3009578433755 0 126.3009578433755 235.97517314397192 0 0 0 0 -71.32022993346618 -19.928403090487791 0 -19.928403090487791 9.5117958620230638 0 0 0 0 -473.52208807625721 62.357357987425985 0 62.357357987425985 204.68497278187442 0 0 0 0 -6.5849805820544205 -3.2903465155070251 0 -3.2903465155070251 -1.4033068345191673 0 0 0 0 -45.673768254528113 -22.1427145623461 0 -22.1427145623461 -6.7201920510133277 0 0 0 0 -118.51497320587805 -13.703977621180456 0 -13.703977621180456 -7.0127601732814071 0 0 0 0 -63.584010917766136 -48.226211067492841 0 -48.226211067492841 -3.6002189574733166 0 0 0 0 -12.659564453277028 -6.3327640757078711 0 -6.3327640757078711 -1.9820074209127085 0 0 0 0 -62.518072094911986 -43.73728243519912 0 -43.73728243519912 -1.8221870872739601 0 0 0 0 -63.199489557999186 -14.467347438816205 0 -14.467347438816205 3.6296232874865382 0 0 0 0 -42.73433329737626 15.138820150336443 0 15.138820150336443 11.669181515487352 0 0 0 0 -174.26529752520946 536.30934095364182 0 536.30934095364182 -934.44999382332753 0 0 0 0 444.18181310853106 -913.61114583686867 0 -913.61114583686867 -367.14351033624189 0 0 0 0 -70.198124628489794 -27.988787655136498 0 -27.988787655136498 -8.1020281120531088 0 0 0 0 -72.615955930261407 -50.25850830118361 0 -50.25850830118361 -0.94396688591859856 0 0 0 0 110.67990830253984 -736.6113334182337 0 -736.6113334182337 513.43566367778658 0 0 0 0 64.082018176850397 -155.0325423513932 0 -155.0325423513932 399.37195433168267 0 0 0 0 213.53290174211725 -89.396986390066559 0 -89.396986390066559 -142.22395814953393 0 0 0 0 -626.14242619207653 622.06462594584355 0 622.06462594584355 -228.44264793107141 0 0 0 0 -3.6502134906884862 -4.600143090844302 0 -4.600143090844302 -6.1274874859807298 0 0 0 0 -712.0279984519243 242.28128543076753 0 242.28128543076753 456.24322491557359 0 0 0 0 -392.5111917124807 115.99383866394106 0 115.99383866394106 119.11772017302792 0 0 0 0 -393.58512189928388 93.197465636736808 0 93.197465636736808 80.386147082419484 0 0 0 0 -378.71005556562341 35.235929934936109 0 35.235929934936109 81.057114722219922 0 0 0 0 -371.77513199624082 83.982931094848936 0 83.982931094848936 62.893728864142304 0 0 0 0 -16.400986343078017 -14.458752740024494 0 -14.458752740024494 -12.391932798889581 0 0 0 0 -74.761129946455185 88.698543787248127 0 88.698543787248127 68.884063080324268 0 0 0 0 203.69077166508941 -222.27858222734812 0 -222.27858222734812 167.69299820534616 0 0 0 0 -36.573814343004614 -18.514286009289677 0 -18.514286009289677 -10.106343627163138 0 0 0 0 194.4293245377703 -111.47826491906881 0 -111.47826491906881 62.084027166169108 0 0 0 0 217.34987637794711 -169.70373938259581 0 -169.70373938259581 87.910610104032457 0 0 0 0 136.68678273136175 -145.59845562867486 0 -145.59845562867486 161.39294891395366 0 0 0 0 75.595135802257573 -536.51202981147935 0 -536.51202981147935 74.149818978245435 0 0 0 0 -5.3176536762879394 1.9459658060376626 0 1.9459658060376626 -3.6500259598998781 0 0 0 0 84.893099514149071 -123.69854659581961 0 -123.69854659581961 187.31405643397284 0 0 0 0 -80.403178901484353 -282.89906789123779 0 -282.89906789123779 253.02464555263214 0 0 0 0 -141.90049617295881 80.786670936598057 0 80.786670936598057 259.40727804389275 0 0 0 0 -27.597073352500729 -23.729006041630704 0 -23.729006041630704 -19.091665792369959 0 0 0 0 -206.36971074806797 113.76732767487385 0 113.76732767487385 -153.51865542167434 0 0 0 0 -443.62953381855732 124.38200901333676 0 124.38200901333676 -129.22889848986597 0 0 0 0 -235.5516913573083 -16.397649561103663 0 -16.397649561103663 -306.38456781340665 0 0 0 0 -181.51274347143135 -78.150704071571226 0 -78.150704071571226 -48.197761076364259 0 0 0 0 253.43144909364401 17.046451290427285 0 17.046451290427285 -157.99671667160874 0 0 0 0 -207.86401604180719 -225.11003935934605 0 -225.11003935934605 -283.15379625903279 0 0 0 0 -161.20009084283811 96.732084358905922 0 96.732084358905922 -170.76341202892081 0 0 0 0 -132.13340232930204 -172.06143244934174 0 -172.06143244934174 -437.14076832469982 0 0 0 0 -188.59370205899177 -466.62543184509377 0 -466.62543184509377 -501.93914539716025 0 0 0 0 -379.62120529702224 -327.76200590494227 0 -327.76200590494227 -415.60052394959712 0 0 0 0 -958.15345581774454 -367.57104571768423 0 -367.57104571768423 -373.37356067952487 0 0 0 0 -374.21236679203139 -367.64820068253357 0 -367.64820068253357 -471.43616847270368 0 0 0 0 -515.54137636657197 -28.946005889903745 0 -28.946005889903745 -264.60753190880041 0 0 0 0 -505.21056000216049 -148.29224335389063 0 -148.29224335389063 -385.08680177443603 0 0 0 0 -591.60392611314455 -88.137645934404873 0 -88.137645934404873 -285.8884263447253 0 0 0 0 -689.90296479795506 -197.38703101944725 0 -197.38703101944725 -315.07901348635096 0 0 0 0 -608.00946440698317 -290.88430833735879 0 -290.88430833735879 -509.47492114783108 0 0 0 0 -1240.7185880635225 -202.16243529737903 0 -202.16243529737903 -429.43800335910009 0 0 0 0 -226.56729601019561 -72.453292500620023 0 -72.453292500620023 -129.61569373692873 0 0 0 0 -240.70666833159339 -193.70004301296967 0 -193.70004301296967 -291.58240737035885 0 0 0 0 -427.48111132839949 -37.048584229775543 0 -37.048584229775543 -355.70927261302313 0 0 0 0 -446.35326813705979 -93.544960172761193 0 -93.544960172761193 -8.6608969927747239 0 0 0 0 -454.00564142093572 112.26096865150066 0 112.26096865150066 -135.5379476959215 0 0 0 0 -3.1425662725669099 9.6914677025324636 0 9.6914677025324636 -242.77226580504657 0 0 0 0 -362.88736964726559 -63.828341267528003 0 -63.828341267528003 194.84434868862991 0 0 0 0 -5.6648472169044055 0.1101982767206664 0 0.1101982767206664 0.84963065743114718 0 0 0 0 -455.44752799279377 -74.886923595834105 0 -74.886923595834105 52.408517334574753 0 0 0 0 -520.01763768598539 139.33628843199631 0 139.33628843199631 114.96293561193511 0 0 0 0 -283.65974326850846 228.60531921728716 0 228.60531921728716 -128.73624465432567 0 0 0 0 32.963044673582772 -3.4626159316612757 0 -3.4626159316612757 18.52692782340273 0 0 0 0 12.76109899218136 137.6151683955959 0 137.6151683955959 37.825315939882785 0 0 0 0 -24.371182499683869 45.086678066039319 0 45.086678066039319 -4.6503607114488901 0 0 0 0 139.85943018502439 28.274904765213705 0 28.274904765213705 -58.828509975561246 0 0 0 0 12.874560614322519 3.419476407697033 0 3.419476407697033 -2.3285244177901419 0 0 0 0 73.980602410360007 218.92136919609084 0 218.92136919609084 -68.935804548473243 0 0 0 0 147.89656478437973 -37.191293162534521 0 -37.191293162534521 -42.681302098066226 0 0 0 0 -1.7896246662348858 31.285245790747467 0 31.285245790747467 -11.481961822119956 0 0 0 0 129.77589465010533 95.008839880882533 0 95.008839880882533 -59.678387759147881 0 0 0 0 -3.5024964275149557 8.4639672140566589 0 8.4639672140566589 -4.6454529276363168 0 0 0 0 -106.04626011267101 182.55770061242947 0 182.55770061242947 272.71366349252548 0 0 0 0 -29.534260449886986 45.792392127262389 0 45.792392127262389 -6.0717029335249073 0 0 0 0 54.790975765416079 0.4613971292928909 0 0.4613971292928909 -33.461053695805276 0 0 0 0 211.43295962577486 228.73995841954354 0 228.73995841954354 266.95966511983079 0 0 0 0 -14.066083272335408 7.3840437535157335 0 7.3840437535157335 3.5129963659980774 0 0 0 0 -64.443013125404832 2.9798842060881725 0 2.9798842060881725 68.905104498462606 0 0 0 0 -69.863741716068034 -64.018218015048433 0 -64.018218015048433 255.53811019116711 0 0 0 0 142.37647491195457 99.319014442993421 0 99.319014442993421 47.684711025412071 0 0 0 0 -91.302499696459563 -159.00547566616069 0 -159.00547566616069 -150.10978475151524 0 0 0 0 -224.41071116725652 -135.93161274881959 0 -135.93161274881959 9.5756630115683947 0 0 0 0 -170.82719450200966 271.66066808018422 0 271.66066808018422 333.84722883622771 0 0 0 0 -26.19506156473426 172.84611468364295 0 172.84611468364295 384.67546393415614 0 0 0 0 -85.927882151637959 34.58896352948706 0 34.58896352948706 -5.5326742529129262 0 0 0 0 -0.98142274732526857 195.94522545180371 0 195.94522545180371 129.32959146586018 0 0 0 0 1.5307360445876839 109.52535417904619 0 109.52535417904619 69.084132718595356 0 0 0 0 36.400994189640187 158.75487049257026 0 158.75487049257026 44.608130054963112 0 0 0 0 -34.970524721567926 146.80444914966301 0 146.80444914966301 47.404573944313597 0 0 0 0 26.488718763866927 147.34195824485232 0 147.34195824485232 -37.485568088644868 0 0 0 0 -28.953708809742238 142.72304490391798 0 142.72304490391798 -28.276271591798832 0 0 0 0 26.271819508488989 148.62238154621537 0 148.62238154621537 -23.821707896999214 0 0 0 0 72.26402570825303 128.45611771307904 0 128.45611771307904 -48.170893820835772 0 0 0 0 102.63834725684865 179.84740668796121 0 179.84740668796121 -3.6495202859860001 0 0 0 0 -35.01416337628325 111.18944882812048 0 111.18944882812048 -30.113106076594249 0 0 0 0 -30.634916497831 154.47194554486964 0 154.47194554486964 -94.225318860082552 0 0 0 0 39.604401596683601 161.32576651404315 0 161.32576651404315 -55.590683319604068 0 0 0 0 -38.770983058266211 71.001602529282877 0 71.001602529282877 -111.99623381587844 0 0 0 0 -50.337089913336968 79.861819929474223 0 79.861819929474223 -71.339432978376863 0 0 0 0 66.940527453747563 -2.8882920266876226 0 -2.8882920266876226 -145.2914538475361 0 0 0 0 73.972574911837 27.944733799370169 0 27.944733799370169 -10.391884590706468 0 0 0 0 80.430956371128559 46.95005929517265 0 46.95005929517265 35.499461750865976 0 0 0 0 72.578998101635079 87.8007686982819 0 87.8007686982819 -115.43639834241094 0 0 0 0 194.02041335653848 67.472454566386205 0 67.472454566386205 -82.985082843226337 0 0 0 0 -9.9155155997555866 13.938774773993885 0 13.938774773993885 -5.2613964192361067 0 0 0 0 -21.704205640016283 30.392058469409982 0 30.392058469409982 2.0515356576469372 0 0 0 0 84.758414750576776 -188.87997949344845 0 -188.87997949344845 163.98267369827227 0 0 0 0 251.25695110324159 158.75034203336418 0 158.75034203336418 -39.160249686556199 0 0 0 0 -37.866675236524316 15.24713376424188 0 15.24713376424188 -3.2821389404070942 0 0 0 0 -45.355725537439866 4.0354852761947768 0 4.0354852761947768 -11.368771593483871 0 0 0 0 133.12536887454917 -24.317388626595857 0 -24.317388626595857 -83.279668970373677 0 0 0 0 128.41851963161025 -21.258482867196562 0 -21.258482867196562 -27.233532886175453 0 0 0 0 -48.424931269604713 3.8341142171166211 0 3.8341142171166211 -1.6404318231579964 0 0 0 0 -48.910538900607207 2.7132721886587206 0 2.7132721886587206 -4.0951240897056778 0 0 0 0 -7.2426747480823295 12.107243643354565 0 12.107243643354565 -10.019396191138291 0 0 0 0 -45.571328298719891 5.6609770159584514 0 5.6609770159584514 -4.7384127341792919 0 0 0 0 -40.820127517959946 -8.9290579508492129 0 -8.9290579508492129 -4.2503169224764505 0 0 0 0 -45.339506016738596 -21.86241681343563 0 -21.86241681343563 -12.680973813504352 0 0 0 0 -61.264333155268105 -15.941363342406703 0 -15.941363342406703 -14.864636771651931 0 0 0 0 70.341714576134109 -64.410757583864324 0 -64.410757583864324 37.073763787546341 0 0 0 0 124.09130303989514 -53.29149632109511 0 -53.29149632109511 -27.032358966316679 0 0 0 0 81.005960740338196 -24.515981179437404 0 -24.515981179437404 5.1321324418113363 0 0 0 0 3.309277599058845 2.5196355080378581 0 2.5196355080378581 -6.6576884839414916 0 0 0 0 -4.1314931050874293 -8.8134583888604539 0 -8.8134583888604539 -50.820432299207823 0 0 0 0 84.688494514331978 -95.443092374512162 0 -95.443092374512162 103.63493908613964 0 0 0 0 146.06224207623745 -201.67648697053119 0 -201.67648697053119 150.7005903116833 0 0 0 0 60.400615999416914 -30.039847339535299 0 -30.039847339535299 -6.0868642978093703 0 0 0 0 190.65651386103127 -111.67087053108116 0 -111.67087053108116 -13.139714946704771 0 0 0 0 130.97061356818085 -21.88262070001565 0 -21.88262070001565 -29.962429838542448 0 0 0 0 292.10944955583545 -107.8379567113243 0 -107.8379567113243 -24.479230942090339 0 0 0 0 80.801496604071872 9.2507095260816641 0 9.2507095260816641 -96.49343236451341 0 0 0 0 -32.948277994859382 -109.06801854954756 0 -109.06801854954756 -11.695386293668889 0 0 0 0 -55.689092886655999 -56.586714892916461 0 -56.586714892916461 -99.069967452362107 0 0 0 0 -120.17699834030645 36.344752632764539 0 36.344752632764539 -87.380317392413417 0 0 0 0 114.58090198040009 -80.147023002257811 0 -80.147023002257811 -48.011883554209817 0 0 0 0 26.78045271114388 -76.189781398544255 0 -76.189781398544255 -61.295889399984844 0 0 0 0 43.294940276144189 -69.13359829883666 0 -69.13359829883666 -58.2975594587042 0 0 0 0 73.403696731747914 -10.181912509291692 0 -10.181912509291692 -39.38838189553644 0 0 0 0 69.206035869530751 -67.731426900532824 0 -67.731426900532824 -85.042426294261531 0 0 0 0 14.814700198563514 -36.85854491263035 0 -36.85854491263035 -43.093799644390856 0 0 0 0 -44.488161661138292 -106.67323979096591 0 -106.67323979096591 -58.120696947815304 0 0 0 0 -18.091976507155778 -138.29032909651005 0 -138.29032909651005 -56.646332656691811 0 0 0 0 -9.5777567925579206 -77.046003341010419 0 -77.046003341010419 -44.967159403167898 0 0 0 0 -109.95223286400869 -15.648607504365827 0 -15.648607504365827 -52.86777365099806 0 0 0 0 -52.551074756032904 -142.0059397144355 0 -142.0059397144355 -70.107057769519088 0 0 0 0 72.343514718639199 -5.6729822793458879 0 -5.6729822793458879 43.515108018615138 0 0 0 0 200.51044571258535 -48.847654766506821 0 -48.847654766506821 -87.520450211348361 0 0 0 0 84.292330630065408 -163.91682081297586 0 -163.91682081297586 24.523381923522493 0 0 0 0 61.496105605488992 4.9908836408685602 0 4.9908836408685602 -52.621350553468801 0 0 0 0 64.300077642779797 66.434112313621881 0 66.434112313621881 -97.993265766202967 0 0 0 0 123.51016931209597 29.905222692311327 0 29.905222692311327 -91.969275384213688 0 0 0 0 0.99829248470203424 0.59778994447183109 0 0.59778994447183109 0.085830418318622037 0 0 0 0 -33.067743024672382 4.6970479913152303 0 4.6970479913152303 -53.719537744695117 0 0 0 0 -19.098122296127258 -25.587704505564034 0 -25.587704505564034 -60.284622719217168 0 0 0 0 0.55996792717976973 -0.067236110128334303 0 -0.067236110128334303 -0.68407911729641668 0 0 0 0 56.226294118678197 22.800475313075367 0 22.800475313075367 -11.170303209361009 0 0 0 0 12.875091713678557 5.9429605542300123 0 5.9429605542300123 -47.076705038496584 0 0 0 0 -12.349181327841507 -26.365327773627655 0 -26.365327773627655 -32.640771251818478 0 0 0 0 -1.3952309146441308 -9.0476230161620066 0 -9.0476230161620066 -23.166579970648009 0 0 0 0 -66.3375600699801 -37.950253126743519 0 -37.950253126743519 -24.599782863859218 0 0 0 0 -20.496535798468358 -18.246408882611149 0 -18.246408882611149 -16.663801960788987 0 0 0 0 5.7239665252825418 -7.4220946759511008 0 -7.4220946759511008 -23.763072432965679 0 0 0 0 -2.6163117629039334 -21.689756081350424 0 -21.689756081350424 -29.867847195502691 0 0 0 0 -1.7181563466639602 -3.4242885842944446 0 -3.4242885842944446 -4.9717746582265221 0 0 0 0 -0.23871051600588089 -5.0095216160624432 0 -5.0095216160624432 -15.288428935197881 0 0 0 0 -2.2116883190174121 -16.800829560508646 0 -16.800829560508646 -25.737763321794318 0 0 0 0 8.4493299822424888 -11.954500185898723 0 -11.954500185898723 -24.827031082601025 0 0 0 0 48.576121185906231 -27.520873847617622 0 -27.520873847617622 -50.062310111092302 0 0 0 0 14.726821815100266 -3.2637190596742585 0 -3.2637190596742585 -17.308362788025534 0 0 0 0 -13.725481114459399 -47.348798666671883 0 -47.348798666671883 -33.398654441123654 0 0 0 0 9.8848729534511222 -38.136065104539739 0 -38.136065104539739 -40.776721377911599 0 0 0 0 -3.2281360479755676 -3.2892022294520302 0 -3.2892022294520302 -9.7800518941585324 0 0 0 0 -12.342885636047868 -22.813405434235847 0 -22.813405434235847 -24.86465705115279 0 0 0 0 -0.41380775586836194 -5.5810201743927053 0 -5.5810201743927053 -10.811826413263542 0 0 0 0 -44.706020114288549 -29.556015652766291 0 -29.556015652766291 -15.389718195080604 0 0 0 0 -11.282308927842415 -5.5284922090193049 0 -5.5284922090193049 -5.6087067373346216 0 0 0 0 -24.432756849884754 -6.1703909077257322 0 -6.1703909077257322 -2.5318193823186448 0 0 0 0 -15.302161384592978 -17.10065646472664 0 -17.10065646472664 -12.214928811293721 0 0 0 0 -22.300269320592633 -28.469790292845573 0 -28.469790292845573 -17.924153715542161 0 0 0 0 -13.194438357921172 -43.134965016102569 0 -43.134965016102569 -22.158957976571401 0 0 0 0 -27.793457288447826 -40.994807359572405 0 -40.994807359572405 -19.927414539145502 0 0 0 0 -9.8667663045052905 -62.813897131232807 0 -62.813897131232807 -29.602823218114281 0 0 0 0 -38.190889098521438 -57.677266680992489 0 -57.677266680992489 -15.545041472718367 0 0 0 0 -37.591351934661361 -83.314212642428629 0 -83.314212642428629 -43.789644553493417 0 0 0 0 -53.128422274316108 -68.0474549657838 0 -68.0474549657838 -16.74223619199438 0 0 0 0 -68.645745893067215 -48.17752836343243 0 -48.17752836343243 3.8010711957649619 0 0 0 0 -39.903203487076098 -61.825732985696959 0 -61.825732985696959 -15.03547312395176 0 0 0 0 -38.781951496712281 -50.029171352643743 0 -50.029171352643743 3.3894194487420464 0 0 0 0 -29.140528141324467 -44.34697243071696 0 -44.34697243071696 -6.3471428122898033 0 0 0 0 -45.68865773315116 -24.374024444838291 0 -24.374024444838291 -12.974439531856923 0 0 0 0 -62.837096193077741 -89.019304082022842 0 -89.019304082022842 55.9466163061538 0 0 0 0 -44.56779974179517 -55.12956907742182 0 -55.12956907742182 24.321626907137215 0 0 0 0 -1.4290781387717288 -61.327414752957935 0 -61.327414752957935 -42.236097636486534 0 0 0 0 -32.96463824075181 -22.363694856594691 0 -22.363694856594691 -11.123640024473843 0 0 0 0 -91.028323251914117 -109.43685908398291 0 -109.43685908398291 -0.65561383229644243 0 0 0 0 -61.331216379567195 -61.299696042278818 0 -61.299696042278818 -41.10502305576199 0 0 0 0 0.12663649590405157 -0.0081383045050742453 0 -0.0081383045050742453 -0.091308396350360144 0 0 0 0 -0.61332658148603514 -0.96935120288437893 0 -0.96935120288437893 -0.00035333585935447726 0 0 0 0 -12.701523604831891 -60.385362865751176 0 -60.385362865751176 -137.32705918784248 0 0 0 0 -19.009193044461426 -25.402868217328077 0 -25.402868217328077 -45.700946680410112 0 0 0 0 -61.12591822106333 73.602548121976099 0 73.602548121976099 -51.016898785317096 0 0 0 0 -9.1804939537905739 -0.80147033436524995 0 -0.80147033436524995 -0.006923258975224722 0 0 0 0 -0.8526681674751444 -0.32002966587894832 0 -0.32002966587894832 -0.39011336192842105 0 0 0 0 0.55182376700846447 -0.24137568195322956 0 -0.24137568195322956 0.76829002930692647 0 0 0 0 -47.550872067011369 -265.12419462209613 0 -265.12419462209613 0.052270391535883219 0 0 0 0 -41.16099136383491 -16.101407762285259 0 -16.101407762285259 -9.6233376227039003 0 0 0 0 -244.28640594400713 -0.29795618037707072 0 -0.29795618037707072 16.887686381876364 0 0 0 0 -80.306179695922765 69.07954214916569 0 69.07954214916569 7.8841288325045298 0 0 0 0 -96.809226333352854 -9.1289739044913745 0 -9.1289739044913745 50.904073290943018 0 0 0 0 -8.8188991598150821 -2.1567064669328033 0 -2.1567064669328033 4.243218133090461 0 0 0 0 -31.076454674723209 -30.011472340392913 0 -30.011472340392913 -12.236137682244816 0 0 0 0 -108.90829719898466 -24.180196588483398 0 -24.180196588483398 54.995288310526064 0 0 0 0 -29.182688344755206 -45.261050731484048 0 -45.261050731484048 -16.494636562872984 0 0 0 0 -45.918746022225037 -26.155125511003071 0 -26.155125511003071 -14.438813924449267 0 0 0 0 -70.438993130577728 -10.667228575571812 0 -10.667228575571812 8.6478668589077188 0 0 0 0 -25.239591505273154 -9.581870711028003 0 -9.581870711028003 -5.1965657371507437 0 0 0 0 -42.340855473434203 1.1712205921560326 0 1.1712205921560326 -1.7024427067077568 0 0 0 0 -8.5086379866289334 6.5259762436705557 0 6.5259762436705557 -0.3018908372017215 0 0 0 0 -1122.5386697480499 279.09259382264355 0 279.09259382264355 -0.16108278377983481 0 0 0 0 -14.907053816255939 32.962968131202842 0 32.962968131202842 -27.878955001831855 0 0 0 0 -3.6029866067983676 59.025281565682235 0 59.025281565682235 28.459601580966819 0 0 0 0 -26.74998617550591 -0.12144799277905349 0 -0.12144799277905349 1.3627081655215818 0 0 0 0 -6.4054755670959125 9.89369897621836 0 9.89369897621836 -4.6648523531522246 0 0 0 0 -43.143508719069359 3.424845798912429 0 3.424845798912429 -5.0213412389100256 0 0 0 0 -30.358379782686825 5.3006571461006899 0 5.3006571461006899 -5.3329493490848563 0 0 0 0 -5.4771575893207682 0.5166372616385928 0 0.5166372616385928 -1.5391849453191866 0 0 0 0 -75.423648466115992 -11.687728231200396 0 -11.687728231200396 -105.17878010745424 0 0 0 0 -289.40538898302475 310.57147902680492 0 310.57147902680492 -169.26003852251944 0 0 0 0 -21.752546909810405 -8.6679727131841275 0 -8.6679727131841275 1.3919188019775752 0 0 0 0 -316.00536164506775 244.65342074286312 0 244.65342074286312 -132.12807524086381 0 0 0 0 -3.9112658766632222 0.071713153431687715 0 0.071713153431687715 -0.17473345376132618 0 0 0 0 -18.90001784046035 2.2613184897264156 0 2.2613184897264156 1.0696388654902524 0 0 0 0 -359.93229945762869 185.34468498662324 0 185.34468498662324 -209.95300389875794 0 0 0 0 -912.88408337108558 104.87562568156733 0 104.87562568156733 -149.88763878371338 0 0 0 0 -367.83627844584407 191.72217188067918 0 191.72217188067918 -245.40378144944481 0 0 0 0 -1187.4873056340548 447.0679758684833 0 447.0679758684833 -233.65580636099719 0 0 0 0 -1902.1850883960433 406.25413595383259 0 406.25413595383259 66.571744270205357 0 0 0 0 -1101.9705551688676 118.91355983511019 0 118.91355983511019 -244.04702703929507 0 0 0 0 -363.5900402636762 -74.782968774030905 0 -74.782968774030905 -40.84110048686847 0 0 0 0 -1011.1007088456463 317.50261281550752 0 317.50261281550752 -57.086196989406403 0 0 0 0 -476.65702578060154 238.16173657390158 0 238.16173657390158 14.342405690037083 0 0 0 0 -618.47547365547507 46.88054513936126 0 46.88054513936126 -179.26653979414834 0 0 0 0 -63.201781199641118 -28.020283630782274 0 -28.020283630782274 201.3593589903885 0 0 0 0 -301.79874964769988 258.31058723748583 0 258.31058723748583 -309.58634457784012 0 0 0 0 -23.102642285926407 -13.035409404782712 0 -13.035409404782712 -1.3898886194078353 0 0 0 0 1.8983320337720215 503.41593369976636 0 503.41593369976636 229.12565355587503 0 0 0 0 -1414.7816369998764 347.0107345380423 0 347.0107345380423 66.059872468276183 0 0 0 0 -1043.1531902551069 446.8663627494584 0 446.8663627494584 -191.72215610945386 0 0 0 0 -1014.9996423943521 551.7660003226141 0 551.7660003226141 -109.8459883979358 0 0 0 0 -20.294975331939725 -10.858072621301275 0 -10.858072621301275 -2.3669919278648939 0 0 0 0 -1145.9705252928106 445.22609220643062 0 445.22609220643062 -143.13347618113505 0 0 0 0 -1196.1474728492758 363.64468693078902 0 363.64468693078902 -167.44286861759633 0 0 0 0 72.87439880820466 62.148597353213461 0 62.148597353213461 -52.609419747184802 0 0 0 0 88.583304164124456 -86.729388909402687 0 -86.729388909402687 -171.9579745395954 0 0 0 0 -160.23100610692927 -189.33130328006882 0 -189.33130328006882 -170.69254813224291 0 0 0 0 -46.7376972126076 25.340317167411285 0 25.340317167411285 -231.77355200620696 0 0 0 0 76.758757021028941 -373.82753458240211 0 -373.82753458240211 -361.86687108511978 0 0 0 0 -289.41424870955234 -56.010156611680031 0 -56.010156611680031 135.04404567696793 0 0 0 0 -153.58656051279104 -21.554958936411367 0 -21.554958936411367 52.793806459751977 0 0 0 0 -169.42313183170336 -132.06157531325425 0 -132.06157531325425 119.73076753158966 0 0 0 0 -240.69227284454973 88.138622811722144 0 88.138622811722144 -77.634082067266718 0 0 0 0 -0.77891399876111223 1.1274984474951566 0 1.1274984474951566 -3.7458560657012772 0 0 0 0 -187.07839969995166 -17.360022769344965 0 -17.360022769344965 53.212153228015268 0 0 0 0 6.2813691747142002 12.396320172763353 0 12.396320172763353 -285.73955616924195 0 0 0 0 -2.0934833329085052 4.4804943924596614 0 4.4804943924596614 -5.7134294522406179 0 0 0 0 14.565672514931066 -54.02978446531688 0 -54.02978446531688 -138.63716222194398 0 0 0 0 -13.802667406709588 -5.5485297581345776 0 -5.5485297581345776 -12.770670375702139 0 0 0 0 -8.1003878182382323 0.17833745818552416 0 0.17833745818552416 -9.0589011280676459 0 0 0 0 -6.7885044037254545 -1.8410425058267421 0 -1.8410425058267421 -2.1363344327866152 0 0 0 0 -8.8981276514823548 1.1923261208312397 0 1.1923261208312397 -7.9188699578412525 0 0 0 0 0.14711681491456829 -3.1432235073560406 0 -3.1432235073560406 -8.8552154225658981 0 0 0 0 -2.3589224435327765 3.1455167154108494 0 3.1455167154108494 -6.5826254999429885 0 0 0 0 -13.712091307679657 -9.1541106562308414 0 -9.1541106562308414 -36.907320491827704 0 0 0 0 -120.09181675592117 -50.349931687422895 0 -50.349931687422895 -56.662902062465946 0 0 0 0 5.5770438989857212 61.643876434121921 0 61.643876434121921 -50.118996218195207 0 0 0 0 -27.037778072495712 -91.485998589574137 0 -91.485998589574137 -74.348301415619915 0 0 0 0 -58.711731888528448 -83.050935904830567 0 -83.050935904830567 -66.960249398738597 0 0 0 0 -38.834041000214711 -57.596300370021851 0 -57.596300370021851 -83.6044315479121 0 0 0 0 0.6701398928562412 21.300790953289834 0 21.300790953289834 -25.347737781596152 0 0 0 0 0.77371323243056622 1.933657955294521 0 1.933657955294521 -1.3426972875522871 0 0 0 0 -64.945294444114552 -66.640490080358177 0 -66.640490080358177 -55.849709464774605 0 0 0 0 -58.281981210864615 -25.516050867723607 0 -25.516050867723607 -56.571833837982012 0 0 0 0 -38.544029196418705 -60.773859765485014 0 -60.773859765485014 -78.973522795637109 0 0 0 0 -48.339145447971532 -63.663312983328979 0 -63.663312983328979 -68.88553472112244 0 0 0 0 -66.626455340025132 -68.971519060815808 0 -68.971519060815808 -1.1721022299425385 0 0 0 0 -69.169191264251822 -28.777179367293741 0 -28.777179367293741 17.589614805460769 0 0 0 0 -142.21157427908838 -18.153657062115599 0 -18.153657062115599 31.699020164425747 0 0 0 0 -151.63583746931545 -9.9182284442140372 0 -9.9182284442140372 20.974509054675309 0 0 0 0 -133.39443449804457 -13.187347328922897 0 -13.187347328922897 -24.346757666186932 0 0 0 0 -133.84277513541019 -289.1882757642606 0 -289.1882757642606 -189.65752076118997 0 0 0 0 -0.85425753531519177 -3.4875089654759535 0 -3.4875089654759535 -3.4149174228147423 0 0 0 0 244.95849724736763 -81.052128522179146 0 -81.052128522179146 -347.24979731229132 0 0 0 0 -246.36103683248075 204.12213306837248 0 204.12213306837248 25.001232089910445 0 0 0 0 -0.81023611285280595 -1.8288249378700527 0 -1.8288249378700527 -2.0421350903976609 0 0 0 0 -367.56280293817326 -23.704331208344229 0 -23.704331208344229 3.9725225910169684 0 0 0 0 -2076.6374380076959 509.32645606985318 0 509.32645606985318 -788.49281505707017 0 0 0 0 -1411.1706371619293 928.50167036511812 0 928.50167036511812 -547.0647047371765 0 0 0 0 -1043.9096788794195 -436.10229132326867 0 -436.10229132326867 -135.11393359645263 0 0 0 0 -272.88701981994018 593.17958628032954 0 593.17958628032954 -257.42266567790375 0 0 0 0 -2237.2922955713002 762.36615920080271 0 762.36615920080271 -127.60425516152054 0 0 0 0 -2342.7049604926433 869.15047385479397 0 869.15047385479397 -449.54862341297417 0 0 0 0 -2223.2263227609947 721.04521016376157 0 721.04521016376157 -293.43368486867985 0 0 0 0 -818.70321145025991 1228.7977954743901 0 1228.7977954743901 94.812209108156708 0 0 0 0 -1714.823507120178 1470.0369006595379 0 1470.0369006595379 -1181.5411766684356 0 0 0 0 -1951.5095657420461 1248.775272520438 0 1248.775272520438 -323.87273606167673 0 0 0 0 -1251.3271377123529 705.41663743568097 0 705.41663743568097 -406.88431347941639 0 0 0 0 -793.39171748614694 125.67858530912198 0 125.67858530912198 -663.72113806050106 0 0 0 0 -2.1842608127060714 -0.21225365673350893 0 -0.21225365673350893 -2.5506584879758059 0 0 0 0 -2776.8103748447757 677.16011128519403 0 677.16011128519403 -249.92547399011266 0 0 0 0 -10.239374305588143 -4.7088587738351322 0 -4.7088587738351322 -3.6008037304477343 0 0 0 0 -2636.9164114752202 1161.2233518529729 0 1161.2233518529729 -333.68138164814559 0 0 0 0 -2240.2974131548908 699.88733825604004 0 699.88733825604004 -56.306568438468275 0 0 0 0 -1325.3078123545565 -177.75857984950426 0 -177.75857984950426 -123.53175574237787 0 0 0 0 -999.18533496832242 295.32252328487129 0 295.32252328487129 -400.19638570237134 0 0 0 0 -150.82237729753979 15.73416130335977 0 15.73416130335977 -286.79033555822866 0 0 0 0 -1110.8073064257514 105.37623461114015 0 105.37623461114015 224.23817641231335 0 0 0 0 -154.66280752767489 -84.827840961925631 0 -84.827840961925631 -135.23486314874458 0 0 0 0 -1029.8860525232849 340.24968849738258 0 340.24968849738258 61.77408103821017 0 0 0 0 -1829.9852946624451 248.72808659915324 0 248.72808659915324 172.47711515203912 0 0 0 0 -2241.9074842368209 514.06222581229122 0 514.06222581229122 -243.17772066370389 0 0 0 0 -2116.2285514420873 742.47875774789759 0 742.47875774789759 5.639464521360992 0 0 0 0 -1942.2536583166147 681.28264903126956 0 681.28264903126956 -809.11090012428485 0 0 0 0 -9.2587062455241949 -3.5136821650864078 0 -3.5136821650864078 -0.82595206173961699 0 0 0 0 -2372.7408929434241 1188.2850824166574 0 1188.2850824166574 -509.13818310958641 0 0 0 0 -1294.3970108509257 625.67141388712253 0 625.67141388712253 -220.74465233408205 0 0 0 0 -1925.1609337159316 692.06454131292423 0 692.06454131292423 5.3507507149933531 0 0 0 0 -2076.6187617805481 507.16196969151054 0 507.16196969151054 160.34932726790771 0 0 0 0 -2035.2881384985885 475.31009009612848 0 475.31009009612848 156.80750640339329 0 0 0 0 -2063.978864895791 490.09498130584535 0 490.09498130584535 176.46616868995852 0 0 0 0 -2046.7474142912106 492.0108221919084 0 492.0108221919084 140.9203365293472 0 0 0 0 -1864.2043478258565 490.44674037588135 0 490.44674037588135 111.66368119178033 0 0 0 0 -3011.3383249575418 296.51930806334599 0 296.51930806334599 122.47774715136757 0 0 0 0 -1653.105325817749 101.02507498551006 0 101.02507498551006 -445.5402418826522 0 0 0 0 -1956.827992005532 1419.6304204454609 0 1419.6304204454609 -891.30183323225162 0 0 0 0 -16.431386697456134 0.61297004381363962 0 0.61297004381363962 0.90177973823269786 0 0 0 0 -2426.6155187838831 -257.2510585347257 0 -257.2510585347257 909.56862702837259 0 0 0 0 -1970.2081105485995 814.99916056616564 0 814.99916056616564 -337.60239378852424 0 0 0 0 -294.85126986778778 110.70695212285632 0 110.70695212285632 0.64165526977650567 0 0 0 0 -36.750944527995443 -0.80644974597377228 0 -0.80644974597377228 2.9754740036262124 0 0 0 0 -304.29523431823327 1.5066175391309375 0 1.5066175391309375 342.82020715235529 0 0 0 0 4.0320552885532379 -54.692763269380976 0 -54.692763269380976 -159.69665780535337 0 0 0 0 -514.24357379613502 17.942818002669341 0 17.942818002669341 98.686155445767326 0 0 0 0 -409.58008775097551 496.17910768630105 0 496.17910768630105 -353.41329144727393 0 0 0 0 -882.12180862278819 404.7088965955158 0 404.7088965955158 -130.03487242885308 0 0 0 0 -1788.3233984579347 763.70366799266492 0 763.70366799266492 -0.42450761420889194 0 0 0 0 -906.75578134649186 197.89189541926456 0 197.89189541926456 122.43283083970005 0 0 0 0 -829.94609731712626 -3.6612826740687319 0 -3.6612826740687319 -0.81506133618438592 0 0 0 0 -27.154464470571838 -1.1782032184369768 0 -1.1782032184369768 -3.951726787675895 0 0 0 0 -24.261905671351997 -6.8074655244307536 0 -6.8074655244307536 -4.9636460461258878 0 0 0 0 -25.862996052315793 -4.0755295034553072 0 -4.0755295034553072 -0.23818447217659566 0 0 0 0 -29.190043739319663 -7.0735635859400503 0 -7.0735635859400503 6.0440620406983498 0 0 0 0 -6.8159459945261052 -5.5332588562046681 0 -5.5332588562046681 1.103119962672886 0 0 0 0 -33.666095791792031 -1.691670587867776 0 -1.691670587867776 5.0528349418693779 0 0 0 0 -27.901777585844684 -8.4164287073554078 0 -8.4164287073554078 -0.33619306475472399 0 0 0 0 -27.227336054846404 -9.3755500671210754 0 -9.3755500671210754 0.27629620654954296 0 0 0 0 -276.88162923778145 207.19764721428155 0 207.19764721428155 204.87134855432791 0 0 0 0 -199.50230296337213 299.95453243700354 0 299.95453243700354 -105.36423486330028 0 0 0 0 -2491.9996225468276 1246.2815379912099 0 1246.2815379912099 -12.228279575460512 0 0 0 0 -13.960237607560316 -0.87031645734336394 0 -0.87031645734336394 -0.27754642045259037 0 0 0 0 -18.863144473907596 -3.8344617114109809 0 -3.8344617114109809 1.9650734907951488 0 0 0 0 -17.578088168047543 -1.7835020471703302 0 -1.7835020471703302 -1.2187059278521701 0 0 0 0 -7.0688080689716628 -0.75055755050240691 0 -0.75055755050240691 1.0279601418809343 0 0 0 0 -2496.9949588826425 -1558.4233708318184 0 -1558.4233708318184 -744.46943913233315 0 0 0 0 -1233.7650917560604 -735.30394590397759 0 -735.30394590397759 -208.35340840346825 0 0 0 0 -2499.9869107287086 -761.70126289933989 0 -761.70126289933989 275.55629915622097 0 0 0 0 -16.818199850667241 3.8270515558005656 0 3.8270515558005656 2.6557836405638664 0 0 0 0 -1272.5359619134751 -465.09877658258756 0 -465.09877658258756 17.164989747497771 0 0 0 0 -25.713242197729414 -3.1172566951702265 0 -3.1172566951702265 -5.0816889665827549 0 0 0 0 0.26240403634848519 -5.5360769982153073 0 -5.5360769982153073 -6.6589089063923943 0 0 0 0 -26.146343721920857 -4.6170421645135207 0 -4.6170421645135207 -9.5932182865109326 0 0 0 0 -34.801615181298985 -4.9491030238118867 0 -4.9491030238118867 -4.9070021470083702 0 0 0 0 -29.926792440346617 -4.5073817975437578 0 -4.5073817975437578 -9.2481090017914482 0 0 0 0 -365.40441721866318 271.75676513081851 0 271.75676513081851 178.18390884715063 0 0 0 0 -18.940787282605328 5.6933042935903657 0 5.6933042935903657 0.91392962863266192 0 0 0 0 -3.4678605503976749 -4.8469992038252627 0 -4.8469992038252627 -9.4304633504235742 0 0 0 0 -316.98498943257437 -244.09601702018369 0 -244.09601702018369 -141.1316112099129 0 0 0 0 -1276.0421118803497 -442.62045592262319 0 -442.62045592262319 6.2866116711540769 0 0 0 0 -560.49849281130446 132.36427036395511 0 132.36427036395511 -92.973909112238516 0 0 0 0 -4.1442694212240987 1.617636734187812 0 1.617636734187812 -2.5768956674666055 0 0 0 0 518.60674202650262 59.713123913134325 0 59.713123913134325 -409.04598129627396 0 0 0 0 -283.77412569014996 -132.04150115557624 0 -132.04150115557624 109.64306100585866 0 0 0 0 -272.05990366235346 472.14836926216782 0 472.14836926216782 -430.63867256849829 0 0 0 0 -17.397142099044544 -10.801067624704658 0 -10.801067624704658 -7.5634412165147014 0 0 0 0 -947.96215470821335 426.56545097398487 0 426.56545097398487 -432.15460990703502 0 0 0 0 -840.60071125542163 438.15634482470932 0 438.15634482470932 -766.21908461357907 0 0 0 0 -1479.1519005899245 280.47059598139828 0 280.47059598139828 -169.5056567661625 0 0 0 0 -754.8446542386082 -130.07915706627983 0 -130.07915706627983 -149.53164340422012 0 0 0 0 -2037.0597891284742 -449.16475080984554 0 -449.16475080984554 16.639079764691814 0 0 0 0 -2500.2178293343386 -434.30445797555501 0 -434.30445797555501 102.29259549753657 0 0 0 0 -1917.7845583419312 -637.25593699334934 0 -637.25593699334934 168.87190813523495 0 0 0 0 -1680.8675319593131 -195.96527477538709 0 -195.96527477538709 155.49384851506233 0 0 0 0 -33.174664849677356 -7.7022985558432993 0 -7.7022985558432993 3.4097509208836527 0 0 0 0 -27.523333142277238 -2.2117603339617844 0 -2.2117603339617844 8.6776807645163423 0 0 0 0 -25.147180014944752 -19.007089937196724 0 -19.007089937196724 -14.835783021316274 0 0 0 0 -38.207919310856596 -3.3294295558987983 0 -3.3294295558987983 -8.7600847787407474 0 0 0 0 -41.4662664780044 -14.316093754465328 0 -14.316093754465328 10.109161199398841 0 0 0 0 -31.79057491212734 -0.23953609790009978 0 -0.23953609790009978 -7.0669131071845186 0 0 0 0 -51.03729395873961 6.2764899939102179 0 6.2764899939102179 23.066487056032202 0 0 0 0 -39.973097140042228 -11.937053660486526 0 -11.937053660486526 1.4492437417275141 0 0 0 0 -29.042800506591448 -9.6795542998352175 0 -9.6795542998352175 -2.1999560940712399 0 0 0 0 -31.450203435000731 -15.253466831290552 0 -15.253466831290552 -6.5063872862383505 0 0 0 0 -25.861663637158927 -15.236335692303101 0 -15.236335692303101 -1.2881918082293851 0 0 0 0 -15.687070445739664 -2.1090272803994594 0 -2.1090272803994594 33.714512557813578 0 0 0 0 -18.060409090180002 -4.3903922520259471 0 -4.3903922520259471 5.7204932568315687 0 0 0 0 -6.339241333773856 -2.6418476742790773 0 -2.6418476742790773 -1.0632454460137168 0 0 0 0 -30.409346817679761 -17.446849222314086 0 -17.446849222314086 -2.3516126217782585 0 0 0 0 -32.509392060128448 -16.55934164766586 0 -16.55934164766586 4.0603124019435199 0 0 0 0 -27.417824572134123 -14.041219752370125 0 -14.041219752370125 0.65107011314648844 0 0 0 0 -34.240854914103693 -4.475544929332159 0 -4.475544929332159 15.163807254197309 0 0 0 0 -23.386666473525111 -25.248055040707641 0 -25.248055040707641 27.162880855216841 0 0 0 0 -25.660531333684048 -20.670508613586549 0 -20.670508613586549 27.010864022925489 0 0 0 0 -12.474426373577444 -14.307833031880591 0 -14.307833031880591 17.41787183913948 0 0 0 0 -19.489572617023015 -10.483208564412656 0 -10.483208564412656 9.1749474091814314 0 0 0 0 -28.754812489479121 -1.9434178574319034 0 -1.9434178574319034 5.2484189905380996 0 0 0 0 -34.734444933463237 -0.88660653112401633 0 -0.88660653112401633 3.7541815072827376 0 0 0 0 -20.031868417005171 -29.758316393208588 0 -29.758316393208588 73.106367179239896 0 0 0 0 -19.481536230770871 -34.59380392389032 0 -34.59380392389032 61.267505151611203 0 0 0 0 -21.163862615520031 -6.527081366360477 0 -6.527081366360477 -1.5545195587170433 0 0 0 0 -33.109933102097784 -0.81436044804564744 0 -0.81436044804564744 3.7573845869119396 0 0 0 0 -31.038103548122763 -4.4452254251573891 0 -4.4452254251573891 1.6271434743426179 0 0 0 0 -34.005366202487494 -25.794167962593974 0 -25.794167962593974 43.986870442079635 0 0 0 0 -29.536376501031555 -5.963235239691187 0 -5.963235239691187 0.11100015724696277 0 0 0 0 -33.385536506801145 -8.6707059555396881 0 -8.6707059555396881 40.845055589543449 0 0 0 0 -28.562560084239522 -11.923027487418949 0 -11.923027487418949 10.537026340683951 0 0 0 0 -34.45266439174884 -19.234453628373558 0 -19.234453628373558 28.867702751042998 0 0 0 0 -32.615707374927297 -7.1860072411825513 0 -7.1860072411825513 14.185819394959253 0 0 0 0 -36.642973807785893 -7.9916072725386584 0 -7.9916072725386584 24.655658206535009 0 0 0 0 -19.014985084897489 -13.52106354798525 0 -13.52106354798525 23.427578218443045 0 0 0 0 -20.700354180517024 -24.316180621289277 0 -24.316180621289277 27.218756514473398 0 0 0 0 -32.698690484372491 -5.3907863072008695 0 -5.3907863072008695 33.513508837372228 0 0 0 0 -39.210300732869655 -15.270901720768393 0 -15.270901720768393 32.373794663545709 0 0 0 0 -43.875309308190481 -9.1830971788012903 0 -9.1830971788012903 26.47138628123912 0 0 0 0 -34.543177519153687 -10.031896110033358 0 -10.031896110033358 23.885660047476449 0 0 0 0 -40.489056992446422 -3.9321289416116088 0 -3.9321289416116088 18.890014865676221 0 0 0 0 -33.566311575792497 -11.476214433049563 0 -11.476214433049563 20.839489174862024 0 0 0 0 -37.771560390712693 -3.7950879972377152 0 -3.7950879972377152 21.617688370582528 0 0 0 0 -42.414946746497662 -0.68547752367419434 0 -0.68547752367419434 19.90929314836103 0 0 0 0 -44.131055598598323 -6.8296222867670622 0 -6.8296222867670622 26.234840570788492 0 0 0 0 -44.305753740190994 0.52491294638139152 0 0.52491294638139152 11.568196807801542 0 0 0 0 -46.14578189884196 -2.563640120177979 0 -2.563640120177979 19.038502620357121 0 0 0 0 -51.033132628508611 0.35635644403828337 0 0.35635644403828337 11.666776218948826 0 0 0 0 -44.935129059100291 0.19489574733734116 0 0.19489574733734116 8.3856010635190614 0 0 0 0 -46.752942035869637 -9.5754003090200968 0 -9.5754003090200968 13.837618961257476 0 0 0 0 -48.139619593857788 -6.5148582650149365 0 -6.5148582650149365 18.178526222195615 0 0 0 0 -1.0105363811308052 8.4209128499478538 0 8.4209128499478538 7.361242016383585 0 0 0 0 -32.829195638027159 18.86000152249153 0 18.86000152249153 11.4388923318038 0 0 0 0 -33.984148292787722 3.8152048388728872 0 3.8152048388728872 16.209650278675554 0 0 0 0 -35.273987843596842 3.6115415632650638 0 3.6115415632650638 16.193854378032825 0 0 0 0 -44.756924052010618 8.4931764912335552 0 8.4931764912335552 16.884299486956479 0 0 0 0 -50.280630409572041 3.4137489722997998 0 3.4137489722997998 13.922401622312009 0 0 0 0 -37.497845837075147 22.309918815071796 0 22.309918815071796 14.113708738637797 0 0 0 0 -49.01704640922253 18.446825817812623 0 18.446825817812623 26.748303132563706 0 0 0 0 -41.575301055338059 0.75879433578575117 0 0.75879433578575117 7.9874746148761915 0 0 0 0 -55.302853032422718 20.40523386897587 0 20.40523386897587 -19.300614863046576 0 0 0 0 -57.205676320278144 6.3590531999926725 0 6.3590531999926725 12.944030772946462 0 0 0 0 -64.237111310205364 -2.6329173339454428 0 -2.6329173339454428 3.5935649179400571 0 0 0 0 -76.700862465411774 21.654064156426102 0 21.654064156426102 -14.693783653164701 0 0 0 0 -23.041145764820286 -2.6484042774985568 0 -2.6484042774985568 -3.252169082145187 0 0 0 0 -232.4079084354089 13.250169491283486 0 13.250169491283486 107.33858415290888 0 0 0 0 -58.768168448346842 -7.2686234788866386 0 -7.2686234788866386 -4.0496350949324551 0 0 0 0 -45.843701795165543 -6.1843722922635607 0 -6.1843722922635607 -3.9899308913172717 0 0 0 0 -51.127209054076957 -5.5506328819628834 0 -5.5506328819628834 -3.3097330307318771 0 0 0 0 -53.047127775098488 -7.0509228463001818 0 -7.0509228463001818 -21.785105144479985 0 0 0 0 -53.127241190515633 1.61756660403762 0 1.61756660403762 -6.1359080886606989 0 0 0 0 -46.349552259111078 -19.450775381827953 0 -19.450775381827953 -23.873496107084975 0 0 0 0 -37.84489945215401 3.230975247910294 0 3.230975247910294 5.7619285120359525 0 0 0 0 -66.910779183392151 -20.498235954059055 0 -20.498235954059055 12.34885524459969 0 0 0 0 -48.247181462104237 3.6550215352561359 0 3.6550215352561359 2.9282321972559533 0 0 0 0 -48.626286967010856 27.471174651235174 0 27.471174651235174 5.2469764569568724 0 0 0 0 -84.36925771922688 -0.89820457339010318 0 -0.89820457339010318 54.361400497497016 0 0 0 0 -52.547231601748251 3.939019843046502 0 3.939019843046502 3.5139376846646435 0 0 0 0 -86.327035829948727 -13.872754947159592 0 -13.872754947159592 -23.182564235990185 0 0 0 0 -82.523515039341873 -13.780328713608469 0 -13.780328713608469 53.060002574118698 0 0 0 0 -44.530976580033361 -4.5373816801360647 0 -4.5373816801360647 5.8358908811182015 0 0 0 0 -41.850698105433352 -14.988068671153055 0 -14.988068671153055 6.2830377116240683 0 0 0 0 -49.498964688684282 -75.773537221407423 0 -75.773537221407423 114.66241618201548 0 0 0 0 -56.179968058757368 -21.659462069696019 0 -21.659462069696019 37.021150281372684 0 0 0 0 -49.815491743195707 -6.7652882111849522 0 -6.7652882111849522 25.815804740179374 0 0 0 0 -58.5821464658531 2.2739255955789375 0 2.2739255955789375 6.5949638091432456 0 0 0 0 -136.02389550202497 116.13765173206139 0 116.13765173206139 -34.558979887715395 0 0 0 0 -49.557766206759965 -12.711305254879573 0 -12.711305254879573 -0.61338548408604332 0 0 0 0 -61.328512986452552 -15.309314994362012 0 -15.309314994362012 -3.3197456895966297 0 0 0 0 -108.2433091228595 4.0970923645509174 0 4.0970923645509174 -49.234147714247229 0 0 0 0 -64.774671094593941 -40.602215951135804 0 -40.602215951135804 37.613203635735772 0 0 0 0 -67.135389222281788 -78.749695596656267 0 -78.749695596656267 21.650081467730459 0 0 0 0 -104.3298294178386 -19.936646195288738 0 -19.936646195288738 5.3867816906139154 0 0 0 0 -49.268545441591414 -24.05997168635804 0 -24.05997168635804 133.06297107119462 0 0 0 0 -63.550269194516645 35.831971594628996 0 35.831971594628996 5.7528381776248008 0 0 0 0 -72.991924480477252 0.049549146276383293 0 0.049549146276383293 13.578027853835119 0 0 0 0 -60.58965419830929 -37.182021490320039 0 -37.182021490320039 40.397405055571653 0 0 0 0 -25.564889233065571 4.2255106712135841 0 4.2255106712135841 8.5001637012648175 0 0 0 0 -116.2689481857642 55.644742736773424 0 55.644742736773424 121.25758172705173 0 0 0 0 -102.05388447490986 -7.3461964302550768 0 -7.3461964302550768 68.987591386176064 0 0 0 0 -92.935735769147513 -9.1773590155088023 0 -9.1773590155088023 7.8312977984277055 0 0 0 0 -6.844540403935067 -6.1884176510441105 0 -6.1884176510441105 3.3549920285858761 0 0 0 0 -21.403260378878258 -135.17815087203098 0 -135.17815087203098 -52.258251414148162 0 0 0 0 -75.857296672370921 6.4972295174460122 0 6.4972295174460122 4.969168891030086 0 0 0 0 -371.9238592836391 129.20456075105972 0 129.20456075105972 208.28449274397371 0 0 0 0 -59.100611465092697 -98.269678208875575 0 -98.269678208875575 36.039820423553465 0 0 0 0 -253.46041469503803 26.933640909563337 0 26.933640909563337 54.276768573682602 0 0 0 0 -277.44076102434701 -25.510598247993585 0 -25.510598247993585 80.936528412423286 0 0 0 0 -296.94640431533753 -101.43920798372346 0 -101.43920798372346 -77.794876293105744 0 0 0 0 -124.17910267321093 25.160955692094376 0 25.160955692094376 14.87826435084844 0 0 0 0 -334.82527100604796 40.552354832965079 0 40.552354832965079 55.23101003922784 0 0 0 0 -53.685356531179423 -27.813336452854855 0 -27.813336452854855 77.117429320743668 0 0 0 0 -20.31726943918602 -76.486817463560897 0 -76.486817463560897 45.848550750113645 0 0 0 0 -31.024131454278177 -18.564528282714946 0 -18.564528282714946 15.424992260274394 0 0 0 0 -28.987372196211254 -64.126492017391911 0 -64.126492017391911 54.910750183127675 0 0 0 0 -46.049334795931827 -4.898538569966604 0 -4.898538569966604 -78.795231005893129 0 0 0 0 -127.20026847967748 -49.411083208675976 0 -49.411083208675976 6.5397223690724786 0 0 0 0 -42.292337618326997 -37.6259377508689 0 -37.6259377508689 -2.485338286809565 0 0 0 0 -37.492046229320295 -25.856191817855233 0 -25.856191817855233 10.054632524780118 0 0 0 0 -20.63622523180311 -49.902938774746417 0 -49.902938774746417 13.75900281594113 0 0 0 0 -18.043384912867857 -9.3509750589741252 0 -9.3509750589741252 14.680422038763481 0 0 0 0 -51.247718219326089 -31.72705571328288 0 -31.72705571328288 4.1634583323452716 0 0 0 0 -61.368604032431904 -18.443579882328777 0 -18.443579882328777 11.797039377728652 0 0 0 0 -40.263479946712323 -22.348861193609991 0 -22.348861193609991 3.10674539624506 0 0 0 0 -51.942299728860235 -10.323829006561482 0 -10.323829006561482 -6.0095385805489059 0 0 0 0 -55.397564000209009 -17.223818313039715 0 -17.223818313039715 1.6301289229238272 0 0 0 0 -50.165380691826783 -10.564822289872914 0 -10.564822289872914 2.4196359879335816 0 0 0 0 -39.555532458318638 -2.418699799758846 0 -2.418699799758846 -0.44751640774249779 0 0 0 0 -47.677041133447347 0.38552294541023002 0 0.38552294541023002 18.896468581669978 0 0 0 0 -35.918181337307033 -8.2540325795746412 0 -8.2540325795746412 7.1870891086455231 0 0 0 0 -55.064349891777965 -27.134191796433697 0 -27.134191796433697 19.643848545762012 0 0 0 0 -38.627104295980274 -12.214310635739331 0 -12.214310635739331 0.15058377835413328 0 0 0 0 -41.245887365041725 -5.1064943665252471 0 -5.1064943665252471 3.1744084767097309 0 0 0 0 -37.331760072294855 -7.625830332132864 0 -7.625830332132864 14.438571897715065 0 0 0 0 -40.737741008255398 -21.799090681627604 0 -21.799090681627604 -22.644333181005095 0 0 0 0 -97.452094895765185 -39.320378739004809 0 -39.320378739004809 43.498222414551492 0 0 0 0 -54.775896482118696 -50.240516263868813 0 -50.240516263868813 3.3607253574282367 0 0 0 0 -103.3821987933261 -7.6204598368340157 0 -7.6204598368340157 17.744964349309157 0 0 0 0 3.6713915933651151 40.10072292561199 0 40.10072292561199 -44.276243325111864 0 0 0 0 -7.906729465675987 -2.4869425228301196 0 -2.4869425228301196 1.4606453240719119 0 0 0 0 -30.504217397497996 -11.444913110138714 0 -11.444913110138714 -3.3916917729848137 0 0 0 0 -26.579964448454149 -3.6764929253835348 0 -3.6764929253835348 5.0209094275535495 0 0 0 0 -5.4877967295229553 -5.4463645695793215 0 -5.4463645695793215 -1.452758661781262 0 0 0 0 -139.88171732409683 51.213259241534615 0 51.213259241534615 -17.864596092778811 0 0 0 0 -304.33201507408376 -3.1632125625110348 0 -3.1632125625110348 19.901481272499723 0 0 0 0 -91.711221259705781 -192.69366763851258 0 -192.69366763851258 -255.67522924999412 0 0 0 0 -13.350694825770013 -17.192983948561306 0 -17.192983948561306 3.9839303678401308 0 0 0 0 -56.207104670291301 -64.515048369646138 0 -64.515048369646138 -29.947374106341158 0 0 0 0 -52.36200898865718 -53.256575028199222 0 -53.256575028199222 -8.6577438507574698 0 0 0 0 -146.19365397884303 -63.038258958214101 0 -63.038258958214101 29.235998000902327 0 0 0 0 -79.947640868980329 -36.54603299445818 0 -36.54603299445818 -8.5797876048465902 0 0 0 0 -75.640949458655086 -87.219506221769279 0 -87.219506221769279 23.853206640582357 0 0 0 0 -158.55301781737126 16.373082144710565 0 16.373082144710565 199.36892196741519 0 0 0 0 -185.30848200147375 -98.524315882623171 0 -98.524315882623171 63.186500848863034 0 0 0 0 -80.392492119462986 -106.04004938033586 0 -106.04004938033586 -31.890958047472878 0 0 0 0 -87.671929314166007 -35.251593198052333 0 -35.251593198052333 -9.6456932730997593 0 0 0 0 -465.1686422769053 -302.70088651991864 0 -302.70088651991864 -121.82544110265371 0 0 0 0 -22.572880638718985 -12.415132751129626 0 -12.415132751129626 10.738163422207307 0 0 0 0 139.15040841201699 356.60143494966451 0 356.60143494966451 -155.28183351755251 0 0 0 0 -387.63251111549471 -207.186263614366 0 -207.186263614366 170.77278083777446 0 0 0 0 0.46977127094065452 0.028857391676453403 0 0.028857391676453403 4.0934995420619806 0 0 0 0 -549.39775077438389 -429.12642900946776 0 -429.12642900946776 -231.46264799639425 0 0 0 0 -563.79375359511323 -151.73112886289573 0 -151.73112886289573 -165.56905627042579 0 0 0 0 -402.30375322591863 -248.17982902701988 0 -248.17982902701988 -204.37310077441055 0 0 0 0 -665.71627202200034 -310.65418468380699 0 -310.65418468380699 -14.120104821386121 0 0 0 0 -421.76645335537614 -288.9639342956043 0 -288.9639342956043 -90.096765634358235 0 0 0 0 -273.6983877643579 -219.1944133846132 0 -219.1944133846132 -61.835567045559856 0 0 0 0 -398.72142268344669 -213.70214637711194 0 -213.70214637711194 4.996879618105595 0 0 0 0 -390.78848369752086 -218.11578070141013 0 -218.11578070141013 10.722428261391542 0 0 0 0 -509.47681813232339 -300.60977748732739 0 -300.60977748732739 -1.1585977277554775 0 0 0 0 -488.10836547516737 -331.33812898598649 0 -331.33812898598649 21.240225177463799 0 0 0 0 -546.50091786745179 -399.81343400401784 0 -399.81343400401784 -58.140696314379966 0 0 0 0 -459.50952598145523 -283.52723780965835 0 -283.52723780965835 27.334442966632196 0 0 0 0 -529.65173262556345 -359.97474871092709 0 -359.97474871092709 -36.770925734223056 0 0 0 0 -729.37818020664417 -195.51926331167851 0 -195.51926331167851 9.706426076740172 0 0 0 0 -828.13186781607692 -368.01599601949874 0 -368.01599601949874 -35.701995776180411 0 0 0 0 -703.59622862143442 -148.16148672034387 0 -148.16148672034387 -194.78198947412602 0 0 0 0 -373.58081903229322 -403.13719274043524 0 -403.13719274043524 -274.71688382567845 0 0 0 0 -371.00012041258742 -409.74177574793612 0 -409.74177574793612 -297.49351810605185 0 0 0 0 -172.06685261148232 -235.81918289565874 0 -235.81918289565874 -151.81298517883442 0 0 0 0 -147.58982483793079 -279.00791718451183 0 -279.00791718451183 -131.01000010350981 0 0 0 0 -136.43967992142279 -253.86058960419814 0 -253.86058960419814 -95.594432382964442 0 0 0 0 -70.927264739570091 -191.42708304908592 0 -191.42708304908592 -218.27579612175214 0 0 0 0 -82.764290670369519 -146.95409650259171 0 -146.95409650259171 -70.636350869630405 0 0 0 0 -70.321866852653329 -137.75336511889327 0 -137.75336511889327 -64.349527758316981 0 0 0 0 -49.25513099359523 -58.476777184374441 0 -58.476777184374441 5.8466413629614635 0 0 0 0 -84.507623665020219 -130.21603887686433 0 -130.21603887686433 -53.417875351551629 0 0 0 0 -211.71422408503713 -100.42804834676099 0 -100.42804834676099 10.964830286117831 0 0 0 0 -146.43680169092841 -174.07597058173178 0 -174.07597058173178 52.791324542104121 0 0 0 0 -160.55286997312214 -217.31928019744373 0 -217.31928019744373 -39.082055931661671 0 0 0 0 -278.05264676171282 -298.82236391078686 0 -298.82236391078686 153.79718433250855 0 0 0 0 -395.83277732396527 -173.58566680183048 0 -173.58566680183048 54.003168995245915 0 0 0 0 -142.44239451983594 -325.39313649482574 0 -325.39313649482574 -159.50659350262856 0 0 0 0 -145.6369177111992 -355.72729816700758 0 -355.72729816700758 -9.6939946417605825 0 0 0 0 -39.231458938349533 91.159803231277238 0 91.159803231277238 136.53662062909098 0 0 0 0 -124.75765261567722 168.40931068369355 0 168.40931068369355 76.826793323806669 0 0 0 0 -61.182887919982022 240.42212125974356 0 240.42212125974356 254.91945860647229 0 0 0 0 -87.641381928387602 27.767454698265418 0 27.767454698265418 -5.6503556861138655 0 0 0 0 -30.819156550890057 44.259356456060402 0 44.259356456060402 130.74819926066448 0 0 0 0 -91.466062988081831 65.066751773348187 0 65.066751773348187 -15.416239335781938 0 0 0 0 -277.78750741333351 110.30054635400938 0 110.30054635400938 123.11723754417926 0 0 0 0 -205.30768524010455 -86.280676998582408 0 -86.280676998582408 16.21243410111947 0 0 0 0 -298.72186993378273 -21.024968547776098 0 -21.024968547776098 120.14821516521306 0 0 0 0 -485.18211911893741 -54.736747585381636 0 -54.736747585381636 43.5560703345609 0 0 0 0 -492.9685087507678 -101.37737204156019 0 -101.37737204156019 -52.388896272601414 0 0 0 0 -840.16805891806871 -115.68111649939419 0 -115.68111649939419 -47.694324624852243 0 0 0 0 -499.50369160730042 28.595536691253983 0 28.595536691253983 -143.12507316466235 0 0 0 0 -472.39213443170229 33.324341790446397 0 33.324341790446397 -467.2773010157598 0 0 0 0 -312.58046230718173 116.33256617760753 0 116.33256617760753 -122.8641837269206 0 0 0 0 -527.41792479168362 -110.47038350145976 0 -110.47038350145976 9.2434143386535652 0 0 0 0 -291.66311447459884 59.124417789975723 0 59.124417789975723 2.1400809964452492 0 0 0 0 -289.75565243473829 103.20911308686937 0 103.20911308686937 -93.613243900211273 0 0 0 0 -289.20082371444732 -19.951095854885352 0 -19.951095854885352 -168.10020806038119 0 0 0 0 -98.161378177261213 97.383493903053932 0 97.383493903053932 -124.22397158090553 0 0 0 0 -20.944465271784793 130.08042543476517 0 130.08042543476517 -39.636647909102976 0 0 0 0 -123.20458092536865 117.68604047369763 0 117.68604047369763 -24.945117007795488 0 0 0 0 -332.27265584516135 -33.885575697304375 0 -33.885575697304375 -139.86442212263046 0 0 0 0 -145.28778807981871 57.959078897421023 0 57.959078897421023 -193.83113188007155 0 0 0 0 -144.11041672432111 38.645250595281709 0 38.645250595281709 -198.52296892717095 0 0 0 0 -126.16591905019595 109.57294094594363 0 109.57294094594363 -101.49047060668454 0 0 0 0 -92.523518500707723 3.6961389851512649 0 3.6961389851512649 -161.2760161726037 0 0 0 0 -290.32962480503375 -24.266782033342452 0 -24.266782033342452 -320.53588408950236 0 0 0 0 -309.88416300676909 27.623752657875229 0 27.623752657875229 -134.26105866221042 0 0 0 0 -326.6858394631563 -61.108348362005017 0 -61.108348362005017 -225.21516823574711 0 0 0 0 -784.71906973390287 -225.70420529548846 0 -225.70420529548846 -116.45409134776492 0 0 0 0 -513.34228224173421 -90.714865904830731 0 -90.714865904830731 -180.79776722922634 0 0 0 0 -503.22683486697497 -104.20151202031957 0 -104.20151202031957 -343.68083595141979 0 0 0 0 -675.85014163907908 -172.00361754855885 0 -172.00361754855885 -248.42946279855823 0 0 0 0 -671.9585212788952 -42.84637988581153 0 -42.84637988581153 -861.16323438739164 0 0 0 0 -1066.1184138790268 -584.33573960764988 0 -584.33573960764988 -372.98643098212597 0 0 0 0 -806.97140288501396 -283.25550477995785 0 -283.25550477995785 -152.71610005845832 0 0 0 0 -1147.8926703552715 -264.4711366893207 0 -264.4711366893207 121.25320624776214 0 0 0 0 -927.88365414560394 -115.89355381497421 0 -115.89355381497421 59.816246587382921 0 0 0 0 -947.88866792246699 -171.847272699418 0 -171.847272699418 118.77615116834932 0 0 0 0 -867.3635308330413 -135.48902558216469 0 -135.48902558216469 117.46256993409565 0 0 0 0 -1056.542614454484 -102.36031085127269 0 -102.36031085127269 134.1235847782591 0 0 0 0 -939.66096500770072 -65.618210028191243 0 -65.618210028191243 -102.59237138764001 0 0 0 0 -1046.8199532011349 26.888569745939094 0 26.888569745939094 14.978081348490377 0 0 0 0 -959.6617903180595 -54.462474448419016 0 -54.462474448419016 62.706865867883607 0 0 0 0 -794.25577915907343 19.511423731608375 0 19.511423731608375 -77.405014309755643 0 0 0 0 -921.66533928844729 65.865186248897771 0 65.865186248897771 -94.171548992966564 0 0 0 0 -751.68676699940261 -44.948556741059747 0 -44.948556741059747 -45.124576817317575 0 0 0 0 -647.19403632303147 -22.795029215949398 0 -22.795029215949398 -52.103931907400693 0 0 0 0 -832.90365893876879 -143.74556448383737 0 -143.74556448383737 -47.73859982805152 0 0 0 0 -634.18051801720867 -133.27977080144592 0 -133.27977080144592 -59.813539402726747 0 0 0 0 -544.35278877452947 -83.796723658046176 0 -83.796723658046176 -99.134543687980113 0 0 0 0 -624.06904347262844 -76.154335854751594 0 -76.154335854751594 -93.921738148441364 0 0 0 0 -391.13921876277163 18.441119346735832 0 18.441119346735832 -111.68139580203388 0 0 0 0 -534.02194264467835 31.411776587515305 0 31.411776587515305 -125.72626398107604 0 0 0 0 -486.71829648601124 -57.856088223417828 0 -57.856088223417828 -85.650652489748609 0 0 0 0 -285.96929140740394 14.116919798002073 0 14.116919798002073 -142.16145658388632 0 0 0 0 -135.24162438593339 36.053629937017831 0 36.053629937017831 -112.34329578292363 0 0 0 0 -217.36664925153309 -92.998074559406632 0 -92.998074559406632 -71.396900221988744 0 0 0 0 -319.39575512901501 -61.357380392631967 0 -61.357380392631967 -126.42784000039319 0 0 0 0 -125.26291081512318 9.4467398876668085 0 9.4467398876668085 -172.0114147271961 0 0 0 0 -48.946586382313399 6.8861542483882658 0 6.8861542483882658 -63.727173024824879 0 0 0 0 -50.416300592257357 -73.653343972556058 0 -73.653343972556058 -27.759290389498346 0 0 0 0 -37.095025516486203 -0.97101431188821152 0 -0.97101431188821152 -112.67433002722828 0 0 0 0 -20.26732217099925 -18.417076329697011 0 -18.417076329697011 17.281573381867929 0 0 0 0 -25.179726265356294 -9.2345577915775721 0 -9.2345577915775721 4.5666466327597846 0 0 0 0 -30.356779116889811 -12.531743313609695 0 -12.531743313609695 6.7094302093792066 0 0 0 0 -15.250500009900776 -2.2284239083740118 0 -2.2284239083740118 11.956671083353285 0 0 0 0 -26.709045757299464 -13.906639507334148 0 -13.906639507334148 0.32138355696861254 0 0 0 0 -45.396346012072172 -18.359782818748499 0 -18.359782818748499 -0.30422567983623594 0 0 0 0 -89.630936456087511 -94.466408678461448 0 -94.466408678461448 25.781412846550666 0 0 0 0 0.67483093820348472 1.0982930819175252 0 1.0982930819175252 0.34876809811176379 0 0 0 0 -2.6415266441300957 -1.2746204290547354 0 -1.2746204290547354 -0.31401524842119954 0 0 0 0 -62.5581156990811 -96.477848647989958 0 -96.477848647989958 -33.745349330893077 0 0 0 0 -77.251042563511874 -66.524734881651966 0 -66.524734881651966 -42.026621133665685 0 0 0 0 -58.640617397148162 -100.26616782421115 0 -100.26616782421115 -60.971464668509725 0 0 0 0 37.072336974670179 -125.10633955873345 0 -125.10633955873345 -85.645842454880039 0 0 0 0 -48.263846766636561 -129.50833635539084 0 -129.50833635539084 -93.388730312646658 0 0 0 0 -80.80188906429612 -87.240244402758435 0 -87.240244402758435 -103.61706207542738 0 0 0 0 -87.722622592482367 -149.62886096006332 0 -149.62886096006332 -220.31197091987269 0 0 0 0 -51.800666482173256 -88.709129735269016 0 -88.709129735269016 -147.04444254231385 0 0 0 0 -94.153779455707991 26.665598645449791 0 26.665598645449791 -119.17959158512804 0 0 0 0 -7.6859118343127193 -147.18962826334609 0 -147.18962826334609 -469.30170853642812 0 0 0 0 -14.744900649580813 7.82840844171551 0 7.82840844171551 -301.67893641851697 0 0 0 0 -141.34605994620506 -426.73136956196231 0 -426.73136956196231 -945.77624641302282 0 0 0 0 -1444.3511925027269 16.904653506031536 0 16.904653506031536 -230.93267553943315 0 0 0 0 -1027.3164871648405 -669.37477956184193 0 -669.37477956184193 -384.8375855459808 0 0 0 0 -743.59251452864555 368.71213743623503 0 368.71213743623503 -159.50627978378543 0 0 0 0 -7.9386155918698762 -4.1419767056612127 0 -4.1419767056612127 -2.9005153488895559 0 0 0 0 -1508.7433632264219 -258.34550826038367 0 -258.34550826038367 141.61454964633231 0 0 0 0 -866.48675896490749 4.9391662161633576 0 4.9391662161633576 176.70768570831933 0 0 0 0 -2.0611007386542042 -18.36023347614173 0 -18.36023347614173 -22.726553594455254 0 0 0 0 -23.095357270614642 -10.371081031742873 0 -10.371081031742873 0.063508907413577731 0 0 0 0 -382.98459471563365 33.776459806251296 0 33.776459806251296 42.171771138591794 0 0 0 0 -2.4349126788198134 3.8693809467857996 0 3.8693809467857996 6.1646795517537605 0 0 0 0 -29.726646848388853 2.5643054410098216 0 2.5643054410098216 27.121202876661137 0 0 0 0 -153.14907968199986 111.90105745641836 0 111.90105745641836 -16.192903932012996 0 0 0 0 -437.56318520428613 -104.94987250898612 0 -104.94987250898612 56.901217181153697 0 0 0 0 -865.5204255546123 -140.66099390681848 0 -140.66099390681848 92.41959016405508 0 0 0 0 -272.17831920554454 -244.69295211139706 0 -244.69295211139706 19.717860870941877 0 0 0 0 -897.41767482241994 -266.27649529329028 0 -266.27649529329028 100.58311471015259 0 0 0 0 -60.783096915583883 -28.407386885940468 0 -28.407386885940468 29.325918280331116 0 0 0 0 -60.822768101366819 -5.7303573152255467 0 -5.7303573152255467 30.317708847395302 0 0 0 0 -61.37727010488743 -21.491164587153889 0 -21.491164587153889 40.687017577826964 0 0 0 0 -49.183924299461069 -16.894158242894036 0 -16.894158242894036 54.635755876905705 0 0 0 0 -48.967132017118274 -16.063595005387469 0 -16.063595005387469 34.573756045164146 0 0 0 0 -37.335425224529843 -16.175583416015787 0 -16.175583416015787 1.0197096466300994 0 0 0 0 -25.043239694634394 -13.263140530948931 0 -13.263140530948931 18.421864750171153 0 0 0 0 -47.344766146474285 -16.032637411256928 0 -16.032637411256928 27.705791661505828 0 0 0 0 -18.225799092884444 -13.384370207685549 0 -13.384370207685549 6.8418834004250542 0 0 0 0 -23.73084194109623 -10.004577873858505 0 -10.004577873858505 2.5804365715088782 0 0 0 0 -27.630084075019113 -14.314588972940328 0 -14.314588972940328 20.858096622813719 0 0 0 0 -28.474399498901732 -6.8889641257485366 0 -6.8889641257485366 0.86839709508762741 0 0 0 0 -19.846712030266644 -24.559731430175816 0 -24.559731430175816 0.3310057693570343 0 0 0 0 -17.485401109717884 -12.39199663066654 0 -12.39199663066654 -0.18214625568571563 0 0 0 0 -31.249615531938616 -14.972568896907887 0 -14.972568896907887 45.952521120390657 0 0 0 0 -41.744127196419868 -31.515603736236017 0 -31.515603736236017 55.12314447358176 0 0 0 0 -18.013322269544005 -25.154504285300618 0 -25.154504285300618 49.54897210115314 0 0 0 0 -39.104024372150889 -16.567787042544978 0 -16.567787042544978 56.762974400998473 0 0 0 0 -26.585108098937781 -20.297565790119052 0 -20.297565790119052 54.576336556771594 0 0 0 0 -49.322769510275975 -6.7389668144393227 0 -6.7389668144393227 54.706490705345459 0 0 0 0 -42.864995067611744 -16.402819614647115 0 -16.402819614647115 60.2428262019248 0 0 0 0 -38.453455681694322 -15.573549379991277 0 -15.573549379991277 49.546396536716657 0 0 0 0 -31.615418931804015 -10.327658275624799 0 -10.327658275624799 51.940892688807935 0 0 0 0 -49.732129322313995 -14.766151215326715 0 -14.766151215326715 54.651722136399485 0 0 0 0 -40.871079543532687 -6.5269479730156945 0 -6.5269479730156945 55.634430621282831 0 0 0 0 -73.271790775223053 -5.231820731398102 0 -5.231820731398102 55.224644534201786 0 0 0 0 -55.615381064097164 -4.5434404821952512 0 -4.5434404821952512 48.073847036240295 0 0 0 0 -60.721127294556936 -10.578029643598711 0 -10.578029643598711 51.629604099779499 0 0 0 0 -52.197850610806199 -11.064243448557079 0 -11.064243448557079 49.899730144947171 0 0 0 0 -93.295228743241751 -133.64140972831774 0 -133.64140972831774 -201.27211713498036 0 0 0 0 -52.979146375757409 6.8954634277395712 0 6.8954634277395712 46.25945801157809 0 0 0 0 -23.081299344097218 5.577041534270748 0 5.577041534270748 33.66714332048398 0 0 0 0 -8.771201395694014 -7.3117303216507281 0 -7.3117303216507281 2.3951549329003754 0 0 0 0 0.21741160413894534 16.018335912529636 0 16.018335912529636 37.89681876312541 0 0 0 0 -74.167473011220864 8.5906938144545961 0 8.5906938144545961 46.14323749871518 0 0 0 0 -522.9790574353101 394.86693654463716 0 394.86693654463716 -234.47902276577224 0 0 0 0 -66.903902929196192 3.1937765241540319 0 3.1937765241540319 44.92590030807753 0 0 0 0 -98.186278564058739 24.063906483731131 0 24.063906483731131 34.076306501188583 0 0 0 0 -136.19700919541356 35.40847745293587 0 35.40847745293587 54.513529414028881 0 0 0 0 5.3631603538954025 14.508048172635441 0 14.508048172635441 30.980488798082959 0 0 0 0 -520.65560486714094 49.83698213104617 0 49.83698213104617 104.0446534759958 0 0 0 0 -612.04758801931894 -33.787945482499936 0 -33.787945482499936 67.311861943679105 0 0 0 0 -136.8048505867373 0.061380021004339369 0 0.061380021004339369 65.46346287619167 0 0 0 0 -121.2168843537147 24.234045435780558 0 24.234045435780558 52.505125622038122 0 0 0 0 -65.061579391040141 -30.890074077612326 0 -30.890074077612326 67.828947467090416 0 0 0 0 -36.691697017027764 -4.1960660702957853 0 -4.1960660702957853 46.54623002153744 0 0 0 0 -37.779203421770944 -4.9951640576366287 0 -4.9951640576366287 53.975127968211268 0 0 0 0 -39.025127134224022 -9.6258051556511646 0 -9.6258051556511646 56.86102090425652 0 0 0 0 -40.67949294623395 -5.1211292096443799 0 -5.1211292096443799 47.59611075730686 0 0 0 0 -68.760009398174589 -1.2428980334326525 0 -1.2428980334326525 47.237472488797835 0 0 0 0 -76.944785832885827 -8.3520157035963507 0 -8.3520157035963507 54.032909708671696 0 0 0 0 -62.615684414267889 -14.069873660125381 0 -14.069873660125381 51.911666966064104 0 0 0 0 -179.58007454435574 -120.55510784838316 0 -120.55510784838316 -12.811798890837053 0 0 0 0 -204.50126516031287 -48.618803084241108 0 -48.618803084241108 -114.53916385480807 0 0 0 0 -216.0485125558771 -93.654718379267251 0 -93.654718379267251 -37.927854811861835 0 0 0 0 -422.03127761839414 2.1289966994315819 0 2.1289966994315819 -209.87223062354497 0 0 0 0 -413.32373845859547 -93.631449278872424 0 -93.631449278872424 -68.203747889149781 0 0 0 0 -184.27677566206694 -139.70501354592943 0 -139.70501354592943 -89.559269444622032 0 0 0 0 -410.18394692669972 19.236820149600135 0 19.236820149600135 87.760385915620645 0 0 0 0 -766.49004069947114 28.774638287981361 0 28.774638287981361 -77.191913191245931 0 0 0 0 -476.29112977735349 -105.55581591873306 0 -105.55581591873306 -129.51149240266614 0 0 0 0 -1002.8226427256304 36.42965745183119 0 36.42965745183119 151.49364517545473 0 0 0 0 -763.65673841052921 29.880352508627766 0 29.880352508627766 -94.697222729094392 0 0 0 0 -775.0037431789533 -28.172539606130158 0 -28.172539606130158 -146.02994695819325 0 0 0 0 -842.17577006793363 -99.255644360941915 0 -99.255644360941915 -243.84104081816986 0 0 0 0 -1193.0476663566224 108.77605017229325 0 108.77605017229325 -149.88514423465676 0 0 0 0 -1322.9138760154619 -372.02152235348854 0 -372.02152235348854 -225.85672824433277 0 0 0 0 -2122.8283083335846 -256.10949818345762 0 -256.10949818345762 10.176478810623848 0 0 0 0 -1900.1309598704684 -164.29127926623914 0 -164.29127926623914 33.800877280913028 0 0 0 0 -0.97779298685313165 5.348032064809118 0 5.348032064809118 5.2649968311188395 0 0 0 0 -1279.5929399052475 34.293713194864722 0 34.293713194864722 175.68141363932591 0 0 0 0 -1433.8657337935729 239.40828551909544 0 239.40828551909544 -200.84686158674594 0 0 0 0 -1095.3411757254362 -118.22121263158715 0 -118.22121263158715 -99.447642031716441 0 0 0 0 -1028.640247702584 112.16470436481995 0 112.16470436481995 190.78721895343051 0 0 0 0 -1041.9267868994684 -53.233029543646978 0 -53.233029543646978 140.99451958511054 0 0 0 0 -1039.9547622052269 -10.291780401808865 0 -10.291780401808865 229.21095347900336 0 0 0 0 -0.8456060363179958 -0.13533848664620507 0 -0.13533848664620507 1.162624654203583 0 0 0 0 -48.400107184992521 55.578706631784826 0 55.578706631784826 47.973167546775585 0 0 0 0 -147.16390644831699 -13.198126003158904 0 -13.198126003158904 23.786938276495903 0 0 0 0 -146.03024462964822 -64.534473719104426 0 -64.534473719104426 12.81998527292626 0 0 0 0 -69.572186271449027 -47.682376440705411 0 -47.682376440705411 16.145430042049611 0 0 0 0 -71.752794162908685 -84.62916572641825 0 -84.62916572641825 -1.0756988753819314 0 0 0 0 -62.06989807386708 -35.763272461754241 0 -35.763272461754241 26.931494362725971 0 0 0 0 -59.937507072983863 -19.430315255153573 0 -19.430315255153573 13.383873163469616 0 0 0 0 -103.28783939688583 -27.317410355505672 0 -27.317410355505672 19.600606824040369 0 0 0 0 -83.152670450508595 -3.4957429669984776 0 -3.4957429669984776 25.215596567162152 0 0 0 0 -0.074041429085738741 0.86548383906995241 0 0.86548383906995241 5.1342726911054442 0 0 0 0 -7.6194717312255449 -4.5014423355328432 0 -4.5014423355328432 12.340326865642766 0 0 0 0 -702.22623967895925 -410.10205597481763 0 -410.10205597481763 -148.06130746941352 0 0 0 0 -469.17157756696542 360.79309577259789 0 360.79309577259789 -283.5896152820942 0 0 0 0 -1313.5700915506677 89.399942884757365 0 89.399942884757365 204.51085191389802 0 0 0 0 -1124.5647208778082 -424.08004268575974 0 -424.08004268575974 89.87325143200178 0 0 0 0 -166.69334678755695 -336.67443974433991 0 -336.67443974433991 -76.288883465544586 0 0 0 0 -1494.7091580167362 634.88981372164687 0 634.88981372164687 294.96582302088336 0 0 0 0 -1723.8375675782845 149.94267933970582 0 149.94267933970582 269.7351070833156 0 0 0 0 -11.53530664537351 -3.9489483444259861 0 -3.9489483444259861 -0.99244141533714725 0 0 0 0 -13.906134757371177 -0.85581241787824069 0 -0.85581241787824069 0.89634263790176572 0 0 0 0 -1519.4918605556886 1282.1709022138932 0 1282.1709022138932 -741.90181829249661 0 0 0 0 -19.204531370251061 -3.2397866122853678 0 -3.2397866122853678 0.0065726476951751857 0 0 0 0 -18.858447230984893 -3.9500839035361102 0 -3.9500839035361102 0.26828693955958949 0 0 0 0 -20.819741116331983 -3.0993765820786408 0 -3.0993765820786408 2.7252676470716781 0 0 0 0 -489.62203479272284 288.67553503328122 0 288.67553503328122 200.62744280891411 0 0 0 0 -626.00001295068614 24.932561606905153 0 24.932561606905153 96.379572079824356 0 0 0 0 77.397197869970114 64.674490004177756 0 64.674490004177756 -183.5509579323757 0 0 0 0 -18.051733853673795 -5.7042804079762846 0 -5.7042804079762846 5.5341699173779944 0 0 0 0 -14.300224260381782 -3.3458953786703205 0 -3.3458953786703205 0.23535968310076227 0 0 0 0 -13.878870351240039 -3.8050171656496339 0 -3.8050171656496339 -0.0017323703687612559 0 0 0 0 -5.8697030983559699 -2.3828347192962553 0 -2.3828347192962553 -0.69230932726015726 0 0 0 0 -12.663973812470324 -11.69935789536909 0 -11.69935789536909 -5.6665432157534132 0 0 0 0 -0.14626303865517798 -1.4999562477483863 0 -1.4999562477483863 -0.84500224186382034 0 0 0 0 -5.038343058375176 -3.1680945076319063 0 -3.1680945076319063 -0.5829531907388803 0 0 0 0 -0.61122337788219738 -0.97443923397774623 0 -0.97443923397774623 -0.0052370876017649743 0 0 0 0 -5.3943750065955101 -40.041552336886355 0 -40.041552336886355 -47.274393968636645 0 0 0 0 -16.956064552612588 -20.501635367112439 0 -20.501635367112439 -17.762358737304965 0 0 0 0 -41.824207788954539 -24.669095911238944 0 -24.669095911238944 -11.151055303684478 0 0 0 0 -19.566898215940455 -66.028561414876521 0 -66.028561414876521 9.5461252259298703 0 0 0 0 -180.80593335494632 145.08135225292961 0 145.08135225292961 -5.1299892507790048 0 0 0 0 -108.03687008671113 123.70227860751392 0 123.70227860751392 1.093011977577433 0 0 0 0 16.027146130199981 -8.6596771206817493 0 -8.6596771206817493 54.121460626138287 0 0 0 0 -1.8278927364271169 0.15723808161157393 0 0.15723808161157393 0.36427488007360864 0 0 0 0 -168.72661651996896 -4.8331516847887315 0 -4.8331516847887315 98.061175032062124 0 0 0 0 -61.398659646463784 -62.146243201071883 0 -62.146243201071883 128.34767705795025 0 0 0 0 -153.90344465819362 46.508004122823138 0 46.508004122823138 -72.013964719884257 0 0 0 0 -195.1682349160692 73.573770299865714 0 73.573770299865714 50.629693372789404 0 0 0 0 4.9937499146973749 13.017536826202388 0 13.017536826202388 26.942659644830911 0 0 0 0 -159.07966368768393 -91.103344068672413 0 -91.103344068672413 -154.24867896659907 0 0 0 0 -39.484250550787692 92.976301074342246 0 92.976301074342246 8.9938228067130694 0 0 0 0 -157.36454584474268 69.887682129717433 0 69.887682129717433 26.801863584363588 0 0 0 0 -77.542466446873732 11.497701061921816 0 11.497701061921816 143.1339551316496 0 0 0 0 -251.79613591880479 92.188888304408522 0 92.188888304408522 70.579738972995983 0 0 0 0 1.2749981090910154 11.578315241833806 0 11.578315241833806 25.046474442326996 0 0 0 0 -23.746393173321621 -12.144145614678344 0 -12.144145614678344 -1.548321532834894 0 0 0 0 -255.51223895205476 285.20198264549822 0 285.20198264549822 186.00265824258076 0 0 0 0 -466.27873338153586 -756.65565633985432 0 -756.65565633985432 626.63513503674631 0 0 0 0 -2430.9346501867549 324.9027718064508 0 324.9027718064508 641.26825666692412 0 0 0 0 -883.7929463673936 -988.47759684275229 0 -988.47759684275229 -4.8362269486433087 0 0 0 0 -8.7253763461339986 -71.722420620396008 0 -71.722420620396008 280.10640562515562 0 0 0 0 903.65046869038633 -845.78115805794278 0 -845.78115805794278 1.4200467098063116 0 0 0 0 -3.621137450137212 -1.8246865502737535 0 -1.8246865502737535 4.0749947707841567 0 0 0 0 -35.80206430792532 -7.9824093802512532 0 -7.9824093802512532 25.024260663103444 0 0 0 0 9.7881317959618173 -18.191424679291231 0 -18.191424679291231 0.011504517285955805 0 0 0 0 -4.5340197275252194 -0.4286205682722084 0 -0.4286205682722084 3.9530238818009922 0 0 0 0 -163.62621750143444 86.300764171249511 0 86.300764171249511 -16.140638018535071 0 0 0 0 -158.64792499849864 143.59479939500463 0 143.59479939500463 -56.84095425439746 0 0 0 0 -141.40923981326796 58.905391590948057 0 58.905391590948057 -7.7361529508190472 0 0 0 0 -7.6365504812019935 42.34484687728812 0 42.34484687728812 -32.325528804225527 0 0 0 0 -266.85195237018343 221.94434472332654 0 221.94434472332654 -129.93643456462414 0 0 0 0 -0.8745027600267008 -0.083490337312341012 0 -0.083490337312341012 -0.26464722309705202 0 0 0 0 -120.97087847461808 -43.914699082150015 0 -43.914699082150015 -0.47322581598244534 0 0 0 0 -54.831869539102627 -13.67130912770223 0 -13.67130912770223 -3.0548117336497 0 0 0 0 77.349642847417272 -27.4266322216356 0 -27.4266322216356 -5.5908362481557354 0 0 0 0 -118.15646948051563 -1.2997547317938452 0 -1.2997547317938452 -13.278864196967945 0 0 0 0 -82.373159602131636 -27.684654739441502 0 -27.684654739441502 0.013332476856335918 0 0 0 0 -28.359235617605009 -46.472724885329704 0 -46.472724885329704 0.091803287542784107 0 0 0 0 -124.84125064285035 -65.351570528601499 0 -65.351570528601499 48.252219361671237 0 0 0 0 -1.5007220818959865 -0.11180663145323422 0 -0.11180663145323422 0.17005826833093921 0 0 0 0 -42.501177187317808 -103.47725977345223 0 -103.47725977345223 65.535186635446877 0 0 0 0 -55.843856485953438 -27.874694716193758 0 -27.874694716193758 -66.793719810016569 0 0 0 0 -152.23516219975136 -22.510128704776491 0 -22.510128704776491 55.179116374406362 0 0 0 0 -92.863067922320624 71.949712610681203 0 71.949712610681203 -1.1462336340347292 0 0 0 0 -80.863720740487224 -6.4418979789395969 0 -6.4418979789395969 108.96479538576421 0 0 0 0 -76.762563657801365 25.294254969424799 0 25.294254969424799 72.403043545617265 0 0 0 0 -63.791022826961125 6.7226900711430346 0 6.7226900711430346 63.392733076767712 0 0 0 0 -3.1765055679660463 -0.16826041948135639 0 -0.16826041948135639 0.44917607909648 0 0 0 0 -114.02793208187722 -45.873126836283205 0 -45.873126836283205 148.97937048830789 0 0 0 0 -25.282381825416451 4.2003197566199333 0 4.2003197566199333 60.650534253400679 0 0 0 0 -30.862454559770413 19.667825742946377 0 19.667825742946377 42.822960084773456 0 0 0 0 -22.86546346754767 11.700438442261202 0 11.700438442261202 81.542949810878866 0 0 0 0 -23.775470688808127 -1.4201159687685276 0 -1.4201159687685276 48.497269063930275 0 0 0 0 -23.180879769708099 5.8442455167671881 0 5.8442455167671881 62.194263094324015 0 0 0 0 -26.705201543838484 -8.2683634112494246 0 -8.2683634112494246 60.692703710100361 0 0 0 0 -28.030094386464043 -5.3548556736274122 0 -5.3548556736274122 54.305743099890606 0 0 0 0 -29.763767328753602 -10.103188972696557 0 -10.103188972696557 62.19619509811514 0 0 0 0 -23.543389629907324 -23.038592021179397 0 -23.038592021179397 78.526548891264156 0 0 0 0 -39.457611387733778 14.07506229801902 0 14.07506229801902 64.349967533742557 0 0 0 0 -44.418788223629235 0.7035527947021194 0 0.7035527947021194 90.511443985609503 0 0 0 0 -68.252648100155056 -12.338931949686412 0 -12.338931949686412 98.178744121533668 0 0 0 0 -72.356688649560965 -17.026714545216024 0 -17.026714545216024 157.4142180723245 0 0 0 0 -52.930114374386903 -59.775268843877484 0 -59.775268843877484 77.813462200153253 0 0 0 0 -53.337894713775313 -73.201688490260949 0 -73.201688490260949 143.60780104676712 0 0 0 0 -46.143529847075115 -35.502049748004538 0 -35.502049748004538 117.93135891871498 0 0 0 0 -48.357401664849021 -14.030515742553689 0 -14.030515742553689 75.440953120751374 0 0 0 0 -22.209120093562888 -28.297473459033 0 -28.297473459033 67.577401178743912 0 0 0 0 -15.373338808232802 -51.16788746146085 0 -51.16788746146085 72.636508701617061 0 0 0 0 -13.38099766211235 -31.199718373348787 0 -31.199718373348787 68.514924618737155 0 0 0 0 -13.502728381708948 -79.641653747834454 0 -79.641653747834454 36.150004821599396 0 0 0 0 -14.670662000746233 -64.637156367802049 0 -64.637156367802049 49.599673612035303 0 0 0 0 -4.6902870747944689 -66.553288868250206 0 -66.553288868250206 9.3294238141897949 0 0 0 0 -0.14472991092770826 -63.901987572598841 0 -63.901987572598841 -11.361275764247239 0 0 0 0 21.386828864269773 -27.157968279531133 0 -27.157968279531133 47.278855711030886 0 0 0 0 -12.886989662733498 -3.3748470478448525 0 -3.3748470478448525 -0.56270977665439803 0 0 0 0 -9.2462412233289797 -41.448404793919963 0 -41.448404793919963 94.973994624307352 0 0 0 0 -7.8559738984768046 -22.699748565714799 0 -22.699748565714799 92.401894697737134 0 0 0 0 -85.527401509170886 60.950347571905013 0 60.950347571905013 7.8288021556712692 0 0 0 0 -3.9837284021341475 -27.151905796162055 0 -27.151905796162055 70.256597268344649 0 0 0 0 3.234075303102145 -41.716877312951965 0 -41.716877312951965 75.775302543463567 0 0 0 0 -12.126335485634627 -31.092731440072157 0 -31.092731440072157 81.004268370296131 0 0 0 0 -4.9353711065850803 -26.145696248492982 0 -26.145696248492982 67.22524639662015 0 0 0 0 1.3564846470644625 -24.337290750138962 0 -24.337290750138962 65.931723809238065 0 0 0 0 -16.604901929254993 -20.937221692342746 0 -20.937221692342746 71.689226807794057 0 0 0 0 -15.917204172372294 -23.224687704715507 0 -23.224687704715507 60.501041112332587 0 0 0 0 -28.724902369591291 -20.014135886008262 0 -20.014135886008262 67.158477494760973 0 0 0 0 -26.574482734606136 -12.524751721489565 0 -12.524751721489565 67.035572246993695 0 0 0 0 -27.644723909990716 -16.483676166406099 0 -16.483676166406099 54.689605840906779 0 0 0 0 -36.0613723120332 -13.386708720796776 0 -13.386708720796776 59.536102195350622 0 0 0 0 -17.971436217878363 -21.91254248327175 0 -21.91254248327175 66.697641122365667 0 0 0 0 -12.598921189201064 -18.310744044206103 0 -18.310744044206103 68.053961446865586 0 0 0 0 44.173225273101707 13.673567897871749 0 13.673567897871749 -35.491968331968849 0 0 0 0 -3.8255951109428565 -5.6212159841140448 0 -5.6212159841140448 2.6322808549484402 0 0 0 0 -32.107678821819718 -20.121658497052124 0 -20.121658497052124 2.5333069006733808 0 0 0 0 -29.299742404538847 5.0637352070394002 0 5.0637352070394002 134.32690656780832 0 0 0 0 -21.565251436051142 -6.5986797624420674 0 -6.5986797624420674 -1.179608771368502 0 0 0 0 -27.770179680878755 1.0926513086034504 0 1.0926513086034504 7.2331865616838513 0 0 0 0 -5.6163243629880526 -1.1690283659974483 0 -1.1690283659974483 -2.3460090372511924 0 0 0 0 -31.105662436173589 -0.13746943641422149 0 -0.13746943641422149 10.671003860840074 0 0 0 0 -27.929453935165839 2.3049060778384387 0 2.3049060778384387 12.043078147953565 0 0 0 0 -32.735637336318916 -5.8653855898859746 0 -5.8653855898859746 1.4633688683578496 0 0 0 0 -37.13895730850345 -2.5704373800667213 0 -2.5704373800667213 15.644130313393362 0 0 0 0 -34.55964777857298 -4.795747019305054 0 -4.795747019305054 11.265569749232782 0 0 0 0 -36.074850974691799 -6.0333365825505325 0 -6.0333365825505325 14.232562712561048 0 0 0 0 -193.63234155246755 247.89141787195217 0 247.89141787195217 51.508183072189894 0 0 0 0 -4.5610515746126339 -0.6678132546942237 0 -0.6678132546942237 0.13032364638065363 0 0 0 0 -34.07550579269909 -5.3024671513573765 0 -5.3024671513573765 1.6871381163584402 0 0 0 0 -38.899983820170746 -13.698225851957432 0 -13.698225851957432 35.004857244436351 0 0 0 0 -34.438243981712731 -116.38609960228496 0 -116.38609960228496 -4.9860984876558803 0 0 0 0 -82.053367746950244 -137.57470180880637 0 -137.57470180880637 38.124566080392356 0 0 0 0 -212.58638516758219 5.6987503814046363 0 5.6987503814046363 69.091987583851733 0 0 0 0 -65.219442475776304 -104.65674226656984 0 -104.65674226656984 93.908316126730369 0 0 0 0 73.387071807163011 -71.284372254240566 0 -71.284372254240566 -531.11686163377044 0 0 0 0 23.336067348907818 -101.99520608696764 0 -101.99520608696764 35.618153932661869 0 0 0 0 -23.519350739225047 30.995416273251379 0 30.995416273251379 39.025709681779915 0 0 0 0 -5.5104806532472139 45.548094856411467 0 45.548094856411467 346.0722748836036 0 0 0 0 21.196898264286574 -64.164410538072445 0 -64.164410538072445 86.603712647886596 0 0 0 0 1.6315469790721977 -0.60679290295033184 0 -0.60679290295033184 0.36734960891203006 0 0 0 0 -67.513269530667458 -104.15391732679315 0 -104.15391732679315 217.58803697977419 0 0 0 0 -54.842219148413278 -86.870853258075954 0 -86.870853258075954 96.136307869626421 0 0 0 0 6.3479867169808131 55.91297972664708 0 55.91297972664708 227.26346949317423 0 0 0 0 -39.403204121452291 -18.455831284575879 0 -18.455831284575879 106.90548800055666 0 0 0 0 74.52690485221683 -67.581825564480908 0 -67.581825564480908 116.41848456796896 0 0 0 0 -16.837293326316285 -73.508837406636644 0 -73.508837406636644 163.07114262890951 0 0 0 0 -15.731389846121601 -41.768130620937598 0 -41.768130620937598 55.643724196904316 0 0 0 0 3.8218428758991649 34.504929071512144 0 34.504929071512144 143.23868782412586 0 0 0 0 -20.250077663724369 12.25137036337307 0 12.25137036337307 108.23590777912058 0 0 0 0 -17.667808017416974 2.1659382569728036 0 2.1659382569728036 100.11963713611063 0 0 0 0 -40.540180242358474 -3.3071900737201929 0 -3.3071900737201929 134.6090838411921 0 0 0 0 -42.153063712044968 -14.850820336670438 0 -14.850820336670438 89.261215145619488 0 0 0 0 -36.818703566948898 -29.10606816818726 0 -29.10606816818726 48.951262301746681 0 0 0 0 -62.906947716532159 -25.072768533359543 0 -25.072768533359543 59.395687179270773 0 0 0 0 -83.386003746156348 -64.481899905726863 0 -64.481899905726863 26.255909594213108 0 0 0 0 -36.880739387106587 -72.978993185561521 0 -72.978993185561521 23.955040275366429 0 0 0 0 -50.858635475200572 -48.378533715248004 0 -48.378533715248004 63.311393042608415 0 0 0 0 -13.747202623082558 -81.392889439173501 0 -81.392889439173501 28.663167540130047 0 0 0 0 -32.172161376423901 -76.450745336721369 0 -76.450745336721369 -10.710287354787098 0 0 0 0 -45.234923038718989 -55.420008590443246 0 -55.420008590443246 8.270024174984826 0 0 0 0 -79.201719935648725 -70.02036967381855 0 -70.02036967381855 -3.780390833153092 0 0 0 0 -49.212531489850335 -84.618441666581276 0 -84.618441666581276 2.6057728873138331 0 0 0 0 5.9403066027953173 -24.764093714823304 0 -24.764093714823304 7.8627479267599938 0 0 0 0 -77.921252658507001 -8.0791651461730964 0 -8.0791651461730964 111.41044861257768 0 0 0 0 34.551712360291276 -18.817961587127343 0 -18.817961587127343 70.96158885004138 0 0 0 0 -2.6632618441653904 -57.342763724545506 0 -57.342763724545506 55.069258536045467 0 0 0 0 4.283747091107216 -30.979634914907617 0 -30.979634914907617 11.815311042938447 0 0 0 0 -29.090886180580128 -57.144368194367381 0 -57.144368194367381 4.7973837308680665 0 0 0 0 -19.424490359699121 -14.708905552637162 0 -14.708905552637162 5.4286205485493255 0 0 0 0 -57.685908069121069 -41.784925765224592 0 -41.784925765224592 -12.760305505370766 0 0 0 0 -22.206358919378545 -44.032183081406984 0 -44.032183081406984 -25.076392415946827 0 0 0 0 -39.265763201547088 -52.553334280261787 0 -52.553334280261787 -25.759542771518397 0 0 0 0 -49.651379395261756 -56.191464493009676 0 -56.191464493009676 -0.080426620750577549 0 0 0 0 -37.075836750089366 -47.924282428240836 0 -47.924282428240836 -18.885310117693816 0 0 0 0 -48.286133970592346 -20.109919113301949 0 -20.109919113301949 -34.815026501059371 0 0 0 0 -81.316197927852045 -70.630925907671028 0 -70.630925907671028 -33.013877236801058 0 0 0 0 -63.921205142765757 -87.151182351657226 0 -87.151182351657226 -17.456653517988912 0 0 0 0 -58.247175975844584 -56.1334496291094 0 -56.1334496291094 -25.99657996558463 0 0 0 0 -37.315446594089735 -53.193604154898708 0 -53.193604154898708 -27.340851911183933 0 0 0 0 -55.326107873668661 -74.301344806873757 0 -74.301344806873757 -34.280747971183118 0 0 0 0 -57.926497996759281 -73.089807283773553 0 -73.089807283773553 -42.515018219726002 0 0 0 0 -59.611029412393691 -72.831107338874162 0 -72.831107338874162 -26.940426717901151 0 0 0 0 -102.67977885711298 -113.4099532566195 0 -113.4099532566195 0.037708687293882763 0 0 0 0 -82.781920085704769 -63.86182953440214 0 -63.86182953440214 -31.452265806318252 0 0 0 0 -112.33104448902304 -105.41473641964525 0 -105.41473641964525 -44.552113446327731 0 0 0 0 -36.296507664112141 -30.160457455307839 0 -30.160457455307839 92.255355088445356 0 0 0 0 -54.637970031668374 -117.67640985909044 0 -117.67640985909044 -150.05492830968862 0 0 0 0 -0.44423911031506691 -0.2057329862616335 0 -0.2057329862616335 -0.0065189702277732992 0 0 0 0 17.272356720532116 -12.555198399422986 0 -12.555198399422986 0.077288855646493529 0 0 0 0 -21.536245430088456 -22.178637099854672 0 -22.178637099854672 -19.702689159265049 0 0 0 0 -30.58118958180421 -68.824143004361417 0 -68.824143004361417 -82.990957782159143 0 0 0 0 -52.855773116476485 -48.283507315483831 0 -48.283507315483831 -41.41835123554857 0 0 0 0 -80.810316252740449 -59.153398763496867 0 -59.153398763496867 -36.116209744690615 0 0 0 0 -82.046212942331749 -94.363089316020179 0 -94.363089316020179 -39.101790084032473 0 0 0 0 -74.575018940129667 -76.570239846907171 0 -76.570239846907171 -17.157697756215072 0 0 0 0 -63.062019807388424 -38.795875454633347 0 -38.795875454633347 -26.452726288272942 0 0 0 0 3.063570658545359 -3.0676442384208684 0 -3.0676442384208684 -7.8133460275337256 0 0 0 0 -0.41388254139006975 -0.6597928902527741 0 -0.6597928902527741 -0.39858537926828341 0 0 0 0 -50.792954739081324 -22.77888662131889 0 -22.77888662131889 -6.3893550010602667 0 0 0 0 -52.172295579424826 -21.779904340551298 0 -21.779904340551298 -5.0403353707870266 0 0 0 0 0.81146913694101386 -6.3412617947387373 0 -6.3412617947387373 10.089913202442931 0 0 0 0 -1.0279468807995045 -0.60397919841378211 0 -0.60397919841378211 -0.15339401079533271 0 0 0 0 -1.083835842150199 -0.39192512490069475 0 -0.39192512490069475 0.030180506275519891 0 0 0 0 -2.7816824365737034 -0.67862573821135541 0 -0.67862573821135541 0.28108014125972203 0 0 0 0 -2.9446473201141998 -1.0849905078103341 0 -1.0849905078103341 0.0015492897548324543 0 0 0 0 -2.5424186043237569 -0.74030432246357147 0 -0.74030432246357147 0.27424079645094246 0 0 0 0 -3.706821638304973 0.29041631593122474 0 0.29041631593122474 4.9774269603040793 0 0 0 0 -2.3271401242964203 -0.74787139253189994 0 -0.74787139253189994 -0.00038745456386562397 0 0 0 0 -0.94120472607649219 0.090142373753991478 0 0.090142373753991478 0.11520927264471376 0 0 0 0 -2.7449958373472327 -0.50109408564185998 0 -0.50109408564185998 4.1048849056433543 0 0 0 0 -19.187641339289257 -19.006495490805577 0 -19.006495490805577 60.376378947618832 0 0 0 0 -3.36108513300033 -0.27778479807318135 0 -0.27778479807318135 0.91524466841667496 0 0 0 0 -2.6329209153228419 0.57530420989978381 0 0.57530420989978381 1.4889879718918708 0 0 0 0 24.152014460647479 -19.369686118360079 0 -19.369686118360079 42.48131446520815 0 0 0 0 -5.2266765716922237 3.1953683150836127 0 3.1953683150836127 2.6340970507753809 0 0 0 0 0.11947628879599392 -0.46952993036521562 0 -0.46952993036521562 0.25461648883868104 0 0 0 0 -2.2218736994517485 -1.5304069154995688 0 -1.5304069154995688 1.0946499592040677 0 0 0 0 -6.2822112388530513 -5.5062388694013009 0 -5.5062388694013009 -1.0746205178174719 0 0 0 0 -4.4950007968727732 -8.8474006622470966 0 -8.8474006622470966 4.5920189729258141 0 0 0 0 -29.438487817344139 2.8522066420985936 0 2.8522066420985936 4.1927285428648133 0 0 0 0 52.108028229791671 -80.700713756773169 0 -80.700713756773169 62.248817515981514 0 0 0 0 -143.79095580337162 -8.6816396299727927 0 -8.6816396299727927 91.969744088142789 0 0 0 0 -37.7966410999652 -35.696025053936609 0 -35.696025053936609 74.217545516828864 0 0 0 0 -32.581067181069557 -7.9537916470170167 0 -7.9537916470170167 50.470172007748225 0 0 0 0 -27.962558604616788 -56.288936165440283 0 -56.288936165440283 109.11193890566693 0 0 0 0 -35.835414873232367 -10.079190937674213 0 -10.079190937674213 79.243493341074881 0 0 0 0 -54.944110239663132 -35.330573646846965 0 -35.330573646846965 76.767836142296801 0 0 0 0 -461.19009204801114 38.782381723712803 0 38.782381723712803 112.19677863897894 0 0 0 0 79.802705499416334 -54.710484631490559 0 -54.710484631490559 83.026126908535758 0 0 0 0 -1.279466723859926 -1.7689358619678188 0 -1.7689358619678188 -0.063728108035635889 0 0 0 0 152.26217286897008 -193.90280899477438 0 -193.90280899477438 30.86212486882846 0 0 0 0 -61.301037574856309 75.150346122179286 0 75.150346122179286 -65.133262914693844 0 0 0 0 -192.29279233557827 -17.378021389670472 0 -17.378021389670472 19.505659619054143 0 0 0 0 -248.31382572197617 -52.705425234670166 0 -52.705425234670166 59.958345821869955 0 0 0 0 -0.19478660593036956 -0.13129446238176001 0 -0.13129446238176001 -0.094500438280469778 0 0 0 0 -151.38012892767438 -54.073533124821239 0 -54.073533124821239 36.733783120213054 0 0 0 0 -79.37161369198293 -70.481452474375942 0 -70.481452474375942 -0.71193428466190767 0 0 0 0 -143.48547869586037 -77.198392044824345 0 -77.198392044824345 38.155994281621453 0 0 0 0 -108.0648534475331 -71.859575246305013 0 -71.859575246305013 7.4813446140032909 0 0 0 0 -78.246768947131386 -79.695463644673879 0 -79.695463644673879 -13.088956118119654 0 0 0 0 -64.168352898290323 -40.161883195486112 0 -40.161883195486112 -18.128194787373076 0 0 0 0 -115.96178777336536 -26.512821899718958 0 -26.512821899718958 -21.72354471062647 0 0 0 0 -184.06790402681509 87.039378520279968 0 87.039378520279968 -35.32203021315501 0 0 0 0 -142.86900736889947 93.656718935784838 0 93.656718935784838 -79.531298802743876 0 0 0 0 -347.57120123549248 234.38318689859557 0 234.38318689859557 -138.70221595856157 0 0 0 0 -1.579856209342239 0.4258807492705543 0 0.4258807492705543 0.033019727755542322 0 0 0 0 -182.76229650474124 25.277459050974922 0 25.277459050974922 126.58466273244721 0 0 0 0 -130.19317288915045 209.46196230251826 0 209.46196230251826 -332.12916562938096 0 0 0 0 -350.44980168655457 185.14128938642415 0 185.14128938642415 -99.064116196884626 0 0 0 0 -54.510161894504563 61.702132220624549 0 61.702132220624549 -67.948122185816374 0 0 0 0 28.360812392595108 14.849051309174405 0 14.849051309174405 0.13653046049352591 0 0 0 0 -182.45072872417222 137.21804860464869 0 137.21804860464869 -54.216527979063514 0 0 0 0 -55.556715915445238 88.112863136244215 0 88.112863136244215 -51.882596208549899 0 0 0 0 -69.227579502068693 127.31412729410906 0 127.31412729410906 -131.63932744215427 0 0 0 0 -27.935080603871029 53.765649627262036 0 53.765649627262036 -128.50935466515762 0 0 0 0 -37.442736766010057 69.883979158636805 0 69.883979158636805 -34.495371998026364 0 0 0 0 -19.844966361001752 18.681472133694928 0 18.681472133694928 8.7488292084071588 0 0 0 0 -25.131596760460525 69.83954010503021 0 69.83954010503021 -50.404138380477889 0 0 0 0 -24.097489422216313 65.545048663885325 0 65.545048663885325 -76.863506859994573 0 0 0 0 -13.923999515565811 33.718255426666246 0 33.718255426666246 20.47498010821073 0 0 0 0 3.1876351789833279 12.497761836330092 0 12.497761836330092 17.164243311907587 0 0 0 0 -4.0916786517281878 0.64199148324413002 0 0.64199148324413002 0.35512587126171785 0 0 0 0 -11.615388644160703 23.681839781258532 0 23.681839781258532 -89.457117090333441 0 0 0 0 -0.14744954193727722 -1.1077220642175956 0 -1.1077220642175956 0.39120530916493906 0 0 0 0 -3.0717980308673702 -0.06742024619418352 0 -0.06742024619418352 0.32284235197620409 0 0 0 0 -2.5687857168377377 -0.56948948699998425 0 -0.56948948699998425 4.1312003572957714 0 0 0 0 -5.0287771634903038 -0.14049915784862874 0 -0.14049915784862874 0.94524670831526536 0 0 0 0 -3.6418883644946618 0.22949446304553717 0 0.22949446304553717 -0.026115618587560566 0 0 0 0 -2.820361605682109 1.0212254776116403 0 1.0212254776116403 0.29442310365627716 0 0 0 0 -34.989049099254771 19.659393731852063 0 19.659393731852063 41.793123110624627 0 0 0 0 1.6131479034083895 -8.3491465582989264 0 -8.3491465582989264 42.937980513629725 0 0 0 0 -81.993927839110256 34.376995850038952 0 34.376995850038952 39.228277293308686 0 0 0 0 -53.531387357739732 50.332579838129632 0 50.332579838129632 36.298236013447749 0 0 0 0 -171.93209314095657 119.99702280289719 0 119.99702280289719 19.663935657859295 0 0 0 0 -104.06655345200852 119.47325617467884 0 119.47325617467884 -28.729654216014012 0 0 0 0 -105.54539207189373 143.55978035275245 0 143.55978035275245 -30.731765197371374 0 0 0 0 -79.998311889314209 79.019662099684837 0 79.019662099684837 8.8361262176836597 0 0 0 0 -73.42736827697081 121.09414513695531 0 121.09414513695531 -41.944149595894274 0 0 0 0 -95.265288512564439 121.99737146562521 0 121.99737146562521 -51.585167914381621 0 0 0 0 -87.686383344233036 134.25904227025887 0 134.25904227025887 -27.985512544543408 0 0 0 0 -99.699361027684063 119.96465456196363 0 119.96465456196363 -27.365138854738245 0 0 0 0 -95.664523805371573 108.21779597694614 0 108.21779597694614 -21.364866058195958 0 0 0 0 -71.244095259011829 44.526353306648694 0 44.526353306648694 18.595868737708429 0 0 0 0 -68.871419582093949 104.98803490997565 0 104.98803490997565 -32.16618146833224 0 0 0 0 -127.93146529885416 124.14778604217128 0 124.14778604217128 -28.812148575208429 0 0 0 0 -116.20926340993083 57.035933252177152 0 57.035933252177152 -22.096356018609413 0 0 0 0 -33.289548712687974 16.246589855351829 0 16.246589855351829 138.90470626030083 0 0 0 0 4.8970158463926055 -3.1920055663388212 0 -3.1920055663388212 51.965972501839218 0 0 0 0 -35.795751430987366 77.144397999647239 0 77.144397999647239 22.16597391323171 0 0 0 0 -19.126066712158718 27.725462343583363 0 27.725462343583363 11.198779885628596 0 0 0 0 -39.557266137732107 119.94554240403895 0 119.94554240403895 -87.916384592461554 0 0 0 0 -39.468718354073644 63.95292843077064 0 63.95292843077064 2.5848095995750953 0 0 0 0 -27.017524497030536 72.967855653370066 0 72.967855653370066 59.257079077692879 0 0 0 0 -51.71412785389839 33.622926247508246 0 33.622926247508246 -0.69109352274875846 0 0 0 0 -77.128774766351853 96.222753765379281 0 96.222753765379281 -84.396634207072566 0 0 0 0 -141.1432068354261 0.55286172045628135 0 0.55286172045628135 -227.37223337822667 0 0 0 0 -212.69005129550351 245.39029394655603 0 245.39029394655603 -166.62041340908655 0 0 0 0 -180.87431878716325 63.194316897954991 0 63.194316897954991 -19.942633076090488 0 0 0 0 -142.15747569849191 6.8069507837460606 0 6.8069507837460606 40.756536393539591 0 0 0 0 -80.089592850781628 -66.627705535032419 0 -66.627705535032419 85.099406730964802 0 0 0 0 -91.106673780950587 -129.25157486819251 0 -129.25157486819251 204.48385365104582 0 0 0 0 -77.231531874582288 9.981785571483897 0 9.981785571483897 405.19928120938494 0 0 0 0 0.093227230576275133 1.4949918159029068 0 1.4949918159029068 -0.16788520846419797 0 0 0 0 -187.13636850834018 -20.995445738609806 0 -20.995445738609806 71.406695127795388 0 0 0 0 -65.025425959262066 39.01503382126748 0 39.01503382126748 100.89756904228648 0 0 0 0 -16.684325524412998 -58.873093506344588 0 -58.873093506344588 108.284901581035 0 0 0 0 -23.106118096664432 11.127911226883384 0 11.127911226883384 241.83583896261757 0 0 0 0 3.9459750143578276 -118.1367397713791 0 -118.1367397713791 150.05521052654012 0 0 0 0 -8.8066177467262605 -86.036403471975575 0 -86.036403471975575 220.31702728854452 0 0 0 0 -46.061909198848298 -78.082241727414612 0 -78.082241727414612 225.27271611552959 0 0 0 0 -43.696885712131916 -53.83632650621314 0 -53.83632650621314 389.80988472592207 0 0 0 0 -36.304805120322271 -186.11273074887822 0 -186.11273074887822 253.7583066436398 0 0 0 0 -22.497328101128005 -55.318032350103465 0 -55.318032350103465 12.970418675369274 0 0 0 0 -9.7209182507324385 -3.4899335497236876 0 -3.4899335497236876 1.526070113606397 0 0 0 0 -4.7783445104723796 114.5808391324336 0 114.5808391324336 314.1772463578418 0 0 0 0 -22.0940599345995 -72.849273432104724 0 -72.849273432104724 374.77968789737565 0 0 0 0 58.615997660162975 -6.8232569276623281 0 -6.8232569276623281 136.05701958090151 0 0 0 0 -8.0261937063914957 -58.360654184122367 0 -58.360654184122367 226.54831025853218 0 0 0 0 162.71494820286171 15.128292704209798 0 15.128292704209798 248.85318852361365 0 0 0 0 -14.653954488276952 -4.3387859387293304 0 -4.3387859387293304 -0.93764109212024005 0 0 0 0 -216.30733334817342 -128.28126215401986 0 -128.28126215401986 229.19713212965172 0 0 0 0 -107.6041128451543 35.348916612667608 0 35.348916612667608 -0.091989705659102583 0 0 0 0 176.95068870973773 -139.82225126648478 0 -139.82225126648478 195.48283146616177 0 0 0 0 -103.35784585878719 29.103411456453841 0 29.103411456453841 -23.735245201703037 0 0 0 0 -13.337750706428778 24.69177461917306 0 24.69177461917306 100.25299904616807 0 0 0 0 51.62743090686854 -101.05708725003925 0 -101.05708725003925 61.158442924326671 0 0 0 0 -161.29820735464455 -112.50233489597795 0 -112.50233489597795 60.797323020989687 0 0 0 0 -0.43200908748258371 -56.724761986133188 0 -56.724761986133188 22.703840550999075 0 0 0 0 -92.126176493053208 -94.461185223722168 0 -94.461185223722168 26.937725313935488 0 0 0 0 333.21959034283645 -191.35632337786376 0 -191.35632337786376 35.140293365732461 0 0 0 0 -0.31753348253151614 -0.66500399949512712 0 -0.66500399949512712 -0.4064627009333352 0 0 0 0 -347.12009803048568 -73.360957581178127 0 -73.360957581178127 201.39235611984765 0 0 0 0 -170.78582749418638 -97.225689440899899 0 -97.225689440899899 40.31289088269267 0 0 0 0 -313.76956184214214 -41.89053549941648 0 -41.89053549941648 57.747400969247984 0 0 0 0 -5.4195001430427965 -1.3005817354362819 0 -1.3005817354362819 -0.40420183317090719 0 0 0 0 124.215687737189 -95.622411642762614 0 -95.622411642762614 -61.621137230885097 0 0 0 0 330.25252219177491 -102.35522614878575 0 -102.35522614878575 -50.80549287827116 0 0 0 0 168.65265094024653 -26.462379194862763 0 -26.462379194862763 45.962294988453891 0 0 0 0 -129.84729929902096 -239.39795629862948 0 -239.39795629862948 11.963544332887253 0 0 0 0 -428.89840020723204 12.507074312814893 0 12.507074312814893 -27.997773412365518 0 0 0 0 -362.79420263680004 282.40908212057758 0 282.40908212057758 -182.04425843785742 0 0 0 0 -144.98918014577066 124.67014629892822 0 124.67014629892822 -102.56119130718196 0 0 0 0 -94.292048919538502 64.507071678055922 0 64.507071678055922 -42.097053834412009 0 0 0 0 -205.91619865565735 121.00249988345627 0 121.00249988345627 12.939234098126235 0 0 0 0 -141.0035729604715 95.374951244774365 0 95.374951244774365 -52.650206479037251 0 0 0 0 -206.04793948640804 111.3243928256032 0 111.3243928256032 4.2714294438128491 0 0 0 0 -327.04726336536987 62.19851935106476 0 62.19851935106476 64.747921581363016 0 0 0 0 -144.11506447785359 9.5396594562630526 0 9.5396594562630526 51.178137365870612 0 0 0 0 -267.91544486110797 173.07145972951139 0 173.07145972951139 -29.759694707208155 0 0 0 0 -253.26894357545098 96.416025501235367 0 96.416025501235367 6.5959912762305066 0 0 0 0 -139.17269191089144 27.814779619956425 0 27.814779619956425 18.763211962672187 0 0 0 0 -187.29619212219404 108.00008237000861 0 108.00008237000861 -102.62990729894364 0 0 0 0 -231.7559798677612 130.18390577507489 0 130.18390577507489 -8.3495178109960762 0 0 0 0 -229.84345392738032 39.422938888357294 0 39.422938888357294 32.535430875027714 0 0 0 0 -98.615337110531982 37.846383599903788 0 37.846383599903788 -14.77155871571108 0 0 0 0 -144.7929627824924 48.821983475303227 0 48.821983475303227 -8.2683784733212633 0 0 0 0 -89.47583319311525 53.943105037754862 0 53.943105037754862 -14.713204842401865 0 0 0 0 -24.851620108180214 -12.994549714838683 0 -12.994549714838683 -15.709468121991108 0 0 0 0 -126.13164374876214 -28.41579254345379 0 -28.41579254345379 -12.820705247494743 0 0 0 0 1.2105529048768631 0.69341753523279692 0 0.69341753523279692 -1.8557555796957281 0 0 0 0 -0.98022628732530848 18.33380576756867 0 18.33380576756867 -30.608309419235411 0 0 0 0 -3.4613212401093847 -1.1045263414445969 0 -1.1045263414445969 1.1866264140306715 0 0 0 0 -129.05478612159277 -34.621295101430263 0 -34.621295101430263 85.101901014283158 0 0 0 0 -15.306655110645806 -122.57408804637771 0 -122.57408804637771 -69.804540365840694 0 0 0 0 -370.4688071136552 264.77668328292134 0 264.77668328292134 -88.777837290243951 0 0 0 0 -99.125311498064548 -23.225032999537689 0 -23.225032999537689 -90.902154272336702 0 0 0 0 22.011582645165618 72.601459717041052 0 72.601459717041052 -6.4241085716951147 0 0 0 0 -27.671549787271942 44.382281958334488 0 44.382281958334488 51.20723628327687 0 0 0 0 -4.2449881743158926 -4.3347501940195912 0 -4.3347501940195912 -0.13795992588703854 0 0 0 0 -41.898404723959629 9.4075294136643066 0 9.4075294136643066 37.400628584191054 0 0 0 0 -293.54577013726521 234.71106099135341 0 234.71106099135341 -23.721821234971685 0 0 0 0 -258.55319161241459 -2.5009940166159481 0 -2.5009940166159481 27.427022929537998 0 0 0 0 -131.90756528182101 94.233108250441092 0 94.233108250441092 99.987473647484876 0 0 0 0 -21.872735504803131 33.058469827536101 0 33.058469827536101 -50.990485980722042 0 0 0 0 -138.36840638009744 -102.38299663950011 0 -102.38299663950011 228.73575308286263 0 0 0 0 -88.001840272885602 59.38752797606503 0 59.38752797606503 -9.3397666314713206 0 0 0 0 -58.925825285383837 -10.838920312555562 0 -10.838920312555562 5.8935240662015822 0 0 0 0 -41.525402557163034 49.190678474413289 0 49.190678474413289 107.64253831926362 0 0 0 0 -188.93849035611493 2.3518713571284025 0 2.3518713571284025 106.43173531017419 0 0 0 0 15.619108268219861 53.314963524398991 0 53.314963524398991 -141.6314624095221 0 0 0 0 -32.329212664961233 -11.900582655475773 0 -11.900582655475773 83.966719385827219 0 0 0 0 -31.602270769988536 3.656514690498625 0 3.656514690498625 4.3207060339741474 0 0 0 0 -31.405629061674773 -0.27842102768570687 0 -0.27842102768570687 2.6066273923082099 0 0 0 0 36.090411271288758 87.878871651778354 0 87.878871651778354 14.570837556513652 0 0 0 0 -51.353206155559747 23.878406450211514 0 23.878406450211514 140.05820077067119 0 0 0 0 70.810021992132533 82.545212265709779 0 82.545212265709779 226.17373761306862 0 0 0 0 -2.3654295597862074 -33.250958783752139 0 -33.250958783752139 139.67480644699208 0 0 0 0 -20.881166348000988 -63.730211725059235 0 -63.730211725059235 106.60943598616905 0 0 0 0 -6.3635271524048136 -0.69994061753655501 0 -0.69994061753655501 3.8746004517887336 0 0 0 0 35.649025654667639 -10.68225833843826 0 -10.68225833843826 -139.39594233411117 0 0 0 0 -9.9293175454427853 -0.69107251413966253 0 -0.69107251413966253 2.2527304554179413 0 0 0 0 -50.702638465110795 10.401290622470697 0 10.401290622470697 178.80193996768867 0 0 0 0 -40.564217285340419 -41.540247329905469 0 -41.540247329905469 160.94153824733348 0 0 0 0 -49.563243885873817 4.4633295568273752 0 4.4633295568273752 130.70865026094907 0 0 0 0 -41.090251298475778 -36.114843568779179 0 -36.114843568779179 108.22197851735109 0 0 0 0 -28.69921292761137 -61.27226224685478 0 -61.27226224685478 97.938352604905049 0 0 0 0 -33.308743746281834 13.048473876209755 0 13.048473876209755 107.32399304984801 0 0 0 0 -32.539373596739637 -2.4455810496231765 0 -2.4455810496231765 -0.42159882852142427 0 0 0 0 -135.29826720237907 -75.438645410376012 0 -75.438645410376012 119.37682406712895 0 0 0 0 -147.52262613844869 -108.47719767655713 0 -108.47719767655713 -0.045340089975070441 0 0 0 0 -0.37413662724429742 53.439870945590883 0 53.439870945590883 -37.65499701216504 0 0 0 0 -50.963473747586249 33.090736666961902 0 33.090736666961902 51.192930298751889 0 0 0 0 32.549180584115675 -60.600064833728538 0 -60.600064833728538 -11.832968162962061 0 0 0 0 -67.175024054490223 -14.631781687738375 0 -14.631781687738375 2.8231418030337334 0 0 0 0 3.1006429755798308 113.47686144042291 0 113.47686144042291 -115.31368226056566 0 0 0 0 -114.56172221903398 -140.17859687123246 0 -140.17859687123246 231.51960256774373 0 0 0 0 -113.26123009734147 63.522435687542384 0 63.522435687542384 11.478204989465667 0 0 0 0 34.565480936827953 -40.881604728972434 0 -40.881604728972434 -156.23803167505503 0 0 0 0 23.341498133828281 -51.145594523222712 0 -51.145594523222712 23.205365072749828 0 0 0 0 -37.152870873294887 -184.32252983765142 0 -184.32252983765142 229.68696087228818 0 0 0 0 -165.70954502923996 39.86178356812934 0 39.86178356812934 62.646254507765889 0 0 0 0 -243.14570276220547 -42.124139782710586 0 -42.124139782710586 -9.1091766313147673 0 0 0 0 -41.441408725499059 -71.756292135044987 0 -71.756292135044987 28.61403016535678 0 0 0 0 -130.67674139786686 24.815729344853708 0 24.815729344853708 2.7282250942516839 0 0 0 0 -143.81158824626618 -121.97222210950849 0 -121.97222210950849 43.276515153942 0 0 0 0 39.559074945471366 -102.89841502129093 0 -102.89841502129093 40.386517665132203 0 0 0 0 20.866691035102122 -176.63665142715763 0 -176.63665142715763 -298.63248642945638 0 0 0 0 -16.562094303430058 41.391856773560903 0 41.391856773560903 24.186846440617046 0 0 0 0 -203.70097215467831 -109.32260974089422 0 -109.32260974089422 365.6598899137561 0 0 0 0 -97.394677828357089 -212.39371724142347 0 -212.39371724142347 187.36033889615737 0 0 0 0 -76.234318243907836 -21.274254549868616 0 -21.274254549868616 -0.5428120270415091 0 0 0 0 -509.94214526121505 363.65256246630634 0 363.65256246630634 299.37423636907192 0 0 0 0 -63.287502271828998 -29.837860301737919 0 -29.837860301737919 155.53123726848435 0 0 0 0 -87.63602478465873 10.220039342987093 0 10.220039342987093 28.439134530143747 0 0 0 0 -48.899143345857738 -18.360568497729673 0 -18.360568497729673 168.08780891417314 0 0 0 0 -95.476678947205073 2.1947466937963327 0 2.1947466937963327 7.5764101329218647 0 0 0 0 -110.05069706936047 -31.926894162399321 0 -31.926894162399321 -27.259096441965085 0 0 0 0 -50.982398734427989 -10.201685315393661 0 -10.201685315393661 -16.053579983988129 0 0 0 0 -53.005269904859034 4.6976526468586854 0 4.6976526468586854 6.2846160604352814 0 0 0 0 -30.174579852900933 -8.3926685311905658 0 -8.3926685311905658 5.0440970888906804 0 0 0 0 -33.45031179660765 -2.478728345455167 0 -2.478728345455167 5.2033774080524537 0 0 0 0 -13.736972152133916 -6.9280571894524172 0 -6.9280571894524172 4.0669982422639315 0 0 0 0 -76.10910148617927 -15.134321963788153 0 -15.134321963788153 1.0349777089430932 0 0 0 0 -10.553378631026135 -135.95667099640241 0 -135.95667099640241 -3.2014304527955346 0 0 0 0 -2.9589622351248579 -7.4182686227590331 0 -7.4182686227590331 0.22717967216668589 0 0 0 0 -57.202378921094351 39.981455350345641 0 39.981455350345641 28.288315802493539 0 0 0 0 -20.86551600823077 32.341364899820292 0 32.341364899820292 12.616164393497456 0 0 0 0 -52.754291029537853 31.350763530502263 0 31.350763530502263 14.530676484339438 0 0 0 0 -49.04751646832301 35.352295772599064 0 35.352295772599064 11.880760098337305 0 0 0 0 -81.790581053777714 23.257430206040681 0 23.257430206040681 18.963759211249453 0 0 0 0 -53.77026193371421 36.833810991885457 0 36.833810991885457 16.666337881031723 0 0 0 0 -48.0897030717897 4.8280538559906745 0 4.8280538559906745 2.4423381660635641 0 0 0 0 -74.577213376644067 7.090030535184269 0 7.090030535184269 7.6744467052931213 0 0 0 0 -64.302068859047722 27.566407760793481 0 27.566407760793481 12.128915696666809 0 0 0 0 -68.860835339073674 1.6671183357125301 0 1.6671183357125301 -1.2098258048899879 0 0 0 0 -28.203320776259631 -0.28144873172424312 0 -0.28144873172424312 -0.20220095086399703 0 0 0 0 -647.30701437033713 -31.898731930381473 0 -31.898731930381473 -30.826786523448845 0 0 0 0 -47.256124713821919 34.18295961772219 0 34.18295961772219 10.23831030708061 0 0 0 0 -567.73662303150195 -281.28733721331355 0 -281.28733721331355 67.503928694424758 0 0 0 0 148.60358120087767 -700.27586452005198 0 -700.27586452005198 -289.00348933464556 0 0 0 0 -22.554632506398775 8.1033841313062567 0 8.1033841313062567 2.5519927652585466 0 0 0 0 -37.181982142734341 29.250392653344534 0 29.250392653344534 12.188496216365365 0 0 0 0 106.346481174769 -120.2255149048151 0 -120.2255149048151 -20.488753667610581 0 0 0 0 -103.66300942037196 -28.657975051154381 0 -28.657975051154381 -62.406356290535768 0 0 0 0 2.6717278551768686 68.262895343292939 0 68.262895343292939 -144.75020300384494 0 0 0 0 265.87551456101937 -191.26881146895539 0 -191.26881146895539 -140.02458358790273 0 0 0 0 329.03125673333125 12.761684484220041 0 12.761684484220041 -300.74994950418477 0 0 0 0 -485.18040130758891 7.3504106307682378 0 7.3504106307682378 265.49403237201386 0 0 0 0 -512.2013108829924 123.1719777157723 0 123.1719777157723 -7.5847493413402844 0 0 0 0 0.11530079386054126 -2.4652912266908729 0 -2.4652912266908729 -4.4735048596156535 0 0 0 0 -170.74134861097991 72.657609683992632 0 72.657609683992632 -74.896392556649516 0 0 0 0 -106.10014577613765 -96.681195169409875 0 -96.681195169409875 -65.71098754943705 0 0 0 0 -240.37784978729178 -63.539703738740172 0 -63.539703738740172 -2.7943130697076413 0 0 0 0 -148.30795815856254 -86.104572235806245 0 -86.104572235806245 -64.833866091894379 0 0 0 0 68.810342501528794 -193.41474066635465 0 -193.41474066635465 -27.355700140729368 0 0 0 0 -74.046050325758642 -19.622931990874005 0 -19.622931990874005 0.0015801266002100078 0 0 0 0 151.4343364078959 -335.95536036034446 0 -335.95536036034446 -884.1417224626166 0 0 0 0 -216.63460621706326 330.05836963993261 0 330.05836963993261 -104.13760660888011 0 0 0 0 54.107569672240061 76.806101080361259 0 76.806101080361259 5.4796846336807903 0 0 0 0 69.148881530927611 136.84928510784721 0 136.84928510784721 -33.105766122468594 0 0 0 0 -171.29755140803172 -390.87152045539642 0 -390.87152045539642 -434.48856526069682 0 0 0 0 -9.3665481908668937 -0.21367569703983236 0 -0.21367569703983236 -0.41385354738858082 0 0 0 0 -17.821097734729847 142.40989735514199 0 142.40989735514199 -290.41700217329708 0 0 0 0 -662.37321665299532 -120.96707340647276 0 -120.96707340647276 110.12905887217312 0 0 0 0 -389.93482464389672 -368.4290644331063 0 -368.4290644331063 358.65907034930115 0 0 0 0 143.68468118809687 -177.92799758039791 0 -177.92799758039791 113.88782105990799 0 0 0 0 -72.53297041967744 140.2942355636601 0 140.2942355636601 -168.93655455519638 0 0 0 0 -1.8259572173391803 -1.611567723278112 0 -1.611567723278112 -0.33690430688475281 0 0 0 0 -25.658696748789225 31.704396464376714 0 31.704396464376714 -3.2412093112554317 0 0 0 0 -95.739958581732935 32.391580839891503 0 32.391580839891503 422.64179324189217 0 0 0 0 -5.4094989441976793 1.9958989360520221 0 1.9958989360520221 0.51372400767257087 0 0 0 0 -70.905353913234649 281.49141698213373 0 281.49141698213373 222.89436888313412 0 0 0 0 -26.592126913110079 2.4648096468909202 0 2.4648096468909202 2.3494758465767696 0 0 0 0 -29.252834757850998 -4.3401810808166772 0 -4.3401810808166772 -1.1404769291669368 0 0 0 0 -44.440001763745386 -149.35894951373871 0 -149.35894951373871 122.62648433192976 0 0 0 0 -33.159881091305579 18.364885049118243 0 18.364885049118243 5.4401265199239788 0 0 0 0 -40.748580699644776 -2.1654748138367559 0 -2.1654748138367559 2.8723446666358128 0 0 0 0 -52.700886352249654 46.759335941971585 0 46.759335941971585 57.24745700284484 0 0 0 0 -33.856868444905558 -3.4541632327400293 0 -3.4541632327400293 6.8930952590703782 0 0 0 0 -34.928053573024954 -34.345129098380312 0 -34.345129098380312 -20.460188664607813 0 0 0 0 -16.776719890230744 2.9910078093070176 0 2.9910078093070176 -5.1774246946327516 0 0 0 0 -43.428729629013965 -6.9401682881088185 0 -6.9401682881088185 -7.1910530433340298 0 0 0 0 -66.274391841907345 -23.143167526578509 0 -23.143167526578509 -23.397842773127195 0 0 0 0 -41.106066159109105 -2.5836568464917491 0 -2.5836568464917491 -7.7583064230148011 0 0 0 0 -23.26820491454334 -9.5051264575139953 0 -9.5051264575139953 -3.0156274409936046 0 0 0 0 -43.777838233469083 -0.19550838598934206 0 -0.19550838598934206 -7.7440052636553673 0 0 0 0 -38.269604721292126 1.4695200699989073 0 1.4695200699989073 -7.3145993476327931 0 0 0 0 -128.61464098257784 -38.926960930110909 0 -38.926960930110909 32.447486332767767 0 0 0 0 -107.48728437916725 -18.655453167194082 0 -18.655453167194082 9.4276845062463508 0 0 0 0 -14.875914435020093 -3.3073500726171901 0 -3.3073500726171901 -3.8162890087745627 0 0 0 0 -77.498119733194471 28.631685739846489 0 28.631685739846489 11.76245601206665 0 0 0 0 -73.505396518492489 45.714326195725789 0 45.714326195725789 24.869667624357135 0 0 0 0 -55.80754808045458 31.440079201106983 0 31.440079201106983 -7.4388564631767622 0 0 0 0 -76.886832585900265 4.4487291305345025 0 4.4487291305345025 -25.455468813203879 0 0 0 0 -74.721242596498996 -50.25638556346621 0 -50.25638556346621 100.2888462838564 0 0 0 0 -63.666272368922776 -6.3195194573802169 0 -6.3195194573802169 0.34954431218463089 0 0 0 0 -52.464660155274032 -140.37351197586395 0 -140.37351197586395 40.132030538846266 0 0 0 0 -39.408619768189965 -18.194160795327662 0 -18.194160795327662 -71.513170438124689 0 0 0 0 6.5615243880492926 11.070564350457971 0 11.070564350457971 -205.6272976478765 0 0 0 0 42.272233273371967 -184.20056062818003 0 -184.20056062818003 -170.14200387458914 0 0 0 0 -28.345577915501053 -56.661902938762069 0 -56.661902938762069 -12.061511389974612 0 0 0 0 -257.59321959178124 186.98890726330546 0 186.98890726330546 149.86061130146754 0 0 0 0 -97.841624149863492 -9.8182482866400278 0 -9.8182482866400278 54.418527023866318 0 0 0 0 -129.41759565875236 -200.70217970467206 0 -200.70217970467206 -84.085550144429362 0 0 0 0 -6.2668576409910273 4.605851778959738 0 4.605851778959738 3.0667504302772013 0 0 0 0 -70.295582808381099 -5.1145453309908504 0 -5.1145453309908504 3.3527023813867216 0 0 0 0 -36.174843520384456 -57.163024788487746 0 -57.163024788487746 -28.940570064702115 0 0 0 0 -91.325635927376425 -78.215350814451085 0 -78.215350814451085 -4.2625039974416268 0 0 0 0 -87.757709528341366 -35.461668521006686 0 -35.461668521006686 -16.278580549308572 0 0 0 0 -20.538361214228512 9.5628583366103967 0 9.5628583366103967 -2.2463806499911634 0 0 0 0 -143.5685759144144 -21.485844136053629 0 -21.485844136053629 -19.576732180161343 0 0 0 0 -200.93303135315318 123.01860947065751 0 123.01860947065751 60.938832091965196 0 0 0 0 -4.1422776428919406 0.85705376325917015 0 0.85705376325917015 -3.2396400021803764 0 0 0 0 -28.616191565370173 -2.765190218123962 0 -2.765190218123962 -11.914224062934863 0 0 0 0 -77.580216313690471 -61.62075048403949 0 -61.62075048403949 -46.803240103315261 0 0 0 0 -16.048975060952706 10.567176279196776 0 10.567176279196776 -1.6826599784896548 0 0 0 0 -86.135755582310594 -46.907601303263618 0 -46.907601303263618 -50.504714071870694 0 0 0 0 -65.358204427273449 -69.181615502034674 0 -69.181615502034674 -27.013441785915347 0 0 0 0 -38.320449560556881 1.2686619058299584 0 1.2686619058299584 -7.9679915667838941 0 0 0 0 -40.006154352879093 -2.0591923631536702 0 -2.0591923631536702 -9.7261807104412128 0 0 0 0 -22.427919024293189 -3.4899697849876468 0 -3.4899697849876468 -1.4860969214200157 0 0 0 0 -38.981337209002959 -0.22932935365679441 0 -0.22932935365679441 -6.5121455626673423 0 0 0 0 -38.050272371901883 2.2028074988279513 0 2.2028074988279513 -6.4024673975909536 0 0 0 0 -26.873863733148937 8.342225839908906 0 8.342225839908906 -2.8683837257840423 0 0 0 0 -28.159787477343304 3.1163658943822519 0 3.1163658943822519 0.76159849620350073 0 0 0 0 -63.401261455335316 12.381004453394553 0 12.381004453394553 112.06979386205148 0 0 0 0 -14.58404391905967 -2.9196246831138293 0 -2.9196246831138293 0.96275766046807831 0 0 0 0 -47.790646013209425 -10.519967980868842 0 -10.519967980868842 14.951286649309623 0 0 0 0 -33.804502869934367 -6.4789986810633309 0 -6.4789986810633309 2.8667461953646125 0 0 0 0 -26.920938589696242 -1.9010213176636235 0 -1.9010213176636235 -2.7297800667436203 0 0 0 0 -17.854860893213434 -1.5090815540952338 0 -1.5090815540952338 0.20969671177656402 0 0 0 0 -41.986325686956661 -2.5240020410444686 0 -2.5240020410444686 11.826227681978708 0 0 0 0 -22.326273870408379 -3.6751519734254989 0 -3.6751519734254989 1.0836110412024631 0 0 0 0 -7.5562820742736285 3.8683540074630356 0 3.8683540074630356 4.0993370369689206 0 0 0 0 -22.949898663557178 -3.800325374885233 0 -3.800325374885233 1.667957316878983 0 0 0 0 -21.353352152297589 5.8212687926624653 0 5.8212687926624653 -1.4573987156591102 0 0 0 0 -52.401843785673918 -10.977676323695732 0 -10.977676323695732 -16.257673141330088 0 0 0 0 -52.107867349612206 -11.536148271237835 0 -11.536148271237835 -23.486157071680282 0 0 0 0 -15.742359681362672 9.2242151836740334 0 9.2242151836740334 -5.5088655320191791 0 0 0 0 -30.442558789680604 -5.9278582351906195 0 -5.9278582351906195 -8.2266687069683009 0 0 0 0 -48.639480681545095 1.4993802148669033 0 1.4993802148669033 6.4134449328087255 0 0 0 0 -11.448162400549336 57.284922808976262 0 57.284922808976262 27.946791491358454 0 0 0 0 -24.825079661834025 22.886043801193409 0 22.886043801193409 8.625855126121678 0 0 0 0 -25.797854256838036 36.533066576379497 0 36.533066576379497 23.839682573475329 0 0 0 0 -5.5408025720944352 29.681836033290438 0 29.681836033290438 -18.957350186803524 0 0 0 0 -2.0358490235166755 32.990585150712377 0 32.990585150712377 -39.002215136370069 0 0 0 0 -13.312053804553216 29.911322246297914 0 29.911322246297914 -3.0273220495009809 0 0 0 0 -22.88446686946736 -0.80971987154180169 0 -0.80971987154180169 -20.641035108798803 0 0 0 0 -97.096551204344451 106.96121281644582 0 106.96121281644582 -164.70756374994926 0 0 0 0 11.817087919148435 108.95567431378322 0 108.95567431378322 -32.122572097923239 0 0 0 0 -25.915767239106572 96.768188286578152 0 96.768188286578152 129.73232137840159 0 0 0 0 -1.2344662742475521 34.663360225355063 0 34.663360225355063 -5.3360147664980104 0 0 0 0 -64.827501470090283 -7.2910451999837278 0 -7.2910451999837278 -11.331390183982876 0 0 0 0 -58.873709374393997 9.0806228127332176 0 9.0806228127332176 5.7941747903692491 0 0 0 0 -60.299287441608612 -6.8648554178598715 0 -6.8648554178598715 -30.234703966167217 0 0 0 0 -66.717251935609966 11.35927293145005 0 11.35927293145005 -13.718781134105484 0 0 0 0 -56.505625575751765 24.160551206980017 0 24.160551206980017 56.194889148671791 0 0 0 0 -70.844874762417021 -23.468711071839607 0 -23.468711071839607 13.276933490579268 0 0 0 0 -74.441424333883333 -87.763968112042676 0 -87.763968112042676 30.067676384044262 0 0 0 0 -68.367082121256317 -2.5536130698778834 0 -2.5536130698778834 -12.346367016052682 0 0 0 0 -71.667778812112374 -1.7728160411438694 0 -1.7728160411438694 10.602546361488749 0 0 0 0 -93.445039856858784 -28.451288821403068 0 -28.451288821403068 74.642219824615495 0 0 0 0 -63.51171885675052 -7.3253861549051056 0 -7.3253861549051056 -0.53273576417796065 0 0 0 0 -6.9642438991742495 -16.124302500504175 0 -16.124302500504175 2.8686111719996399 0 0 0 0 -41.920652545269007 -4.7089826217461486 0 -4.7089826217461486 1.8951373302392565 0 0 0 0 -61.774854485469405 -5.9875207069380849 0 -5.9875207069380849 -12.380546600496018 0 0 0 0 -65.983594112076389 -7.3002240334640192 0 -7.3002240334640192 -3.0612337353841212 0 0 0 0 -23.439146748089115 -2.0367482883339108 0 -2.0367482883339108 12.216962771660747 0 0 0 0 -44.625784577151244 -8.6516589215005197 0 -8.6516589215005197 4.7789278436201972 0 0 0 0 -16.432156985008099 6.3605259716982516 0 6.3605259716982516 -1.6494363652068706 0 0 0 0 -28.558884439688768 2.4903080144702443 0 2.4903080144702443 1.1041980514002097 0 0 0 0 -37.769194467316993 -0.55747517719419193 0 -0.55747517719419193 -6.5542778217070463 0 0 0 0 -31.734379058201739 2.4151136718080579 0 2.4151136718080579 2.8339449438681186 0 0 0 0 -45.250408568881539 -3.6299659791484373 0 -3.6299659791484373 -7.7326501906400154 0 0 0 0 -63.919727179589245 -5.8298833806425137 0 -5.8298833806425137 -12.343697677428281 0 0 0 0 30.612422253165278 18.728849458076638 0 18.728849458076638 -22.000991944443058 0 0 0 0 -78.266664576134644 149.68829017856319 0 149.68829017856319 -44.994988354377696 0 0 0 0 -49.066632779940846 125.13368901495278 0 125.13368901495278 -120.63047965225769 0 0 0 0 -488.53484563565871 297.82896649876955 0 297.82896649876955 -5.3948344760420923 0 0 0 0 -142.25233977774042 48.247645465526489 0 48.247645465526489 167.07417962331704 0 0 0 0 -29.695662214226104 -85.746486257623118 0 -85.746486257623118 26.076942894208514 0 0 0 0 -286.57142957684118 89.841601253671627 0 89.841601253671627 65.185749199163752 0 0 0 0 -303.70950209538569 -16.130151427658234 0 -16.130151427658234 151.1222667336026 0 0 0 0 52.484237925338675 149.80313435380066 0 149.80313435380066 70.835081197447153 0 0 0 0 -52.294781437776919 19.66424173479372 0 19.66424173479372 5.5363924269782281 0 0 0 0 -3.7041254412542912 59.078979412888089 0 59.078979412888089 64.914685861452654 0 0 0 0 -1.2710049122160854 32.969299344199307 0 32.969299344199307 30.578250409194879 0 0 0 0 -66.150555940112099 117.52258084286473 0 117.52258084286473 98.255943517734067 0 0 0 0 -50.687962999859451 15.35183097605492 0 15.35183097605492 8.3779504474272262 0 0 0 0 12.375017174330424 38.349732056538414 0 38.349732056538414 35.10624522026913 0 0 0 0 38.323548962438508 79.951053516325317 0 79.951053516325317 32.101323477047572 0 0 0 0 2.7623607602617994 44.842267341510137 0 44.842267341510137 65.753797705322995 0 0 0 0 -15.368452483539301 7.9179127152863913 0 7.9179127152863913 -5.3080223522964518 0 0 0 0 21.042717115618871 23.397348188467049 0 23.397348188467049 59.26896122989092 0 0 0 0 -7.237776209400181 43.509499791349072 0 43.509499791349072 52.714341521264942 0 0 0 0 5.600410674498562 44.496776031069999 0 44.496776031069999 47.553701379772065 0 0 0 0 -16.535986928291095 41.785838923810388 0 41.785838923810388 47.608951481769736 0 0 0 0 -20.350162236011869 17.91522431547601 0 17.91522431547601 -2.9055831536022385 0 0 0 0 -141.3783233460199 -21.591852739348724 0 -21.591852739348724 55.633207149891177 0 0 0 0 -166.46624788701592 -17.775389495399622 0 -17.775389495399622 58.831625572193161 0 0 0 0 -138.95073447725576 -52.407810709387476 0 -52.407810709387476 34.357212067487126 0 0 0 0 -4.5506275820078201 3.1085358899378264 0 3.1085358899378264 -2.2340642035946692 0 0 0 0 -203.26978989985946 -257.33846425477645 0 -257.33846425477645 -134.97850818687243 0 0 0 0 170.25985127903914 109.22929282193581 0 109.22929282193581 57.741307647647773 0 0 0 0 -119.1575289613902 -70.6121012395256 0 -70.6121012395256 48.102939974562105 0 0 0 0 -43.509234535651885 34.587996605406403 0 34.587996605406403 19.78517975037569 0 0 0 0 -132.51440972856108 -56.500176078007826 0 -56.500176078007826 -59.69598699789276 0 0 0 0 -221.54972524449113 -71.386318060319354 0 -71.386318060319354 -14.782559557915022 0 0 0 0 -175.54252162930061 -116.2533952837739 0 -116.2533952837739 -97.310868205884617 0 0 0 0 -232.61988684298922 -61.662216374317268 0 -61.662216374317268 -14.231902285358956 0 0 0 0 -318.44410760937171 -122.48453587391123 0 -122.48453587391123 -23.811627558947293 0 0 0 0 -252.39294223826073 -189.63346964247376 0 -189.63346964247376 -156.80494055596773 0 0 0 0 -357.71904319177702 -86.71497390123659 0 -86.71497390123659 -0.69262967662780284 0 0 0 0 -265.09143873345602 -64.561495224143982 0 -64.561495224143982 -34.499437021031554 0 0 0 0 -261.13758198266441 -52.382530687827057 0 -52.382530687827057 -22.584893540082703 0 0 0 0 -265.58929937938228 -104.48685660885531 0 -104.48685660885531 -69.462145331275678 0 0 0 0 -232.99737902579 -44.955660173149226 0 -44.955660173149226 -10.020484189591571 0 0 0 0 -271.86348028407883 -52.522519174166518 0 -52.522519174166518 -5.7010382053376816 0 0 0 0 -214.34946451937139 -21.935732547344742 0 -21.935732547344742 -21.540941874331565 0 0 0 0 -179.97915480570009 -25.606542285489923 0 -25.606542285489923 -26.750765806343679 0 0 0 0 -170.57101809127198 7.5344913647539897 0 7.5344913647539897 -32.168023022470152 0 0 0 0 -272.74765017413301 -61.447456285694898 0 -61.447456285694898 -17.899046929751421 0 0 0 0 -236.29763929331239 -26.395478122087297 0 -26.395478122087297 -21.096830301956288 0 0 0 0 -246.59557841765854 -4.5440021301510569 0 -4.5440021301510569 -8.8032943388698186 0 0 0 0 -339.02383011735492 -90.516302316855445 0 -90.516302316855445 -39.429212636801822 0 0 0 0 -354.96387302039147 -11.187438571360872 0 -11.187438571360872 34.687035096858381 0 0 0 0 -294.8989306857693 -6.379817927176191 0 -6.379817927176191 9.1339849552568921 0 0 0 0 -191.195834110742 42.602909258228465 0 42.602909258228465 1.4959554120268876 0 0 0 0 -194.88961404733345 7.7876345225636214 0 7.7876345225636214 12.623658415526734 0 0 0 0 -263.41211526018378 59.698017685978812 0 59.698017685978812 61.577489706942288 0 0 0 0 -370.12551185722987 -9.4730266217447934 0 -9.4730266217447934 99.806549741324488 0 0 0 0 -471.10028563897504 82.463800208377506 0 82.463800208377506 -167.25934557475557 0 0 0 0 -412.46827852811839 -67.824548833641529 0 -67.824548833641529 65.574882852019982 0 0 0 0 -548.38350788400203 -49.993754324656948 0 -49.993754324656948 44.216302855667891 0 0 0 0 -32.51817235530217 39.105081214251143 0 39.105081214251143 17.505931498060423 0 0 0 0 -519.35556589342741 -144.51626451364064 0 -144.51626451364064 15.38960555540416 0 0 0 0 -4.1104895940164212 2.1179608696577894 0 2.1179608696577894 -2.1699774524948623 0 0 0 0 214.85991678897699 123.30629749127502 0 123.30629749127502 -76.661003186411108 0 0 0 0 -417.70856678194832 354.03951157582878 0 354.03951157582878 -416.08417854724303 0 0 0 0 -460.73323666894066 -215.20724001889357 0 -215.20724001889357 -36.544021373916621 0 0 0 0 145.01079354217563 99.03050659638302 0 99.03050659638302 55.123450827783017 0 0 0 0 -317.87939034726878 -123.67243468358902 0 -123.67243468358902 -65.946991737851931 0 0 0 0 -36.417754719848745 -42.275608412452129 0 -42.275608412452129 -55.781554758544416 0 0 0 0 -65.307395025934966 -43.48506412407005 0 -43.48506412407005 -55.789669656126875 0 0 0 0 -30.339632256596815 -17.430222220031283 0 -17.430222220031283 -54.197128168611016 0 0 0 0 -102.66066661918012 -15.98726513199108 0 -15.98726513199108 -50.227983643687821 0 0 0 0 -61.134506389673334 -29.381159504754123 0 -29.381159504754123 -62.03946745052599 0 0 0 0 -103.97224374731377 -19.709674549999363 0 -19.709674549999363 -48.445442375572384 0 0 0 0 -107.69216982753278 -6.9031913539165544 0 -6.9031913539165544 -34.331693643493054 0 0 0 0 -95.505270668435514 15.063256136988002 0 15.063256136988002 -19.448890022540581 0 0 0 0 -56.678480114467675 94.125716805443062 0 94.125716805443062 49.075242581050588 0 0 0 0 -2.562237640555395 -70.190022816664168 0 -70.190022816664168 45.104461192421695 0 0 0 0 49.312859272449714 -8.1872232618670751 0 -8.1872232618670751 -16.285817343700842 0 0 0 0 -45.076549544612135 -50.665788239071389 0 -50.665788239071389 -26.766955108842012 0 0 0 0 -14.004067195222888 -28.525136631092209 0 -28.525136631092209 -14.6901868773557 0 0 0 0 -40.684495474855794 -66.686750570992444 0 -66.686750570992444 6.5914282587648358 0 0 0 0 -5.7023251916543813 -90.042314751096455 0 -90.042314751096455 -31.353284014494193 0 0 0 0 -3.9084249653226024 -7.5843352496090191 0 -7.5843352496090191 -0.62036049741089272 0 0 0 0 -62.034473931924992 -21.605910491759076 0 -21.605910491759076 -5.1429458215309953 0 0 0 0 -39.306087188671881 -16.851119272902451 0 -16.851119272902451 114.30385932298395 0 0 0 0 -7.4083790967197274 -11.469079840035192 0 -11.469079840035192 18.039187514710193 0 0 0 0 -43.635193839547355 -27.615119464186137 0 -27.615119464186137 46.803408239635246 0 0 0 0 -50.536027996835401 -80.121500170303079 0 -80.121500170303079 -128.67466881073597 0 0 0 0 -55.07982787702349 -55.567311273531914 0 -55.567311273531914 8.5601456614658673 0 0 0 0 -120.92560938398674 -107.57560821602874 0 -107.57560821602874 73.357792769285197 0 0 0 0 -57.190840642374781 -24.514782446523533 0 -24.514782446523533 -6.9520440986344312 0 0 0 0 -37.928073889896041 -38.687393773591566 0 -38.687393773591566 -22.06069184568787 0 0 0 0 -56.64645235765056 -25.594638844410838 0 -25.594638844410838 8.9974669953303419 0 0 0 0 -88.438988914924266 -52.577451602649944 0 -52.577451602649944 18.297733722616158 0 0 0 0 -96.68556492092921 -68.549361857217662 0 -68.549361857217662 -35.820875695161703 0 0 0 0 -447.46492650795335 111.08058007890122 0 111.08058007890122 185.44420347693995 0 0 0 0 -733.37412664438307 -192.46039860321468 0 -192.46039860321468 556.27691494555847 0 0 0 0 -0.37920528435249423 0.27832048298144585 0 0.27832048298144585 0.054478892149532498 0 0 0 0 -213.73180118898381 82.076934772530876 0 82.076934772530876 153.19257930073763 0 0 0 0 -420.33181084723765 34.231437849122813 0 34.231437849122813 -293.26659841453329 0 0 0 0 -196.71309098529309 -190.91293419042267 0 -190.91293419042267 -249.76875601256961 0 0 0 0 -96.692309447076696 -197.18204209979376 0 -197.18204209979376 -254.87760888503135 0 0 0 0 -319.7627521151353 -48.790644267996868 0 -48.790644267996868 37.603557929709496 0 0 0 0 -369.12685256824261 -167.97471484636208 0 -167.97471484636208 -157.26848360952954 0 0 0 0 -131.17822700715442 -37.792505025555329 0 -37.792505025555329 159.99919691039668 0 0 0 0 -120.55503046646299 -45.719489912883546 0 -45.719489912883546 -2.6208019389432593 0 0 0 0 -79.287590282998281 -16.566802091776481 0 -16.566802091776481 41.278519772711206 0 0 0 0 -226.57064207074654 -164.01411497094341 0 -164.01411497094341 105.84465412760801 0 0 0 0 -22.063820380007368 -5.8193115003625735 0 -5.8193115003625735 1.5984455381646825 0 0 0 0 -50.272095726228144 3.915642935600772 0 3.915642935600772 199.63478709231458 0 0 0 0 -7.6822959998480655 1.3980339324364834 0 1.3980339324364834 19.678225596901029 0 0 0 0 -145.20666111307582 118.58695357761644 0 118.58695357761644 117.88678062449162 0 0 0 0 -20.119389729217801 -145.74967209944802 0 -145.74967209944802 153.81550470204186 0 0 0 0 -38.817898970439394 34.488629571682338 0 34.488629571682338 21.08653056286753 0 0 0 0 55.250155946518134 110.04701021898619 0 110.04701021898619 66.187421725080981 0 0 0 0 1.120622156269107 1.4223695629722783 0 1.4223695629722783 -3.6415509638448134 0 0 0 0 -204.4054018107272 83.462499784181318 0 83.462499784181318 154.1480910302032 0 0 0 0 118.48107755493402 -68.902269966492838 0 -68.902269966492838 -70.780162031472173 0 0 0 0 -20.323231083716351 9.8486906384069286 0 9.8486906384069286 14.440243717800081 0 0 0 0 -144.70979688040097 36.886484501035625 0 36.886484501035625 11.873237642085314 0 0 0 0 -74.969143686321331 -11.071351555001002 0 -11.071351555001002 9.7803726005950011 0 0 0 0 -34.881385235496055 -4.552197643598987 0 -4.552197643598987 15.634321959242211 0 0 0 0 -60.45228841444623 -2.7843567034021817 0 -2.7843567034021817 6.0674097139406058 0 0 0 0 -72.039093556081738 -25.778233813561052 0 -25.778233813561052 1.3131536574759917 0 0 0 0 -76.432175280948286 -13.635474229779447 0 -13.635474229779447 13.729916179716838 0 0 0 0 -76.706879097270757 -15.856609219884604 0 -15.856609219884604 7.6780807755558271 0 0 0 0 -54.609251904206758 -29.51637875482777 0 -29.51637875482777 26.602701285603871 0 0 0 0 -38.67731742556532 18.140967286629781 0 18.140967286629781 5.0388792564985616 0 0 0 0 -73.590365792762896 -8.8174067595004999 0 -8.8174067595004999 9.2958302761435334 0 0 0 0 -52.891726791402817 -1.7157650924983452 0 -1.7157650924983452 12.845821577341299 0 0 0 0 -47.85948396261665 -2.0303899414534499 0 -2.0303899414534499 8.13027603390492 0 0 0 0 -45.486931614817877 4.5146816268162411 0 4.5146816268162411 15.828291774630088 0 0 0 0 -57.514146187530798 -6.8116395821850375 0 -6.8116395821850375 10.053333492345789 0 0 0 0 -80.134199175256072 26.482183930470228 0 26.482183930470228 9.1792194348076919 0 0 0 0 -10.014363823524633 -0.85670589096238814 0 -0.85670589096238814 0.99944183353967997 0 0 0 0 -122.93405605148291 16.787864425780754 0 16.787864425780754 11.639348902811889 0 0 0 0 -55.501867557821129 9.9952516363701989 0 9.9952516363701989 3.6125660740489236 0 0 0 0 -110.80658470102935 23.947404024580862 0 23.947404024580862 22.542674160481511 0 0 0 0 -63.383837040033086 12.442091359942054 0 12.442091359942054 8.6510188960570336 0 0 0 0 -111.92013114114525 26.13194551352467 0 26.13194551352467 19.186993296945957 0 0 0 0 -24.834411559946602 13.257057420422825 0 13.257057420422825 18.909467078447648 0 0 0 0 -95.64918524688386 9.3871459260155881 0 9.3871459260155881 5.0525986552165243 0 0 0 0 -158.11159093473543 -69.834318049137778 0 -69.834318049137778 137.84391996930958 0 0 0 0 -81.092882355267648 37.575387363850894 0 37.575387363850894 49.296845729346728 0 0 0 0 -113.22288642023341 24.76636734070712 0 24.76636734070712 47.642227397206852 0 0 0 0 -18.850872347590368 -5.3189062439490371 0 -5.3189062439490371 2.4286757923799147 0 0 0 0 -21.270547479463858 -127.86652485887498 0 -127.86652485887498 -163.30803574623314 0 0 0 0 48.380815055556013 1.8966734088426165 0 1.8966734088426165 -61.615263469648198 0 0 0 0 -68.503437858467805 -44.860654871687302 0 -44.860654871687302 -35.5297368658712 0 0 0 0 -26.148684204672463 -3.6299805370554168 0 -3.6299805370554168 -33.654740944522928 0 0 0 0 1.6745590970967896 19.810290064886431 0 19.810290064886431 -34.731606377676769 0 0 0 0 -8.5367479907581583 -38.14409883033386 0 -38.14409883033386 -84.263050365829258 0 0 0 0 -103.47413854993647 -6.0440685635412592 0 -6.0440685635412592 0.45263484493989381 0 0 0 0 -40.352147487545153 -18.159125306387978 0 -18.159125306387978 -38.941301207603829 0 0 0 0 -56.515604287385941 -14.51657584068289 0 -14.51657584068289 -34.22938658514704 0 0 0 0 -68.103167367371498 -35.044591375109121 0 -35.044591375109121 10.370323272629435 0 0 0 0 -29.250616216406343 -21.60433088026366 0 -21.60433088026366 -19.778073887700884 0 0 0 0 -29.192213521652974 -7.5019650148856556 0 -7.5019650148856556 5.4949014311373929 0 0 0 0 -8.2438106423695245 -0.81805357278960145 0 -0.81805357278960145 1.2045457053136523 0 0 0 0 -32.414981638147509 0.64729516615167704 0 0.64729516615167704 4.9641539125248615 0 0 0 0 -32.001610553528494 -6.2961598390130291 0 -6.2961598390130291 4.2714966529763601 0 0 0 0 -68.011853858988616 -12.372617564616576 0 -12.372617564616576 6.7637498136060685 0 0 0 0 -28.303443492641236 1.1167900059815565 0 1.1167900059815565 5.8988818034122232 0 0 0 0 -45.354025887150783 -2.4030365380749572 0 -2.4030365380749572 -0.037031129460046941 0 0 0 0 -44.267082684061947 2.9972199872802747 0 2.9972199872802747 4.5858661993091738 0 0 0 0 -49.100020980884437 0.39125397832140152 0 0.39125397832140152 -0.58153600506830117 0 0 0 0 -50.205335813880083 -2.0463822889496441 0 -2.0463822889496441 2.1965738758808584 0 0 0 0 -17.997005125167888 0.34167816455143907 0 0.34167816455143907 7.3577033675068648 0 0 0 0 -53.620151694049127 0.035776986061136995 0 0.035776986061136995 2.2444909300393192 0 0 0 0 -62.848195788945304 -3.259579793138073 0 -3.259579793138073 0.13528073568159016 0 0 0 0 -62.639054746894544 0.52945772445218608 0 0.52945772445218608 25.725203471078203 0 0 0 0 -28.790234015777102 6.2632066955260015 0 6.2632066955260015 3.2202608190116067 0 0 0 0 -42.312748685678912 3.7743904476736052 0 3.7743904476736052 1.97203005143334 0 0 0 0 -55.925268585415324 -17.441817139007981 0 -17.441817139007981 35.333661561315523 0 0 0 0 -13.61507813645585 62.235635761073354 0 62.235635761073354 77.843964648400515 0 0 0 0 -0.21769074544135947 7.7311470230855548 0 7.7311470230855548 -46.032415763813333 0 0 0 0 323.61834090729826 20.392343553050978 0 20.392343553050978 -155.39613933155488 0 0 0 0 109.26776759713539 103.31679046273894 0 103.31679046273894 -3.9937008453925955 0 0 0 0 -59.870565424789675 -1.5118741175856485 0 -1.5118741175856485 17.794365281931277 0 0 0 0 -105.66440663502726 -33.033074681702601 0 -33.033074681702601 -0.83850490976533365 0 0 0 0 -19.226786402018917 2.8837261067011184 0 2.8837261067011184 -1.6181759121551522 0 0 0 0 -52.784269260366273 -23.738069066279877 0 -23.738069066279877 -14.023069203250998 0 0 0 0 -44.845090983784758 -19.288637130869574 0 -19.288637130869574 -18.173578802843167 0 0 0 0 -33.94968467977742 2.3317773769036876 0 2.3317773769036876 -1.0321652001276789 0 0 0 0 -47.127424368947686 1.2732612767904357 0 1.2732612767904357 0.9976782133044253 0 0 0 0 -36.79019102086022 -8.5769035108903608 0 -8.5769035108903608 -6.8360812535320292 0 0 0 0 -54.720658110411023 -8.7958164706401476 0 -8.7958164706401476 -0.52383905652095564 0 0 0 0 -28.208334834340917 9.7536549353722819 0 9.7536549353722819 5.6389755329981375 0 0 0 0 -23.150932008555401 4.97083102465343 0 4.97083102465343 1.6135732629428885 0 0 0 0 -33.622168807523849 14.305777655721343 0 14.305777655721343 13.870617119288994 0 0 0 0 -5.7534508027456468 -8.7006163442950424 0 -8.7006163442950424 48.415359688134075 0 0 0 0 -22.856470297032502 10.113483203238403 0 10.113483203238403 3.6804798850011053 0 0 0 0 -25.739099541538963 0.52124738731934173 0 0.52124738731934173 13.490354031763388 0 0 0 0 -29.187409180478426 12.125456394740354 0 12.125456394740354 19.125156146941691 0 0 0 0 -26.529324168574078 4.8634123489423366 0 4.8634123489423366 1.8018459154292437 0 0 0 0 -22.484690502956539 5.4736209849885498 0 5.4736209849885498 5.3094703947149906 0 0 0 0 -32.762665133015972 -8.2691419340567336 0 -8.2691419340567336 7.4168603621902642 0 0 0 0 -82.327858005744929 29.380099463942315 0 29.380099463942315 1.4223927258055937 0 0 0 0 -110.13435506107635 53.958700031394301 0 53.958700031394301 35.47858982785101 0 0 0 0 -69.018800209523761 62.284669882113576 0 62.284669882113576 43.347769923158239 0 0 0 0 -65.84535768571368 46.216890023140536 0 46.216890023140536 21.587847789281454 0 0 0 0 -65.397749548795218 50.834989138828448 0 50.834989138828448 52.046056226694645 0 0 0 0 -101.6238418721623 46.373944565563534 0 46.373944565563534 48.717650291074278 0 0 0 0 -119.45223775799968 32.902903435156645 0 32.902903435156645 44.033821534695335 0 0 0 0 -124.68594939005561 37.70697489772067 0 37.70697489772067 40.02280881947911 0 0 0 0 -144.28918907936895 60.125166291973642 0 60.125166291973642 22.555457727275098 0 0 0 0 -6.433963139607755 12.83580324302757 0 12.83580324302757 6.1005441648937495 0 0 0 0 -39.016299256334605 9.0329141949129621 0 9.0329141949129621 9.0797028896667484 0 0 0 0 -120.75349613203434 43.355987956649074 0 43.355987956649074 28.256007643266003 0 0 0 0 -124.03993671879289 49.023666336890187 0 49.023666336890187 14.993745922404912 0 0 0 0 -115.8192416766251 46.863218236030889 0 46.863218236030889 -17.171874504179868 0 0 0 0 -145.80447678311612 51.77493512570004 0 51.77493512570004 39.052193567425149 0 0 0 0 -126.50223918844131 26.498854110801517 0 26.498854110801517 13.46322549125216 0 0 0 0 -143.03207370505697 50.38609094289302 0 50.38609094289302 10.092932761199677 0 0 0 0 -207.97873700835044 130.77678284687303 0 130.77678284687303 -66.473409242732487 0 0 0 0 -166.70663185654121 -0.13334547011609743 0 -0.13334547011609743 -3.4350488388129179 0 0 0 0 -198.17082706213114 27.050118611248053 0 27.050118611248053 -9.3313904473183662 0 0 0 0 0.32121439489554859 2.4370125412390848 0 2.4370125412390848 -0.43109057413691826 0 0 0 0 -19.017676212373772 93.396389929734042 0 93.396389929734042 -35.83872161280496 0 0 0 0 -46.940971456773696 47.344970302233392 0 47.344970302233392 -89.009097516562178 0 0 0 0 -111.08074648515321 19.045062858959227 0 19.045062858959227 2.1446838123899283 0 0 0 0 -112.41149815914105 36.640624789870458 0 36.640624789870458 8.7830411862398705 0 0 0 0 -44.197855463753513 60.666552551075455 0 60.666552551075455 -4.690371817645314 0 0 0 0 -26.842395866959123 123.50683017055751 0 123.50683017055751 47.700593300346867 0 0 0 0 -21.7742022578459 101.75995266097505 0 101.75995266097505 54.439529666872772 0 0 0 0 -28.520290007814765 88.363870322327102 0 88.363870322327102 60.778116290336953 0 0 0 0 -26.559559472174442 88.569393027299242 0 88.569393027299242 34.350619271527194 0 0 0 0 -26.818904574378394 95.382725331215596 0 95.382725331215596 73.165981184737035 0 0 0 0 -16.280812740660622 80.766304669772012 0 80.766304669772012 78.321785686979069 0 0 0 0 -21.246661368735658 98.078645525559381 0 98.078645525559381 68.740358730072671 0 0 0 0 -6.3163963684346527 82.656680017390158 0 82.656680017390158 76.48944247018926 0 0 0 0 -24.883435708194156 76.221511995307367 0 76.221511995307367 107.14499237689597 0 0 0 0 -40.590247237312724 70.094946623867827 0 70.094946623867827 66.558601064262007 0 0 0 0 -28.003235315394704 61.510862117305464 0 61.510862117305464 66.391877421921521 0 0 0 0 -22.282888659960008 92.746946308086649 0 92.746946308086649 63.321333504692575 0 0 0 0 -17.331814319559925 13.090166367418384 0 13.090166367418384 -1.9525586178939704 0 0 0 0 -68.765105831931578 18.887632196732056 0 18.887632196732056 76.923938939295994 0 0 0 0 -40.271238361121505 58.328329548082252 0 58.328329548082252 126.79425060377639 0 0 0 0 4.4488799234386533 56.618700526022508 0 56.618700526022508 98.773623293626116 0 0 0 0 20.543665848803357 76.183329093859356 0 76.183329093859356 -22.678106025999057 0 0 0 0 -50.308764579927811 2.1054020506280722 0 2.1054020506280722 34.057082677905328 0 0 0 0 -154.49386214872357 277.43376839933171 0 277.43376839933171 75.224719921918677 0 0 0 0 -62.259201966655056 16.278689159280738 0 16.278689159280738 4.8189899440645947 0 0 0 0 -343.03179510451446 200.95174971613369 0 200.95174971613369 138.49852986348651 0 0 0 0 -397.10603716876358 -231.63903995887472 0 -231.63903995887472 -79.057152359859174 0 0 0 0 54.629464551362616 -129.47117161192318 0 -129.47117161192318 -118.8911699397579 0 0 0 0 -59.027047156108893 79.991257783504807 0 79.991257783504807 2.9635670714321805 0 0 0 0 8.4268482974730432 141.32875141343879 0 141.32875141343879 48.886637792606962 0 0 0 0 -12.664786050061792 4.205118604121953 0 4.205118604121953 -0.10744147296609069 0 0 0 0 -24.412471838411875 65.439750264445593 0 65.439750264445593 235.49809024687531 0 0 0 0 34.597367561284045 56.911901760166984 0 56.911901760166984 -164.74026671339016 0 0 0 0 5.0087576565383642 32.293915517596602 0 32.293915517596602 123.44915513700721 0 0 0 0 -33.768652502025361 54.053658165939567 0 54.053658165939567 136.48784479905032 0 0 0 0 33.021668908513675 53.875389691049406 0 53.875389691049406 135.85920764436491 0 0 0 0 19.009892236645101 71.493103580458296 0 71.493103580458296 77.831649067327248 0 0 0 0 -14.159760020804242 77.702289816422933 0 77.702289816422933 133.66736137010605 0 0 0 0 -45.038494921143865 67.710487437111283 0 67.710487437111283 77.61139723939344 0 0 0 0 -19.91344212149852 24.243146968635592 0 24.243146968635592 23.868831602401258 0 0 0 0 -60.153639488592489 13.712659481631178 0 13.712659481631178 -8.7842339225781458 0 0 0 0 -121.70339511884958 -13.562094568542022 0 -13.562094568542022 7.0249960387344528 0 0 0 0 -65.500873490680533 38.146150078199966 0 38.146150078199966 64.503501730948386 0 0 0 0 -47.30738332515466 53.0750129032877 0 53.0750129032877 39.139397205129804 0 0 0 0 -13.701098979901872 86.247882750254945 0 86.247882750254945 58.302878330132444 0 0 0 0 -34.387766967214702 85.13466095271086 0 85.13466095271086 98.681137798466651 0 0 0 0 -27.170281067330507 109.17822980794861 0 109.17822980794861 64.769887013728763 0 0 0 0 -27.341189826300251 107.31152564875239 0 107.31152564875239 73.674198613624554 0 0 0 0 -34.13566267205897 99.075901707864432 0 99.075901707864432 88.885558036844458 0 0 0 0 -51.810494098179333 52.619708560825003 0 52.619708560825003 135.72774672055391 0 0 0 0 -51.985814797306375 41.63762255212297 0 41.63762255212297 65.817895475334922 0 0 0 0 -15.388904178696976 -29.7715642171854 0 -29.7715642171854 35.702781874311142 0 0 0 0 -51.07624372610735 13.083710111239498 0 13.083710111239498 99.718021301905381 0 0 0 0 -21.210790366356377 0.46388244908808929 0 0.46388244908808929 30.181053201067868 0 0 0 0 3.5769424533573329 -50.144395847674886 0 -50.144395847674886 111.36237916689721 0 0 0 0 -106.28503256160184 -57.389716251379951 0 -57.389716251379951 5.5901711498930204 0 0 0 0 -122.39418955260771 -33.635613042951441 0 -33.635613042951441 4.1161283958884454 0 0 0 0 -76.572899805090856 12.263324386645778 0 12.263324386645778 18.4294548461591 0 0 0 0 -49.916825759898529 8.2386101718059255 0 8.2386101718059255 5.2316249592763739 0 0 0 0 -40.485977761993126 -52.460897567737476 0 -52.460897567737476 250.01320026464532 0 0 0 0 -46.764664982969407 -1.3147232768376398 0 -1.3147232768376398 244.64726820130977 0 0 0 0 -57.435919343064597 -5.9413291678926612 0 -5.9413291678926612 182.74784264201963 0 0 0 0 -70.007075294692186 6.028092277498331 0 6.028092277498331 268.42890681158769 0 0 0 0 -5.5132085022050887 13.17121458479528 0 13.17121458479528 72.429732200703313 0 0 0 0 -13.441090218650061 73.646887376869586 0 73.646887376869586 143.29169450094878 0 0 0 0 -67.229521270748592 6.5245570661430463 0 6.5245570661430463 199.63114319114732 0 0 0 0 -60.436327499359322 -20.770299777838829 0 -20.770299777838829 185.5311974674529 0 0 0 0 -66.29921991575975 -7.6671481451575687 0 -7.6671481451575687 215.98460491519342 0 0 0 0 -58.453134548763046 -12.024877293362351 0 -12.024877293362351 210.46036131896767 0 0 0 0 64.21915176830953 81.508125325391404 0 81.508125325391404 208.82665960520063 0 0 0 0 -61.903906940817251 12.657180201064772 0 12.657180201064772 299.67045837936047 0 0 0 0 -4.6497251588734798 129.22197361240924 0 129.22197361240924 42.091898046688129 0 0 0 0 28.007060153744533 -94.183384565326932 0 -94.183384565326932 202.0911137386407 0 0 0 0 -2.0437891797115242 1.6236906129831681 0 1.6236906129831681 1.9062262309512912 0 0 0 0 -63.102916836316581 170.07396863650951 0 170.07396863650951 175.57842837647951 0 0 0 0 -19.471680982533144 -13.841221272449047 0 -13.841221272449047 264.61675630439663 0 0 0 0 104.47709394273988 -23.052069366871478 0 -23.052069366871478 126.28977498299804 0 0 0 0 -2.9291710583056556 -0.22719363712763041 0 -0.22719363712763041 122.95468827860134 0 0 0 0 -35.599970142095117 -33.116369977828299 0 -33.116369977828299 52.491540586863955 0 0 0 0 50.579910110966011 11.770995774611578 0 11.770995774611578 64.880365684771903 0 0 0 0 -31.550230134947924 -3.378037946683321 0 -3.378037946683321 144.83567933646515 0 0 0 0 -32.379946872463847 31.545005549020381 0 31.545005549020381 141.81443840889028 0 0 0 0 -37.152977108111372 -9.6107268351903485 0 -9.6107268351903485 90.881186716111358 0 0 0 0 -3.7835762154572876 21.7573942435898 0 21.7573942435898 14.043002182154993 0 0 0 0 -47.434232657789835 34.054927764864004 0 34.054927764864004 80.964521685666341 0 0 0 0 -1.1043877762749617 -35.013264816330576 0 -35.013264816330576 124.99150252829554 0 0 0 0 -120.5024780153035 34.669984549787564 0 34.669984549787564 -32.175369883122464 0 0 0 0 -91.382612929875904 72.817534356432276 0 72.817534356432276 -13.790994786538576 0 0 0 0 -69.390730287010228 8.0221091822727839 0 8.0221091822727839 -22.568930384453054 0 0 0 0 -96.486010518732655 -4.1582718124407521 0 -4.1582718124407521 8.1813504055325268 0 0 0 0 -0.26624991898057715 -0.071586217889173298 0 -0.071586217889173298 -0.010206360719111407 0 0 0 0 -57.017541258166602 18.674422677501703 0 18.674422677501703 29.57482399435867 0 0 0 0 -12.099039913344313 -43.091089986610783 0 -43.091089986610783 -74.768650170766847 0 0 0 0 14.709039213914366 -32.880722507293058 0 -32.880722507293058 -14.296341115802733 0 0 0 0 -4.6886585026295506 2.6351743011692434 0 2.6351743011692434 -6.5173580661394368 0 0 0 0 -2.4996825772832381 -14.548144656066523 0 -14.548144656066523 -33.229755207626738 0 0 0 0 -55.058648015936342 -6.4214994449666651 0 -6.4214994449666651 -34.055564755849964 0 0 0 0 -66.903563318101078 -7.0476909380944051 0 -7.0476909380944051 -0.093431468981850438 0 0 0 0 -82.933813616778934 -21.59787406529184 0 -21.59787406529184 -33.005800350666171 0 0 0 0 -126.2260744442392 45.112327182057676 0 45.112327182057676 -34.647520046296442 0 0 0 0 -125.38926469164289 40.454901050222112 0 40.454901050222112 -105.81056849962633 0 0 0 0 -234.74449763074517 69.273109778391174 0 69.273109778391174 -0.047154272216710036 0 0 0 0 -243.66603261085402 4.0763869103427979 0 4.0763869103427979 -63.998281512071415 0 0 0 0 -140.89919702291081 10.389024172949824 0 10.389024172949824 -56.60442603550846 0 0 0 0 -169.83824743501464 64.242119388987135 0 64.242119388987135 -59.705896611179931 0 0 0 0 -118.22345590397526 -52.271667867453658 0 -52.271667867453658 -40.981914456456764 0 0 0 0 -151.55742258121973 -79.748852914697238 0 -79.748852914697238 -40.756612330663103 0 0 0 0 -105.41088771523937 -41.109976829457409 0 -41.109976829457409 -46.165084325886511 0 0 0 0 -0.37155963724936214 -0.22509472274006725 0 -0.22509472274006725 0.038471326838375647 0 0 0 0 -47.996213536454889 0.82725122103227733 0 0.82725122103227733 41.482964570948496 0 0 0 0 -0.63782879642377566 -0.29292068487477607 0 -0.29292068487477607 0.074732437845997965 0 0 0 0 -31.208103511948138 -29.322273603147867 0 -29.322273603147867 4.8490301227605173 0 0 0 0 -20.714484015283233 -28.533140742442455 0 -28.533140742442455 -41.305604302568021 0 0 0 0 -80.471881464676699 -88.858649328270403 0 -88.858649328270403 -70.666127693781121 0 0 0 0 -71.274198659048125 -62.005397569227078 0 -62.005397569227078 -33.019488391640522 0 0 0 0 -41.855889109596319 -27.619959721462727 0 -27.619959721462727 -0.026350403448868038 0 0 0 0 -97.50891123549809 -46.397707106948822 0 -46.397707106948822 -0.021300545899109853 0 0 0 0 -136.36183546101165 -91.618731576616057 0 -91.618731576616057 -35.545995694735524 0 0 0 0 -173.46198337007809 -65.409930430222545 0 -65.409930430222545 -0.041392046972713342 0 0 0 0 -264.77701753967267 -94.893743630093638 0 -94.893743630093638 -0.0017614098964132963 0 0 0 0 -238.46138655171671 -95.502474308763851 0 -95.502474308763851 -31.891157148688933 0 0 0 0 -209.13535885941019 -113.71269810099365 0 -113.71269810099365 -47.533047247975873 0 0 0 0 -150.41792978846934 -77.39372974853336 0 -77.39372974853336 -78.447294272041091 0 0 0 0 -199.41109800713457 -100.86351074460771 0 -100.86351074460771 -110.13339471447371 0 0 0 0 -194.67616049197386 -69.731391096734569 0 -69.731391096734569 -38.371713385119222 0 0 0 0 -345.75070619627877 -168.81027171074336 0 -168.81027171074336 -108.15429464979223 0 0 0 0 -302.95980633242289 -107.74267391693289 0 -107.74267391693289 -55.57673062510068 0 0 0 0 -336.85518178474013 -156.97324693856868 0 -156.97324693856868 -38.143071962119947 0 0 0 0 -243.17072194918728 -120.86820110515539 0 -120.86820110515539 -77.109283322751196 0 0 0 0 -383.61700093857144 -118.67950087500196 0 -118.67950087500196 -0.075573484432287064 0 0 0 0 -535.70403880064259 -150.99454311515683 0 -150.99454311515683 0.027721989262442105 0 0 0 0 -557.0533944625713 -164.63347884130081 0 -164.63347884130081 5.5336430603563826 0 0 0 0 -521.56084263239609 -196.70883009502356 0 -196.70883009502356 -44.340406176107564 0 0 0 0 -438.5323490151095 -187.39925234593886 0 -187.39925234593886 -48.466688254419779 0 0 0 0 -1891.219121891585 -464.9102396492072 0 -464.9102396492072 -9.6974945872666378 0 0 0 0 -491.02466626570094 -114.12457159457759 0 -114.12457159457759 -16.408302187456627 0 0 0 0 -2.354759804506724 -2.485370123118912 0 -2.485370123118912 -1.5842992163301177 0 0 0 0 -581.06242769710661 -146.73964663387775 0 -146.73964663387775 0.059259217879203754 0 0 0 0 -647.94690222347708 -184.09971914187975 0 -184.09971914187975 2.0902427056748962 0 0 0 0 -636.28384467235446 -73.565283520003874 0 -73.565283520003874 -6.9607425522201538 0 0 0 0 -821.97090823858161 -133.09242660206209 0 -133.09242660206209 -1.9061133387162386 0 0 0 0 -1.715999040943049 -3.6545148198399744 0 -3.6545148198399744 -2.8891446636856419 0 0 0 0 -750.29086875072244 -239.6157391614644 0 -239.6157391614644 -69.671551075750131 0 0 0 0 -737.94136672710374 -144.72436011216664 0 -144.72436011216664 -40.256662183656886 0 0 0 0 -360.89160737056227 -147.53313753456322 0 -147.53313753456322 -123.46738724551176 0 0 0 0 -521.31912587627448 -199.03866802019292 0 -199.03866802019292 -63.40599178192457 0 0 0 0 -483.68149279693171 -217.70128253036881 0 -217.70128253036881 -226.77217409781724 0 0 0 0 -496.01989729817433 -186.38183217101397 0 -186.38183217101397 -114.68656704288475 0 0 0 0 -338.67327839156314 -174.24909332698246 0 -174.24909332698246 -217.17603994911002 0 0 0 0 -413.11693502754497 -81.8165294357824 0 -81.8165294357824 -115.48548662245283 0 0 0 0 -440.49191949750821 -251.5356072853512 0 -251.5356072853512 -250.35393757714098 0 0 0 0 -313.91957263046788 -95.47487931690037 0 -95.47487931690037 -209.8106140505592 0 0 0 0 -837.12913467173712 -401.65446496242271 0 -401.65446496242271 -231.6257502980277 0 0 0 0 -470.3539628249564 -220.0636796896051 0 -220.0636796896051 -282.05957672838798 0 0 0 0 -1327.2256692184237 -210.43135445715654 0 -210.43135445715654 -27.611941070817039 0 0 0 0 -1.1452508153712651 -1.6262097932678614 0 -1.6262097932678614 -1.2905088428961244 0 0 0 0 -689.21820166470934 -338.93720570982123 0 -338.93720570982123 -212.04081976978517 0 0 0 0 -451.38651833710901 -285.83498161823769 0 -285.83498161823769 -261.45673444166857 0 0 0 0 -358.34007291634407 -137.48421335924485 0 -137.48421335924485 -180.18492742256663 0 0 0 0 -277.5397987938195 -271.33278499118148 0 -271.33278499118148 -197.82469356346925 0 0 0 0 -473.84164065121149 -279.78061861115947 0 -279.78061861115947 -156.33852274880022 0 0 0 0 -612.56224027108692 -347.89726243620788 0 -347.89726243620788 -187.23049586434686 0 0 0 0 -240.63874645662145 -64.284122890176917 0 -64.284122890176917 -188.87182596132018 0 0 0 0 -274.75053872451099 -34.845503084413508 0 -34.845503084413508 -83.432137345872036 0 0 0 0 -173.34040494861256 -136.28109208802061 0 -136.28109208802061 -229.51265103752803 0 0 0 0 -236.6185463564434 9.5671617831867906 0 9.5671617831867906 -87.71617657741065 0 0 0 0 -255.91230903027463 26.486407927396499 0 26.486407927396499 -15.448403488345775 0 0 0 0 -278.40445897623795 16.294395574708957 0 16.294395574708957 14.668525683616224 0 0 0 0 -218.51996040012455 -37.016253269053649 0 -37.016253269053649 -12.606371966527766 0 0 0 0 -293.09100518521154 0.37682504575337816 0 0.37682504575337816 4.9824269904089817 0 0 0 0 -105.59914899398427 -29.180411761291907 0 -29.180411761291907 -11.861405640476221 0 0 0 0 -72.299962572738877 41.875768435495303 0 41.875768435495303 21.593801103834849 0 0 0 0 -117.30334539836622 -4.3211412302984709 0 -4.3211412302984709 -38.023969507490321 0 0 0 0 -215.36734074967535 -22.274825469009144 0 -22.274825469009144 -2.5329603588081433 0 0 0 0 -185.89491187850217 -57.939320531706514 0 -57.939320531706514 -34.696884784860437 0 0 0 0 -124.48707388761613 -18.365324588812108 0 -18.365324588812108 -44.015971819246658 0 0 0 0 -152.61572423285179 -82.658054382465025 0 -82.658054382465025 -54.065536720418351 0 0 0 0 -277.1799658631644 -84.798479030709984 0 -84.798479030709984 -92.637234790403483 0 0 0 0 -270.88187068938714 -108.86575950515618 0 -108.86575950515618 -79.753316186820371 0 0 0 0 -348.59158804181061 -143.74996470698349 0 -143.74996470698349 -131.88667284793155 0 0 0 0 -279.13736041794618 -91.153102563790085 0 -91.153102563790085 -116.59703752673558 0 0 0 0 -305.84527884328872 -54.157185719193265 0 -54.157185719193265 -124.57628002391135 0 0 0 0 -188.44223139877795 -37.960237341696882 0 -37.960237341696882 -96.814982361204869 0 0 0 0 -2309.6306751661759 -317.6997955209539 0 -317.6997955209539 364.72080301077926 0 0 0 0 -1821.4305816929773 -160.02055981521275 0 -160.02055981521275 -0.3136971564235862 0 0 0 0 -1969.3868738785677 -128.69257726193348 0 -128.69257726193348 88.889964705555172 0 0 0 0 -1620.7286298420731 -295.72149686514786 0 -295.72149686514786 26.354338698504193 0 0 0 0 -1938.7794181600475 -289.83177678935635 0 -289.83177678935635 110.65217577363811 0 0 0 0 -1444.0994947854051 -395.52459715239695 0 -395.52459715239695 152.73390470504575 0 0 0 0 -1637.3131218905837 -439.30238349162545 0 -439.30238349162545 149.07893941144022 0 0 0 0 -1644.3230563753095 -397.27960014201506 0 -397.27960014201506 159.5017412399975 0 0 0 0 -3.2848028008914554 0.045717105169401862 0 0.045717105169401862 1.6281495842056373 0 0 0 0 -1826.2952243068139 -678.24554312257351 0 -678.24554312257351 -127.87308792117511 0 0 0 0 -1336.7654555247118 -473.25951182539694 0 -473.25951182539694 -149.73158342733564 0 0 0 0 -1588.838137092871 -293.73188577647448 0 -293.73188577647448 -39.038170442388832 0 0 0 0 -1461.682912667784 -242.1437223625318 0 -242.1437223625318 -20.734116737274775 0 0 0 0 -1349.5655486021133 -193.18117708158067 0 -193.18117708158067 0.1681442436269244 0 0 0 0 -1614.2189154143289 -273.10078162961082 0 -273.10078162961082 34.225000103594596 0 0 0 0 -1120.2036945296641 -315.33157613562048 0 -315.33157613562048 -95.013640832989637 0 0 0 0 -1101.6852744963726 -418.12440686780627 0 -418.12440686780627 -85.613057645478136 0 0 0 0 -698.17069895714667 -136.66524684364106 0 -136.66524684364106 -0.55459732402565531 0 0 0 0 -3.8824002763898733 -0.11446069269995007 0 -0.11446069269995007 0.93023956811719311 0 0 0 0 -1959.8944288543662 -725.10808898945174 0 -725.10808898945174 -200.12096016586156 0 0 0 0 -1050.1286671635025 -279.12051810489999 0 -279.12051810489999 -12.894930833048704 0 0 0 0 -696.0534940258774 -307.69006893486619 0 -307.69006893486619 -89.022098031156247 0 0 0 0 -5.1056674307852177 0.75314505513448182 0 0.75314505513448182 2.7959085152347765 0 0 0 0 -688.06176587355367 -136.39050296100999 0 -136.39050296100999 174.18551878839867 0 0 0 0 -676.82062667048012 -182.36862711093943 0 -182.36862711093943 -6.5019367873038618 0 0 0 0 -582.3726028312085 -494.77393639025354 0 -494.77393639025354 -188.81549761684096 0 0 0 0 -67.103718143325636 -199.83998198993297 0 -199.83998198993297 -97.380542728898945 0 0 0 0 -840.50985754247085 -184.4105496013934 0 -184.4105496013934 190.69395618624435 0 0 0 0 -765.4550994784754 -430.18052097022689 0 -430.18052097022689 -291.17259179039092 0 0 0 0 -642.16418075040201 -415.39198379385186 0 -415.39198379385186 -286.58566046668159 0 0 0 0 -767.1708249739022 -448.86770033434755 0 -448.86770033434755 -179.21236657183871 0 0 0 0 -590.60097031182522 -408.88107838134187 0 -408.88107838134187 -300.96746647875653 0 0 0 0 -800.92990678853494 -435.47012645599096 0 -435.47012645599096 -321.30321069350953 0 0 0 0 -812.59869862131745 -413.78708753213618 0 -413.78708753213618 -227.24087650432978 0 0 0 0 -1115.0280872786025 -437.62594684769192 0 -437.62594684769192 -353.97383644354113 0 0 0 0 -1124.3310835013399 -387.08271068276042 0 -387.08271068276042 -251.77642126365254 0 0 0 0 -1044.1042077737366 -559.65755631959041 0 -559.65755631959041 -226.72139580893281 0 0 0 0 -1026.4290793104738 -407.53602862342751 0 -407.53602862342751 -183.16628969739816 0 0 0 0 -1273.8632130798505 -735.13604772556414 0 -735.13604772556414 -164.07438445531852 0 0 0 0 -1418.7748693158183 -800.46942322858717 0 -800.46942322858717 -513.74365581996108 0 0 0 0 -1486.4917911830489 -535.28605597920318 0 -535.28605597920318 -176.08881308639025 0 0 0 0 -1965.2776580000645 -467.62169918569111 0 -467.62169918569111 33.92445802983525 0 0 0 0 -2294.2132275406657 -1331.1242859329323 0 -1331.1242859329323 -445.5023354844277 0 0 0 0 -1178.9928001778462 -358.13892862053274 0 -358.13892862053274 -75.850701547986773 0 0 0 0 -1446.0692541290919 -700.89839923538466 0 -700.89839923538466 -336.64537477075805 0 0 0 0 -1318.1862800875315 -526.64238324008056 0 -526.64238324008056 -54.460295074190526 0 0 0 0 -1435.3972464008148 -357.23643656071187 0 -357.23643656071187 38.767627586845038 0 0 0 0 -1618.6450641210977 -421.1996992084064 0 -421.1996992084064 141.08291331053977 0 0 0 0 -2498.5426818710575 -647.10846702862591 0 -647.10846702862591 361.54408322136197 0 0 0 0 -1659.3827992431034 -428.61019730384493 0 -428.61019730384493 485.98798404877846 0 0 0 0 -2054.0706251501579 -706.87103735018127 0 -706.87103735018127 340.07930148433076 0 0 0 0 -1178.2406862667704 -563.51927057171645 0 -563.51927057171645 -20.929875713176898 0 0 0 0 -6.4080895846982742 0.0060319750480459788 0 0.0060319750480459788 3.5429621184411175 0 0 0 0 -942.9925785339874 203.83417165524648 0 203.83417165524648 496.7201377065299 0 0 0 0 -1387.4047592983043 -653.40380571202479 0 -653.40380571202479 -216.85064241320458 0 0 0 0 -1371.8498544583272 -720.43499741410869 0 -720.43499741410869 -149.61096820294483 0 0 0 0 -1393.7321401989375 -717.61446232153844 0 -717.61446232153844 -142.50254470707182 0 0 0 0 -11.182084327863379 0.51269882941573997 0 0.51269882941573997 6.7334188546243281 0 0 0 0 -1825.9217090198581 -711.99395558475442 0 -711.99395558475442 -47.180661239245325 0 0 0 0 -2903.8835467995523 -1217.6737033563215 0 -1217.6737033563215 -355.41955643489422 0 0 0 0 -1819.6514871340623 -743.40036859601344 0 -743.40036859601344 -286.27181793363218 0 0 0 0 -6.8084204083405098 -0.17372225551247311 0 -0.17372225551247311 3.4253917810015531 0 0 0 0 -2500.0911005981379 -800.17394156865566 0 -800.17394156865566 35.426727155493651 0 0 0 0 -2259.3251041743843 -1182.0653587972042 0 -1182.0653587972042 -229.53702154836867 0 0 0 0 -1910.6542808853155 -1243.5925902284562 0 -1243.5925902284562 -487.19506960385758 0 0 0 0 -2165.1621218326109 -951.74688950529799 0 -951.74688950529799 -268.22358709406456 0 0 0 0 -1727.4813220563738 -541.66465007169131 0 -541.66465007169131 109.80595663940615 0 0 0 0 -905.84185577453172 -150.34122966363353 0 -150.34122966363353 209.25779771981468 0 0 0 0 -1366.5654058526379 -737.27225262035972 0 -737.27225262035972 -96.986793362514163 0 0 0 0 -1276.3288539620698 -804.46745488264901 0 -804.46745488264901 -74.458298493645003 0 0 0 0 -1518.1043813508968 -1049.1422154028023 0 -1049.1422154028023 -319.91592050054106 0 0 0 0 -1535.6409697963172 -735.54901777587713 0 -735.54901777587713 -436.8669451484119 0 0 0 0 -1530.5968413407281 -1097.3698537035998 0 -1097.3698537035998 -918.53143563181402 0 0 0 0 -1554.8865089260144 -952.12435859983088 0 -952.12435859983088 -415.76259577817041 0 0 0 0 -2128.2661696812711 -1061.9099409222681 0 -1061.9099409222681 -372.44385162081778 0 0 0 0 -1.6489454369479404 -3.4804586108295439 0 -3.4804586108295439 -6.9809947732788977 0 0 0 0 180.79875310167699 3.4854117319421221 0 3.4854117319421221 -79.649255631631149 0 0 0 0 865.53807185111509 -591.63758187749954 0 -591.63758187749954 -742.81588153915607 0 0 0 0 -343.82719462150271 -500.44391761041436 0 -500.44391761041436 -545.54145149308124 0 0 0 0 -1044.0759311182483 -1353.9881829623134 0 -1353.9881829623134 -907.88992837386877 0 0 0 0 -344.19571335064393 -562.95962614030896 0 -562.95962614030896 -436.32161601555583 0 0 0 0 -730.49399327948049 -775.47467076351859 0 -775.47467076351859 -529.79051157480933 0 0 0 0 -1268.2958329797229 -844.64394593606937 0 -844.64394593606937 -276.88277799201546 0 0 0 0 -1293.0317783020582 -638.01829045386148 0 -638.01829045386148 -170.50586630333459 0 0 0 0 -914.81407531676814 -635.7874080559086 0 -635.7874080559086 -185.67833421493512 0 0 0 0 -870.54703897125728 -646.48898520840476 0 -646.48898520840476 -372.74144323915095 0 0 0 0 -496.81178322301639 -449.63120853506365 0 -449.63120853506365 -327.38246900174272 0 0 0 0 -465.49374620810704 -376.6380528601677 0 -376.6380528601677 -347.23250798405127 0 0 0 0 -766.16094932726992 -501.36799522605878 0 -501.36799522605878 -297.15396077144544 0 0 0 0 -694.68286878250001 -395.70065947844193 0 -395.70065947844193 -217.60284179985842 0 0 0 0 -579.39081758500106 -371.38333539523546 0 -371.38333539523546 -175.65748036548928 0 0 0 0 -642.85036463378492 -307.46957072529227 0 -307.46957072529227 -209.47265341369041 0 0 0 0 -406.5500932682553 -201.04194430305787 0 -201.04194430305787 -214.53932701902738 0 0 0 0 -480.80514077281259 -243.70665813011772 0 -243.70665813011772 -219.67053715459701 0 0 0 0 0.53241445011951782 -0.53982545759787115 0 -0.53982545759787115 -1.0104150109407497 0 0 0 0 -148.37160613546439 -450.69416426076737 0 -450.69416426076737 -110.47075156797757 0 0 0 0 -356.46035475732401 -215.8378080521199 0 -215.8378080521199 -267.67376115260436 0 0 0 0 -566.65174393782218 -405.168795467064 0 -405.168795467064 -277.16737885206817 0 0 0 0 -446.26465226406435 -277.7832721083073 0 -277.7832721083073 -63.89819309356244 0 0 0 0 -466.86317175776003 26.959934066337695 0 26.959934066337695 35.09226115049205 0 0 0 0 -17.997999908504426 -16.534946981289522 0 -16.534946981289522 -56.788019688925488 0 0 0 0 -240.11941268337978 -49.386907417890143 0 -49.386907417890143 23.138723196090268 0 0 0 0 -8.35408553634187 -1.292344538924457 0 -1.292344538924457 2.780957525636131 0 0 0 0 -321.51253393483057 -151.36115768796162 0 -151.36115768796162 -24.890931209869223 0 0 0 0 -190.22758113344207 -175.97453590020905 0 -175.97453590020905 -61.696024725872121 0 0 0 0 -3.9170881125171491 -1.1335862604274993 0 -1.1335862604274993 1.6709009864023328 0 0 0 0 54.137754423281876 13.431604540872286 0 13.431604540872286 206.22761346879088 0 0 0 0 -114.95844612467044 107.91543512476574 0 107.91543512476574 772.28258128793095 0 0 0 0 73.951108189174192 82.45652101850294 0 82.45652101850294 280.1901028976863 0 0 0 0 -20.120589824782655 8.3129418023971766 0 8.3129418023971766 219.40720634876925 0 0 0 0 -48.723339047763147 60.205468276738884 0 60.205468276738884 384.55736495655856 0 0 0 0 -34.464830945344147 66.599523427004101 0 66.599523427004101 -12.375477106446851 0 0 0 0 -11.072655028834561 -9.9338210428677485 0 -9.9338210428677485 227.45468208181774 0 0 0 0 23.706417976765806 -145.09137114241116 0 -145.09137114241116 141.47213053102496 0 0 0 0 -29.234123034858641 -0.66918062381300558 0 -0.66918062381300558 0.34698324779946077 0 0 0 0 34.799229896205361 -180.78237737110612 0 -180.78237737110612 -100.11425445230998 0 0 0 0 -130.37248005413858 131.46016483499716 0 131.46016483499716 83.796459026251796 0 0 0 0 -73.415891881392213 -9.0401114940946741 0 -9.0401114940946741 -2.6290065535409797 0 0 0 0 97.674710027691617 -187.7486542239476 0 -187.7486542239476 -174.81009429813639 0 0 0 0 36.577197629136208 -52.275974194736818 0 -52.275974194736818 239.39411586243659 0 0 0 0 49.578860071138479 -33.007277305573552 0 -33.007277305573552 89.614047398276853 0 0 0 0 26.209890946956875 -85.425237501101947 0 -85.425237501101947 137.17585754720039 0 0 0 0 -192.97339942050166 357.11745374865859 0 357.11745374865859 -232.02084522197947 0 0 0 0 -4.3784570151861715 -3.5609385614372115 0 -3.5609385614372115 -2.1032194013918541 0 0 0 0 -440.41580236851587 -333.21991005195559 0 -333.21991005195559 287.73742621736346 0 0 0 0 -593.49025104994871 157.523039553422 0 157.523039553422 135.93288108839988 0 0 0 0 -16.413123335513973 2.8761470684943955 0 2.8761470684943955 0.79536508632961622 0 0 0 0 -302.16419095144374 233.01505328375788 0 233.01505328375788 152.51726853074433 0 0 0 0 -75.956696005748341 -7.1935649773485011 0 -7.1935649773485011 2.6639046599782947 0 0 0 0 -205.89884332849761 106.00161421936855 0 106.00161421936855 163.39457252502945 0 0 0 0 -74.29473246303678 -195.57870928875354 0 -195.57870928875354 133.30445469892766 0 0 0 0 89.990047466213582 -8.0487970463800593 0 -8.0487970463800593 -304.28532594093122 0 0 0 0 4.6031866184548562 -5.6596487325447669 0 -5.6596487325447669 32.994692518823967 0 0 0 0 -272.32414318388328 44.827269881825487 0 44.827269881825487 424.57232281131382 0 0 0 0 -178.02361173921963 142.14705455038165 0 142.14705455038165 47.803559073083306 0 0 0 0 103.88209625097807 238.49587192794752 0 238.49587192794752 190.06528146436995 0 0 0 0 -408.89431950991275 24.280897347325663 0 24.280897347325663 105.45009728082368 0 0 0 0 -68.947951601512614 -116.21768071885106 0 -116.21768071885106 57.522662483796296 0 0 0 0 -15.287744185305201 -14.941093978271965 0 -14.941093978271965 28.341236064630721 0 0 0 0 -32.050869059840977 -12.7143340384978 0 -12.7143340384978 -7.2237473822841185 0 0 0 0 -39.098173914143644 -8.5973531585139149 0 -8.5973531585139149 3.2869219495969189 0 0 0 0 -15.792177066361511 -2.1563551752314467 0 -2.1563551752314467 1.6034790703272286 0 0 0 0 -98.748294016307327 -6.1435146716434588 0 -6.1435146716434588 20.740013109490224 0 0 0 0 -61.632993329840247 29.724988221743843 0 29.724988221743843 30.026176323059303 0 0 0 0 -7.0195245336763037 44.201339217850546 0 44.201339217850546 11.372804577216812 0 0 0 0 -18.199024475090091 -8.7245707167600557 0 -8.7245707167600557 -2.9492730831660374 0 0 0 0 394.83717998924476 -264.67634866431354 0 -264.67634866431354 -285.68953060265812 0 0 0 0 291.81139625727519 -385.47685890713001 0 -385.47685890713001 -318.29502335763937 0 0 0 0 -607.44754892709898 -140.5817343749336 0 -140.5817343749336 419.05042436491294 0 0 0 0 -162.227494026778 -697.8950585347684 0 -697.8950585347684 -322.51079559929531 0 0 0 0 594.4104829976568 -360.53128678606913 0 -360.53128678606913 -23.839957456960292 0 0 0 0 -364.07755796118727 -375.83018021409089 0 -375.83018021409089 -294.02676193119987 0 0 0 0 -1.2050792582834191 -8.841830721602264 0 -8.841830721602264 -12.665122119324581 0 0 0 0 43.608297530576237 124.59472137926286 0 124.59472137926286 137.26673793609598 0 0 0 0 -357.9814665766753 -477.56851340996263 0 -477.56851340996263 -364.10934756994675 0 0 0 0 -541.91065486462321 -397.56190590696497 0 -397.56190590696497 282.62842741648001 0 0 0 0 -281.21898105645232 -62.433161363594763 0 -62.433161363594763 58.114207092645302 0 0 0 0 -175.87962747263373 -232.24664011261257 0 -232.24664011261257 290.28489442228965 0 0 0 0 -493.06788906353177 -229.99822291179817 0 -229.99822291179817 -163.00982205816945 0 0 0 0 -1281.9748416568582 -1355.560315731808 0 -1355.560315731808 -1073.6806192805843 0 0 0 0 -427.90880151786405 -381.69059753194506 0 -381.69059753194506 -237.50892676613284 0 0 0 0 -699.13007510663738 -315.86661226392357 0 -315.86661226392357 -156.41059810559318 0 0 0 0 -19.840159216619213 109.73113386742079 0 109.73113386742079 -187.24227566706128 0 0 0 0 -146.61963887308229 152.34991229361958 0 152.34991229361958 27.927813160217738 0 0 0 0 92.292070238851011 -7.9458649678507811 0 -7.9458649678507811 -214.73812435849067 0 0 0 0 -95.180494141677627 14.825386605080894 0 14.825386605080894 198.49340032341934 0 0 0 0 -61.856839667987188 -20.464120846354263 0 -20.464120846354263 -6.1006697675573136 0 0 0 0 -58.731537361789378 -68.169131975931748 0 -68.169131975931748 140.41337203180069 0 0 0 0 -56.666469392526778 -210.22760664939455 0 -210.22760664939455 -122.04733188778073 0 0 0 0 -50.354876866731317 -16.080832438702018 0 -16.080832438702018 -5.2376684778474143 0 0 0 0 -465.3927855839429 -39.368999026802925 0 -39.368999026802925 184.28103280212827 0 0 0 0 -373.95119974269983 -288.82615118731758 0 -288.82615118731758 49.534637888717043 0 0 0 0 -124.12309448689848 -112.48591271342463 0 -112.48591271342463 -444.00476931888886 0 0 0 0 -20.644422086445502 -6.6218352945357353 0 -6.6218352945357353 -3.8535754424750683 0 0 0 0 -2502.0752113600993 -701.88308760774373 0 -701.88308760774373 -2135.1805376574571 0 0 0 0 -847.53909025002213 -1682.6620931843393 0 -1682.6620931843393 -2325.6333886384186 0 0 0 0 -196.41001834267081 158.98800453370106 0 158.98800453370106 -355.96114231053298 0 0 0 0 -2293.2248196662222 1306.8308373510019 0 1306.8308373510019 -519.39862316702499 0 0 0 0 -3439.4505631779884 74.893113957193862 0 74.893113957193862 401.98044327225682 0 0 0 0 -3374.2764236113399 -1616.5462160546258 0 -1616.5462160546258 -550.1335387112872 0 0 0 0 -1854.1930818402234 -1086.718376699896 0 -1086.718376699896 -507.48815380504215 0 0 0 0 -394.51200450422402 205.95892559661752 0 205.95892559661752 102.18354357792828 0 0 0 0 -291.82355013376218 -79.803000169003099 0 -79.803000169003099 -66.723301958918228 0 0 0 0 -505.83665747602208 59.725943556409561 0 59.725943556409561 30.999927040653745 0 0 0 0 -292.78551068869274 -63.690603755622021 0 -63.690603755622021 40.586484597530671 0 0 0 0 -272.81828822187526 -101.85818782877209 0 -101.85818782877209 29.083034653052778 0 0 0 0 -363.62041242292617 215.00624718740255 0 215.00624718740255 -199.9708205682914 0 0 0 0 -401.17878290666704 -103.08771329133742 0 -103.08771329133742 42.083390195784432 0 0 0 0 106.94369677626673 92.020829493720385 0 92.020829493720385 -677.83472015396023 0 0 0 0 19.527137226257764 75.204838553684567 0 75.204838553684567 -275.96545697135275 0 0 0 0 -90.093246369247936 51.302480817167634 0 51.302480817167634 -111.81585781278886 0 0 0 0 -7.7647794420643663 4.2002842871881878 0 4.2002842871881878 -0.2778012924398171 0 0 0 0 -49.272433145903051 85.325698861057163 0 85.325698861057163 346.83825870004682 0 0 0 0 68.096641397482017 22.280272605448147 0 22.280272605448147 103.752487649248 0 0 0 0 -2.7756551997397025 1.0110957133018295 0 1.0110957133018295 -0.19503264229366735 0 0 0 0 -288.81669575208798 9.7129425103045151 0 9.7129425103045151 466.52025657359673 0 0 0 0 -154.15550405105751 -6.06244341374736 0 -6.06244341374736 117.18340497852083 0 0 0 0 -31.228900991605769 -17.628045977903589 0 -17.628045977903589 31.321453706084071 0 0 0 0 -6.9775663335967693 81.764112315113664 0 81.764112315113664 71.776245570373078 0 0 0 0 -171.83124795951881 29.842095710021113 0 29.842095710021113 45.231954361659405 0 0 0 0 -153.10854092807858 3.6592166561447357 0 3.6592166561447357 39.452183308358428 0 0 0 0 -190.69699305589529 -63.260623929458887 0 -63.260623929458887 -12.683873591634097 0 0 0 0 -258.70899880983779 -95.403179892138041 0 -95.403179892138041 -36.447701932845348 0 0 0 0 -342.72035350052465 -130.65633618284932 0 -130.65633618284932 122.54951461150154 0 0 0 0 -3.4950483827762753 -0.34997038454280371 0 -0.34997038454280371 0.3008310038766483 0 0 0 0 -192.33773905302223 226.23332994260605 0 226.23332994260605 56.618927463217119 0 0 0 0 -438.62870321128867 64.109199966744924 0 64.109199966744924 32.841364066717006 0 0 0 0 -14.855550731241237 -35.055991449506564 0 -35.055991449506564 -88.626067520704595 0 0 0 0 -6.611690850947241 -0.16511488842126809 0 -0.16511488842126809 0.43931382430813459 0 0 0 0 -162.14337318374601 29.106787464441481 0 29.106787464441481 204.11080395882584 0 0 0 0 -369.88176155225665 -283.41742141041641 0 -283.41742141041641 -222.69725466547348 0 0 0 0 -396.83911159152922 -216.65143083802707 0 -216.65143083802707 -118.17784115001177 0 0 0 0 -42.825977898544807 -183.91799279824249 0 -183.91799279824249 -167.95307469589864 0 0 0 0 -3.3049820055823886 -0.68452959641996536 0 -0.68452959641996536 0.16435077520219532 0 0 0 0 -395.53974183066748 -253.90842058535463 0 -253.90842058535463 -8.3964319747656191 0 0 0 0 -30.275017447012942 134.60818283615345 0 134.60818283615345 -66.105988160096615 0 0 0 0 -162.45291454818391 168.32244543474314 0 168.32244543474314 67.803951714212872 0 0 0 0 20.934870811703149 41.599318908153634 0 41.599318908153634 55.259490348443705 0 0 0 0 -137.18479880606174 94.87305417296966 0 94.87305417296966 39.023759789954283 0 0 0 0 -37.046484291320667 74.886489900627339 0 74.886489900627339 -46.955585930442339 0 0 0 0 -1.7410557210955915 -0.89772018461420089 0 -0.89772018461420089 0.96807399365617108 0 0 0 0 -0.67389226825363835 1.0254192674961331 0 1.0254192674961331 0.95395674115076634 0 0 0 0 -20.953336995495192 6.1360981347002053 0 6.1360981347002053 142.5592645286946 0 0 0 0 -78.44910076863016 -128.51781590636119 0 -128.51781590636119 -21.799318053678235 0 0 0 0 -10.073366031429032 51.724787358369213 0 51.724787358369213 40.796548395271202 0 0 0 0 -91.270082917879336 56.149863362796395 0 56.149863362796395 179.85826507362265 0 0 0 0 -47.788359894573659 -29.18243996624966 0 -29.18243996624966 -38.518519147465213 0 0 0 0 -205.68813266939833 4.4474705207064744 0 4.4474705207064744 -44.197537966472737 0 0 0 0 -188.92850190914396 -37.823509376404331 0 -37.823509376404331 45.331104935791245 0 0 0 0 -111.38313693661621 58.245430565757715 0 58.245430565757715 -14.862737251096405 0 0 0 0 -0.99997309641656784 -1.1790356953209482 0 -1.1790356953209482 -1.2135918097486993 0 0 0 0 -358.0705617803178 28.485422070666118 0 28.485422070666118 64.971482809417466 0 0 0 0 -300.96658154897159 168.68914894529939 0 168.68914894529939 -66.661777017314307 0 0 0 0 -10.42628344754587 -1.403224585290026 0 -1.403224585290026 3.2219304760440393 0 0 0 0 5.4238106448901817 -25.065719326805265 0 -25.065719326805265 201.00563149893492 0 0 0 0 -23.991291435693711 9.3776582918241047 0 9.3776582918241047 7.7254405250532727 0 0 0 0 -17.95066464417323 -78.480185326947321 0 -78.480185326947321 176.02086301607687 0 0 0 0 -120.50634032881226 5.9465260835962965 0 5.9465260835962965 0.19824710873217555 0 0 0 0 -4.8845634774696123 -2.4466794976207495 0 -2.4466794976207495 -0.96975963767134665 0 0 0 0 -3.7998100432450883 -75.285549662299672 0 -75.285549662299672 176.33072598747577 0 0 0 0 -4.9664473415032262 -76.563283370943736 0 -76.563283370943736 181.08852829220768 0 0 0 0 -86.813520557654556 -48.43489110771543 0 -48.43489110771543 195.7905126094256 0 0 0 0 -147.92704374300229 -176.90054382542644 0 -176.90054382542644 141.85600082192559 0 0 0 0 -240.72717641928466 9.0033615872339396 0 9.0033615872339396 233.85353749229967 0 0 0 0 -100.78122019530565 -123.19890124868198 0 -123.19890124868198 163.896423414335 0 0 0 0 -75.526048576524772 184.23315145990728 0 184.23315145990728 -54.239793480609478 0 0 0 0 -12.080940431190896 3.0009448678896007 0 3.0009448678896007 2.8445238403350466 0 0 0 0 19.557621835556347 -100.58360867482088 0 -100.58360867482088 108.46895979585497 0 0 0 0 -24.539078101988707 -131.62798705038449 0 -131.62798705038449 112.31773906520812 0 0 0 0 -481.7125208310099 -15.26000812619759 0 -15.26000812619759 366.6945223665025 0 0 0 0 -91.27308624601261 -13.162406388190856 0 -13.162406388190856 -2.4091105786225389 0 0 0 0 -330.33073613490706 7.7599458733457141 0 7.7599458733457141 154.88685932267617 0 0 0 0 25.141431462827313 -189.36694875935927 0 -189.36694875935927 174.84115885822075 0 0 0 0 56.917099740112462 -125.92718976988021 0 -125.92718976988021 116.42764126266866 0 0 0 0 -108.93597292541381 -95.010096646707098 0 -95.010096646707098 273.10732455614743 0 0 0 0 17.089353890689381 -104.83663336910377 0 -104.83663336910377 151.15420401892061 0 0 0 0 26.711106138973264 -86.672994433610256 0 -86.672994433610256 144.46199403630368 0 0 0 0 -231.99810765025177 85.119193041280596 0 85.119193041280596 88.336265478325913 0 0 0 0 -69.313591354992241 -173.31074840959445 0 -173.31074840959445 -99.751907336232307 0 0 0 0 -197.2586346946191 118.20498217222575 0 118.20498217222575 94.594153715021548 0 0 0 0 -166.70246419079558 89.859919037555983 0 89.859919037555983 48.092473125347169 0 0 0 0 -138.89446228106681 134.07359073316138 0 134.07359073316138 66.864412029028699 0 0 0 0 -74.799843155313283 71.193930604265461 0 71.193930604265461 14.905094506217665 0 0 0 0 -275.43204627496016 -37.158519631320814 0 -37.158519631320814 40.470360272627488 0 0 0 0 -97.600822003078065 85.209330185406998 0 85.209330185406998 37.188527830439853 0 0 0 0 -207.00717439990694 94.805227638725114 0 94.805227638725114 201.62222737902948 0 0 0 0 -260.0754316976836 -32.18745993411369 0 -32.18745993411369 85.27177008387207 0 0 0 0 -221.60066415910296 124.57795563819963 0 124.57795563819963 438.20009188922359 0 0 0 0 -294.9891161706546 -28.229756094401182 0 -28.229756094401182 94.439804346076016 0 0 0 0 89.03786184436467 315.30145151093598 0 315.30145151093598 32.268452799542501 0 0 0 0 -109.14423697537859 27.567092745183572 0 27.567092745183572 291.69035964223986 0 0 0 0 -95.007562652728666 45.722638342515381 0 45.722638342515381 185.79363512708642 0 0 0 0 55.298724367065006 -126.84124351961464 0 -126.84124351961464 5.2788474151650462 0 0 0 0 -108.30825513204218 58.245449315663961 0 58.245449315663961 53.025162366988297 0 0 0 0 201.46308416161628 175.12187101717427 0 175.12187101717427 96.439187393400971 0 0 0 0 0.35957698206716771 1.4259597439710063 0 1.4259597439710063 2.7179313700666263 0 0 0 0 -11.528475133498432 -95.058344250432128 0 -95.058344250432128 207.52519009234766 0 0 0 0 -21.618397621263284 -6.1101752405365914 0 -6.1101752405365914 37.410002293275738 0 0 0 0 -35.369155232416233 13.189022374241404 0 13.189022374241404 36.835569407788277 0 0 0 0 -40.113747685043165 17.418693945400058 0 17.418693945400058 15.782410738509439 0 0 0 0 -8.989103087435069 49.082257201893754 0 49.082257201893754 48.991512667560983 0 0 0 0 9.1328899839645601 11.67369708644901 0 11.67369708644901 15.116072234456624 0 0 0 0 -182.20993138560698 -18.465770503540398 0 -18.465770503540398 11.436443176654393 0 0 0 0 -6.9613494665012112 2.1059128944207828 0 2.1059128944207828 9.2183501929275025 0 0 0 0 24.491017156804446 185.35109379115966 0 185.35109379115966 -113.21652220507769 0 0 0 0 0.23335482347522429 5.6144829063749739 0 5.6144829063749739 2.9770478320923903 0 0 0 0 19.754315658428823 26.924811770923043 0 26.924811770923043 -95.465016303092852 0 0 0 0 -4.3095845481956658 32.575426240152737 0 32.575426240152737 42.869901514349309 0 0 0 0 -22.7222229885665 47.834140767072313 0 47.834140767072313 53.152518518799752 0 0 0 0 -6.7192953765406855 53.689411462537237 0 53.689411462537237 29.18260156071301 0 0 0 0 -72.042760069321957 11.34768068006673 0 11.34768068006673 21.925621959172361 0 0 0 0 8.5866783293313347 18.096883593960229 0 18.096883593960229 -22.808683826003744 0 0 0 0 -28.146723418033773 16.557109054870764 0 16.557109054870764 10.575839830290994 0 0 0 0 -7.7233162650227314 72.832590790969334 0 72.832590790969334 65.379959309515471 0 0 0 0 -42.379733834331375 14.339600149120834 0 14.339600149120834 15.752719924171512 0 0 0 0 -29.24521864573174 20.339158023213283 0 20.339158023213283 8.9921924438447114 0 0 0 0 -11.723711617727531 18.975150601659585 0 18.975150601659585 14.8350844444507 0 0 0 0 -80.141626886755063 -10.802889464884334 0 -10.802889464884334 5.0085384231707799 0 0 0 0 -63.965042237454327 6.0016921167234614 0 6.0016921167234614 11.142669586225793 0 0 0 0 -166.26079724149895 164.43927823496415 0 164.43927823496415 414.1375793256193 0 0 0 0 -18.557717764255358 65.6438066903238 0 65.6438066903238 186.64984923173961 0 0 0 0 -65.217371913953684 5.0094008355522419 0 5.0094008355522419 10.459005792023618 0 0 0 0 -52.303295998375688 12.26773779709538 0 12.26773779709538 9.149241955147918 0 0 0 0 -57.690953075143625 9.6779840432085393 0 9.6779840432085393 8.4764353703860138 0 0 0 0 -5.3008462037354249 4.103870371436912 0 4.103870371436912 9.5241920233625024 0 0 0 0 -57.012524306773912 3.2905384849736308 0 3.2905384849736308 -0.73805803007917348 0 0 0 0 -42.513146587109077 8.5203786211103534 0 8.5203786211103534 1.1442828792298769 0 0 0 0 -26.675757608190935 4.9139564398431794 0 4.9139564398431794 -1.830907669060031 0 0 0 0 -4.5244486402991768 1.6437525322106836 0 1.6437525322106836 4.0509300802741954 0 0 0 0 -57.379791206651817 8.3124093326862649 0 8.3124093326862649 3.7052399682934265 0 0 0 0 -61.269770936920395 5.4336255696241551 0 5.4336255696241551 4.4148265976853054 0 0 0 0 -44.118066872340549 -4.7950221002457631 0 -4.7950221002457631 4.2484421656331559 0 0 0 0 -48.909408094004903 -13.717136737417178 0 -13.717136737417178 7.7316257919473514 0 0 0 0 -48.775857328637358 -9.762326270084543 0 -9.762326270084543 8.7964519214883694 0 0 0 0 -29.865500714440472 -2.2945807170095556 0 -2.2945807170095556 1.9673293969246757 0 0 0 0 -50.610824975648939 -0.55865936267443317 0 -0.55865936267443317 4.4064269941140424 0 0 0 0 -12.200421176246891 -9.523766126630818 0 -9.523766126630818 -4.7652691961997675 0 0 0 0 -40.461708286854304 -6.3270225774074049 0 -6.3270225774074049 -3.0590026455768227 0 0 0 0 -43.242414927772188 11.510592313198003 0 11.510592313198003 -33.408561383468623 0 0 0 0 -43.012875944801635 1.0949077543338035 0 1.0949077543338035 -19.767945027156287 0 0 0 0 -43.636659923124625 5.5020831590840196 0 5.5020831590840196 -15.127363707055736 0 0 0 0 -39.706205000624323 -15.533941427429227 0 -15.533941427429227 4.6603194387062103 0 0 0 0 -39.179303656229763 -3.5766632787101242 0 -3.5766632787101242 -25.178700522459053 0 0 0 0 -47.376738562167859 -11.530881379107011 0 -11.530881379107011 3.4386003760193158 0 0 0 0 -66.139764113107958 -15.259259219021033 0 -15.259259219021033 15.707501953082328 0 0 0 0 -110.08974478243908 326.61346152337046 0 326.61346152337046 175.36570261360885 0 0 0 0 -212.48216226229124 -20.342833874863118 0 -20.342833874863118 376.09528739088819 0 0 0 0 -46.989365076489776 -15.652369187525892 0 -15.652369187525892 -0.10725438975350698 0 0 0 0 -67.865511799555833 -10.956969190043942 0 -10.956969190043942 -1.269427077615747 0 0 0 0 -63.989711374972103 -25.248283742281558 0 -25.248283742281558 30.321580867254397 0 0 0 0 -45.068946554762078 -31.758088980876551 0 -31.758088980876551 26.076220976522791 0 0 0 0 -69.091766140169398 -11.242258284666306 0 -11.242258284666306 3.9724305335314996 0 0 0 0 -48.642168357468279 -14.839162794011148 0 -14.839162794011148 -2.3546888903298431 0 0 0 0 -32.029987446032465 -219.96029389297303 0 -219.96029389297303 64.978662845907621 0 0 0 0 -75.299230880933465 -9.4129431832465116 0 -9.4129431832465116 54.470979220234483 0 0 0 0 -4.1888964089448564 12.595701124333658 0 12.595701124333658 -45.740813973050308 0 0 0 0 -51.851547799975933 -16.118885308746211 0 -16.118885308746211 -0.17310629816551648 0 0 0 0 -20.716242974423949 -39.388889316529742 0 -39.388889316529742 13.397360264669373 0 0 0 0 -203.19262914800493 168.43794437924998 0 168.43794437924998 222.29366537642181 0 0 0 0 29.601294786956714 31.751453124662646 0 31.751453124662646 59.751092753477906 0 0 0 0 51.89296641900728 -33.615930395399232 0 -33.615930395399232 -60.365869011604445 0 0 0 0 106.38082645706891 -251.51915871459482 0 -251.51915871459482 172.33652400343396 0 0 0 0 -24.762445925967725 8.5174882295961112 0 8.5174882295961112 6.1166674227548468 0 0 0 0 79.963500456913607 184.5104594765105 0 184.5104594765105 -368.9628190340336 0 0 0 0 -1.3471091994535129 -1.9512575281758089 0 -1.9512575281758089 -2.3839457651062697 0 0 0 0 -18.469639236151124 -166.51121953459085 0 -166.51121953459085 -98.270520051759689 0 0 0 0 43.564289040088624 -137.93016028862161 0 -137.93016028862161 -97.859189094261865 0 0 0 0 124.90233598787017 -27.097929909528034 0 -27.097929909528034 -81.406366899551358 0 0 0 0 -50.833692503205384 -52.210023492333562 0 -52.210023492333562 -75.429021741237136 0 0 0 0 -96.623903299856892 -19.645878020185542 0 -19.645878020185542 -2.1637919294473105 0 0 0 0 -525.3459958076819 4.5746095683012982 0 4.5746095683012982 366.41188079618405 0 0 0 0 44.177636887856352 -178.91919522988451 0 -178.91919522988451 -223.09332825539013 0 0 0 0 -327.52494733892308 34.324151280215062 0 34.324151280215062 -18.384479302278123 0 0 0 0 -71.228563586855216 81.839433809484575 0 81.839433809484575 -196.78891003423496 0 0 0 0 -233.0839505528802 -145.19869819927001 0 -145.19869819927001 -51.589305308604708 0 0 0 0 -78.305852649726148 -54.509169780331035 0 -54.509169780331035 -58.874964033600804 0 0 0 0 -48.036545772411046 -0.67834638907078215 0 -0.67834638907078215 -72.40020610829697 0 0 0 0 -84.514525622209476 -38.431704665271809 0 -38.431704665271809 -100.49828588716105 0 0 0 0 22.703864280221751 -29.654068217000713 0 -29.654068217000713 -107.10877282900378 0 0 0 0 -23.758034669346671 32.025329288167541 0 32.025329288167541 -84.822966648548345 0 0 0 0 -153.82441130818916 -5.2596842890948778 0 -5.2596842890948778 -26.443052858503123 0 0 0 0 -131.36855257892603 10.022817665297282 0 10.022817665297282 -70.749791398476404 0 0 0 0 -122.80159588278548 -12.864074050527812 0 -12.864074050527812 -33.42874624941112 0 0 0 0 -132.06841821043781 -44.096561287551935 0 -44.096561287551935 -59.40815995662291 0 0 0 0 -144.85169919108739 -9.7246587801845408 0 -9.7246587801845408 -13.065157567649518 0 0 0 0 -137.62292529232218 18.948008779387294 0 18.948008779387294 -17.224643215950266 0 0 0 0 -178.71949359015707 -26.926597090778955 0 -26.926597090778955 -14.180513523793365 0 0 0 0 -127.7238041526507 -13.527686343450256 0 -13.527686343450256 -15.355699408667416 0 0 0 0 -132.50319782911538 -15.943185166375741 0 -15.943185166375741 -15.57313719700187 0 0 0 0 -107.69300910557104 12.133375244853795 0 12.133375244853795 -22.363398496804848 0 0 0 0 -151.02025334848258 -18.612446736687744 0 -18.612446736687744 -3.4028847129627025 0 0 0 0 -172.20857064199663 -18.1135473726915 0 -18.1135473726915 -2.9507835068595796 0 0 0 0 -42.445243385922367 -0.85837325302182421 0 -0.85837325302182421 -20.499131849050343 0 0 0 0 -48.764769548735785 18.0307479395033 0 18.0307479395033 -33.490608127949599 0 0 0 0 -102.2131584231829 -1.9978824939474293 0 -1.9978824939474293 -24.233631275690527 0 0 0 0 -95.051156000175979 16.04646396104323 0 16.04646396104323 -20.439493232539178 0 0 0 0 -86.781358102096419 4.3136371223340291 0 4.3136371223340291 -26.094825090365646 0 0 0 0 -84.222154486622458 -3.0415923349655429 0 -3.0415923349655429 -27.336594851991435 0 0 0 0 -46.467185053281355 15.844766260691401 0 15.844766260691401 -27.422112474313252 0 0 0 0 -38.92610191678466 18.137627240282185 0 18.137627240282185 -8.6337871425856747 0 0 0 0 -43.385837117416031 -5.4980876710665765 0 -5.4980876710665765 -36.467582140749442 0 0 0 0 -71.004557106876746 1.8927155975578742 0 1.8927155975578742 -21.920578796417914 0 0 0 0 -51.264658230085843 75.562269018509198 0 75.562269018509198 165.37167306680777 0 0 0 0 -29.83532669395683 13.88761357727924 0 13.88761357727924 -6.146071392259282 0 0 0 0 -30.912003230334903 14.922058776990895 0 14.922058776990895 59.693051277142786 0 0 0 0 -54.838824744238082 33.263517774419142 0 33.263517774419142 99.086657073244169 0 0 0 0 -130.93303319640836 -35.649483130747399 0 -35.649483130747399 -7.055105068614921 0 0 0 0 -146.25060536458477 -32.777620994353839 0 -32.777620994353839 -7.5835847813975192 0 0 0 0 -89.68911826135718 -25.99107864890151 0 -25.99107864890151 -25.668009711262584 0 0 0 0 -128.37999680704525 -36.373079401223862 0 -36.373079401223862 -27.476334441034993 0 0 0 0 -57.523955462962476 -23.338345819784323 0 -23.338345819784323 -47.105648089772266 0 0 0 0 -109.603762034174 -61.627785713480996 0 -61.627785713480996 -58.48387049048479 0 0 0 0 -192.33335890304807 -61.012346740848358 0 -61.012346740848358 -13.659581643532427 0 0 0 0 -162.12308653353102 -71.336478942565591 0 -71.336478942565591 -60.259702702915114 0 0 0 0 -19.36854477415767 9.1728859178663704 0 9.1728859178663704 -4.2833313678146183 0 0 0 0 -28.849118502299461 124.62521037330868 0 124.62521037330868 146.30813961343836 0 0 0 0 6.2215855198155623 37.839757312576467 0 37.839757312576467 -0.54007345216882641 0 0 0 0 32.042843391513088 125.5718798910608 0 125.5718798910608 -75.090699622141074 0 0 0 0 -65.264420595545744 11.469004516731388 0 11.469004516731388 74.917902834134793 0 0 0 0 -32.765729983138669 13.028359327109802 0 13.028359327109802 73.297282910387025 0 0 0 0 -68.244041679427028 51.208367265895617 0 51.208367265895617 33.663816445999373 0 0 0 0 -86.248725217920082 -36.942044021856432 0 -36.942044021856432 19.261943319853117 0 0 0 0 -67.448503084306139 -12.51767604188376 0 -12.51767604188376 15.000701620442328 0 0 0 0 -58.995946534405448 -15.666307609682235 0 -15.666307609682235 15.744140670079673 0 0 0 0 -65.03380472569188 -14.047991261647553 0 -14.047991261647553 9.6849399718997802 0 0 0 0 -67.101469752698904 -5.1648366471847567 0 -5.1648366471847567 48.43545994393412 0 0 0 0 -21.144078809332644 13.380963593037148 0 13.380963593037148 12.263682021203493 0 0 0 0 -71.624224566696284 -16.28332271398699 0 -16.28332271398699 10.33229118521632 0 0 0 0 -24.092668695823335 113.37152401364006 0 113.37152401364006 -25.385253866801577 0 0 0 0 -185.38607430047091 -40.28586142304448 0 -40.28586142304448 60.194042400327476 0 0 0 0 -114.01226930455402 -118.5854870116143 0 -118.5854870116143 -94.351489594104351 0 0 0 0 -65.378830618112261 -2.8392336230168098 0 -2.8392336230168098 31.675748085290252 0 0 0 0 -30.796533974617148 9.2457239852172144 0 9.2457239852172144 19.803723182314471 0 0 0 0 -93.057704870149109 13.994616134664966 0 13.994616134664966 71.131320071822984 0 0 0 0 -63.72225470551848 0.89394524268681153 0 0.89394524268681153 32.753068522798003 0 0 0 0 -57.555971541872168 1.498604358427599 0 1.498604358427599 18.938763180227397 0 0 0 0 -37.013720545705667 -9.6179461124293617 0 -9.6179461124293617 20.071193381273979 0 0 0 0 -55.749470603175723 -4.5531135617020482 0 -4.5531135617020482 31.880934620816333 0 0 0 0 -66.149744486823693 -2.9625407192605038 0 -2.9625407192605038 15.083258215150607 0 0 0 0 -52.839587072445283 -4.5830743708732857 0 -4.5830743708732857 14.940648635348412 0 0 0 0 -58.918380037486713 21.703800197910368 0 21.703800197910368 15.648542660084786 0 0 0 0 -31.29474109029244 -5.4583913503785375 0 -5.4583913503785375 14.089441344574688 0 0 0 0 -47.378150267106193 23.346196629712367 0 23.346196629712367 -7.6716070506100591 0 0 0 0 -58.978586337223987 19.721057305400848 0 19.721057305400848 37.926747464541222 0 0 0 0 -47.728245476440406 22.742117342231978 0 22.742117342231978 48.235307596814209 0 0 0 0 -59.489987466939056 6.2651494710131601 0 6.2651494710131601 31.73971957414642 0 0 0 0 -59.88827794550707 7.53544434462151 0 7.53544434462151 30.114633730134415 0 0 0 0 -2497.1396192575967 -532.38186070125062 0 -532.38186070125062 318.16401252091686 0 0 0 0 -2213.4057340962268 -95.195798808519086 0 -95.195798808519086 36.853392853542317 0 0 0 0 -2255.702441696073 31.478462923735893 0 31.478462923735893 88.491404382865284 0 0 0 0 -5.0801202595050796 -2.6398418911579213 0 -2.6398418911579213 -1.2713094674282952 0 0 0 0 -1906.7460815209215 199.01035524699284 0 199.01035524699284 212.22905023944395 0 0 0 0 -1302.2983363036765 519.29067499111875 0 519.29067499111875 -167.83176751829473 0 0 0 0 -2000.6332287485275 -21.78536671576056 0 -21.78536671576056 105.8136560702975 0 0 0 0 -1379.138783038763 -453.80408249956025 0 -453.80408249956025 -4.7451570977431459 0 0 0 0 -388.34208576840683 185.71879637422077 0 185.71879637422077 -185.18555715696468 0 0 0 0 -366.98027224312318 -48.792907379061575 0 -48.792907379061575 -239.28002462034402 0 0 0 0 -225.99311494392168 115.25357459411639 0 115.25357459411639 -168.81753616532529 0 0 0 0 -272.93382185833798 -64.105321479711051 0 -64.105321479711051 -11.633041738397907 0 0 0 0 161.95007262591207 -81.480011327490814 0 -81.480011327490814 -239.99023425961332 0 0 0 0 0.12986455618339932 0.087769550403208996 0 0.087769550403208996 -1.0052424987675712 0 0 0 0 -40.219368686790403 159.62806205723095 0 159.62806205723095 -101.04091982968492 0 0 0 0 -220.29624211278315 119.03355751866169 0 119.03355751866169 71.879731503080393 0 0 0 0 6.5979496865547844 -338.89950274818898 0 -338.89950274818898 -102.61378360819714 0 0 0 0 -41.985236685599375 43.844455728767059 0 43.844455728767059 -27.396895076752827 0 0 0 0 -38.933785239565623 -46.82985796453363 0 -46.82985796453363 174.61830534802095 0 0 0 0 -113.06109716281571 27.853072825785262 0 27.853072825785262 11.055731987879369 0 0 0 0 -117.31738417047018 16.192670205884966 0 16.192670205884966 -8.4830703197118282 0 0 0 0 -94.580622774619769 4.0857413285989139 0 4.0857413285989139 -55.222679214612185 0 0 0 0 -118.57982188182359 19.393292138058371 0 19.393292138058371 -18.886697439277327 0 0 0 0 13.838174490527308 84.771790191138464 0 84.771790191138464 -6.9154850972652682 0 0 0 0 -93.406356490311737 12.002607478613868 0 12.002607478613868 -17.617906790633526 0 0 0 0 0.52244800837093663 0.82955174246996677 0 0.82955174246996677 -1.1534818691033411 0 0 0 0 -56.390103883708434 12.913476772118614 0 12.913476772118614 -31.196748231534912 0 0 0 0 -129.08140648272092 119.32266485127586 0 119.32266485127586 -92.857923151122691 0 0 0 0 -79.760354059140809 55.640483724812327 0 55.640483724812327 -35.26472824796565 0 0 0 0 -48.181500493446947 47.331371318706658 0 47.331371318706658 -106.31775183045613 0 0 0 0 35.670289509316717 -25.464873140702394 0 -25.464873140702394 -140.47482614672163 0 0 0 0 30.642237185456906 108.64752349857554 0 108.64752349857554 -215.6291062843934 0 0 0 0 -50.738473504898138 23.854360305415526 0 23.854360305415526 -1.7335835049810271 0 0 0 0 -0.77550375730788801 53.894944839382219 0 53.894944839382219 -63.127890972065984 0 0 0 0 -37.321901248802533 -6.9647312415629159 0 -6.9647312415629159 -79.674780379853132 0 0 0 0 -39.379205931827528 24.540883177239081 0 24.540883177239081 -59.055910234614316 0 0 0 0 -30.103539410956728 45.799794470520681 0 45.799794470520681 -96.140551246264579 0 0 0 0 -5.6426152658605133 -7.2824490751229973 0 -7.2824490751229973 -132.46524728326938 0 0 0 0 -42.487469578722084 16.838129987409161 0 16.838129987409161 -89.212103394330484 0 0 0 0 -113.83425380694098 -35.414311542673971 0 -35.414311542673971 -102.7632939839616 0 0 0 0 -63.935005491890479 19.86231214256091 0 19.86231214256091 -53.62907543493327 0 0 0 0 -70.964788461475109 39.011830875759699 0 39.011830875759699 -97.052590034034196 0 0 0 0 -147.99243920791923 -9.3125120140060744 0 -9.3125120140060744 -43.145113652399573 0 0 0 0 -181.25342533010553 -27.99590855372 0 -27.99590855372 -43.65847759436781 0 0 0 0 -147.40773940268264 -2.6880235422863166 0 -2.6880235422863166 -45.409498164019112 0 0 0 0 -82.343022411903803 -78.947390406710781 0 -78.947390406710781 -144.00296479400174 0 0 0 0 300.20518020643431 34.5398195388114 0 34.5398195388114 -289.36305852338143 0 0 0 0 -3.5934314109028094 -1.3391956849954987 0 -1.3391956849954987 -0.62786391033997502 0 0 0 0 16.830265322689229 18.811908911876827 0 18.811908911876827 -114.10315983470196 0 0 0 0 -472.67260111398355 -76.068277056667398 0 -76.068277056667398 -51.58621764775944 0 0 0 0 -596.63553614260309 4.855797282806293 0 4.855797282806293 305.88667093423464 0 0 0 0 227.06091927838861 -30.660165596602155 0 -30.660165596602155 -228.64673624563056 0 0 0 0 -230.7957767994194 241.20099622601415 0 241.20099622601415 -180.20112947386428 0 0 0 0 57.557129738212097 90.57409520243948 0 90.57409520243948 -114.22558869189379 0 0 0 0 -4.6044622624758631 41.899700182095046 0 41.899700182095046 -96.53070120478651 0 0 0 0 -138.57275361852953 148.06091698783774 0 148.06091698783774 -112.00520605031653 0 0 0 0 -294.71043123843992 44.708129102465136 0 44.708129102465136 -24.738549713914836 0 0 0 0 -158.45468430219626 27.132008939317814 0 27.132008939317814 -22.49719737160396 0 0 0 0 -167.39668116839312 43.005130477481543 0 43.005130477481543 -47.09420268406393 0 0 0 0 -104.6424903961306 55.782013148168176 0 55.782013148168176 -98.419256609367352 0 0 0 0 -131.73242841335855 18.052734247858723 0 18.052734247858723 -32.298357978392573 0 0 0 0 -154.44282885830762 1.2518483824084967 0 1.2518483824084967 -11.312538675676876 0 0 0 0 -159.69474261588039 16.80854029946579 0 16.80854029946579 -21.075551229188079 0 0 0 0 -175.60000829463024 20.129812966647165 0 20.129812966647165 -17.621582315616479 0 0 0 0 -157.19085999175331 9.5069214929424675 0 9.5069214929424675 -12.190063419741364 0 0 0 0 -142.05352591267001 5.7755734897582442 0 5.7755734897582442 -9.7566732547055324 0 0 0 0 -145.26244325101288 16.587152201217094 0 16.587152201217094 -8.2253600962370399 0 0 0 0 -166.11062899979879 12.256804838851906 0 12.256804838851906 9.7145226843775276 0 0 0 0 -153.74500951582741 25.132604636696826 0 25.132604636696826 21.341969537196718 0 0 0 0 -175.04967952395964 6.9158366322723452 0 6.9158366322723452 8.5973783999616771 0 0 0 0 -173.68115899334953 -2.6635475781956757 0 -2.6635475781956757 2.753758783080908 0 0 0 0 -170.68960545773552 -12.396062430111165 0 -12.396062430111165 18.483936655487696 0 0 0 0 -163.9250744958772 2.4744209687410148 0 2.4744209687410148 3.0835200704012777 0 0 0 0 -209.98976420495455 -26.086475557134975 0 -26.086475557134975 13.811457530869916 0 0 0 0 -160.51836927948898 16.408688685496429 0 16.408688685496429 18.77662292692704 0 0 0 0 -203.98083439357288 22.210852745689884 0 22.210852745689884 38.90861698509849 0 0 0 0 -194.27560823695148 11.679756378191932 0 11.679756378191932 29.316944844784757 0 0 0 0 -245.26632587616768 13.955486866969636 0 13.955486866969636 53.017955464963165 0 0 0 0 -192.19352457093692 -31.987567314175106 0 -31.987567314175106 13.766774506620038 0 0 0 0 -293.76926668068336 -93.873044098651889 0 -93.873044098651889 -22.39214832814622 0 0 0 0 -158.98612216577658 -56.604407733391568 0 -56.604407733391568 -69.187727564217894 0 0 0 0 -762.01486877827847 -363.39938109108823 0 -363.39938109108823 -151.84960876902321 0 0 0 0 -248.69413513261679 -122.10045372431905 0 -122.10045372431905 -116.35535918982792 0 0 0 0 -162.97002702587633 317.86427720853771 0 317.86427720853771 -88.042043189579545 0 0 0 0 -6.3569615428241519 3.6270345451248645 0 3.6270345451248645 -2.401544902148848 0 0 0 0 -493.26576416170428 -390.27929307144973 0 -390.27929307144973 -187.01702965907407 0 0 0 0 95.568141077048494 40.1623382071636 0 40.1623382071636 -490.82672959140768 0 0 0 0 -571.25696196001172 267.76786153155149 0 267.76786153155149 38.058155832429293 0 0 0 0 -495.78961836974486 -71.770141889727881 0 -71.770141889727881 23.954753797742214 0 0 0 0 -35.929933284511208 278.86524060396437 0 278.86524060396437 -27.371287686671963 0 0 0 0 -342.11864579822577 190.39064150164353 0 190.39064150164353 32.580214311720589 0 0 0 0 121.08851988346487 41.518559326869315 0 41.518559326869315 -61.173999817636172 0 0 0 0 89.441477101230703 66.857445871166931 0 66.857445871166931 -97.619421860712038 0 0 0 0 -56.474196290757391 193.87037693355899 0 193.87037693355899 -13.648370605850573 0 0 0 0 87.529072760633426 210.73129423713806 0 210.73129423713806 -78.49135109510496 0 0 0 0 39.578909458863563 -15.148448382780828 0 -15.148448382780828 90.956779896215153 0 0 0 0 -11.061094073568967 -19.089526529601926 0 -19.089526529601926 6.5147007088235487 0 0 0 0 330.23863877676195 -204.19152753721301 0 -204.19152753721301 -325.31743080521278 0 0 0 0 -63.805148337487481 -7.2686550463833726 0 -7.2686550463833726 18.297173337026834 0 0 0 0 -56.021430699893244 -8.5845458875491545 0 -8.5845458875491545 0.63427106635374741 0 0 0 0 -25.832061143501633 8.1797173315718474 0 8.1797173315718474 6.6541477171841414 0 0 0 0 -15.597233073746342 -20.461658003919212 0 -20.461658003919212 -1.0168782756482142 0 0 0 0 -64.656751437389175 -10.533478546653896 0 -10.533478546653896 -6.1857809398034078 0 0 0 0 -61.014513671773784 -5.2079512858821371 0 -5.2079512858821371 -0.19351240778055967 0 0 0 0 -47.323364930394746 -44.514572666664861 0 -44.514572666664861 32.925316418336251 0 0 0 0 -9.5452727052252158 -30.518336692256185 0 -30.518336692256185 34.401276175896555 0 0 0 0 -10.494688546810977 -2.2123002455107255 0 -2.2123002455107255 -0.41835045382325409 0 0 0 0 -39.28423781334277 -1.1309311497981867 0 -1.1309311497981867 62.466801801138899 0 0 0 0 -8.7330922768761496 -3.0834260230823531 0 -3.0834260230823531 2.6157357449356451 0 0 0 0 -30.948016577414819 12.955726946817094 0 12.955726946817094 50.913288055087605 0 0 0 0 -26.465432176875765 16.685451585713395 0 16.685451585713395 6.4700617289972797 0 0 0 0 -5.7631230541893785 -1.5142771586744672 0 -1.5142771586744672 1.5071063078944367 0 0 0 0 -30.073470984186486 17.13420772930786 0 17.13420772930786 10.766220506622389 0 0 0 0 -61.654905106581282 -35.471432483480385 0 -35.471432483480385 47.594917833901491 0 0 0 0 -41.146806873130117 30.879198292111752 0 30.879198292111752 -0.58146215455485617 0 0 0 0 -234.33466221685376 92.290672149597754 0 92.290672149597754 115.50812632385714 0 0 0 0 -0.11695340547953492 0.33041567101633262 0 0.33041567101633262 1.2244607511058683 0 0 0 0 -181.34797438395162 49.120950777880402 0 49.120950777880402 41.871160648911911 0 0 0 0 -102.87107559376454 -41.182719768390598 0 -41.182719768390598 48.344160171093108 0 0 0 0 -198.67026267519213 -153.78440535897778 0 -153.78440535897778 254.97765092412828 0 0 0 0 75.589808659162372 -44.012585939785595 0 -44.012585939785595 -292.05295827875318 0 0 0 0 -77.006691405953461 18.745544455960243 0 18.745544455960243 -3.0543295768096357 0 0 0 0 0.45142054721542024 1.292650890618475 0 1.292650890618475 0.91906172643918926 0 0 0 0 -116.01211809555753 60.694100002909856 0 60.694100002909856 22.607374101581712 0 0 0 0 -113.74601159391204 44.981643250647863 0 44.981643250647863 38.213195640326148 0 0 0 0 -128.03801318746991 111.32824990740939 0 111.32824990740939 -27.14886816934245 0 0 0 0 -7.9686800170955792 -5.688130750319182 0 -5.688130750319182 -2.467291884037873 0 0 0 0 -288.15893695974592 -142.71993415995351 0 -142.71993415995351 27.999999488562651 0 0 0 0 -275.63697571602211 -27.461106828046521 0 -27.461106828046521 -171.09184031814993 0 0 0 0 -274.29193830118243 -46.541253856858837 0 -46.541253856858837 8.8839624774047934 0 0 0 0 50.789951881146408 -63.816456061821611 0 -63.816456061821611 -5.2463853628775041 0 0 0 0 -19.887756370764691 86.261485699158698 0 86.261485699158698 -39.903460688267955 0 0 0 0 35.910660997152263 -106.94258948383731 0 -106.94258948383731 -80.636509155326621 0 0 0 0 69.519409222233662 83.701997546343819 0 83.701997546343819 -15.380465014016607 0 0 0 0 59.844456386636011 -6.606156701368036 0 -6.606156701368036 -301.95658006710255 0 0 0 0 -47.476166187792842 176.47428414825322 0 176.47428414825322 115.40882750292849 0 0 0 0 -219.95622758943136 43.892652538278753 0 43.892652538278753 -0.15532649780186603 0 0 0 0 -259.56503860172779 -83.893449898093024 0 -83.893449898093024 114.20153366294562 0 0 0 0 -563.15830877320172 -59.735527591865349 0 -59.735527591865349 229.84838556574232 0 0 0 0 -0.63683124664477475 -2.2382666337151065 0 -2.2382666337151065 -4.2725070302180992 0 0 0 0 -546.32424956816976 57.288405531425383 0 57.288405531425383 250.21403151063024 0 0 0 0 -547.7475865082888 -184.31309776486137 0 -184.31309776486137 125.11797293505833 0 0 0 0 -276.3122178499907 -550.05149011526555 0 -550.05149011526555 23.197795648362558 0 0 0 0 417.11390297507387 -140.59705988339587 0 -140.59705988339587 -40.535948876604138 0 0 0 0 -1193.7608704609229 641.59119280500761 0 641.59119280500761 -81.901187209808626 0 0 0 0 -2497.0949777649039 917.07946320699443 0 917.07946320699443 -133.6361755288986 0 0 0 0 566.68837127170627 324.9768049270707 0 324.9768049270707 46.255818687672445 0 0 0 0 -2482.9075351160645 -1360.1532680167024 0 -1360.1532680167024 -334.97661658062566 0 0 0 0 -8.7940912537544804 -5.4131599277951317 0 -5.4131599277951317 -5.5732443370028184 0 0 0 0 -1.3480105412126591 -2.3309071336522393 0 -2.3309071336522393 -3.6895689327766084 0 0 0 0 157.00976530839762 -309.50519316961459 0 -309.50519316961459 -348.30690767448681 0 0 0 0 -481.81898128279499 88.422980356656183 0 88.422980356656183 -14.029460889581628 0 0 0 0 -837.41191721651194 -5.5177984954174804 0 -5.5177984954174804 56.945581566862586 0 0 0 0 -302.73221477105471 83.115527920932152 0 83.115527920932152 -87.381449024142285 0 0 0 0 -1272.8862900807981 -1042.6868391768271 0 -1042.6868391768271 -517.60063230909202 0 0 0 0 -2486.7823111337138 1952.0453447119926 0 1952.0453447119926 -782.12732823082422 0 0 0 0 -776.81611099581551 1014.4400528333591 0 1014.4400528333591 -600.72732006583328 0 0 0 0 5.0510278405517965 382.14557515722771 0 382.14557515722771 -1054.0949614848564 0 0 0 0 -107.75374825499784 286.2392662523016 0 286.2392662523016 -84.297611151450383 0 0 0 0 -17.522714212020318 9.7133333346769088 0 9.7133333346769088 -6.3309462941046597 0 0 0 0 -153.32428808807163 53.497716387543505 0 53.497716387543505 -356.42936278222942 0 0 0 0 156.60912422335787 501.70349119861112 0 501.70349119861112 -2211.4241367335885 0 0 0 0 -2482.580321484751 17.922627410033666 0 17.922627410033666 -17.375709547346361 0 0 0 0 -6.9038684078209869 4.2831583252251964 0 4.2831583252251964 -7.8557655967043578 0 0 0 0 -3.2422779151662056 0.75595468168098012 0 0.75595468168098012 -4.5285437344396842 0 0 0 0 -1142.2364772018227 -1477.0684645974952 0 -1477.0684645974952 -893.5322245939908 0 0 0 0 -2496.3328937133556 -797.03677636703503 0 -797.03677636703503 221.49347982390577 0 0 0 0 -1229.0675506950211 -214.67562766259903 0 -214.67562766259903 369.40386174946025 0 0 0 0 -2500.1202275010801 -94.129684780715053 0 -94.129684780715053 437.13991174946989 0 0 0 0 -1.516164156520972 2.8544459135199531 0 2.8544459135199531 -66.587984189247464 0 0 0 0 0.45185625132150165 0.60661440549718737 0 0.60661440549718737 -4.0358241701035507 0 0 0 0 -833.61243993035259 -207.41716006509895 0 -207.41716006509895 -58.057676893230536 0 0 0 0 -20.957817101924213 -16.553776886709578 0 -16.553776886709578 -11.791596358024949 0 0 0 0 -20.534416142929338 -11.426304121282786 0 -11.426304121282786 -6.1473504809754669 0 0 0 0 -1234.0333960214912 -168.55088190472796 0 -168.55088190472796 87.057495684675899 0 0 0 0 -14.093440177642904 6.6659143543359338 0 6.6659143543359338 -7.2995319726663386 0 0 0 0 -23.430446808737543 3.4328772299434149 0 3.4328772299434149 -4.4818089469258666 0 0 0 0 -550.05567328930101 -0.85727780192116043 0 -0.85727780192116043 -162.07839115787795 0 0 0 0 -32.237764062247152 12.948264363511498 0 12.948264363511498 -0.38288972865871074 0 0 0 0 -26.962502152270208 8.2885916942783151 0 8.2885916942783151 -2.4629614716141539 0 0 0 0 -22.089002305593056 7.9687324367345944 0 7.9687324367345944 -3.1817537571116237 0 0 0 0 -24.066969741294315 8.8806658512694412 0 8.8806658512694412 -10.99555917701673 0 0 0 0 -18.292207582460833 -1.274788999701741 0 -1.274788999701741 7.2267236131558548 0 0 0 0 -23.734441521101502 5.7177583945816046 0 5.7177583945816046 9.5371184252379049 0 0 0 0 -20.049078425799962 1.2067514059650648 0 1.2067514059650648 5.0169740737533175 0 0 0 0 -38.66890698381394 0.042409464894262783 0 0.042409464894262783 5.7612382804169329 0 0 0 0 -23.286081672576813 0.67521801716396368 0 0.67521801716396368 -0.52687314051563505 0 0 0 0 -21.463700875742965 8.0472709390004056 0 8.0472709390004056 1.4082384483104491 0 0 0 0 -45.419863942599477 -2.9977267841950948 0 -2.9977267841950948 7.1134381477464785 0 0 0 0 -41.560833205825475 0.8605974020266558 0 0.8605974020266558 10.926544993360949 0 0 0 0 -38.901241673790764 1.8118229472385465 0 1.8118229472385465 4.9993192458637168 0 0 0 0 -26.592156854627987 3.0070633069862325 0 3.0070633069862325 -0.38953093206076628 0 0 0 0 -24.719816690800144 2.1135563156859689 0 2.1135563156859689 3.4891368401749787 0 0 0 0 -25.415058237210914 4.072747788211184 0 4.072747788211184 -1.4383344783882439 0 0 0 0 -14.928983897022519 -125.93017220628849 0 -125.93017220628849 -10.830309910592405 0 0 0 0 -48.663035802754621 9.0989949366771725 0 9.0989949366771725 -10.19406825760052 0 0 0 0 -15.990892177275292 -4.9000552462675273 0 -4.9000552462675273 -0.5508746222453329 0 0 0 0 -107.28949529142756 78.227321860262464 0 78.227321860262464 139.93802578885288 0 0 0 0 -11.885908764606654 -68.158420104548469 0 -68.158420104548469 -255.36434213253915 0 0 0 0 -111.58752934574784 139.29259082000868 0 139.29259082000868 -283.27662805204113 0 0 0 0 -277.97296733352778 300.81319864669877 0 300.81319864669877 -260.70971739301598 0 0 0 0 -252.0350523111656 121.53578468448018 0 121.53578468448018 76.691683825504697 0 0 0 0 -81.581541486086621 208.68696304099035 0 208.68696304099035 -171.06403971771658 0 0 0 0 -18.812085809926828 -134.56002823054041 0 -134.56002823054041 13.618205144301385 0 0 0 0 -11.343793189463028 -7.0433853017911572 0 -7.0433853017911572 0.4070991635655643 0 0 0 0 -121.57412210764846 34.206385690267325 0 34.206385690267325 -10.32450226501885 0 0 0 0 -111.99601563908072 24.35056480754929 0 24.35056480754929 -13.037861021231496 0 0 0 0 -147.11395866046348 12.290165526518194 0 12.290165526518194 0.80940414427277574 0 0 0 0 -141.19461860778324 23.226299476124723 0 23.226299476124723 -4.4820124546495208 0 0 0 0 -177.88613690791317 43.803811404368389 0 43.803811404368389 -14.529384184454102 0 0 0 0 -149.24925923559658 14.007790395436132 0 14.007790395436132 0.63843573237602413 0 0 0 0 -50.174209615927339 17.865253079030936 0 17.865253079030936 -22.660133399028837 0 0 0 0 -86.373991898361965 22.590493790502023 0 22.590493790502023 -13.056369884219293 0 0 0 0 -83.325556739952276 0.55291022131314094 0 0.55291022131314094 -1.7263144004100468 0 0 0 0 -6.5892744328881605 -12.351611278057586 0 -12.351611278057586 6.7019222057929611 0 0 0 0 -55.234384069681255 17.404076412770053 0 17.404076412770053 5.2673018592498977 0 0 0 0 -81.852552690423181 -1.3301638533014568 0 -1.3301638533014568 18.805211621422018 0 0 0 0 -25.948132407782914 -13.867280653017858 0 -13.867280653017858 17.918612994874213 0 0 0 0 -122.94757099767867 22.00952052955472 0 22.00952052955472 19.238676756983295 0 0 0 0 -62.362576397669713 -1.4441861958011604 0 -1.4441861958011604 8.3124431910082031 0 0 0 0 -85.648065265057085 -11.083171503976473 0 -11.083171503976473 37.857583204515322 0 0 0 0 -28.585672917371994 -29.246223805098111 0 -29.246223805098111 7.9395291921830449 0 0 0 0 6.1720411410906744 -15.951592167040074 0 -15.951592167040074 -0.82388600708107518 0 0 0 0 2.6395975028096927 -94.270089834124519 0 -94.270089834124519 -11.845254694992036 0 0 0 0 72.032945318855127 -99.027430199154651 0 -99.027430199154651 48.5868691286787 0 0 0 0 5.1187585111779299 -18.079799475666082 0 -18.079799475666082 8.204203403188199 0 0 0 0 -84.648776697031877 -25.349871097799852 0 -25.349871097799852 31.537722053005815 0 0 0 0 79.513412073996733 -10.763919242888733 0 -10.763919242888733 131.64564975254507 0 0 0 0 -237.0683335159847 14.500193628838133 0 14.500193628838133 90.413382185416594 0 0 0 0 -324.5295922570258 -39.147181913271879 0 -39.147181913271879 138.30828642967026 0 0 0 0 -615.81747068913137 172.38970351934034 0 172.38970351934034 118.35059635924745 0 0 0 0 -106.64341525843338 18.593515071954016 0 18.593515071954016 200.25407038225967 0 0 0 0 -202.31640983501711 -174.06523512538342 0 -174.06523512538342 132.14973827133826 0 0 0 0 -282.54157528742508 15.974667612922985 0 15.974667612922985 143.13061754353748 0 0 0 0 -233.54731719973279 40.166376335534551 0 40.166376335534551 148.37285201103396 0 0 0 0 -234.21653263141829 147.46849162045191 0 147.46849162045191 -19.440080296917586 0 0 0 0 -40.567944200388411 63.099217035151241 0 63.099217035151241 24.544618057967455 0 0 0 0 -107.73279474447918 -124.81979629859916 0 -124.81979629859916 44.967490694545631 0 0 0 0 -133.16097697537612 24.139985714392481 0 24.139985714392481 36.125588995660237 0 0 0 0 -105.00751625546683 1.4455984894995724 0 1.4455984894995724 14.016353894726262 0 0 0 0 -14.160410935289082 3.6879412962291305 0 3.6879412962291305 7.3360666371084289 0 0 0 0 -349.97896562275128 -100.90299862777647 0 -100.90299862777647 186.65542488841311 0 0 0 0 -147.46589524067497 31.891974456672926 0 31.891974456672926 0.97495561993355295 0 0 0 0 -113.16145328742869 62.078121399330797 0 62.078121399330797 -7.0351916532130687 0 0 0 0 -105.29074420675352 14.06909730083413 0 14.06909730083413 15.45263586221381 0 0 0 0 -130.6699197130738 124.00219790418734 0 124.00219790418734 66.334809744823929 0 0 0 0 -81.689304751200552 90.200011783789989 0 90.200011783789989 15.50129054975622 0 0 0 0 -100.28237292752465 8.2425583502755444 0 8.2425583502755444 -17.181296870751339 0 0 0 0 1.1587530555703278 -0.70003118780206774 0 -0.70003118780206774 3.1638532668142787 0 0 0 0 -136.93086176244822 71.644814242984395 0 71.644814242984395 -42.718344903069351 0 0 0 0 -223.8925427985609 24.109450552894671 0 24.109450552894671 83.840548757206534 0 0 0 0 22.096039386496159 223.95709729164037 0 223.95709729164037 -170.63114456591376 0 0 0 0 13.829485424703904 109.70279939939516 0 109.70279939939516 -136.92112396088714 0 0 0 0 -203.58998267653351 74.927989518111303 0 74.927989518111303 94.519809007725371 0 0 0 0 -154.1789355934925 158.47080232015838 0 158.47080232015838 -281.70454866162754 0 0 0 0 -149.55068720214649 131.54136196612876 0 131.54136196612876 -137.53839704854673 0 0 0 0 2.2101275792013393 -1.524002966251798 0 -1.524002966251798 -5.6927580414411523 0 0 0 0 -2.3366513425634388 0.71406179723727625 0 0.71406179723727625 -0.35364864686389463 0 0 0 0 -49.045237744612166 197.64940006111698 0 197.64940006111698 -241.68005320597422 0 0 0 0 439.50064968124593 -119.13948191618238 0 -119.13948191618238 -313.16629912789176 0 0 0 0 474.01923054337237 279.92937244067144 0 279.92937244067144 -454.49653830710122 0 0 0 0 -160.43326789468483 -238.20637525684333 0 -238.20637525684333 -241.42123943266597 0 0 0 0 136.87864604011702 -14.277319306380377 0 -14.277319306380377 -349.22425001762349 0 0 0 0 324.12651012009883 -242.67548147326215 0 -242.67548147326215 -256.23541092217783 0 0 0 0 7.753180007039191 -251.72351687048968 0 -251.72351687048968 -214.99705957011156 0 0 0 0 -669.91725376698469 -146.54434679412202 0 -146.54434679412202 468.36127926801373 0 0 0 0 231.19374956017327 -204.70488414757801 0 -204.70488414757801 -225.80080099523593 0 0 0 0 -132.29635714709639 -110.19936323448746 0 -110.19936323448746 -241.7906464534999 0 0 0 0 -94.398486048337872 220.66483832400536 0 220.66483832400536 -157.06796206254876 0 0 0 0 -20.094807684900843 3.6944840397192138 0 3.6944840397192138 7.1726807591821853 0 0 0 0 -12.143396527245766 -2.9497645742862995 0 -2.9497645742862995 -0.12509570204292553 0 0 0 0 -8.6062758666577981 -1.9708634103109581 0 -1.9708634103109581 2.3180217432208234 0 0 0 0 -17.83591644655246 -4.9466111974026887 0 -4.9466111974026887 35.016613271190181 0 0 0 0 -378.57143506861667 -113.73527095351494 0 -113.73527095351494 377.46113162012819 0 0 0 0 -3.1506063856916171 23.078228130735511 0 23.078228130735511 81.052059439449977 0 0 0 0 -14.654055025994822 -0.86584132651014301 0 -0.86584132651014301 0.89316777130975056 0 0 0 0 -354.57923321859971 15.480195502072206 0 15.480195502072206 -189.36960256698239 0 0 0 0 70.077479116533141 278.18764553827032 0 278.18764553827032 -107.15395473356352 0 0 0 0 -710.24389679245951 634.77228554324449 0 634.77228554324449 -804.12642441031221 0 0 0 0 -7.3045105225297657 0.842871872761906 0 0.842871872761906 0.73262703828807063 0 0 0 0 -813.87556360145163 688.65712515011933 0 688.65712515011933 -126.01545852878098 0 0 0 0 -299.5809491796872 -179.04533913693444 0 -179.04533913693444 27.553240770724642 0 0 0 0 61.017289662288249 -29.538065555674791 0 -29.538065555674791 -101.392635132743 0 0 0 0 -291.65485957202793 -149.30913548188283 0 -149.30913548188283 128.01763021025045 0 0 0 0 77.250704801620259 84.806812181778469 0 84.806812181778469 -84.038756935609172 0 0 0 0 -8.9851323780094123 -4.5933501640439642 0 -4.5933501640439642 1.3802538905438664 0 0 0 0 28.141080671075542 28.408377524237949 0 28.408377524237949 -16.315000793802938 0 0 0 0 49.03551215346215 67.052169276186078 0 67.052169276186078 48.488745267464765 0 0 0 0 62.555093016748515 -15.321303798494284 0 -15.321303798494284 -24.312370446303866 0 0 0 0 -222.98635262152226 120.5893526946188 0 120.5893526946188 -11.189699364066996 0 0 0 0 -178.26629019022562 109.88187595624376 0 109.88187595624376 -42.367242045545936 0 0 0 0 -630.08512779204648 381.58665486769246 0 381.58665486769246 -136.29599361653135 0 0 0 0 -275.39205829471734 138.32071131764653 0 138.32071131764653 -82.274413339661805 0 0 0 0 -557.77001269591426 428.76128257383215 0 428.76128257383215 -223.25420348663988 0 0 0 0 -409.31449731191492 469.53233405544597 0 469.53233405544597 -312.50170151563589 0 0 0 0 -580.53062150089215 668.62400103046218 0 668.62400103046218 -419.84334011053727 0 0 0 0 -1023.7364613802717 816.75358045454516 0 816.75358045454516 66.283300032796092 0 0 0 0 -1074.8168684417446 385.22479113269446 0 385.22479113269446 -672.14434383925936 0 0 0 0 -1110.9750046425947 743.75646603988775 0 743.75646603988775 -110.96864824661884 0 0 0 0 -267.62752448884839 5.1847323734727979 0 5.1847323734727979 -20.856002144031208 0 0 0 0 -552.65400996613005 487.54255502076967 0 487.54255502076967 5.2669650416264631 0 0 0 0 -1050.3935811870251 64.64953654271585 0 64.64953654271585 123.62762925062202 0 0 0 0 -1009.2974319022737 780.87553587637922 0 780.87553587637922 -169.18101287681759 0 0 0 0 -1227.8713722381597 276.72019610198709 0 276.72019610198709 -191.1245370049096 0 0 0 0 -1260.3740882087066 378.01658774917132 0 378.01658774917132 69.850172556548387 0 0 0 0 -827.03425908218856 645.57299892650553 0 645.57299892650553 -202.33374843641286 0 0 0 0 -177.37999511179714 399.62931973796685 0 399.62931973796685 -206.04778028117107 0 0 0 0 -423.12313307697326 66.649266828052419 0 66.649266828052419 125.89015215044674 0 0 0 0 -0.4848349905538063 -0.24909590602690312 0 -0.24909590602690312 12.903871986320283 0 0 0 0 -235.87977514700879 67.825956015895144 0 67.825956015895144 -129.53490348822334 0 0 0 0 -471.54939573525212 -72.41731044232705 0 -72.41731044232705 -47.229498898944485 0 0 0 0 -1066.1241180460747 -0.35287620494542971 0 -0.35287620494542971 358.71307308827659 0 0 0 0 76.680678483354711 329.91222288967276 0 329.91222288967276 -336.64840191363874 0 0 0 0 -0.7174891191123719 0.19004387653659938 0 0.19004387653659938 2.8264540355243133 0 0 0 0 -1101.636620025361 417.01774812269252 0 417.01774812269252 -332.95936907390205 0 0 0 0 -498.07777871982694 -11.161985416684956 0 -11.161985416684956 336.39626062080509 0 0 0 0 -987.58116658110737 430.47652674029649 0 430.47652674029649 785.43973769491504 0 0 0 0 -1307.0817928491647 368.57820851836823 0 368.57820851836823 385.17847592754208 0 0 0 0 -1343.1002756228515 147.66108521826078 0 147.66108521826078 565.98820633929063 0 0 0 0 -1511.1846693512757 172.39943636182019 0 172.39943636182019 295.3162829847256 0 0 0 0 -1954.9327432694672 444.12768326605777 0 444.12768326605777 184.53525076616666 0 0 0 0 -1075.0386953621069 369.46816475257111 0 369.46816475257111 308.97678302771033 0 0 0 0 -2024.7483187099306 610.33157025494597 0 610.33157025494597 400.96049569874197 0 0 0 0 -2500.3662505799671 600.99852694163314 0 600.99852694163314 594.79596169759213 0 0 0 0 -2082.0220370785437 503.49141459486032 0 503.49141459486032 260.63902265598216 0 0 0 0 -1957.374803618834 809.39750884274235 0 809.39750884274235 399.14187885750766 0 0 0 0 -1010.847919497407 430.02619705387394 0 430.02619705387394 390.52489034421103 0 0 0 0 -2496.8159081379285 1461.9146173869899 0 1461.9146173869899 -320.75451127495563 0 0 0 0 -4.7594953361825834 1.4776244029993579 0 1.4776244029993579 2.5488563386555247 0 0 0 0 -875.67186961811922 1152.6778043887787 0 1152.6778043887787 -775.76077374391048 0 0 0 0 -1286.8710063901813 -32.818014615402262 0 -32.818014615402262 785.45529278179697 0 0 0 0 -579.5855228880522 765.59040840856483 0 765.59040840856483 -346.81069178935729 0 0 0 0 -801.10450933451375 618.61261673990225 0 618.61261673990225 -431.37777693602379 0 0 0 0 -1051.2830013150178 822.678610284976 0 822.678610284976 59.84204552610727 0 0 0 0 -726.54101216266122 390.1190370684937 0 390.1190370684937 109.8155114912431 0 0 0 0 -6.4374016168560946 2.4707363196290402 0 2.4707363196290402 2.8003159892218763 0 0 0 0 -36.127849993252312 21.239914177214814 0 21.239914177214814 13.834813645775284 0 0 0 0 -18.830499481790106 9.1174052814700985 0 9.1174052814700985 -1.4358628662851913 0 0 0 0 -41.913858352214447 10.396420525220947 0 10.396420525220947 7.2691046053714672 0 0 0 0 -4.7309965401909722 13.147548096270839 0 13.147548096270839 9.4765415495166963 0 0 0 0 -36.977488507564928 13.788711392149064 0 13.788711392149064 6.9820667415873494 0 0 0 0 -99.652027623838876 2.4709720756379738 0 2.4709720756379738 -6.8038512310895385 0 0 0 0 -79.79692626943779 105.21414503489609 0 105.21414503489609 -72.417738964583805 0 0 0 0 -95.067039045632555 3.1611199541821406 0 3.1611199541821406 -15.785132641283781 0 0 0 0 -42.496220219439024 33.102943553159804 0 33.102943553159804 0.99332785232826737 0 0 0 0 -23.595167015779225 22.48209529972155 0 22.48209529972155 -4.5370461582515418 0 0 0 0 -50.283932528538124 -6.6679664799905485 0 -6.6679664799905485 1.9740760702247933 0 0 0 0 -112.13438750268324 -21.841750849156142 0 -21.841750849156142 -3.4842396582434958 0 0 0 0 -124.97191611788912 -5.8831821787439367 0 -5.8831821787439367 31.694066623511389 0 0 0 0 -41.738446342755196 29.330939433133608 0 29.330939433133608 -0.74068317818137075 0 0 0 0 -91.163330186325837 58.301604795531318 0 58.301604795531318 17.197013671397354 0 0 0 0 -124.97191611787457 -5.8831821787275658 0 -5.8831821787275658 31.69406662350957 0 0 0 0 -124.97191611789822 -5.8831821787334775 0 -5.8831821787334775 31.69406662351048 0 0 0 0 -44.146925778450566 1.3612343645709188 0 1.3612343645709188 -21.65867532320226 0 0 0 0 -15.533703632603647 23.928619833774974 0 23.928619833774974 -4.2356971225817688 0 0 0 0 -20.80100605603343 -2.2232896684927823 0 -2.2232896684927823 -28.804492171231686 0 0 0 0 12.331962693829155 16.901983665688022 0 16.901983665688022 -18.007359750597971 0 0 0 0 -12.367606691840511 4.143728924450059 0 4.143728924450059 -1.4570263287103389 0 0 0 0 -12.780204147436734 1.1455435786323278 0 1.1455435786323278 10.8204222575514 0 0 0 0 -30.744244852725387 48.416197142595138 0 48.416197142595138 51.141996812481011 0 0 0 0 -9.6683706261617317 -11.46888720513698 0 -11.46888720513698 -3.2787038766364276 0 0 0 0 28.518721465619592 3.9458836262383556 0 3.9458836262383556 -12.5854889565544 0 0 0 0 -32.743248139377101 109.92901732899099 0 109.92901732899099 22.229196621652591 0 0 0 0 -56.64452237821547 41.424571990988397 0 41.424571990988397 -42.754445347160981 0 0 0 0 -186.06139925181799 72.733507324940774 0 72.733507324940774 66.759279419868108 0 0 0 0 -86.220684384957508 -32.858098056535027 0 -32.858098056535027 -5.9282577178646534 0 0 0 0 -61.478230523487582 -14.304494470161558 0 -14.304494470161558 -10.318901101479696 0 0 0 0 -68.906819801843085 -16.449673407968021 0 -16.449673407968021 -10.470470714678413 0 0 0 0 8.5402872830287606 16.248172405890728 0 16.248172405890728 9.9362164525391563 0 0 0 0 37.315984486435298 29.795940196239371 0 29.795940196239371 -2.4759737987897097 0 0 0 0 -23.625231306047983 15.313718492350867 0 15.313718492350867 8.6014570961461825 0 0 0 0 -76.428976155948476 4.9060212810270514 0 4.9060212810270514 -9.7675286110629713 0 0 0 0 -63.140010560244264 -5.1638376019922134 0 -5.1638376019922134 -26.98344482731909 0 0 0 0 -58.321076629241361 -21.015635491103467 0 -21.015635491103467 -10.572224213989102 0 0 0 0 -99.679027758042139 -54.314779465412357 0 -54.314779465412357 -64.412747272786419 0 0 0 0 -59.964778988909529 -9.1757749147050163 0 -9.1757749147050163 -13.317288195900574 0 0 0 0 -203.06282090387322 23.796263189742604 0 23.796263189742604 28.098229322734596 0 0 0 0 -302.53705184948512 183.18039299337306 0 183.18039299337306 -68.177399707647055 0 0 0 0 -1.2290862957741098 -1.7236320639901166 0 -1.7236320639901166 0.49454166929139376 0 0 0 0 -61.944127141739955 26.208230486701041 0 26.208230486701041 -10.544448540125813 0 0 0 0 -35.578336263821257 10.143707460718815 0 10.143707460718815 -68.864836927108286 0 0 0 0 -51.247167937559425 97.429146739675161 0 97.429146739675161 -53.51766710748052 0 0 0 0 -46.997930279196225 98.725522356401598 0 98.725522356401598 -156.63138152561169 0 0 0 0 -66.868734466534079 42.539385862200106 0 42.539385862200106 -1.1524088257447147 0 0 0 0 -197.94880001459842 -44.578515875848893 0 -44.578515875848893 -58.618285311748878 0 0 0 0 -52.805734539473633 98.33788614664536 0 98.33788614664536 -50.202367900630634 0 0 0 0 -54.173108019334904 -18.775391888664672 0 -18.775391888664672 16.265734502661417 0 0 0 0 -48.634960482060706 54.080896224872959 0 54.080896224872959 18.830705628465694 0 0 0 0 -101.32609239935445 9.7997894510997412 0 9.7997894510997412 7.1054437822221619 0 0 0 0 -85.509240061379387 13.2540907371299 0 13.2540907371299 154.22847053520309 0 0 0 0 -113.48440861885422 -0.083729795630489434 0 -0.083729795630489434 90.539534171665764 0 0 0 0 -92.103095565456357 9.5707099525419324 0 9.5707099525419324 7.8775297305523866 0 0 0 0 -117.91761427494248 -12.087897942866988 0 -12.087897942866988 107.02532993658667 0 0 0 0 -90.457271948585458 -0.60020602738784135 0 -0.60020602738784135 53.891252081620735 0 0 0 0 -116.9610110398703 32.082172951791506 0 32.082172951791506 56.325486650642148 0 0 0 0 -106.26520239399883 38.56358126626732 0 38.56358126626732 59.431221562108476 0 0 0 0 -92.166013551901415 18.785080739716932 0 18.785080739716932 -9.9177330508173327 0 0 0 0 -183.70331688802071 85.263006731643145 0 85.263006731643145 57.02804117251253 0 0 0 0 -25.222375925039977 5.7500503152133309 0 5.7500503152133309 -1.3899563859814776 0 0 0 0 -194.26959224881648 -42.751364508273582 0 -42.751364508273582 149.55962652967173 0 0 0 0 -29.192231836888823 40.507871812659687 0 40.507871812659687 -85.836129381470528 0 0 0 0 -76.418408283960161 -1.1304195258465626 0 -1.1304195258465626 30.265723411857579 0 0 0 0 -96.272960902328578 -26.531477475628861 0 -26.531477475628861 55.191483974399077 0 0 0 0 -39.49152526897862 8.3023530607191951 0 8.3023530607191951 21.426199358108519 0 0 0 0 -83.269719618615568 16.589118952491493 0 16.589118952491493 8.0754282466877907 0 0 0 0 -126.25560639378455 1.1009163070661998 0 1.1009163070661998 11.981032178386158 0 0 0 0 -103.82796731504459 -42.879243740196841 0 -42.879243740196841 -7.6026621753771906 0 0 0 0 -25.967303845385061 21.095954301336263 0 21.095954301336263 5.5143805695643024 0 0 0 0 -71.479886740577967 -49.120416954230905 0 -49.120416954230905 -6.5231649546772701 0 0 0 0 -75.702209300406139 -8.2185802876780656 0 -8.2185802876780656 -2.8267801683734888 0 0 0 0 -84.538809472961475 -29.087507476543749 0 -29.087507476543749 -33.057502888581439 0 0 0 0 -195.0536442915236 58.785731025226823 0 58.785731025226823 54.85734757180299 0 0 0 0 -142.83928486750733 9.365098698223818 0 9.365098698223818 62.119293244744995 0 0 0 0 -140.48133705577175 7.3822628355710549 0 7.3822628355710549 52.698058497663368 0 0 0 0 -156.91005267368064 -53.192562180911182 0 -53.192562180911182 -13.603896802072995 0 0 0 0 -154.13949167687457 -76.571986734986069 0 -76.571986734986069 33.368408074641138 0 0 0 0 -320.12920460120313 -12.423701043848837 0 -12.423701043848837 59.787994382775338 0 0 0 0 -195.82031937605825 84.01448093301974 0 84.01448093301974 -9.4804867134971573 0 0 0 0 -404.25835874245604 348.82141766111545 0 348.82141766111545 -413.99065282397737 0 0 0 0 -407.27434605004873 111.7786886470808 0 111.7786886470808 -6.1772833361637822 0 0 0 0 -375.62705668393937 118.96508006809927 0 118.96508006809927 -112.23435337866249 0 0 0 0 -554.99316657464487 -160.22443223729806 0 -160.22443223729806 27.770260549594241 0 0 0 0 -805.54874820598616 195.48391207672967 0 195.48391207672967 -92.199299384185167 0 0 0 0 -801.96823890291944 -64.204118708017631 0 -64.204118708017631 4.1918257859616688 0 0 0 0 -43.56579303709789 28.004022676392772 0 28.004022676392772 -4.0919356042188575 0 0 0 0 178.43873271093059 114.65427930996282 0 114.65427930996282 -182.01177450284445 0 0 0 0 120.55104389238284 -506.89175732867324 0 -506.89175732867324 -371.53791559731962 0 0 0 0 -87.331562863734121 24.802546990432969 0 24.802546990432969 -5.1022483876837956 0 0 0 0 -136.1526258734084 95.75074294254523 0 95.75074294254523 -122.05033286310118 0 0 0 0 -127.67995730481016 -41.384294309041252 0 -41.384294309041252 54.582883867559758 0 0 0 0 -591.46750590822194 341.09775266426823 0 341.09775266426823 -256.8232160212367 0 0 0 0 -304.11550960818931 281.77670645786247 0 281.77670645786247 -244.80504786744586 0 0 0 0 0.14348436205925452 20.260170914205453 0 20.260170914205453 -6.9520980774832966 0 0 0 0 -1502.5414079268521 71.043796039933113 0 71.043796039933113 387.88749880676801 0 0 0 0 -7.2320118751755462 -1.7539287028033534 0 -1.7539287028033534 -0.010513218521635448 0 0 0 0 -104.91018063830415 2.0983413511038407 0 2.0983413511038407 4.265798131102656 0 0 0 0 -86.28839823549788 -1.5860078544073062 0 -1.5860078544073062 -1.9139230848910671 0 0 0 0 -71.542007043772173 4.0690278933183208 0 4.0690278933183208 -7.6507433436865995 0 0 0 0 -68.236109169443807 27.409168637492485 0 27.409168637492485 -0.11838393371499478 0 0 0 0 -122.9408637389497 33.228331615928255 0 33.228331615928255 -22.793116448243381 0 0 0 0 -97.241426845967624 7.5295407334206867 0 7.5295407334206867 0.55338394661794166 0 0 0 0 -141.94902643014211 31.975440478196106 0 31.975440478196106 -22.812122184409418 0 0 0 0 -87.029820244746588 13.020884961156071 0 13.020884961156071 0.3668532376514122 0 0 0 0 -158.83543826565437 42.927220663616026 0 42.927220663616026 11.67713422181123 0 0 0 0 -60.024392185136094 84.635165519208385 0 84.635165519208385 -31.533088300378949 0 0 0 0 -16.467114104510813 -19.600339388052817 0 -19.600339388052817 13.490062835819236 0 0 0 0 -59.319576999526248 4.9704980247380135 0 4.9704980247380135 86.839146115184121 0 0 0 0 -66.139510577141763 0.85149213549175862 0 0.85149213549175862 5.2413122378522736 0 0 0 0 -86.849039707783959 113.37582874466443 0 113.37582874466443 198.7853666334122 0 0 0 0 -46.286654349067248 62.132131440553167 0 62.132131440553167 54.768748326401237 0 0 0 0 -44.986064689442898 10.433955543601707 0 10.433955543601707 -1.2920160752865899 0 0 0 0 62.578246478369692 224.76190182003211 0 224.76190182003211 65.994091535743792 0 0 0 0 -199.73239976758487 -149.47062384006858 0 -149.47062384006858 -90.767580718525096 0 0 0 0 -264.3795626021456 -70.525416868818866 0 -70.525416868818866 13.744196286341321 0 0 0 0 410.26914203361957 64.304019872048229 0 64.304019872048229 -565.25547293280761 0 0 0 0 -116.84295884976746 70.196268733000124 0 70.196268733000124 98.431684923039029 0 0 0 0 -62.490079062875296 5.2302150378938164 0 5.2302150378938164 0.26804425529354059 0 0 0 0 -25.925867324725914 -25.512457949690614 0 -25.512457949690614 -11.956618227889976 0 0 0 0 -307.70044453009905 -249.21347385784929 0 -249.21347385784929 282.67746573163367 0 0 0 0 -7.2941571272271801 -9.4395378906863332 0 -9.4395378906863332 4.617747171777177 0 0 0 0 -74.175808199768653 51.112900465705025 0 51.112900465705025 49.567333746262079 0 0 0 0 -70.826812257371785 24.319237052558719 0 24.319237052558719 40.379516277655853 0 0 0 0 -48.619032827900234 5.9293174742677781 0 5.9293174742677781 2.5763775445542447 0 0 0 0 -47.780738264769752 2.8826428487648172 0 2.8826428487648172 18.233534973453288 0 0 0 0 -71.259864914278296 -6.0149562770596958 0 -6.0149562770596958 14.527027203480657 0 0 0 0 -101.22749398250653 -11.959554427544454 0 -11.959554427544454 26.73513453458628 0 0 0 0 -101.5165772111618 33.025659886543735 0 33.025659886543735 4.3393019480840849 0 0 0 0 -122.63281763945997 -20.150717307480591 0 -20.150717307480591 17.191824560982525 0 0 0 0 -37.35183110529033 17.913875652214756 0 17.913875652214756 -28.588055544555573 0 0 0 0 -28.7285601213066 -5.4999355962366963 0 -5.4999355962366963 5.2616549479898822 0 0 0 0 -30.616327353728593 16.509870048225707 0 16.509870048225707 -2.9836518741431064 0 0 0 0 -71.212805942055638 -57.33684729840752 0 -57.33684729840752 -10.510973365871905 0 0 0 0 -7.3326998490857704 -5.9605041256818447 0 -5.9605041256818447 4.6608671123114984 0 0 0 0 -30.190508780602613 9.9206501620828931 0 9.9206501620828931 -22.716687002340677 0 0 0 0 -22.451485154556941 -10.693370751094186 0 -10.693370751094186 1.2212655501073542 0 0 0 0 -126.35226443938336 11.003957544972764 0 11.003957544972764 16.292741786943225 0 0 0 0 -122.33558053349407 11.77944907793426 0 11.77944907793426 -0.69047623960159399 0 0 0 0 -24.121853846245699 -9.7542504919678095 0 -9.7542504919678095 -13.31936957871676 0 0 0 0 -29.996951163819176 -21.022466537333457 0 -21.022466537333457 20.608649736712323 0 0 0 0 -6.3791730365035644 -0.85436038064289299 0 -0.85436038064289299 0.89845250472624372 0 0 0 0 -25.715245968105592 -4.4356509036979332 0 -4.4356509036979332 -28.847808639485564 0 0 0 0 -12.027296548618324 -28.235019276307867 0 -28.235019276307867 -8.7715215761641048 0 0 0 0 -18.250699040677173 -5.9475830664111342 0 -5.9475830664111342 4.9039775737347053 0 0 0 0 -19.359735752308048 -1.8988850050345967 0 -1.8988850050345967 10.278096363571677 0 0 0 0 -36.065855986704264 -12.978331327838077 0 -12.978331327838077 60.015707221612502 0 0 0 0 -28.901412643005642 -13.98934010817311 0 -13.98934010817311 17.260283499401339 0 0 0 0 -20.344151458140004 -12.660041720591835 0 -12.660041720591835 24.065952500513959 0 0 0 0 -50.301401013361101 -18.490167515918632 0 -18.490167515918632 17.878960377004773 0 0 0 0 -11.334615789210465 -3.3341633246901932 0 -3.3341633246901932 4.024011668124583 0 0 0 0 -31.970379050416149 -6.4089219181671169 0 -6.4089219181671169 6.677634886946791 0 0 0 0 -55.747943264403148 -8.3636675834759444 0 -8.3636675834759444 34.332302828080003 0 0 0 0 -42.355197842340715 -4.2008495237818781 0 -4.2008495237818781 8.4868043453956634 0 0 0 0 -27.101108770601968 6.2181731182505473 0 6.2181731182505473 27.010073244827254 0 0 0 0 -53.610379510613711 -38.05082759039248 0 -38.05082759039248 -6.3730791760879129 0 0 0 0 -78.363856967822358 -1.1919961485368731 0 -1.1919961485368731 116.37525023873422 0 0 0 0 -23.291886214661645 26.91521560899082 0 26.91521560899082 124.06982372346602 0 0 0 0 -41.04230476104226 9.062086378307729 0 9.062086378307729 -0.68091403145193896 0 0 0 0 -50.937677842196265 -8.6101852662472087 0 -8.6101852662472087 6.0198167707402339 0 0 0 0 -75.456693096299773 -8.0677661615154221 0 -8.0677661615154221 11.44012680798104 0 0 0 0 -98.933420312787348 -33.079092586888237 0 -33.079092586888237 64.676785303729048 0 0 0 0 -78.357139764306339 -16.515725027874964 0 -16.515725027874964 94.993025197435145 0 0 0 0 -40.650204466551607 -9.8193750423460813 0 -9.8193750423460813 7.1936534289365355 0 0 0 0 -55.662444104178576 -8.7607028219003951 0 -8.7607028219003951 83.936043995539876 0 0 0 0 20.725826646264068 -42.735973822973392 0 -42.735973822973392 -24.800746942090882 0 0 0 0 -68.21978349797493 4.1981773443728443 0 4.1981773443728443 13.296627873327614 0 0 0 0 -40.91108486711186 -14.309996595776393 0 -14.309996595776393 4.5992212024125685 0 0 0 0 -16.35629638701721 -59.630248792025441 0 -59.630248792025441 16.887277823690056 0 0 0 0 -225.68256206940896 -148.13538148904263 0 -148.13538148904263 196.00078084653038 0 0 0 0 5.9520051852819051 -82.574193567688326 0 -82.574193567688326 55.640101851669897 0 0 0 0 56.503405085392842 22.715363926487953 0 22.715363926487953 14.197013422577584 0 0 0 0 -12.860672696572077 -7.4254380560321236 0 -7.4254380560321236 5.9132468471157846 0 0 0 0 -68.786577867380402 -28.318956106839323 0 -28.318956106839323 110.92925271644981 0 0 0 0 -46.520068966472536 -54.074787103154449 0 -54.074787103154449 7.1920178434947957 0 0 0 0 -27.655321460515552 -3.5069862435721006 0 -3.5069862435721006 -30.027848418456415 0 0 0 0 -15.819075468819392 -31.859600561751449 0 -31.859600561751449 -60.915270940941809 0 0 0 0 -35.503497538656333 -1.8091418198695841 0 -1.8091418198695841 0.041285276621078615 0 0 0 0 -472.17705614117949 -103.99246994616533 0 -103.99246994616533 442.63084763478525 0 0 0 0 -128.64387907996115 44.66009292655599 0 44.66009292655599 225.89573526782715 0 0 0 0 -2.8046372924614822 0.24947373526142336 0 0.24947373526142336 -0.28187555730604519 0 0 0 0 301.85897996259928 -104.83684419269775 0 -104.83684419269775 -385.26701523909378 0 0 0 0 -225.84242003690633 -121.19135086739743 0 -121.19135086739743 76.992381541947452 0 0 0 0 -248.73468957056798 -39.505341764894354 0 -39.505341764894354 -46.933827061097873 0 0 0 0 126.68210011963947 10.096731628102134 0 10.096731628102134 -90.600661219362337 0 0 0 0 -280.95416613241343 77.338699610361076 0 77.338699610361076 -109.85966424777871 0 0 0 0 -81.356955536494752 -20.62617619493949 0 -20.62617619493949 -69.809737970671449 0 0 0 0 -265.56013214277937 -177.85046066002784 0 -177.85046066002784 -159.0399537336707 0 0 0 0 -2.1547544709586468 -0.29382369537804465 0 -0.29382369537804465 0.38508114792018944 0 0 0 0 -61.90572133355181 -12.648989789856842 0 -12.648989789856842 -76.197406421627875 0 0 0 0 -130.81480668226004 144.20113405109942 0 144.20113405109942 38.990734767818594 0 0 0 0 -272.76879175522163 18.8616499703312 0 18.8616499703312 -17.267928837553882 0 0 0 0 -183.17226123169394 -32.897783256370758 0 -32.897783256370758 -127.6290063032593 0 0 0 0 -130.94826874378123 26.53597231879985 0 26.53597231879985 -66.836944436331805 0 0 0 0 -22.933709128701594 -34.245256529869039 0 -34.245256529869039 18.796165582330104 0 0 0 0 -47.33140415978869 30.290008769094129 0 30.290008769094129 98.558206903555401 0 0 0 0 7.3914745595948261 -96.179077904796486 0 -96.179077904796486 -123.00008370584965 0 0 0 0 -4.5256843020686333 0.92449425157152021 0 0.92449425157152021 -0.15136356513187899 0 0 0 0 -92.362210026753019 -45.528760221918674 0 -45.528760221918674 7.85392629461046 0 0 0 0 -23.025867775220831 -19.494732490820979 0 -19.494732490820979 -5.6061898995526462 0 0 0 0 -44.787707368563588 -63.055287144213253 0 -63.055287144213253 -58.99849394872399 0 0 0 0 5.44354581372761 -29.60799218867669 0 -29.60799218867669 -100.06825438156829 0 0 0 0 -0.59182829458188024 0.96184742069023521 0 0.96184742069023521 -0.77110701793811387 0 0 0 0 37.061448334220586 64.795127519737434 0 64.795127519737434 -55.939788861289344 0 0 0 0 -127.67427590884927 -76.248685271637896 0 -76.248685271637896 -18.599402272210227 0 0 0 0 -166.05678336777419 -1.3536663905642854 0 -1.3536663905642854 -67.028883379018225 0 0 0 0 -98.024071030629784 38.688086846845408 0 38.688086846845408 -43.46174452035666 0 0 0 0 -176.63679787032015 67.125236791126099 0 67.125236791126099 -25.411433453285099 0 0 0 0 -197.06622273137236 54.358358685141866 0 54.358358685141866 -4.6622207362938752 0 0 0 0 -141.79270284024733 42.356710082221525 0 42.356710082221525 -41.255650294775023 0 0 0 0 -201.89502460313503 7.6139563304875253 0 7.6139563304875253 -57.643228991826618 0 0 0 0 -179.69963189028385 44.877711346905926 0 44.877711346905926 -44.79986077617059 0 0 0 0 -176.82241595598066 36.629831278814663 0 36.629831278814663 -30.083131118024539 0 0 0 0 -231.28826959531187 91.634282958807574 0 91.634282958807574 -81.938335001994346 0 0 0 0 -306.88204119940656 -175.53841939603535 0 -175.53841939603535 -210.19282017131081 0 0 0 0 -215.65299185634353 5.8577374129008604 0 5.8577374129008604 125.04164616607795 0 0 0 0 -57.114854594096869 -382.51979679243777 0 -382.51979679243777 -348.5769868073703 0 0 0 0 -5.5367911756733115 -0.18207354147755872 0 -0.18207354147755872 0.48679332054957758 0 0 0 0 -335.21568098824838 67.280027770891593 0 67.280027770891593 34.006084933816965 0 0 0 0 -308.1789330663396 -218.62811157529086 0 -218.62811157529086 -126.17426323621476 0 0 0 0 -151.60238001039215 103.54709489636389 0 103.54709489636389 -130.62565749298923 0 0 0 0 -185.60932535582288 75.858696447491639 0 75.858696447491639 593.25325979903391 0 0 0 0 -77.414605189024769 204.5809464443264 0 204.5809464443264 425.31585277057548 0 0 0 0 194.95414705080202 67.772248842976296 0 67.772248842976296 33.974823287141689 0 0 0 0 173.62136676287446 362.35063508747226 0 362.35063508747226 298.17304496426004 0 0 0 0 54.261635131902949 76.647404444165659 0 76.647404444165659 20.391597809978521 0 0 0 0 -39.841152586739554 50.928243218373609 0 50.928243218373609 759.98789211799158 0 0 0 0 76.218315411611911 19.277675850115884 0 19.277675850115884 257.12217132856949 0 0 0 0 -27.308534140101983 207.91844735160339 0 207.91844735160339 167.78811704239934 0 0 0 0 -0.27875391651542536 2.0386084360681131 0 2.0386084360681131 -0.954327401876367 0 0 0 0 60.152045513002122 233.71105753004485 0 233.71105753004485 15.25454306249685 0 0 0 0 -48.730356722614545 -7.0367211106631089 0 -7.0367211106631089 -91.617345220378411 0 0 0 0 15.897081556794092 265.97757134206677 0 265.97757134206677 -237.48312558212092 0 0 0 0 139.10110865487422 51.645953258240297 0 51.645953258240297 -448.15901635203045 0 0 0 0 -237.03300939680233 -19.279776197365827 0 -19.279776197365827 41.821098074357906 0 0 0 0 -3.9960262189360538 1.9920936216823293 0 1.9920936216823293 -0.920919448770114 0 0 0 0 -66.433889385399539 -27.782232537238258 0 -27.782232537238258 37.117926476165849 0 0 0 0 -46.875165688607012 -65.437254621098873 0 -65.437254621098873 -11.545238457326377 0 0 0 0 -106.50619405771158 -89.854614106860026 0 -89.854614106860026 -27.027318820750224 0 0 0 0 -62.855460840906744 -62.574258407893467 0 -62.574258407893467 -36.110564823934965 0 0 0 0 -104.7620203285029 -35.709707695410998 0 -35.709707695410998 18.596445219791349 0 0 0 0 -128.38900574506727 -104.61309809362297 0 -104.61309809362297 -52.32670495020102 0 0 0 0 15.437583825882029 5.7159829301890568 0 5.7159829301890568 17.318208009449108 0 0 0 0 -30.334377288508676 -60.701967661760136 0 -60.701967661760136 18.063604227517317 0 0 0 0 -40.63976039925069 25.516059083275195 0 25.516059083275195 193.60160770316998 0 0 0 0 -71.788957142348409 137.32417904469457 0 137.32417904469457 206.99185341958264 0 0 0 0 41.537569955019535 -8.4749624040111939 0 -8.4749624040111939 32.661082945689486 0 0 0 0 -9.457565968158633 24.463020618111841 0 24.463020618111841 -59.969011598971747 0 0 0 0 -71.410875585731446 -4.1325715886016496 0 -4.1325715886016496 32.496098858488949 0 0 0 0 -22.766746769201291 -6.3078665816979083 0 -6.3078665816979083 -32.895062935377609 0 0 0 0 -84.432049436209127 -16.355878206810758 0 -16.355878206810758 -33.818197710056666 0 0 0 0 -70.774367871860363 -19.023398697263019 0 -19.023398697263019 -45.886949802390518 0 0 0 0 -135.40985979911056 60.035245424947789 0 60.035245424947789 -47.334313259328155 0 0 0 0 -62.022915445598755 25.927666066319034 0 25.927666066319034 -56.290247961484056 0 0 0 0 -123.09799635128684 30.015548999915154 0 30.015548999915154 -67.773599595467203 0 0 0 0 -142.98222681099139 23.782908494106039 0 23.782908494106039 -43.738950189615935 0 0 0 0 -124.87134055685056 -0.89203643908331287 0 -0.89203643908331287 -30.993667088655457 0 0 0 0 -111.06433074321376 -4.6002290200913194 0 -4.6002290200913194 -48.793695153815861 0 0 0 0 -150.62905550892719 -21.089771636574369 0 -21.089771636574369 -23.305338503490248 0 0 0 0 -142.92403988915521 -52.93147991297792 0 -52.93147991297792 1.6031308815258853 0 0 0 0 -117.81150333498573 -60.634242886803406 0 -60.634242886803406 -24.568724783131984 0 0 0 0 -99.570102504948181 -29.815132567209503 0 -29.815132567209503 -21.819485273368628 0 0 0 0 -115.17745979700067 -43.178342790800343 0 -43.178342790800343 -33.202226852628883 0 0 0 0 -77.274527710153961 -47.547678141652909 0 -47.547678141652909 -32.991782845620037 0 0 0 0 -65.393197272316684 -45.264190541251992 0 -45.264190541251992 -30.933551138512485 0 0 0 0 -100.57110895744518 -57.392126253596871 0 -57.392126253596871 -32.311856861139859 0 0 0 0 -98.83938003160938 -60.923607950585392 0 -60.923607950585392 -26.150182369387039 0 0 0 0 -144.14470011522826 -72.682446483077001 0 -72.682446483077001 -21.229264532115849 0 0 0 0 -145.34134747762766 -58.129106517242235 0 -58.129106517242235 -34.297453516623136 0 0 0 0 -110.9469072258471 -79.766350947984392 0 -79.766350947984392 -28.235169727127413 0 0 0 0 -138.01743912599068 -71.658192305244484 0 -71.658192305244484 -16.373833181569353 0 0 0 0 -124.18523267283103 -69.944072704613745 0 -69.944072704613745 -16.170962983316713 0 0 0 0 -122.71414233606447 -66.637129273908158 0 -66.637129273908158 -12.585801730093408 0 0 0 0 -132.38398524602962 -71.719653307998215 0 -71.719653307998215 0.095859037992340745 0 0 0 0 -109.33209650372828 -61.331718690998969 0 -61.331718690998969 0.56557132364468998 0 0 0 0 -138.91342420829369 -75.999615307158365 0 -75.999615307158365 15.205340972637714 0 0 0 0 -89.355850036087759 -66.234013407552084 0 -66.234013407552084 3.548414135929761 0 0 0 0 -142.84116707354917 -62.116295141395767 0 -62.116295141395767 11.592665423928338 0 0 0 0 -186.02498234857762 3.5650922141028332 0 3.5650922141028332 43.945317148000868 0 0 0 0 -223.07857720315405 -48.080606895017809 0 -48.080606895017809 31.861360294782571 0 0 0 0 -382.74636644233851 32.195239923216377 0 32.195239923216377 44.74841520743314 0 0 0 0 -257.1897119704654 -95.873142605461908 0 -95.873142605461908 54.239024350799809 0 0 0 0 -107.73971008306569 -134.12966996688067 0 -134.12966996688067 -21.94114269057718 0 0 0 0 -109.24631684780979 -124.69401573753294 0 -124.69401573753294 20.208912338840719 0 0 0 0 -230.82648481864408 -72.813649435967591 0 -72.813649435967591 31.881114544343291 0 0 0 0 -148.09304766874948 -99.411122839708696 0 -99.411122839708696 33.526827389794562 0 0 0 0 -131.96748464309962 28.528238101580428 0 28.528238101580428 -66.693304388637443 0 0 0 0 -119.53029964608595 65.43488412661236 0 65.43488412661236 -102.78403913263082 0 0 0 0 -125.80092830174908 -6.018140693658097 0 -6.018140693658097 -17.20952259848309 0 0 0 0 -196.99719686587287 33.681410741134641 0 33.681410741134641 -18.148651318063273 0 0 0 0 -217.55275258470374 151.35063765333621 0 151.35063765333621 32.579056446536924 0 0 0 0 -131.59085533696725 73.120266780115799 0 73.120266780115799 -31.015919877182569 0 0 0 0 -161.52296799302985 97.98007775398537 0 97.98007775398537 -37.861146120538024 0 0 0 0 -64.086967990552694 105.65132527142714 0 105.65132527142714 -75.283951793533106 0 0 0 0 14.118840484635257 15.43068459398819 0 15.43068459398819 -51.625873553394911 0 0 0 0 -127.42215276394791 124.61095490870684 0 124.61095490870684 -42.65902149627982 0 0 0 0 -178.0539057155936 298.1481192076667 0 298.1481192076667 -113.4159729235098 0 0 0 0 -288.29497215322272 -306.19103744481595 0 -306.19103744481595 -380.69017510968479 0 0 0 0 -9.1108190358436616 -1.3980409344039284 0 -1.3980409344039284 -0.25049539745452631 0 0 0 0 -55.037491277499157 -50.848479398055133 0 -50.848479398055133 -116.15814940165819 0 0 0 0 -77.577833089334035 108.58230985751948 0 108.58230985751948 284.86364337684472 0 0 0 0 -24.863257891250754 -2.7901902070306139 0 -2.7901902070306139 0.26849674714283023 0 0 0 0 -343.98329234757966 -378.64852324351477 0 -378.64852324351477 -213.12547700859523 0 0 0 0 83.644334100813467 -111.45413050408479 0 -111.45413050408479 -97.347696771426854 0 0 0 0 24.047870129675175 -117.76988839774731 0 -117.76988839774731 -44.094601714758028 0 0 0 0 -107.40249459196366 -216.0263114828922 0 -216.0263114828922 -66.033026433717168 0 0 0 0 -292.26626996659252 -143.56685488538005 0 -143.56685488538005 18.500632046328974 0 0 0 0 -274.09585108736246 -93.825727993638111 0 -93.825727993638111 55.59071456271522 0 0 0 0 -735.9819035317505 -185.20291114837028 0 -185.20291114837028 54.204910313182609 0 0 0 0 -629.02283325641611 187.59814486738196 0 187.59814486738196 33.770731375689707 0 0 0 0 101.02133164671704 -260.33458668404546 0 -260.33458668404546 -403.04676435814645 0 0 0 0 -368.79511373983996 346.65376216362324 0 346.65376216362324 -226.69247077936143 0 0 0 0 58.402972352727829 -38.069125230011196 0 -38.069125230011196 -74.571470613936071 0 0 0 0 -60.519876772822045 -104.74478725097379 0 -104.74478725097379 4.2121375319147774 0 0 0 0 59.197061846477801 40.527147555778242 0 40.527147555778242 30.747686314647581 0 0 0 0 300.18703390254927 92.553902334896748 0 92.553902334896748 -174.73699447287163 0 0 0 0 -32.333548225072931 -136.28700346794056 0 -136.28700346794056 -221.57708783051021 0 0 0 0 -24.678506165877479 -64.217274584863844 0 -64.217274584863844 75.535474285266901 0 0 0 0 -0.37736048404814948 -0.55611427415162096 0 -0.55611427415162096 3.0369997804048445 0 0 0 0 61.200358166807064 -12.225579708014266 0 -12.225579708014266 -44.164923271869611 0 0 0 0 10.475575874627452 -64.75497914401285 0 -64.75497914401285 35.697218416531541 0 0 0 0 -37.780636375392078 5.9702385494319969 0 5.9702385494319969 -23.081692985735572 0 0 0 0 -34.768328549751232 -303.7388728564249 0 -303.7388728564249 -130.10540442066485 0 0 0 0 -1.7329765641334234 -183.56988934240508 0 -183.56988934240508 41.975074268064418 0 0 0 0 33.743325211926276 -136.185440971346 0 -136.185440971346 -31.093855608512968 0 0 0 0 37.431508898785978 -130.86981960693265 0 -130.86981960693265 -45.297612537280656 0 0 0 0 -79.423467467106548 44.171259541986956 0 44.171259541986956 -17.397378428231377 0 0 0 0 -27.09662104160634 18.110037949599246 0 18.110037949599246 -25.703382946883721 0 0 0 0 68.084371257324392 -24.252987041468714 0 -24.252987041468714 -51.678833908668821 0 0 0 0 0.030499668032660035 6.8824598673169284 0 6.8824598673169284 -13.969820800419553 0 0 0 0 -5.9590793133465922 -9.2185795254940786 0 -9.2185795254940786 -28.385213606158231 0 0 0 0 22.94409451285776 59.569653802368919 0 59.569653802368919 -72.6446771681276 0 0 0 0 -218.45128620734795 135.05152685312737 0 135.05152685312737 -42.263026746567107 0 0 0 0 -275.03532929080347 -47.978225279529482 0 -47.978225279529482 -19.738590106062929 0 0 0 0 -76.912979736690886 53.592642366030987 0 53.592642366030987 -9.635194190344464 0 0 0 0 -176.50125304530729 67.360304702846406 0 67.360304702846406 7.6939663040727737 0 0 0 0 -115.01478389117327 32.732202546001645 0 32.732202546001645 23.959370594519896 0 0 0 0 -208.58160155106225 7.0931891196346442 0 7.0931891196346442 23.303620299493105 0 0 0 0 -150.99866646244982 28.952637420696647 0 28.952637420696647 40.27049345380874 0 0 0 0 -197.65919041038671 33.283156751064439 0 33.283156751064439 42.665933327685707 0 0 0 0 -195.06827652523725 50.994376560950968 0 50.994376560950968 53.431710642692451 0 0 0 0 -219.88571265242081 17.256655503159891 0 17.256655503159891 43.02020256073888 0 0 0 0 -261.70965974643815 57.95091223355638 0 57.95091223355638 5.1809787111978949 0 0 0 0 -150.83570997222 72.6251373593891 0 72.6251373593891 -45.5814598431989 0 0 0 0 -121.45364778054818 -21.420713047718436 0 -21.420713047718436 6.6545141667338612 0 0 0 0 -283.69012789267254 -89.770516466107438 0 -89.770516466107438 -19.401552114684819 0 0 0 0 -191.75128620801388 -18.920028417670437 0 -18.920028417670437 27.442688887220356 0 0 0 0 -110.85581263752647 2.2981030076205116 0 2.2981030076205116 0.4316711092924379 0 0 0 0 0.096828114263920101 -0.33015976720796836 0 -0.33015976720796836 -1.0321577382477187 0 0 0 0 13.376737781187103 -20.350833582234145 0 -20.350833582234145 20.96050127028866 0 0 0 0 -1.8276102090630069 2.5300791118968853 0 2.5300791118968853 -3.7368857608054764 0 0 0 0 -107.66172262495002 -68.680684012655547 0 -68.680684012655547 20.670612841060574 0 0 0 0 -100.41001898597199 -41.638870423426852 0 -41.638870423426852 35.342699605114831 0 0 0 0 51.081752580485954 -37.038752240430767 0 -37.038752240430767 -18.571045022499675 0 0 0 0 125.91724356872317 -94.639209148701411 0 -94.639209148701411 -81.101877460345349 0 0 0 0 -247.78224431192825 -65.354007642498573 0 -65.354007642498573 -6.4603765840747656 0 0 0 0 3.1578442633462518 -4.6942500848271731 0 -4.6942500848271731 5.1751354950819355 0 0 0 0 -0.078403203827911661 -0.19353791076501903 0 -0.19353791076501903 -1.0557585616723948 0 0 0 0 -111.48093745252993 -5.4164063948894068 0 -5.4164063948894068 3.9000568031169678 0 0 0 0 12.281574957989505 37.503261488783892 0 37.503261488783892 -29.123169027572658 0 0 0 0 -63.037423969344673 -39.063088988253867 0 -39.063088988253867 -31.914223943557772 0 0 0 0 -54.913032029326132 18.09366881464075 0 18.09366881464075 -1.7813950967552046 0 0 0 0 -78.654731992906818 48.609970143702981 0 48.609970143702981 4.3178653032715602 0 0 0 0 -6.1209129002400005 48.965866934227861 0 48.965866934227861 -45.568014165582866 0 0 0 0 -111.39685900037875 4.297895601474238 0 4.297895601474238 1.0752801694112577 0 0 0 0 -77.960189737779018 -7.1139547774139302 0 -7.1139547774139302 -28.095499636631757 0 0 0 0 -286.58624424838649 -6.2073310627334308 0 -6.2073310627334308 2.1779931364067124 0 0 0 0 -219.95235021556346 85.527901912718761 0 85.527901912718761 -30.154590459728965 0 0 0 0 3.4062305156117496 1.7997795624681281 0 1.7997795624681281 -1.1508013703970636 0 0 0 0 11.321283468259145 15.071050688707505 0 15.071050688707505 -8.8390363060062391 0 0 0 0 -16.662868295758472 15.405988153376068 0 15.405988153376068 -8.3648406110348148 0 0 0 0 16.112670910256838 2.8358753707345841 0 2.8358753707345841 11.708702222099191 0 0 0 0 68.604226673036237 115.08932769806552 0 115.08932769806552 -52.356437924268448 0 0 0 0 2.5731979395821729 1.2578668667925097 0 1.2578668667925097 -0.58026559266300204 0 0 0 0 67.47534781003236 -36.758136707439689 0 -36.758136707439689 -55.11854534963004 0 0 0 0 -5.099188512947876 58.903498856852366 0 58.903498856852366 -13.253820663933425 0 0 0 0 -13.99336125028489 14.713812883930656 0 14.713812883930656 -5.4449007786606103 0 0 0 0 -60.348045476571428 89.158105088958109 0 89.158105088958109 -55.684225955543297 0 0 0 0 9.6817275885814524 1.2083044009992818 0 1.2083044009992818 17.856363740401093 0 0 0 0 -0.1053478905537335 3.5460707386329444 0 3.5460707386329444 0.062413446939221018 0 0 0 0 11.481020448161871 -22.276833922621563 0 -22.276833922621563 1.2750464402557782 0 0 0 0 11.565107651482322 -12.788122666886693 0 -12.788122666886693 -54.61278650852006 0 0 0 0 28.055624441805776 47.172021331732822 0 47.172021331732822 -15.39517614512863 0 0 0 0 19.875046774900738 31.663184742909834 0 31.663184742909834 -81.295862421148286 0 0 0 0 -17.431875955691794 34.272992668416009 0 34.272992668416009 -46.880831005033087 0 0 0 0 23.237470549686407 26.415472211671101 0 26.415472211671101 -86.830125460635827 0 0 0 0 -74.955945513856022 -6.4994429206983568 0 -6.4994429206983568 -55.56087939879626 0 0 0 0 -77.29768838108771 10.362096313633856 0 10.362096313633856 -175.26456140915548 0 0 0 0 23.740972877284008 -20.643479653419121 0 -20.643479653419121 -98.607767432235505 0 0 0 0 -96.354282923628489 10.20767570521366 0 10.20767570521366 -2.4547478147417223 0 0 0 0 -92.128008434839785 18.754179214758778 0 18.754179214758778 12.527181809603007 0 0 0 0 -18.477012363549079 -7.1954928438208299 0 -7.1954928438208299 13.1544729261459 0 0 0 0 -98.968435915321265 85.676240032353007 0 85.676240032353007 48.979362040615342 0 0 0 0 -108.19452082335465 0.098973062620643759 0 0.098973062620643759 69.404976402353554 0 0 0 0 -6.8681563890904727 38.598128723492664 0 38.598128723492664 -27.559896697271142 0 0 0 0 -7.4808426855015568 34.710131631673903 0 34.710131631673903 16.858741679556658 0 0 0 0 16.472269300726566 -5.2587874819760145 0 -5.2587874819760145 11.527037646878682 0 0 0 0 2.1008830203913931 31.829264183728469 0 31.829264183728469 -4.4202298535947193 0 0 0 0 1.2486038915812057 0.4435411296799181 0 0.4435411296799181 0.033271388636494592 0 0 0 0 -52.801994674938442 40.818562121945888 0 40.818562121945888 1.3386156893816405 0 0 0 0 -84.119705286390825 3.1554827753170684 0 3.1554827753170684 12.800481782796851 0 0 0 0 -48.504078169958575 22.625475429211292 0 22.625475429211292 8.3604641696374529 0 0 0 0 -29.634537771119312 4.4239047047199165 0 4.4239047047199165 12.30503490103365 0 0 0 0 -48.703734930047489 20.910805228959703 0 20.910805228959703 -1.9407840288095031 0 0 0 0 -0.28145431704392498 -0.43864001014840603 0 -0.43864001014840603 -0.97066359189205342 0 0 0 0 31.02655354111721 17.007460462657036 0 17.007460462657036 -60.663918522724998 0 0 0 0 -3.5775941937610014 8.9175100575694159 0 8.9175100575694159 -19.42744268264596 0 0 0 0 17.541882800079861 23.280671136843239 0 23.280671136843239 2.5047691126491145 0 0 0 0 -13.277802499056662 15.450708099218446 0 15.450708099218446 -23.672292653664044 0 0 0 0 -1.3778992196394675 0.69893649934609847 0 0.69893649934609847 -1.4174211337286415 0 0 0 0 -61.377334479670026 17.230374354774881 0 17.230374354774881 53.09262991513242 0 0 0 0 -0.50784352474939387 0.41677072021707184 0 0.41677072021707184 -0.13707300454130689 0 0 0 0 -16.229344850957659 -26.462927241832404 0 -26.462927241832404 109.2603729016264 0 0 0 0 -33.044666200992651 -45.39648059764113 0 -45.39648059764113 24.215703461376506 0 0 0 0 -83.987980265480928 -16.35755294111334 0 -16.35755294111334 11.808963109853721 0 0 0 0 10.10298701995589 -24.718933032779304 0 -24.718933032779304 -24.014116115777142 0 0 0 0 -1.9950189163715675 -1.2891233921335137 0 -1.2891233921335137 -0.30983424899487133 0 0 0 0 27.307682138661136 2.8578437367827974 0 2.8578437367827974 -20.920385747203909 0 0 0 0 -3.2989579037320027 -1.5203218938313512 0 -1.5203218938313512 -4.8147594439309387 0 0 0 0 -0.69968973383299726 -13.803053259372575 0 -13.803053259372575 -24.902482632943247 0 0 0 0 13.240862742434501 -7.7446963472411881 0 -7.7446963472411881 -26.627759847676316 0 0 0 0 5.2181799262849609 5.2368182946315756 0 5.2368182946315756 -29.85273602142297 0 0 0 0 -25.202968215657279 25.650347335290007 0 25.650347335290007 -36.058398603367095 0 0 0 0 6.9596927127332719 7.9713303641083257 0 7.9713303641083257 -25.560700013502355 0 0 0 0 1.317039751777429 -29.16331119776487 0 -29.16331119776487 -48.043408794741651 0 0 0 0 5.597166045731683 10.585640719496496 0 10.585640719496496 -50.649487528941165 0 0 0 0 3.906094411401682 1.3274324590295237 0 1.3274324590295237 -80.91266140555399 0 0 0 0 13.799105660339478 13.266758097611159 0 13.266758097611159 -75.86441782708971 0 0 0 0 7.866072786366658 61.493986274542294 0 61.493986274542294 -45.953811781619152 0 0 0 0 -13.359824582895726 -12.766099525104892 0 -12.766099525104892 -140.13822782725401 0 0 0 0 -68.896417427922188 70.930170062083107 0 70.930170062083107 -110.82772884519636 0 0 0 0 -1.702242869017482 10.412556339347248 0 10.412556339347248 -94.435681466735332 0 0 0 0 -10.788537578491741 -33.754979433015251 0 -33.754979433015251 -74.045746038928655 0 0 0 0 -18.142988999252452 -6.6911029138950653 0 -6.6911029138950653 -100.63583901727543 0 0 0 0 -19.330937899384196 -42.119071688839995 0 -42.119071688839995 -43.032705801874727 0 0 0 0 -33.617022539757613 -18.41311855581273 0 -18.41311855581273 14.845044327063988 0 0 0 0 -13.433116009642617 4.8254490682265896 0 4.8254490682265896 11.301570396116631 0 0 0 0 -15.354959524628612 -16.778381286416334 0 -16.778381286416334 -17.044780774505853 0 0 0 0 -3.0050190265423673 -26.217984540485133 0 -26.217984540485133 -34.237782387588595 0 0 0 0 -3.4703065464748306 -18.843232170116153 0 -18.843232170116153 -18.41691738042482 0 0 0 0 -6.1361036259049797 -20.781648118711928 0 -20.781648118711928 -50.857914188848554 0 0 0 0 6.8772701669795993 -23.743634846523264 0 -23.743634846523264 -42.909834581437281 0 0 0 0 7.3184358151312381 -26.81099387174163 0 -26.81099387174163 -21.58881946490169 0 0 0 0 -8.1937700825347974 -12.353916476320592 0 -12.353916476320592 -20.818743143626762 0 0 0 0 -10.586604468350401 -31.885675495631858 0 -31.885675495631858 -7.8042355384877737 0 0 0 0 12.569533439410048 -18.667067262457294 0 -18.667067262457294 -24.649994460887683 0 0 0 0 12.137716847204388 -24.875735456439543 0 -24.875735456439543 -41.713554234556241 0 0 0 0 -0.32079911782238923 -33.428805032837772 0 -33.428805032837772 -28.559157606699046 0 0 0 0 10.252271505816925 11.232714386585513 0 11.232714386585513 -41.869787847948828 0 0 0 0 1.5708815134456302 -0.29893270223504409 0 -0.29893270223504409 -2.4628295340153645 0 0 0 0 5.2669430973181761 -23.806515271095577 0 -23.806515271095577 7.8825546598643541 0 0 0 0 -38.661612131872971 79.989956913950209 0 79.989956913950209 -85.299965205098488 0 0 0 0 -82.926186627624702 40.840468735762897 0 40.840468735762897 -65.528617618517274 0 0 0 0 -109.64014897676361 34.612389213992174 0 34.612389213992174 64.882913389819805 0 0 0 0 -113.10463817482014 7.3219568317617814 0 7.3219568317617814 -134.87361021748529 0 0 0 0 -196.27369044918487 88.336197426144281 0 88.336197426144281 -67.985284713845431 0 0 0 0 -240.30036428431845 -66.074219500449999 0 -66.074219500449999 1.7519341429178894 0 0 0 0 -0.31443134116765337 -0.036400803922320257 0 -0.036400803922320257 -2.1158930779489573 0 0 0 0 -182.89125376916127 -32.94918472324116 0 -32.94918472324116 -14.132349543460805 0 0 0 0 -142.25825893659294 -78.525788367917812 0 -78.525788367917812 -25.7253104252095 0 0 0 0 -67.7935780990083 -108.07375003753918 0 -108.07375003753918 -97.987148919573883 0 0 0 0 -0.074476088398025997 -0.52396024609682978 0 -0.52396024609682978 -2.5555905387472144 0 0 0 0 -82.883720429537789 -55.599387709686994 0 -55.599387709686994 -9.042292718850149 0 0 0 0 -108.17316946683422 -38.34483904820172 0 -38.34483904820172 -13.81953657833526 0 0 0 0 -149.09155346451007 -91.509309677246165 0 -91.509309677246165 32.704707794206115 0 0 0 0 -112.09725945145783 -19.326806069006125 0 -19.326806069006125 -68.001264593212909 0 0 0 0 -68.511113847525849 -113.20526980996419 0 -113.20526980996419 -68.199632798976381 0 0 0 0 -19.937441438519727 -69.947945464185977 0 -69.947945464185977 -76.480710294970777 0 0 0 0 -13.950914334428489 -18.166170720033733 0 -18.166170720033733 -97.768745686316834 0 0 0 0 -1.9594584633473398 1.4257616994134006 0 1.4257616994134006 -0.35812966697146464 0 0 0 0 -94.152189860966473 119.34988442603435 0 119.34988442603435 -96.183570331213559 0 0 0 0 -474.15170968096163 -66.371020143223177 0 -66.371020143223177 0.10385358317262217 0 0 0 0 -459.4501878967485 139.63428210164784 0 139.63428210164784 -97.889277941349064 0 0 0 0 -113.63757266550147 14.523606762311829 0 14.523606762311829 -35.270770894714019 0 0 0 0 -251.50969904633803 7.8288670939555232 0 7.8288670939555232 -40.871861520701714 0 0 0 0 -195.49483665451203 117.44474697312921 0 117.44474697312921 -139.78019683350612 0 0 0 0 -245.98273858909192 166.21777977224065 0 166.21777977224065 -276.23765224357157 0 0 0 0 -204.82904471831989 54.681727163477262 0 54.681727163477262 -104.80364100424868 0 0 0 0 -53.658971547571127 -15.234966645297391 0 -15.234966645297391 -89.191918252739924 0 0 0 0 -51.523779917454704 3.0504848957352806 0 3.0504848957352806 -202.5417329812899 0 0 0 0 -241.39217949975864 3.6592881798569579 0 3.6592881798569579 -293.32196565847926 0 0 0 0 -98.456693615556787 56.683840846607382 0 56.683840846607382 -281.35711626182456 0 0 0 0 -116.54683997109623 32.143011935728055 0 32.143011935728055 -122.89603936023013 0 0 0 0 19.365453277354391 87.607644716954837 0 87.607644716954837 -124.61659975024668 0 0 0 0 -106.23294425003314 65.347233545340714 0 65.347233545340714 -167.73072704909464 0 0 0 0 -196.08476268570666 34.625902621161003 0 34.625902621161003 -158.50890332269046 0 0 0 0 -187.28202126905944 84.692655512886176 0 84.692655512886176 -250.32593494144385 0 0 0 0 -443.03593660241222 152.35951306188326 0 152.35951306188326 -84.700827644956007 0 0 0 0 -303.6290648113054 166.82351877744713 0 166.82351877744713 -109.39858665547945 0 0 0 0 -711.64163752464265 92.822222946484544 0 92.822222946484544 -96.961561906611678 0 0 0 0 -712.55066148218611 85.062588395709099 0 85.062588395709099 -120.63959214626084 0 0 0 0 -357.8090703271082 17.626940295171153 0 17.626940295171153 -261.06836071570433 0 0 0 0 -219.53708179210116 145.43356550771841 0 145.43356550771841 -247.39704889717211 0 0 0 0 -217.31840295969778 162.2290072134565 0 162.2290072134565 -180.26461209875401 0 0 0 0 -0.78541608283002029 1.3106677698597755 0 1.3106677698597755 -1.1905082505402014 0 0 0 0 -450.36450418201662 152.07918468134767 0 152.07918468134767 17.041643530092188 0 0 0 0 -304.13826904454095 50.630952670501301 0 50.630952670501301 71.731591096182456 0 0 0 0 -3.8190861676014265 -44.738101403293058 0 -44.738101403293058 -81.179186952657346 0 0 0 0 -40.896483974237299 -58.900646569575201 0 -58.900646569575201 -24.96419646222239 0 0 0 0 -0.81293422420167349 2.1806841360616263 0 2.1806841360616263 -3.0138615132811104 0 0 0 0 -4.4396513064906458 9.5147463977710913 0 9.5147463977710913 -1.7031458863120861 0 0 0 0 -232.65429878412169 21.257344717485012 0 21.257344717485012 63.153125128515512 0 0 0 0 34.786773249149633 208.76049135480253 0 208.76049135480253 -45.39918398042937 0 0 0 0 -0.58338597301479467 0.38649200144695772 0 0.38649200144695772 -0.5981833737718425 0 0 0 0 -315.53384968854402 60.3143944758217 0 60.3143944758217 68.603489890761921 0 0 0 0 -277.96327906342935 80.972622893034895 0 80.972622893034895 66.342522395877495 0 0 0 0 -295.32403649590253 83.601788373931242 0 83.601788373931242 24.303722699133687 0 0 0 0 -233.31186381010411 -28.229480484522355 0 -28.229480484522355 -31.406362006854465 0 0 0 0 -180.73089297793717 -88.463792669982922 0 -88.463792669982922 -37.93350861404997 0 0 0 0 -418.64608395841634 -132.30282104572325 0 -132.30282104572325 26.793881504974706 0 0 0 0 -206.52434959828406 -163.94224669373762 0 -163.94224669373762 -58.163023081860956 0 0 0 0 -167.66313859940692 -39.761942129609452 0 -39.761942129609452 22.085837402490142 0 0 0 0 -91.155858751112646 -91.890508247957769 0 -91.890508247957769 -54.226148736008099 0 0 0 0 -524.95559779443283 -252.73032330140586 0 -252.73032330140586 -44.891431003646176 0 0 0 0 -49.53943534944915 464.94404812627045 0 464.94404812627045 -144.25987079382594 0 0 0 0 -8.0264446563528011 2.3465125013694532 0 2.3465125013694532 -0.66772404258276907 0 0 0 0 -737.35798157189856 88.946899451321542 0 88.946899451321542 74.392281474161791 0 0 0 0 -268.58114230019805 337.44077164086502 0 337.44077164086502 -348.35291288145709 0 0 0 0 -134.47594484917431 48.020508491203145 0 48.020508491203145 93.121290185771613 0 0 0 0 -61.110391499805814 16.676499663696404 0 16.676499663696404 8.7624857181799598 0 0 0 0 260.85691134860781 -17.205175355774145 0 -17.205175355774145 -198.18464102380676 0 0 0 0 -0.19079216037370239 0.90578654082917365 0 0.90578654082917365 -1.7951007643708614 0 0 0 0 231.89979035468616 -87.23656018319366 0 -87.23656018319366 -290.33745047933917 0 0 0 0 39.839447662459861 -56.62361223190419 0 -56.62361223190419 -517.78395524206098 0 0 0 0 37.53929523921397 -83.512708951173408 0 -83.512708951173408 -135.05573671497586 0 0 0 0 -239.60311427104409 -254.1019154171172 0 -254.1019154171172 -137.46728848857128 0 0 0 0 16.548822973741835 -193.52049808591323 0 -193.52049808591323 -9.6555476944758993 0 0 0 0 49.479708707444843 24.676090838635901 0 24.676090838635901 167.57923906310771 0 0 0 0 -73.089329019913009 -36.161510751687047 0 -36.161510751687047 140.83016984135611 0 0 0 0 -15.856318323297524 -10.161015994652391 0 -10.161015994652391 -5.9049361992342986 0 0 0 0 -178.19051151926169 -15.87878749549327 0 -15.87878749549327 162.75316553222365 0 0 0 0 67.5792980058186 -263.71762776163655 0 -263.71762776163655 235.40823951777293 0 0 0 0 155.49888844958332 -76.879710003817308 0 -76.879710003817308 -174.52142120394365 0 0 0 0 164.57146876304796 -121.93860025570484 0 -121.93860025570484 11.650243914069506 0 0 0 0 206.84153798731813 -102.79625677901822 0 -102.79625677901822 31.70855081580703 0 0 0 0 -3.0844779961336863 1.1301144682974607 0 1.1301144682974607 3.070971776002053 0 0 0 0 -45.232572552808051 -45.470253554767623 0 -45.470253554767623 15.097303205331627 0 0 0 0 -13.322039056507492 -57.844857392379708 0 -57.844857392379708 -3.5632637822072866 0 0 0 0 -65.31373614358381 -37.119911100717218 0 -37.119911100717218 35.842753874718255 0 0 0 0 -39.055914293469868 15.083167583748036 0 15.083167583748036 39.297824626745978 0 0 0 0 -11.646531626262004 -14.554899030892557 0 -14.554899030892557 17.731856284482092 0 0 0 0 9.8067415872269521 -5.804692506272886 0 -5.804692506272886 20.624759499263746 0 0 0 0 -14.964526209659198 -24.451602953831753 0 -24.451602953831753 38.997538433524824 0 0 0 0 -7.5693275425401225 -28.868867903818682 0 -28.868867903818682 41.532706914455957 0 0 0 0 -190.67333526814321 -240.41897192649776 0 -240.41897192649776 388.13067985907219 0 0 0 0 -13.357337126170926 -6.7341136471520038 0 -6.7341136471520038 -2.837502353996511 0 0 0 0 -1.0595803864998743 -21.768245438727263 0 -21.768245438727263 15.713372835464725 0 0 0 0 97.293278219948263 74.013012137074156 0 74.013012137074156 54.993231024950546 0 0 0 0 -335.37438108226445 52.471296503445615 0 52.471296503445615 74.401960760024849 0 0 0 0 -453.20412949981755 78.511737061789518 0 78.511737061789518 183.75862820789416 0 0 0 0 -595.69405159994858 -136.84524345811019 0 -136.84524345811019 64.751830944464018 0 0 0 0 -602.50996452699189 274.49558062319147 0 274.49558062319147 -69.523554045526907 0 0 0 0 -323.10715263545501 25.988688345203173 0 25.988688345203173 79.875483374931719 0 0 0 0 51.986272831884321 16.69389307443214 0 16.69389307443214 -27.603866873150764 0 0 0 0 -21.160289780059429 -34.905812487790172 0 -34.905812487790172 -0.19662559702362614 0 0 0 0 -16.674007990415703 -28.01308780301224 0 -28.01308780301224 -16.510650276036358 0 0 0 0 -69.638231708542662 -72.177495250625725 0 -72.177495250625725 -48.166128128296805 0 0 0 0 7.6604297008216236 -6.7217084233689093 0 -6.7217084233689093 -129.57252313951267 0 0 0 0 -330.66816725645731 139.99119249553405 0 139.99119249553405 63.366864413997064 0 0 0 0 15.432833002529151 25.478218206750171 0 25.478218206750171 -12.564229418663444 0 0 0 0 -11.293958983102113 -9.5090816337347182 0 -9.5090816337347182 -8.0342382005860458 0 0 0 0 -2.8691372344201227 -26.018441633567818 0 -26.018441633567818 -1.8967209590289258 0 0 0 0 -47.869767454931207 -40.379376532700917 0 -40.379376532700917 89.43732285608985 0 0 0 0 2.5131261290609359 -23.330525926941391 0 -23.330525926941391 -1.6125225954619964 0 0 0 0 2.0597522354103148 -21.59084060884561 0 -21.59084060884561 -1.7631906208134751 0 0 0 0 0.53780061952556935 -18.345496801743138 0 -18.345496801743138 10.909602991446263 0 0 0 0 -2.0771916473815963 -30.003172822528541 0 -30.003172822528541 2.4802177341935021 0 0 0 0 4.3983650807952017 -27.619049644239567 0 -27.619049644239567 -8.7850766451492746 0 0 0 0 -0.24995392590371068 -17.065579254305362 0 -17.065579254305362 -3.3179475380438817 0 0 0 0 -7.4108065276533353 -22.662251328983984 0 -22.662251328983984 21.228772069167462 0 0 0 0 11.526795764105373 -27.31152093045057 0 -27.31152093045057 3.5621352690832282 0 0 0 0 6.7472901702383297 -33.943423721420913 0 -33.943423721420913 21.613132263953105 0 0 0 0 -64.983653692361258 -8.9702003911224892 0 -8.9702003911224892 55.797608569619115 0 0 0 0 143.15063838529045 -53.109726946716819 0 -53.109726946716819 -157.52866552499927 0 0 0 0 -60.954502200302159 16.611578790116255 0 16.611578790116255 95.420493791298213 0 0 0 0 -1.9360640904185207 -1.0091040891133893 0 -1.0091040891133893 -0.44983828630794687 0 0 0 0 -12.266811608500895 -9.5750117866981412 0 -9.5750117866981412 -7.0068034878680452 0 0 0 0 -85.629081243489509 -27.495827472817268 0 -27.495827472817268 20.265085459071997 0 0 0 0 19.201946640224833 -22.815089678846562 0 -22.815089678846562 24.011618378812273 0 0 0 0 30.899520129488508 -9.6108093907324701 0 -9.6108093907324701 29.324852601257589 0 0 0 0 18.980687485584895 -25.138337727126782 0 -25.138337727126782 31.164009178901324 0 0 0 0 26.78908146861022 -32.507537023682744 0 -32.507537023682744 19.569718756896691 0 0 0 0 26.967631484025333 -30.711517902638661 0 -30.711517902638661 11.823621641997306 0 0 0 0 25.508262918680884 -25.206909216451095 0 -25.206909216451095 4.9264040145972103 0 0 0 0 19.187946362682851 -22.24819763227606 0 -22.24819763227606 14.897200736639206 0 0 0 0 4.2614245081290392 -20.997959984359113 0 -20.997959984359113 6.7645985270939946 0 0 0 0 -2.7848341388916538 -5.7734070792644729 0 -5.7734070792644729 -8.6895918611571688 0 0 0 0 18.430991857621507 -12.280529562354332 0 -12.280529562354332 -6.7222510975489058 0 0 0 0 2.1362104496540724 -25.546561241079871 0 -25.546561241079871 -6.4593952291779715 0 0 0 0 -0.95052112587086413 2.3666545187297743 0 2.3666545187297743 -8.4168328838477464 0 0 0 0 -1.335819002244989 1.7827027257753798 0 1.7827027257753798 0.47671529499166354 0 0 0 0 46.878474558225662 -17.138055162167802 0 -17.138055162167802 -6.7195582937124527 0 0 0 0 15.731107650306967 -2.1807983467897429 0 -2.1807983467897429 11.775647361966548 0 0 0 0 26.967818491270464 76.906099327973607 0 76.906099327973607 -68.934737734820374 0 0 0 0 178.97266859100773 -48.424892780511072 0 -48.424892780511072 -108.72751605461326 0 0 0 0 171.43566951812682 23.003374514629286 0 23.003374514629286 -168.11436099440743 0 0 0 0 125.11036894483368 -102.08997788482793 0 -102.08997788482793 -8.9198823114356856 0 0 0 0 28.051808766894737 23.697494388092991 0 23.697494388092991 49.866904474786679 0 0 0 0 -10.826311634891681 -36.24139311050476 0 -36.24139311050476 78.947299562424632 0 0 0 0 59.606347814570654 -0.4524450465019072 0 -0.4524450465019072 7.4009958128281141 0 0 0 0 32.651096339996002 -34.733442874090542 0 -34.733442874090542 -9.0350390395960858 0 0 0 0 15.617917928860152 -23.277867412203705 0 -23.277867412203705 1.5652375437675801 0 0 0 0 17.422305013352343 -28.639897876819759 0 -28.639897876819759 17.242252769128754 0 0 0 0 -7.7685691822834997 -39.918933929910963 0 -39.918933929910963 25.120729961568031 0 0 0 0 -1.0535372570120671 -27.783127079027054 0 -27.783127079027054 46.400752859281056 0 0 0 0 -7.2707653307534201 -15.920669137110053 0 -15.920669137110053 54.050337387430773 0 0 0 0 0.17180679515877273 -22.135387922703558 0 -22.135387922703558 24.573429095894063 0 0 0 0 5.378447378612691 11.962403761914857 0 11.962403761914857 18.379254042936736 0 0 0 0 2.244510188116692 -3.0328309139886187 0 -3.0328309139886187 23.836043920566226 0 0 0 0 21.122735480390475 -11.666873963448779 0 -11.666873963448779 24.519732253126076 0 0 0 0 -23.603852495997671 -9.5144859284205268 0 -9.5144859284205268 44.802088150723648 0 0 0 0 -29.334327063940691 -2.4967069388708296 0 -2.4967069388708296 47.447128210522351 0 0 0 0 -8.5939756923380628 -13.256163878147163 0 -13.256163878147163 49.30924597686203 0 0 0 0 -64.802080358172134 -52.8696539122584 0 -52.8696539122584 108.88255061396467 0 0 0 0 -40.774442285330224 -2.402844097070556 0 -2.402844097070556 59.031845550951402 0 0 0 0 -88.329178563501955 36.923494854510864 0 36.923494854510864 24.304568924663272 0 0 0 0 -12.686150943295189 -7.9143833711184763 0 -7.9143833711184763 -4.3945841289227765 0 0 0 0 -3.5978648418808277 -3.8463003829990283 0 -3.8463003829990283 -3.1755854219980266 0 0 0 0 42.399144029888703 -32.609270049440966 0 -32.609270049440966 -42.670954091274325 0 0 0 0 56.207751980688272 -102.58001233782943 0 -102.58001233782943 90.265522130351656 0 0 0 0 -26.16204472694335 -145.68234796773777 0 -145.68234796773777 46.399150787996632 0 0 0 0 -123.69052840724726 -181.92230813124479 0 -181.92230813124479 -49.762593934702636 0 0 0 0 -2.0395075298001757 18.822506892062847 0 18.822506892062847 -75.440346353718269 0 0 0 0 -12.247246815953986 -133.56239760685094 0 -133.56239760685094 -122.77858346054063 0 0 0 0 66.726954720309237 91.290353364240531 0 91.290353364240531 13.574967398495573 0 0 0 0 -108.45570598333035 55.446500021951437 0 55.446500021951437 9.209493801001372 0 0 0 0 61.72547956912058 -127.03994103443983 0 -127.03994103443983 -33.659242338828335 0 0 0 0 -3.9229646905014306 64.277616470189514 0 64.277616470189514 -41.708331546642057 0 0 0 0 -55.571383538161626 -80.18598594022896 0 -80.18598594022896 -26.009502868349955 0 0 0 0 -1.9092552148846895 -0.001387792282347533 0 -0.001387792282347533 -0.013698272399925271 0 0 0 0 -29.264282587959315 92.591448383217084 0 92.591448383217084 81.795536189533777 0 0 0 0 -27.938125982294878 29.068083669485986 0 29.068083669485986 6.4292866357413914 0 0 0 0 86.157674330961527 -85.557821785250781 0 -85.557821785250781 88.455733022381992 0 0 0 0 17.266212622830608 -25.17010280524255 0 -25.17010280524255 10.170229055644086 0 0 0 0 -37.429611707213553 -37.244303012420914 0 -37.244303012420914 123.86957374232429 0 0 0 0 5.8356843675446726 -64.649973580244705 0 -64.649973580244705 110.86903293776777 0 0 0 0 -81.932743712358388 -84.685003000457527 0 -84.685003000457527 177.87030959116964 0 0 0 0 -54.460492558650003 -35.448712504846299 0 -35.448712504846299 183.88515009125877 0 0 0 0 17.460361727146221 -19.218236972903298 0 -19.218236972903298 4.4971574336395861 0 0 0 0 -5.803653925004884 0.36935827069377414 0 0.36935827069377414 0.51947649496725523 0 0 0 0 -25.674037453683013 -8.4100600185574876 0 -8.4100600185574876 26.636255369549531 0 0 0 0 -74.645675448564361 -8.5728941908373599 0 -8.5728941908373599 36.390592021475641 0 0 0 0 -11.336479070297173 6.0669123151742497 0 6.0669123151742497 34.18189197765696 0 0 0 0 -129.40934407548684 18.306204783651992 0 18.306204783651992 31.175723478607665 0 0 0 0 -31.048957398778839 -133.33248837054043 0 -133.33248837054043 222.84464487040213 0 0 0 0 -0.29881541473758233 -0.30076781402863606 0 -0.30076781402863606 0.020612986289766155 0 0 0 0 174.56934617795105 -230.14019064825357 0 -230.14019064825357 177.01287102361403 0 0 0 0 88.220931231767963 -79.369817247413948 0 -79.369817247413948 120.39884263573458 0 0 0 0 7.621890813662958 -55.668610526698899 0 -55.668610526698899 94.094495088241274 0 0 0 0 -7.4955375253239254 -90.930586849886822 0 -90.930586849886822 153.98302655027146 0 0 0 0 -1.0548209478627282 -0.64944066294797986 0 -0.64944066294797986 0.9158403252916365 0 0 0 0 57.437003417943288 -122.46836109125206 0 -122.46836109125206 146.93070562813205 0 0 0 0 47.998553925201122 -74.570188319010867 0 -74.570188319010867 97.562315214234786 0 0 0 0 -7.7507565131667207 -53.197353176573188 0 -53.197353176573188 96.787908439440798 0 0 0 0 -3.953587243910988 -77.519546998970782 0 -77.519546998970782 129.78680180908123 0 0 0 0 -25.37116968081591 -40.94772112482633 0 -40.94772112482633 118.36701242797881 0 0 0 0 -8.0090050720518775 -40.888437773197438 0 -40.888437773197438 84.650597627175557 0 0 0 0 -32.383987869922748 -17.774226242447639 0 -17.774226242447639 84.615579543422427 0 0 0 0 -16.775251598128307 -29.878216258494149 0 -29.878216258494149 82.112770979740162 0 0 0 0 -7.2509814069817367 -54.746637386295333 0 -54.746637386295333 94.249033556459835 0 0 0 0 -5.7474526637251984 -36.548519277906053 0 -36.548519277906053 63.976558109940015 0 0 0 0 -10.306244322419843 -37.649303848779255 0 -37.649303848779255 64.052899859728313 0 0 0 0 -5.3092226057430594 -30.896206997221043 0 -30.896206997221043 46.028638066505664 0 0 0 0 -13.687833577784659 -45.243520488682407 0 -45.243520488682407 86.003819195406322 0 0 0 0 -6.7464911992947236 -44.99009674463241 0 -44.99009674463241 62.493988311355679 0 0 0 0 -3.5238216771194857 -60.003270727878771 0 -60.003270727878771 90.91039961523893 0 0 0 0 -9.2116201651660958 -49.916752429531243 0 -49.916752429531243 84.711515728818995 0 0 0 0 -10.07433548093195 -60.407747583661603 0 -60.407747583661603 111.68415362628184 0 0 0 0 0.61374452019117598 -66.766529875574633 0 -66.766529875574633 111.50903441197204 0 0 0 0 -5.8320580591607722 -66.030850669466417 0 -66.030850669466417 103.28290230631319 0 0 0 0 -1.3625545060149307 -60.193644362890609 0 -60.193644362890609 120.00612642565193 0 0 0 0 -11.844992799023657 -56.674626003560206 0 -56.674626003560206 118.83702147414442 0 0 0 0 -2.0283271724315455 -51.360989119964614 0 -51.360989119964614 103.34790133388742 0 0 0 0 -1.826270079053927 -48.318964118036291 0 -48.318964118036291 135.32931090852071 0 0 0 0 9.9248638095741626 -39.656985002546207 0 -39.656985002546207 126.92739153357661 0 0 0 0 -13.32482354014428 -11.38733680375708 0 -11.38733680375708 3.8669547272088494 0 0 0 0 -5.4899146287727465 -2.2838121046377218 0 -2.2838121046377218 1.5103056393233039 0 0 0 0 -16.801244642520032 4.8605203758161224 0 4.8605203758161224 -3.4191642857840634 0 0 0 0 6.1677919307367119 -39.436416010282983 0 -39.436416010282983 128.20345895303944 0 0 0 0 -11.556797195261455 0.202614544547155 0 0.202614544547155 2.6688953972939213 0 0 0 0 -4.8541892311768606 0.046904611475838465 0 0.046904611475838465 41.207748298384104 0 0 0 0 -12.345490619327132 3.8906031722515557 0 3.8906031722515557 6.2435857458359179 0 0 0 0 -23.283384199243301 3.2207467359339716 0 3.2207467359339716 -27.637378123083636 0 0 0 0 -3.1139763682683768 0.97595845576684326 0 0.97595845576684326 0.98856511142382431 0 0 0 0 10.280517352479649 -56.966777261210197 0 -56.966777261210197 90.535671589962476 0 0 0 0 6.0419077470101001 -43.74714662058517 0 -43.74714662058517 95.91608120368528 0 0 0 0 5.993183957398287 -44.108892814424962 0 -44.108892814424962 108.55428302348537 0 0 0 0 10.517185547724694 -62.153510841952084 0 -62.153510841952084 110.48437923295205 0 0 0 0 3.3264946818944736 12.502004771804877 0 12.502004771804877 -61.885533890807892 0 0 0 0 -9.1266311404529006 6.7672176465282519 0 6.7672176465282519 4.0077062510781616 0 0 0 0 -9.1436388736525629 0.42122682739564432 0 0.42122682739564432 -0.10964043785564304 0 0 0 0 -145.69067685320078 -102.4741050664461 0 -102.4741050664461 -48.41307315279164 0 0 0 0 -3.2518317090494442 0.35288079327735389 0 0.35288079327735389 -0.18448752838446225 0 0 0 0 -81.395257931288597 -30.094276914606553 0 -30.094276914606553 -10.603292471955683 0 0 0 0 -10.383358007917195 14.486046637626941 0 14.486046637626941 -19.119672426710167 0 0 0 0 -214.6404533894256 -177.87905666328788 0 -177.87905666328788 167.15565561743483 0 0 0 0 -330.62605701730388 -355.37637150368221 0 -355.37637150368221 -104.46509328237698 0 0 0 0 -543.52122217134593 121.52159737591512 0 121.52159737591512 370.36645268634402 0 0 0 0 -5.5879242844270891 -2.1658783921851725 0 -2.1658783921851725 -0.863941860541523 0 0 0 0 -28.50910829032091 -100.11325879646347 0 -100.11325879646347 -311.41737103878904 0 0 0 0 -23.820264310360017 -144.34622065371559 0 -144.34622065371559 -139.56372884941084 0 0 0 0 1.9646728384564085 -11.398584522243482 0 -11.398584522243482 -58.574806437995903 0 0 0 0 -14.016397533119743 -15.561880281209596 0 -15.561880281209596 13.596119863037529 0 0 0 0 5.6599665577291489 -45.940159292201884 0 -45.940159292201884 38.801154683640561 0 0 0 0 5.2823606609728415 -40.479945861152402 0 -40.479945861152402 -32.327321221522652 0 0 0 0 -10.11082440130258 -35.726933915822883 0 -35.726933915822883 51.944630389587473 0 0 0 0 -6.1461709001205236 -34.172431935035092 0 -34.172431935035092 39.197829977014408 0 0 0 0 -0.80809621819571475 -34.936442024506505 0 -34.936442024506505 23.258384251329744 0 0 0 0 -7.9366584323033749 -44.612231075232557 0 -44.612231075232557 45.627332831300919 0 0 0 0 -6.2740214697469128 -48.44093654801145 0 -48.44093654801145 53.375122108355981 0 0 0 0 -9.8826750257194362 -53.268388523966678 0 -53.268388523966678 82.571378196557816 0 0 0 0 -21.880341286965631 -74.749608412167618 0 -74.749608412167618 68.790833629866938 0 0 0 0 -38.248434096001802 -77.469001868492342 0 -77.469001868492342 110.71828063783869 0 0 0 0 -16.849310225223235 -57.749054551334666 0 -57.749054551334666 85.144856723788507 0 0 0 0 -15.161788390708807 -50.772842252459213 0 -50.772842252459213 108.23347736385585 0 0 0 0 -27.891319492368893 -72.159816573243006 0 -72.159816573243006 91.12318776693246 0 0 0 0 -87.030835465729979 -117.34413967306864 0 -117.34413967306864 96.164080355922806 0 0 0 0 -17.335446796484575 -103.40052790781101 0 -103.40052790781101 38.776201092533483 0 0 0 0 -45.581368948016461 -57.905378975770418 0 -57.905378975770418 176.22378040654166 0 0 0 0 -54.204583558804188 -43.031914344211145 0 -43.031914344211145 179.12991165117501 0 0 0 0 -139.3095137372411 -64.456633222465371 0 -64.456633222465371 236.51242894553479 0 0 0 0 -141.65617837716752 -72.081125856556298 0 -72.081125856556298 257.54700078179576 0 0 0 0 -2.7969195884397777 -38.133102980308649 0 -38.133102980308649 147.95563103358108 0 0 0 0 -35.442061118087622 -67.883038477686569 0 -67.883038477686569 134.05817715554804 0 0 0 0 -16.263902658529787 -47.00715198868852 0 -47.00715198868852 152.64276374262045 0 0 0 0 -51.882488057407954 -37.689349313234288 0 -37.689349313234288 185.91483586469258 0 0 0 0 -2.0457556068904523 13.627513683133657 0 13.627513683133657 208.23651827521826 0 0 0 0 29.18498130827993 -14.612399071798791 0 -14.612399071798791 147.47880066784114 0 0 0 0 -85.147705782843786 -7.467330854933607 0 -7.467330854933607 283.19543089798753 0 0 0 0 -2.0304464404167319 -0.78341766829757908 0 -0.78341766829757908 0.24358515736279562 0 0 0 0 -11.647182614588928 -77.258366236333814 0 -77.258366236333814 -107.69197104920931 0 0 0 0 -31.069254593044207 -2.1155465920269307 0 -2.1155465920269307 11.821113048004463 0 0 0 0 -36.509170815660809 -12.26316409539595 0 -12.26316409539595 15.03578021706744 0 0 0 0 -146.02341552507914 -164.45612824086402 0 -164.45612824086402 132.06586657989641 0 0 0 0 -26.154086498357316 5.750948830585612 0 5.750948830585612 1.0627981232828034 0 0 0 0 21.817036319891486 88.238275208116647 0 88.238275208116647 23.877655051634974 0 0 0 0 -81.35819740857346 82.276271934370016 0 82.276271934370016 414.48887631432535 0 0 0 0 -31.99925713639368 9.4522981651382452 0 9.4522981651382452 7.9369794246372294 0 0 0 0 -125.72424288469892 -105.05387688856126 0 -105.05387688856126 226.68382290186764 0 0 0 0 -80.895111023480695 -57.933566043671362 0 -57.933566043671362 216.45300616585337 0 0 0 0 -79.170092550911704 -67.466594384250584 0 -67.466594384250584 235.61654697224185 0 0 0 0 -76.803744824385419 247.13288175669362 0 247.13288175669362 499.69302911977775 0 0 0 0 -22.020431530953829 -6.8638989942287481 0 -6.8638989942287481 -13.697255261900864 0 0 0 0 -32.694034940226629 6.9633506166662755 0 6.9633506166662755 12.489127362740419 0 0 0 0 -23.337194400522858 7.5383384939073785 0 7.5383384939073785 0.067723686647330084 0 0 0 0 -67.37195393215552 -27.158909658963694 0 -27.158909658963694 -53.644030488992371 0 0 0 0 -67.91247572480188 -41.429954585502742 0 -41.429954585502742 -57.253558861499187 0 0 0 0 -68.040961126855109 -33.411529218174564 0 -33.411529218174564 -68.223064859383157 0 0 0 0 -100.92209183447977 -31.317337474000517 0 -31.317337474000517 -54.586894654445132 0 0 0 0 -153.22793443925184 -18.44740977334186 0 -18.44740977334186 -45.524830015174302 0 0 0 0 -100.90615808916482 -30.228030480292546 0 -30.228030480292546 -56.852687602892729 0 0 0 0 -147.65276339795673 -48.309626066050441 0 -48.309626066050441 -55.178640025518234 0 0 0 0 -100.16094985387099 -42.480383512478738 0 -42.480383512478738 -60.584590458154707 0 0 0 0 -94.935259341582423 -24.73038325476864 0 -24.73038325476864 -58.845935394337289 0 0 0 0 -91.67257081183925 -33.813889432911992 0 -33.813889432911992 426.23994654267972 0 0 0 0 -35.806613340993884 13.129854477848355 0 13.129854477848355 -2.0900330824388202 0 0 0 0 -101.63248644400301 -40.69868559427232 0 -40.69868559427232 -62.240267842519643 0 0 0 0 -8.0690018964214403 -3.5295215194720093 0 -3.5295215194720093 4.2103197557257301 0 0 0 0 -21.794671294318846 7.0404777003983545 0 7.0404777003983545 0.41059620641730987 0 0 0 0 172.17116909634615 554.3187932636481 0 554.3187932636481 692.42315969102492 0 0 0 0 -11.281379677110635 92.543368126455334 0 92.543368126455334 327.51589922755602 0 0 0 0 20.907598680561023 317.3159213062404 0 317.3159213062404 560.80522260123507 0 0 0 0 97.982332504387159 171.0646727725416 0 171.0646727725416 159.0421124263512 0 0 0 0 237.94132409725535 356.96484842877862 0 356.96484842877862 328.97609375906086 0 0 0 0 132.03482210466063 26.122390725965033 0 26.122390725965033 374.77744124714582 0 0 0 0 99.980250139621148 32.334702881217936 0 32.334702881217936 -81.947258726961991 0 0 0 0 130.03779593746003 164.85185984154668 0 164.85185984154668 -6.0249616949034817 0 0 0 0 51.698286763327587 201.02612448882451 0 201.02612448882451 143.14005556725988 0 0 0 0 -48.87497940527328 136.9632408968323 0 136.9632408968323 -184.53938186436426 0 0 0 0 -270.20478457402805 -243.67263232010964 0 -243.67263232010964 -243.88240073816235 0 0 0 0 -158.98964830982368 31.722638274304245 0 31.722638274304245 -11.442644414178631 0 0 0 0 -85.346608750019186 219.07472419633223 0 219.07472419633223 227.99014862867034 0 0 0 0 23.904802984808157 73.205312196029809 0 73.205312196029809 88.872495629714649 0 0 0 0 121.60514133770448 343.40047010476428 0 343.40047010476428 80.53911248430677 0 0 0 0 -20.940530413414763 170.91601192438679 0 170.91601192438679 327.12224212357523 0 0 0 0 -23.678400326973843 7.1439768747940171 0 7.1439768747940171 -1.5197384533613887 0 0 0 0 -199.60100085617887 -188.04372466699078 0 -188.04372466699078 -185.14717472117309 0 0 0 0 55.412247485169246 313.54046768117712 0 313.54046768117712 409.27846325002929 0 0 0 0 30.5533752895617 316.70220878154669 0 316.70220878154669 408.94405328684661 0 0 0 0 -231.41240500039748 -79.180954623852585 0 -79.180954623852585 -18.024479054261064 0 0 0 0 -276.78739912557558 -138.60164348381272 0 -138.60164348381272 -41.825066339411933 0 0 0 0 -237.24010773802456 -82.915593174463993 0 -82.915593174463993 -12.780974555142166 0 0 0 0 -242.7607499120204 -86.681862977055061 0 -86.681862977055061 1.228937775046461 0 0 0 0 -77.730296248675586 -38.495997628059968 0 -38.495997628059968 -86.786616688517825 0 0 0 0 -118.11158932326725 -89.742977017944213 0 -89.742977017944213 -112.66619136842019 0 0 0 0 -215.16968663544685 -118.77515011305422 0 -118.77515011305422 -69.462142305804264 0 0 0 0 -154.22070538761182 -70.460282338282241 0 -70.460282338282241 -38.450555124587481 0 0 0 0 -149.8710201114518 -72.134618997298276 0 -72.134618997298276 -82.021715651017075 0 0 0 0 -161.72014468859561 -39.464851517960597 0 -39.464851517960597 -34.294965612996748 0 0 0 0 -213.12960177619061 -53.16689224962056 0 -53.16689224962056 -10.646958441710012 0 0 0 0 -196.05454571445443 -73.701830296787193 0 -73.701830296787193 -38.670086864389077 0 0 0 0 -220.66806590943406 -52.854662478356886 0 -52.854662478356886 -10.557989008460936 0 0 0 0 -164.30766748860333 -38.705463004930607 0 -38.705463004930607 -34.127955154159281 0 0 0 0 -230.14883447783268 -59.906840309373138 0 -59.906840309373138 8.7516024885571824 0 0 0 0 -227.45251275165356 -67.550202328357955 0 -67.550202328357955 -10.829908991808452 0 0 0 0 -233.04921854432905 -65.808871615043699 0 -65.808871615043699 2.7088758637437422 0 0 0 0 -244.48275813049804 -59.578253048305214 0 -59.578253048305214 2.5450159557058214 0 0 0 0 -226.81973195835235 -59.564788581235916 0 -59.564788581235916 1.8886586450867071 0 0 0 0 -212.27386931238743 -47.311420481103369 0 -47.311420481103369 6.5465195081869751 0 0 0 0 1.1214414534233725 10.856601564129111 0 10.856601564129111 -6.5072263502630925 0 0 0 0 -152.34694429035017 -0.66874026980326562 0 -0.66874026980326562 -6.847690364454138 0 0 0 0 -212.25820211348082 -13.313437668638471 0 -13.313437668638471 44.341793033706381 0 0 0 0 -194.06853962602509 -124.57823679663611 0 -124.57823679663611 133.73025669666367 0 0 0 0 -228.37524744072289 8.7145971019153592 0 8.7145971019153592 49.521937885384887 0 0 0 0 -422.7586113411744 176.35004302507627 0 176.35004302507627 34.220430761225543 0 0 0 0 -557.7611576156778 -63.658410282883324 0 -63.658410282883324 229.69604572453795 0 0 0 0 -585.65117174104671 331.63069882776745 0 331.63069882776745 -516.71032699047646 0 0 0 0 71.065728138975828 173.12315113093928 0 173.12315113093928 97.240960536419152 0 0 0 0 -46.852643509407272 44.077645784527441 0 44.077645784527441 11.743759101181297 0 0 0 0 -19.351814971116173 0.3974893367948944 0 0.3974893367948944 3.79066605419127 0 0 0 0 -106.52736749234646 220.67326131230266 0 220.67326131230266 252.19209547823266 0 0 0 0 -81.194081442024981 63.134387724112912 0 63.134387724112912 114.44595073496384 0 0 0 0 -357.68158539192518 -107.97731382743132 0 -107.97731382743132 69.590158888691803 0 0 0 0 -259.86352521673325 -49.574842545979664 0 -49.574842545979664 45.314476727514773 0 0 0 0 -5.9734735065940185 65.108761249084409 0 65.108761249084409 14.321661437171997 0 0 0 0 -1.1075196776544658 3.6550679133270081 0 3.6550679133270081 1.5599707526830693 0 0 0 0 -0.029966163801475432 -0.60873796052295281 0 -0.60873796052295281 -0.2189831531637253 0 0 0 0 7.0582026989886799 26.144744682374238 0 26.144744682374238 -61.872694829840839 0 0 0 0 -137.11576150249311 131.00092415225231 0 131.00092415225231 -136.91625297391988 0 0 0 0 -249.59530438498768 53.790110630406161 0 53.790110630406161 115.77748168344533 0 0 0 0 -4.3665877574491816 0.71909208017625303 0 0.71909208017625303 0.0086275444007766211 0 0 0 0 -7.5115917303992319 -1.1719391735143745 0 -1.1719391735143745 19.972018586465538 0 0 0 0 -48.730403382651275 -466.42888303623602 0 -466.42888303623602 -120.91875333161852 0 0 0 0 -143.61479566110938 165.68415225748606 0 165.68415225748606 -173.74725125529426 0 0 0 0 -17.495704472334182 10.283066610725655 0 10.283066610725655 4.724286409761163 0 0 0 0 -19.26103690740274 8.1885773166747526 0 8.1885773166747526 15.6586849932321 0 0 0 0 -1.1960631274778279 2.5190345068531315 0 2.5190345068531315 2.4765338239330958 0 0 0 0 -3.4165353582793614 7.1029983512646595 0 7.1029983512646595 5.2175711740055704 0 0 0 0 -11.264218569248584 4.2147347068517362 0 4.2147347068517362 -1.1582722173438378 0 0 0 0 -125.54496108450257 -48.907495482323156 0 -48.907495482323156 -33.88195183682268 0 0 0 0 -9.1899083376702038 2.2051514483191568 0 2.2051514483191568 5.0047845374579083 0 0 0 0 -52.824519063171223 36.78550571412724 0 36.78550571412724 13.357889830107544 0 0 0 0 -143.93951230288803 -30.636431837260176 0 -30.636431837260176 -8.8011818106097053 0 0 0 0 -125.17381370051589 1.4095513153233128 0 1.4095513153233128 -103.12279084276842 0 0 0 0 -84.523592068944708 -3.5421078715505701 0 -3.5421078715505701 -12.007251116471934 0 0 0 0 230.14653819655723 59.276076565579388 0 59.276076565579388 -219.06203772193294 0 0 0 0 236.07186010726764 155.59700330845044 0 155.59700330845044 -21.695073288408821 0 0 0 0 -50.199838814501739 28.182599526986969 0 28.182599526986969 19.371145755749119 0 0 0 0 -84.335213609636412 -52.126307297939775 0 -52.126307297939775 -43.653971329711567 0 0 0 0 -4.5307911876337386 3.0636585380479033 0 3.0636585380479033 -1.7114913853361635 0 0 0 0 -120.94666162585054 -33.100812400161885 0 -33.100812400161885 -13.258378762672919 0 0 0 0 -22.446414828591514 23.952469907183513 0 23.952469907183513 20.713099855682231 0 0 0 0 -51.649994769669263 -13.508454832127363 0 -13.508454832127363 4.992190626743648 0 0 0 0 -171.88544628871023 -85.150103840516749 0 -85.150103840516749 -30.863484534518648 0 0 0 0 -578.68957280266477 -575.88683629383013 0 -575.88683629383013 -435.02432929036581 0 0 0 0 -246.77791904316837 -112.20621371426978 0 -112.20621371426978 -67.757615564636581 0 0 0 0 -769.81695265083181 85.903215296449162 0 85.903215296449162 222.56261862138581 0 0 0 0 -166.6352665690647 -118.83142560755232 0 -118.83142560755232 77.925918427560191 0 0 0 0 225.9423781673031 444.90602914982219 0 444.90602914982219 -140.43511564608343 0 0 0 0 -133.66932126342363 214.63840310188107 0 214.63840310188107 -753.40898588679738 0 0 0 0 -76.934390764174168 -11.00678475185714 0 -11.00678475185714 138.2663194367849 0 0 0 0 -7.8782790461861723 2.8062092930192346 0 2.8062092930192346 -1.2767243837350959 0 0 0 0 -266.22859233220697 274.70004576027122 0 274.70004576027122 87.845358379773643 0 0 0 0 -570.29366217619827 52.560427524748775 0 52.560427524748775 124.68927846741281 0 0 0 0 -232.88610763194811 94.999679157838727 0 94.999679157838727 127.7456676184047 0 0 0 0 -455.70321751427218 -274.58113578096209 0 -274.58113578096209 -16.343840065329459 0 0 0 0 -152.06267122353529 -97.247648879428198 0 -97.247648879428198 27.901792328666488 0 0 0 0 -100.34705017446868 -35.55620458260546 0 -35.55620458260546 79.673115539497303 0 0 0 0 -275.68226494103192 -79.527879714511869 0 -79.527879714511869 73.094954783191497 0 0 0 0 -113.9824004506263 61.095201663150874 0 61.095201663150874 53.702396316305567 0 0 0 0 -113.38255825871056 85.849568412139888 0 85.849568412139888 71.832929396155123 0 0 0 0 -30.637282062343729 -12.831760353750724 0 -12.831760353750724 20.701087316290796 0 0 0 0 -25.001400632951068 -0.16464790721641975 0 -0.16464790721641975 18.014994455916391 0 0 0 0 -19.986084797147285 12.581176688559498 0 12.581176688559498 15.538545540813875 0 0 0 0 -140.47882092497684 -142.96834002351716 0 -142.96834002351716 30.796615368853963 0 0 0 0 62.89937497509527 -94.390284367330423 0 -94.390284367330423 -4.4343420741806767 0 0 0 0 21.122443504322291 54.681191338811914 0 54.681191338811914 4.6970821098730084 0 0 0 0 197.27320012854761 -59.776040736047435 0 -59.776040736047435 35.824981970427871 0 0 0 0 65.288248068343819 -10.3764237982341 0 -10.3764237982341 60.497027906225412 0 0 0 0 13.546253056647402 -165.27531029153761 0 -165.27531029153761 -125.07084844961446 0 0 0 0 -23.879065846456797 -67.391548523585698 0 -67.391548523585698 9.4944311518520408 0 0 0 0 -101.10834912021528 -51.445845538371941 0 -51.445845538371941 42.215328145201056 0 0 0 0 -39.229390823891663 -66.757445144065969 0 -66.757445144065969 9.9243508796771494 0 0 0 0 -30.838548147930851 -21.010875797886911 0 -21.010875797886911 29.935490967406167 0 0 0 0 -47.006469157576149 -17.459281270452202 0 -17.459281270452202 17.640691443935786 0 0 0 0 -98.942906814408445 -27.665205254189061 0 -27.665205254189061 38.395418676996997 0 0 0 0 -42.786181425002724 -30.700756219035611 0 -30.700756219035611 27.272895647439327 0 0 0 0 -52.277839696635056 -24.175427126076102 0 -24.175427126076102 29.265242578732796 0 0 0 0 -63.706924043426625 -34.118280508263524 0 -34.118280508263524 49.350168083454264 0 0 0 0 -84.502137673993275 -23.44298275872552 0 -23.44298275872552 50.222362816171881 0 0 0 0 -42.480325347133295 -12.164763319535474 0 -12.164763319535474 12.386542576522057 0 0 0 0 -6.4822305466093253 -5.4155154588006553 0 -5.4155154588006553 2.2983833547949573 0 0 0 0 -65.877568993977548 -2.8235172299473561 0 -2.8235172299473561 31.045327691797979 0 0 0 0 -65.96855272839889 -3.2254403851516145 0 -3.2254403851516145 56.923026452135673 0 0 0 0 280.81993517792853 260.61651140395497 0 260.61651140395497 561.19653711364663 0 0 0 0 -10.672753439953155 2.4044073307343652 0 2.4044073307343652 5.4400065226612 0 0 0 0 -29.085767370948759 -47.870815279927115 0 -47.870815279927115 3.890423793393893 0 0 0 0 -34.335600801661485 -24.513694068266432 0 -24.513694068266432 15.643210953900052 0 0 0 0 -59.518933030736662 56.281723448293747 0 56.281723448293747 89.096103662750465 0 0 0 0 -58.425741384510729 31.242145053404784 0 31.242145053404784 69.728548622554626 0 0 0 0 -123.44947268534759 -17.490288503247484 0 -17.490288503247484 65.868011760530862 0 0 0 0 -77.748483074901742 -7.4588292979260586 0 -7.4588292979260586 68.067080709822676 0 0 0 0 -66.627959265037134 -6.8010065030330225 0 -6.8010065030330225 62.001481718212744 0 0 0 0 -74.97928434791811 -2.3886081489354183 0 -2.3886081489354183 70.083876944108852 0 0 0 0 -189.00577744537441 327.85978486008617 0 327.85978486008617 383.60117475024163 0 0 0 0 -253.6182327994984 260.20163297296403 0 260.20163297296403 570.98217842130771 0 0 0 0 -54.495468294399998 13.52844400590001 0 13.52844400590001 0.22272837437278703 0 0 0 0 -40.986142378628912 10.538747100444709 0 10.538747100444709 -2.4866774897984598 0 0 0 0 -303.82205055125996 -43.362689851266623 0 -43.362689851266623 452.86825522199706 0 0 0 0 -351.66144697442996 -404.021551941908 0 -404.021551941908 127.92042183218746 0 0 0 0 -21.102687010658201 -13.32738414121286 0 -13.32738414121286 -90.88176296616848 0 0 0 0 -61.946645589737301 -70.965268311482077 0 -70.965268311482077 -4.1045365479676548 0 0 0 0 -13.869436170319659 67.528041777665294 0 67.528041777665294 -2.5428734768520371 0 0 0 0 -24.236348270087202 5.2434876405948874 0 5.2434876405948874 -1.3266116104956378 0 0 0 0 -56.369317834055181 -285.11595974111879 0 -285.11595974111879 -156.91932389634803 0 0 0 0 -10.019996320902465 67.641884876617496 0 67.641884876617496 -16.918720448105887 0 0 0 0 -14.7738464339646 1.4822020347067948 0 1.4822020347067948 0.89906519234479276 0 0 0 0 -185.05503400139378 -314.34690434763661 0 -314.34690434763661 176.34730956701787 0 0 0 0 -200.37434035304113 -97.469149006354201 0 -97.469149006354201 292.44332992615364 0 0 0 0 -78.881111525735378 31.479188573765896 0 31.479188573765896 135.16408361685308 0 0 0 0 -17.521708698182348 3.650211818064907 0 3.650211818064907 0.080383553376284667 0 0 0 0 -38.071893123530572 -1.3866736168956777 0 -1.3866736168956777 -35.882964897327838 0 0 0 0 -683.23099508853147 41.754852451328588 0 41.754852451328588 664.81641239660939 0 0 0 0 283.62333408249606 135.00351467369956 0 135.00351467369956 -648.03334902665483 0 0 0 0 156.4860101171912 -164.3657381487526 0 -164.3657381487526 -546.62944295216494 0 0 0 0 -7.2694534032007683 1.9777338262343065 0 1.9777338262343065 -1.1136251492518614 0 0 0 0 -56.014443547957853 138.36734648460697 0 138.36734648460697 -285.3692533641738 0 0 0 0 -144.14138864016104 83.369971448991464 0 83.369971448991464 -86.610735117785225 0 0 0 0 -210.0441659361577 189.19248370953983 0 189.19248370953983 -178.63450672555791 0 0 0 0 -369.97640222487098 -118.20489476696957 0 -118.20489476696957 -297.22061796537446 0 0 0 0 -421.3876023519407 -7.6515278089472076 0 -7.6515278089472076 -49.728980504338324 0 0 0 0 19.595050112959143 132.58622253776275 0 132.58622253776275 -118.92486640781954 0 0 0 0 -79.285644051725285 -1.8414027920821354 0 -1.8414027920821354 -95.547922861431289 0 0 0 0 -51.885058759719868 149.68631253657804 0 149.68631253657804 -41.893423546061967 0 0 0 0 -27.322173942702648 115.9149276061944 0 115.9149276061944 3.6495096574255967 0 0 0 0 39.18608469949686 102.50585489340847 0 102.50585489340847 -72.798520810565606 0 0 0 0 47.085537308439598 203.01485425072042 0 203.01485425072042 29.1991413307519 0 0 0 0 48.611953480412836 144.43930048679823 0 144.43930048679823 -96.298887596829445 0 0 0 0 43.014743282357813 214.84959322563873 0 214.84959322563873 -12.398586785359839 0 0 0 0 -95.103695931107723 158.03303867123134 0 158.03303867123134 -28.978692914428393 0 0 0 0 -8.1487295062361227 96.855689147484554 0 96.855689147484554 8.892447194532906 0 0 0 0 20.631919708675923 64.32323001617533 0 64.32323001617533 -31.020684759211235 0 0 0 0 4.6769549277705664 93.929859704629507 0 93.929859704629507 -82.485642140140953 0 0 0 0 22.035354651379294 50.532693144562472 0 50.532693144562472 -224.69030937913885 0 0 0 0 
</DataArray>
<DataArray type="Float64" Name="cross_section_updated" format="ascii">
1 1 0.010119954565291456 1 1 1 1 1 1 1 1 1 0.010187959018831532 1 1 1 1 1 0.0097128324445878329 1 1 1 1 1 1 1 1 1 1 1 1 1 0.0097125815584016527 1 1 1 1 0.0093349519987846845 1 1 1 0.0093339175231243639 1 1 1 1 1 1 1 1 1 1 1 1 1 1 1 1 1 1 1 1 1 1 1 1 0.0098312500587175982 1 1 1 1 1 0.0095746914483972809 1 1 1 0.0098761413824093019 0.010003779248935158 1 1 1 1 1 1 1 1 1 1 1 1 0.009267310709306106 1 1 0.0095516484972525215 1 1 1 1 1 1 1 1 1 1 1 1 1 1 1 1 1 1 1 0.0092346822105211415 1 1 0.010068009920058362 1 1 1 1 1 1 1 1 1 1 0.010851752687011192 1 1 1 1 1 0.009958471154324057 1 1 1 1 0.0068836235504412153 1 0.0099399792483005206 1 1 1 1 0.0099702966570046469 1 1 1 1 1 1 1 1 1 1 1 1 1 1 0.010133728155448064 1 1 1 1 0.0066524453825733496 1 1 1 1 1 1 1 1 0.010027785486694566 1 1 1 1 1 1 1 1 0.0065951819618594257 0.0067150936767193525 1 1 1 1 1 0.0068295933119733986 0.0071190483951648568 1 1 1 1 1 1 1 1 0.0099650677823620928 1 1 0.010013327940292563 1 0.0098257845671123074 1 0.0099999916033583491 1 1 1 1 1 1 1 0.0098948508622594029 1 1 1 1 1 1 1 1 1 1 1 0.007767823435344991 1 1 1 1 0.0094081118792018244 0.011422575120364157 1 1 1 1 0.0080936106867860753 1 1 1 0.010724210733807304 1 1 1 1 1 1 1 1 1 0.0097976946731878657 1 1 1 1 1 1 1 1 1 1 1 1 1 1 1 1 1 1 1 1 1 1 1 1 1 0.0099942699201795437 1 1 1 1 1 1 1 1 1 1 1 1 1 1 1 1 1 1 1 1 1 1 1 1 1 0.0096961953992315657 1 1 1 1 1 1 0.0099718362458651351 1 1 1 1 1 1 1 0.009266691670036532 0.0099683723489746544 1 1 1 1 1 1 1 1 1 0.0097060348396750158 1 1 1 1 0.0094337820587025896 1 1 1 1 0.009833088924536498 1 1 1 1 1 1 1 1 0.0096355375400731021 1 1 1 1 0.010041936547066581 1 1 1 1 1 1 1 1 1 1 0.0097212320787720737 1 0.0089383439095531893 1 1 1 1 1 1 1 1 1 1 0.0099937977349037702 1 0.0083128551051569414 1 1 1 1 1 1 1 1 1 1 1 0.010108906848598314 1 1 1 1 1 1 1 1 0.0085118354894132137 1 1 1 1 0.010121636344059865 1 1 1 1 1 1 1 1 0.010221451528619521 1 1 1 1 1 1 1 1 1 1 1 1 1 1 1 1 1 1 1 1 1 0.010029207051605035 1 1 1 1 1 1 1 1 1 0.010667131211933882 1 1 1 1 1 1 1 1 1 1 1 1 1 1 1 1 1 1 1 1 1 1 1 1 1 1 1 1 1 1 1 1 0.011029276152376409 1 1 1 1 1 1 1 1 1 1 1 1 1 1 1 0.010546154704609258 1 0.011302184046721621 1 1 1 1 0.0090220908093859575 1 1 1 1 1 0.0099935651625131117 1 1 1 1 1 1 1 1 1 1 1 1 0.009033790729141072 1 1 1 1 1 1 1 1 1 1 1 1 1 1 1 1 1 1 1 1 1 1 1 1 1 1 1 1 1 1 1 1 1 1 1 1 1 1 1 1 1 0.0091094007075354835 1 1 0.0092350415872046974 1 1 1 1 1 1 0.0082470662605457438 1 1 1 1 1 1 0.0092360874348401973 1 1 1 1 1 1 1 1 1 1 0.01002606019767752 1 1 1 1 1 1 1 1 1 1 1 1 1 0.0093494051501523227 1 1 1 1 1 0.010229622777029566 1 1 1 1 1 1 1 1 1 0.010990325517448916 0.008175858256154302 1 1 1 1 1 0.011076232439797412 1 1 1 1 1 1 1 1 1 1 1 1 1 1 1 1 1 1 1 1 1 1 1 1 1 1 1 1 1 1 1 1 1 1 1 1 1 0.0097815533280377551 1 0.010085294418612372 1 1 1 1 1 1 1 1 1 1 1 1 1 1 1 1 1 1 1 0.0098562646221352131 1 1 0.0098487834685882999 1 1 1 1 1 1 0.010331728404066251 1 0.0075333994167083897 1 1 1 0.0089423304559088663 1 1 0.010070174935630154 0.0090443866391466832 1 0.010462934046349784 1 1 1 1 1 1 0.0089426559347622388 1 1 1 1 1 0.007784630943867334 0.0099597471356030979 0.0098684463704576241 1 1 1 1 0.006952905324479966 1 1 1 1 1 1 0.010768555326486927 1 1 1 1 1 1 0.0066491589996408168 1 0.0075847497047137873 0.0051246325384209663 1 1 0.0033066193113952067 1 0.0091183671158145893 1 1 1 1 1 1 1 1 1 1 1 1 1 1 1 1 1 0.0097888432931148434 1 1 1 0.009396445790948664 1 1 1 1 1 0.0091631692809126149 1 1 1 1 1 1 0.0097475229429405622 1 1 1 0.0092996201218035063 1 1 1 1 1 1 1 1 1 1 1 1 1 1 1 1 0.0098796668548299695 1 1 0.0074238615231474233 1 1 1 1 1 1 1 1 0.01000159817858004 1 1 1 1 1 1 1 1 1 1 1 1 1 1 1 1 1 0.006500955733519 1 1 1 1 1 1 0.0063870743661417519 1 1 1 0.01000520887334571 1 0.006365953199179741 1 0.0083821559909015072 1 0.0087500956150492991 1 1 0.0098143432931066584 1 1 1 1 1 1 1 1 1 1 1 1 0.0093907078155116147 1 1 1 1 1 1 1 1 1 1 1 1 1 1 1 1 1 1 1 1 1 1 1 1 1 1 1 1 1 1 1 1 1 0.0092653594415879198 1 1 1 1 1 0.0097754179868055954 0.0080460541002155411 1 0.01001262944465622 1 1 1 1 1 1 1 0.0083372068717420256 1 1 1 1 1 1 1 1 1 1 1 0.0093008454047283813 1 0.0093838489316191813 1 1 0.00976187038102019 1 1 1 0.0098819270009939016 1 1 1 0.0096207820928556134 1 1 1 0.0091904697068592653 0.0096349029237804713 1 1 1 1 1 1 1 1 1 1 1 1 1 1 1 1 1 1 1 1 1 1 1 1 1 1 1 1 1 1 1 1 1 1 1 1 1 1 1 1 1 1 1 1 1 1 1 1 1 1 1 1 1 1 1 1 1 1 1 1 1 1 1 1 1 1 1 1 1 1 1 1 1 1 1 1 1 1 1 1 1 1 1 1 1 1 1 1 1 1 1 1 1 1 1 1 1 1 1 1 1 1 1 1 1 1 1 1 1 1 1 1 1 1 1 1 1 1 1 1 1 1 1 1 1 1 1 1 1 1 1 1 1 1 1 1 1 1 1 1 1 1 1 1 1 1 1 0.0099200343768101225 0.0099854008578326141 1 1 1 1 1 1 1 1 1 1 1 1 1 1 1 1 1 1 1 1 1 1 1 1 1 1 1 1 1 1 1 1 1 1 1 1 1 1 1 1 1 1 1.7982654712967588e-08 1 1 0.00063674914678300658 1 1 1 1 1 1 1 1 1 1 1 0.0085060915767731816 1 1 -9.7698000139142399e-09 1 1 -1.0221373377902743e-08 1 1 1 1 1 1 1 1 1 1 1 1 1 1 1 0.0091232889074557323 1 1 1 1 1 0.0092560152252544395 0.012972752891468887 1 1 1 1 1 1 1 1 1 1 1 1 1 1 1 1 1 1 1 0.0075662774402568585 1 0.012236066255471488 1 1 0.010040675664485047 1 0.011709126910834483 1 1 1 0.0077291767090566094 1 1 1 1 1 1 0.010574307722186658 1 1 1 1 0.010037349553204195 1 1 1 1 1 1 1 1 1 1 0.0016177095029793198 1 1 1 1 1 1 1 1 1 1 1 1 1 0.009226958593016062 1 1 1 1 0.00043264348298632978 0.0097386264584466472 1 1 1 0.0073118570598070774 1 0.0093889305706479475 1 1 0.0098047805173871599 1 1 1 1 0.0097966893577720975 0.0079284964294906342 1 1 1 1 1 0.010327466431087833 1 1 1 1 1 1 1 1 1 1 0.0085821919900382071 1 1 1 1 1 1 1 1 1 1 1 1 1 1 1 1 0.0074092613390678002 1 0.0059499148469804169 1 0.010857970300564632 1 1 0.0061633925247724913 0.007794949269064785 1 1 1 1 1 1 1 0.0099614676185541193 1 0.009970097378181773 1 1 1 1 1 1 1 1 1 1 1 1 1 1 1 1 1 1 1 1 1 1 1 1 1 1 1 1 1 1 0.0096212891472426988 1 1 1 1 1 1 1 1 1 1 1 1 1 1 0.0078036455787171347 1 1 1 1 1 1 1 1 1 1 1 0.0090631738895408064 1 1 1 1 1 1 1 1 1 1 1 1 1 1 1 0.010474705417636778 1 1 1 1 1 1 1 1 1 0.0078699120836361325 1 0.0097533588041543978 1 1 1 1 0.0093092876104200299 1 1 0.0091681676973625892 1 1 1 1 1 1 1 0.0098399596317095463 0.010054046133402005 1 1 1 1 1 1 1 1 0.0097111509025380599 1 1 0.0079343954659080954 1 1 1 1 1 1 1 1 1 1 0.0077618593863519681 1 1 0.0090699265193690259 1 1 0.0099994959577840107 1 1 1 0.0090247712564809797 0.010229775115570454 1 1 1 1 1 1 1 1 1 1 1 0.0093144156793032156 1 1 1 1 1 1 1 1 1 1 1 1 1 1 1 1 1 1 1 1 1 1 1 1 1 0.0099591335866390449 1 1 1 1 1 1 1 1 0.0055787160468510292 1 1 1 1 1 0.0037877616099044392 1 1 1 1 1 1 0.0023145645426769779 1 1 1 1 1 1 1 1 1 1 1 1 1 1 1 1 1 1 1 1 1 1 1 1 1 1 0.0097268181167553553 1 1 1 1 1 0.0096036850184900106 1 1 1 1 1 1 1 1 1 1 1 1 1 1 1 1 1 1 1 1 1 1 1 1 0.0013180851284493014 1 1 0.00998953562694848 1 1 1 0.0057247464178336619 1 0.0089561316586545536 1 1 1 0.011724040067357533 1 0.0099650521148562186 1 1 1 1 1 0.0094851320396897795 0.0013982987878882339 1 1 1 1 1 0.0086790808715870287 0.0019689956148840893 0.006877727947477718 1 0.0076485314193645154 1 1 1 1 1 1 1 1 1 1 1 1 1 1 1 1 1 0.010008746975380527 1 0.0019109077914408641 1 1 1 1 0.013362143394518449 0.011362268861984066 0.0092827877974839632 1 1 1 1 1 1 1 1 1 1 1 1 1 1 1 1 1 1 1 0.009316623098728426 1 1 1 1 1 0.012521560033812414 1 1 1 1 0.010041721641219569 1 1 1 1 1 1 1 1 1 1 1 1 1 1 1 1 1 1 1 0.0082307980223007594 1 0.0074716460388203967 1 1 1 1 1 1 1 1 0.0094638117644545924 0.0095881872022229916 1 1 1 0.0092844250079238359 1 1 1 1 1 1 1 1 1 0.010519766860611858 1 1 1 1 1 1 1 1 1 1 1 1 1 1 1 1 1 0.011299502538633752 1 1 1 1 1 0.010411541885588391 1 1 0.0096681607841868668 1 1 1 1 1 1 1 1 1 1 1 1 1 1 1 0.0080568332212221927 1 1 0.0075594368918623089 1 1 1 0.0013034873535604421 1 1 1 1 0.016436119685662887 1 1 1 1 1 1 0.016997788230076954 1 1 0.009737877290028946 1 1 1 1 1 1 1 1 1 1 1 1 1 1 1 1 1 1 1 1 1 1 1 1 1 1 0.0029125023085894678 1 1 0.0014493056643351447 1 1 1 1 1 1 1 1 1 1 1 1 1 1 1 1 1 1 1 1 1 1 1 1 1 1 1 1 1 0.0099955991308482289 1 1 1 1 1 1 1 0.0015286755468101355 1 1 1 1 1 1 1 0.0003944212642642813 1 1 1 1 1 1 1 1 1 1 1 1 1 1 1 1 1 1 1 1 1 1 1 1 1 1 1 1 1 1 1 1 1 0.010321983021043018 1 1 1 1 0.010097565802937298 1 1 0.009434710970695221 0.0098767127513444339 1 1 1 1 1 1 0.010051335252271953 1 1 1 1 1 1 1 1 1 1 1 1 1 1 1 1 1 1 1 1 1 1 1 1 1 0.010160200929747341 1 1 1 1 1 1 1 1 1 1 1 1 1 1 1 1 1 1 1 1 1 1 1 1 1 1 1 1 1 1 1 1 1 1 1 1 1 1 1 1 1 1 1 1 1 1 1 1 1 1 1 1 1 1 1 1 1 1 1 1 1 1 1 1 1 1 1 1 1 1 1 1 1 1 1 1 1 1 1 1 1 1 1 1 1 1 1 1 1 1 1 1 1 1 0.0099541738741750693 1 1 1 1 1 1 1 1 1 1 1 0.0097355982436956746 1 1 0.0050301695363839157 1 1 0.010091675781871574 1 1 1 1 1 1 1 1 1 1 0.0083069698466021018 1 1 1 1 1 3.4946878446628915e-09 1 1 0.0098202357587832342 1 1 1 1 1 1 0.010119902632925278 1 1 1 1 1 1 1 0.0082071227978898521 1 1 1 1 0.005776980990718771 0.0074487026969806162 1 1 1 0.010320668932601203 1 1 1 1 1 1 1 0.0061675227795641701 1 2.1514979103853804e-09 1 0.010426795040216572 1 0.0067443916403727901 1 0.010000034691088995 1 1 0.00083766644900579515 1 0.0097705711644281469 1 1 1 1 1 0.010139227863207973 1 1 1 1 1 1 1 1 1 1 1 0.0096299910479731975 1 1 1 1 1 0.0104665874070556 1 1 1 0.0098599087555075911 1 1 1 1 1 1 0.0092555123357144654 1 1 1 1 0.0079654027201614113 1 1 -3.3360711155366873e-09 1 1 1 1 1 1 1 1 1 1 1 1 1 1 1 1 1 1 1 1 1 1 1 1 0.010000624537970302 1 1 1 1 1 1 1 1 0.0096139971523158847 1 1 1 1 1 1 1 1 1 1 1 1 1 1 0.0098652453068776794 1 1 1 1 1 0.0097934816970057723 1 0.0097586706367578571 1 0.010080528680490222 1 1 1 1 1 1 1 1 1 1 1 1 1 1 1 0.010232619685234295 1 1 1 1 1 1 1 1 1 0.0094537105678921107 1 1 0.0086627809416022199 1 1 1 1 1 1 1 1 1 1 0.0082645695893480038 1 1 0.0079587284949625779 0.011000197352510921 1 1 1 0.011185995112538864 1 1 1 1 1 0.010391057782584727 1 1 1 1 1 1 1 0.010589794534372754 1 1 0.010641149260482943 1 1 1 1 1 1 1 1 1 1 1 1 1 1 1 1 0.0095803939600057966 1 1 1 1 1 1 1 1 1 1 0.0097007962010962449 1 1 1 1 1 1 1 1 0.0094239308201699099 1 1 1 1 1 1 1 1 1 1 1 1 1 1 1 0.0092347838422812169 1 1 1 1 1 1 1 1 0.008779568374971276 1 0.010035513089466021 0.012644197009391921 1 1 1 1 1 1 1 1 1 1 1 1 1 1 1 1 1 0.0099674881000733975 1 0.01049532942009946 1 0.0086036405675824351 1 1 1 0.010388169042289315 0.0096001465155257336 1 1 1 1 1 1 1 1 0.010427457548742783 1 1 1 1 1 1 0.010053579075840311 1 1 1 1 1 1 1 1 1 1 1 1 1 1 1 1 1 1 1 1 1 1 1 1 1 0.009802232037794352 1 1 1 1 1 0.0095024814217691839 1 1 1 1 0.0097028796604451233 1 0.0097889020262213761 1 1 0.0097249684566579359 1 0.0099184236150309125 1 1 0.0094061925034543015 1 1 0.0092176392263839078 1 1 0.010002394228294293 1 0.010150843386883841 1 0.0090336881025930137 1 0.010208256680718973 1 1 1 1 1 1 1 0.0094730881514266552 1 1 1 1 1 1 1 1 1 0.010037498943589327 1 1 1 1 1 1 1 1 1 1 1 1 1 1 1 1 1 1 0.0090659297751507738 1 1 1 1 1 0.0097064604232139761 1 1 1 1 1 1 1 1 1 0.0098670119763260185 1 1 1 1 1 1 1 0.0098394484468879474 1 1 1 1 1 1 1 1 1 1 1 1 1 1 1 1 1 1 1 0.010126860880364498 0.0093896295574293336 1 1 1 1 1 0.0099117710471345079 1 0.0097924983176896872 1 1 0.0099998813227878854 1 1 1 1 0.009892722598565178 1 1 1 0.0097232724315464182 1 1 1 1 0.0098951188681784506 1 1 1 1 1 0.0099736983074122376 1 1 1 0.010003452094879161 1 0.0093126840305866928 1 0.009983549433907812 1 1 1 0.0087691777073258762 1 1 1 1 0.0090325579832757127 1 1 0.01029253388694272 1 1 1 0.010093001363768225 1 1 1 1 1 1 1 1 1 1 1 1 0.0093262498013460468 1 1 1 1 1 1 1 1 1 0.010352816158328232 1 1 1 1 1 1 1 1 1 1 1 1 1 1 1 1 1 1 1 1 1 1 1 1 1 1 1 1 1 1 1 1 1 1 1 1 1 1 1 1 1 1 1 1 1 1 1 1 0.0098520133812901398 1 1 1 1 1 1 1 1 1 1 1 1 1 1 1 1 1 1 0.0098784042045892608 1 0.0097305960566250547 1 1 1 1 1 1 1 1 1 1 1 1 1 1 1 1 1 1 1 1 1 1 1 1 1 0.0078404103013583835 1 0.0098910426519119715 1 1 1 1 0.0099455624216865934 1 0.010013254793450246 1 0.011069087184697715 1 1 1 1 1 0.0099112026203698779 0.010718022861665871 1 1 0.010455402240110469 0.010368608444269513 1 1 1 1 1 1 1 0.0083390172581536953 1 1 1 1 1 1 1 0.009731340539187415 1 1 1 1 1 1 0.010057101321245841 0.0088864133719794101 1 1 1 1 0.0099908089085352439 0.0069240091401731856 1 1 1 1 1 1 1 1 1 1 1 1 1 1 1 1 1 1 1 1 1 1 1 1 1 1 1 1 0.010341669305889291 1 1 0.010935718180249045 1 1 1 1 1 1 1 1 1 1 1 1 1 1 1 1 1 1 0.008705276695619317 1 0.008512079671546444 1 1 1 1 1 1 1 1 1 1 1 1 1 1 1 0.0069838513778207045 1 1 0.008676869022381916 1 1 1 1 1 1 1 1 1 1 1 0.0049085476909294656 1 1 1 1 1 1 1 1 0.0079240792504865019 1 1 1 1 1 1 1 1 1 1 1 1 1 1 1 1 1 1 1 1 1 1 1 0.010389141681397339 1 1 1 1 1 1 1 1 0.011403842450826443 1 -1.6538170138913344e-10 1 1 0.0093131969056034266 1 0.010379388247534857 1 4.1437223097240405e-09 1 0.010064571816793575 1 1 0.0036076010133097528 1 1 1 1 1 1 1 1 1 1 0.0092482700125343219 1 1 1 1 1 1 1 1 1 1 1 1 1 1 1 1 1 1 1 0.0045280522629299481 0.009986371562904937 1 1 0.009958590761201638 1 1 1 1 1 1 1 1 1 1 1 1 1 1 1 1 1 1 1 1 1 1 1 1 1 1 1 1 1 1 1 1 1 1 1 1 1 1 1 1 0.010014906170181859 1 1 1 1 1 1 1 1 0.0089277177392136919 1 1 0.0099564622660839701 1 1 1 0.0072714191601749717 1 1 1 0.0032605176037583672 1 0.0043463662395698474 1 0.0051763626432594235 0.010300991959537296 1 1 1 1 1 0.0084000080007084112 1 1 1 1 1 1 0.009989689063920568 1 1 1 1 1 1 1 0.0055300670538551647 0.0053946741763476486 1 1 1 1 1 1 1 1 0.0061709037729437716 1 1 1 1 0.0076977565966736949 1 1 1 1 1 1 0.011901683925595676 1 1 1 1 1 1 1 1 0.006994249431252415 1 1 1 0.0065917214437259675 1 1 1 1 1 1 1 1 1 0.012164453087237622 1 1 1 1 1 1 1 0.010009192819507736 1 1 1 1 1 1 0.013935567381328715 1 1 1 1 1 1 1 1 1 0.0094290802226666345 1 1 1 1 0.0086601938487162172 0.010678156869667025 1 1 1 1 1 1 1 1 1 1 1 1 1 1 1 1 1 0.0078161769055591756 1 1 1 1 1 1 1 1 1 1 1 1 1 1 1 1 1 1 1 1 1 0.0095938104805479898 1 1 1 1 0.011593031157242924 1 1 1 0.011232227787531773 1 1 1 1 1 1 1 1 1 1 1 1 1 1 1 1 1 0.0099067037837046977 1 1 1 1 1 0.010037434407446031 1 0.0097871328774705064 1 1 1 1 0.008943038870206102 1 1 1 1 1 1 1 1 1 0.0098960363024340366 1 1 1 1 1 1 1 1 1 1 1 1 1 1 1 1 1 1 1 1 1 1 1 1 1 1 1 1 1 1 1 1 1 1 1 1 1 1 1 1 1 1 1 1 1 1 1 1 1 1 1 1 1 1 1 1 1 1 1 1 1 1 0.0086081312813931863 1 1 1 1 1 0.0097873932350681647 1 0.0090335812660866689 1 1 1 1 1 1 1 1 1 1 1 1 1 1 1 1 1 1 1 1 1 1 0.0096056606264461851 1 1 1 1 1 0.0097032236994570292 1 1 1 1 1 1 1 0.0092486845613355094 1 1 1 1 1 1 0.010000548460239671 0.0055194527320314348 1 1 1 1 1 1 1 1 1 1 1 1 1 0.0050283520705872806 1 1 1 1 1 1 1 1 1 1 1 1 0.0051707959076469894 1 1 1 1 1 0.0041362742229220338 1 1 1 1 1 1 1 1 1 1 1 1 1 1 1 1 1 1 1 0.0037639526995803581 1 1 1 1 1 1 1 1 1 1 0.0044637281839033857 1 1 1 1 1 0.0099802569849046455 1 1 1 0.0084694379575258587 1 1 1 1 1 0.011944784804531105 1 1 1 1 1 1 1 1 1 1 1 1 0.0090984189620849192 1 1 1 1 0.0097693810095085803 1 1 1 1 0.0098074559045767066 1 1 0.012084546109601522 1 1 0.0045792926439174233 1 1 1 1 1 0.0061423933222542349 1 1 1 0.0050748772616000561 1 1 1 0.0047518388468165973 1 1 1 1 1 1 1 1 1 1 0.0059625764483015736 1 1 1 1 1 1 1 1 0.0092852410551122755 1 1 1 1 0.0055160388471252163 1 1 0.0099157176902505365 0.0093698120005406109 1 1 1 1 1 1 1 1 0.0087451319164623138 1 1 0.0060600026148471715 1 1 0.0085439769884536818 1 1 1 0.006372817378440478 1 1 1 1 1 1 1 1 0.0096791914655465251 1 1 1 1 1 0.0094713402470857216 1 1 0.009876528983015307 1 1 1 1 1 0.0092450987149441406 1 1 1 0.0099539821741369567 1 1 1 1 0.0098189967925235676 1 1 1 0.0090761641039262802 1 0.0099950656013310345 1 1 1 0.0099259226230431659 1 1 1 1 1 1 1 1 1 1 1 1 1 1 1 1 1 1 1 1 1 1 1 1 1 1 1 1 1 1 1 1 1 1 1 1 1 1 1 1 1 1 1 1 0.0063098298366708432 0.0099146727957662786 0.0063222916226660757 0.010516957141402336 1 1 1 1 1 0.0099492520443700758 1 1 1 1 1 1 1 1 1 1 0.0061640370757368931 1 1 1 0.0074524728483919955 0.0097611554879321813 1 1 0.0058747967813165495 1 1 1 1 1 1 1 1 0.0097494947537972165 1 1 0.0061542106298015133 0.0057257515070600166 1 1 0.0075651381974139471 0.0052070640433296393 1 1 1 1 1 1 1 1 1 0.010015501371980614 1 1 1 1 1 1 0.0080982701456623011 1 1 1 1 1 1 1 1 1 1 1 1 1 1 1 1 1 1 1 1 1 1 1 1 1 0.0083182675396201305 1 1 1 1 1 0.0054212984564237787 0.0055906916510567329 1 0.010419127744506351 1 1 1 0.010103130819527012 1 1 1 0.0046989141192745401 1 1 1 0.0058994916363759153 1 1 1 0.0099613133652868835 1 1 1 0.0099469832460753419 1 0.0099752457496205139 1 1 1 1 1 1 1 1 1 1 1 1 1 1 1 1 0.0043785577244838964 1 1 1 1 1 1 1 1 1 1 1 0.0092523997506152797 1 1 0.0082995534077438728 0.0042998738788540408 1 1 1 1 1 1 1 1 0.0064259088779913473 1 1 1 1 1 1 1 1 0.0090511828456328637 1 0.0085006697631496136 1 1 1 1 1 1 1 1 1 1 0.0059564941987399426 1 1 1 0.0049259077303938446 1 1 1 0.0079263250633604242 1 1 1 1 1 0.0090788179603275738 1 0.0064277126641234857 1 1 1 1 1 1 1 1 1 1 1 1 1 1 1 1 1 1 1 1 1 1 0.0062746760925776902 1 1 1 1 1 1 1 1 1 1 1 1 1 1 1 1 1 0.0093278172590435492 0.0099923049025911273 1 0.0097039792101809817 1 1 1 1 1 1 1 0.0095647306086605322 1 1 1 1 0.0089400435671685222 1 1 1 1 1 1 1 1 1 1 1 1 1 1 1 1 1 1 1 0.0099302178439163117 1 1 0.010110650558905612 1 1 1 1 1 1 1 1 0.0094130855694180126 1 1 1 0.009767996026682095 1 1 1 1 1 1 1 1 1 1 1 1 0.0095272008550724863 1 1 1 1 1 1 1 1 1 1 1 1 1 1 1 1 1 1 1 1 1 1 1 1 1 1 1 1 1 1 1 0.010165284380559794 1 1 1 0.010509947014215922 1 1 1 0.0091998158094117391 1 1 1 0.0087881272871796479 1 1 0.0062831558750203274 1 1 1 1 1 1 1 1 1 1 1 1 1 1 1 1 1 1 1 0.0094764000336960141 1 1 1 0.0094372911221597237 1 1 1 1 1 1 1 1 1 1 0.0099750425770753891 1 1 0.00763971162482871 1 1 1 1 1 0.0099912801744921828 1 0.0061527590462097919 1 1 1 0.0060246164763137437 1 1 1 1 1 1 1 1 1 1 1 1 1 1 0.0092335735955031868 0.0089401931284144847 1 1 1 1 1 1 1 1 1 1 1 1 1 1 1 1 1 1 1 1 1 0.010279249599858875 0.011118522340875946 1 1 1 1 1 1 1 1 1 1 1 1 0.0097638626156973211 1 1 1 1 1 1 1 1 1 1 0.0080959081790784697 1 1 0.0092575034486286276 1 1 1 1 1 1 0.0093855998354195006 1 1 0.0085363528110474329 1 1 1 1 1 0.010785616258376058 1 1 1 1 1 1 1 1 0.01046983825635495 1 0.0089208716221902094 1 1 1 1 0.010177256872453562 1 1 1 1 1 1 1 1 1 1 0.0090072887238157474 1 1 1 1 1 1 1 1 1 1 1 0.012203276110977272 1 0.0053648328840231723 1 0.005494573561479402 1 1 1 1 1 1 0.0095361257585160359 1 1 1 1 1 1 1 1 0.0092917658110206885 0.0077739866296378662 1 1 1 1 1 1 1 1 1 0.0097359443799083165 1 1 1 1 1 0.007581662331604966 0.0097478070115961431 0.0071613110130280527 1 1 1 1 0.0097346832622053486 1 1 1 1 0.0088756552519240871 1 1 1 1 1 1 0.010206860215551615 1 1 1 1 1 1 0.0090513829075144075 1 1 1 1 0.0078112148830501802 1 1 0.0073233270420389792 0.010210628856212454 1 1 1 1 1 1 1 1 1 0.0097675548365154744 1 1 0.0098834849599844996 1 1 1 1 1 1 1 1 1 1 1 1 1 1 1 1 1 1 1 1 1 1 1 1 1 1 0.0069639849814080706 1 1 1 0.0072671194599284753 1 1 1 1 1 1 0.00883350455092341 1 1 1 1 1 1 1 1 1 1 0.010234332362722793 1 1 0.010056235136929395 1 1 1 1 1 1 1 1 1 1 1 1 1 1 0.0098029715272336115 1 1 1 1 1 1 1 1 1 1 1 1 1 1 1 1 1 1 1 1 1 1 1 1 1 1 1 1 1 0.0095580287984535842 1 1 1 1 1 1 1 1 1 1 1 1 1 1 1 1 1 1 1 1 1 1 1 1 1 1 1 1 1 1 1 1 1 1 1 1 1 1 1 1 1 1 1 1 1 1 1 1 1 1 1 1 1 1 1 1 1 1 1 1 1 1 1 1 1 1 1 1 1 1 1 1 1 1 1 1 1 1 1 1 1 1 1 1 1 1 1 1 1 1 1 1 0.0089410754761889144 1 1 1 1 1 0.0095799307846923185 1 1 1 1 1 1 1 1 1 1 1 0.0093347171275627566 1 1 1 1 0.010200218985080493 1 0.0094706849522467572 0.010069571424872551 1 0.01063264518209942 1 1 1 1 1 1 1 1 0.0091507778402472074 1 1 1 1 1 1 1 1 1 1 1 1 1 1 1 1 1 1 1 1 1 1 1 1 1 1 1 1 1 1 1 1 1 1 1 0.010150898610468702 0.0092940254265789415 1 1 0.0036622974500668606 1 1 0.011039395889139296 1 1 0.0090292775574490301 1 1 1 1 -3.2303951128659358e-09 1 0.010003702217368304 1 1 1 0.010069050668971366 1 0.0074887943561718724 1 0.0055517596281102425 0.0094105672719194764 0.010619427908175764 1 1 0.010422777949303394 0.0095669633950846295 1 1 1 1 1 1 1 0.0023345609049042911 1 1 1 1 1 1 0.0066824385193067744 1 1 0.010780039420045224 1 0.0096660006886485055 1 1 1 1 1 0.010715788837804736 1 1 0.0097775246425065351 1 1 1 1 1 1 1 1 1 1 1 1 1 1 1 1 1 1 1 0.0093721686620448653 1 1 0.010010542063641565 0.0056922577798166271 1 0.010023847912631216 1 0.010549005384339206 1 1 1 0.0078308135504461633 0.010391508466417955 1 1 1 1 0.0072843052698284101 1 1 1 1 1 1 1 1 1 1 1 1 1 1 1 0.011233961249814966 1 1 1 0.010027418827816281 1 1 1 1 0.0046880874775390496 1 1 0.0044685490849747005 1 1 1 1 1 1 1 1 1 0.0099894890705713776 1 1 1 1 1 1 1 1 1 1 1 1 1 1 1 1 1 1 1 1 1 1 1 1 0.010029923901301252 1 1 1 1 1 1 1 1 1 1 1 1 0.004125641684801261 1 1 1 1 0.0036793176256213734 1 1 0.0098247706751310136 1 1 1 1 1 1 0.0096703765189304521 1 1 1 1 1 1 0.0055428933453914699 0.0099816336635587602 0.011603520866692613 1 1 1 0.0099652570148227315 1 1 1 1 1 1 1 1 1 1 1 1 1 0.010910269315112124 1 1 1 1 1 1 1 1 0.0099822564512898372 1 1 0.010027226098151569 1 0.0058699909610225275 1 1 1 1 1 0.0092885300933433466 0.0079368110840486866 1 1 1 1 1 1 1 1 1 0.0010693589605459686 0.010001215741399028 1 1 1 1 1 1 1 0.006115799207197666 1 1 1 1 1 1 1 1 1 1 1 1 1 1 1 1 1 1 1 1 1 1 1 1 0.0099619240748023904 1 1 1 1 1 1 1 1 1 1 1 1 1 1 1 1 1 1 1 1 1 1 1 1 1 1 1 1 1 1 0.0032815575419975302 1 0.0071914519018228696 1 1 1 0.0021878717681019597 1 1 1 1 0.0047706079015803161 1 1 1 0.0062860452156557464 1 1 1 1 1 1 1 0.0099576508668659091 0.0073290172187030732 1 1 0.0097185905658713351 1 1 1 1 1 1 1 1 1 1 1 1 1 1 1 0.010038146707912515 0.0031563291115651784 1 1 1 1 1 0.0069517857453295622 1 1 1 1 1 0.0085142252451381982 1 1 1 0.0090604105545327458 1 1 1 1 1 1 1 1 1 1 1 1 1 1 1 1 1 1 1 1 1 1 1 1 0.0097918557136950392 1 1 0.0097968202804230957 1 1 0.0093380260438959868 1 1 1 1 1 1 1 1 1 1 1 1 1 1 1 1 1 1 1 1 1 1 1 1 1 0.0099019650987796463 1 1 1 0.0097753462373362521 1 1 1 1 1 1 1 1 1 1 1 1 1 1 1 1 1 1 1 1 1 1 1 1 1 1 1 1 1 1 1 1 1 1 1 1 1 1 1 1 1 1 1 1 1 1 1 1 0.009907018909884692 1 1 1 1 1 1 1 1 1 1 1 1 0.0097463387956929701 1 1 1 1 1 1 1 1 0.0098514836140495173 1 0.0094835344982291334 1 1 1 1 1 1 1 1 1 1 1 1 1 1 1 0.008606374917268296 1 1 1 1 1 1 1 1 0.0072274018220772583 0.009413550394345287 1 1 0.0080081481644283664 1 1 1 1 0.0094292102553845403 1 0.010049106686660361 1 1 1 1 1 0.0091080665803789148 0.0099814024534139491 1 1 1 1 1 1 1 1 1 1 1 1 1 1 1 1 1 1 1 1 1 1 1 1 0.0096853622771923501 1 1 1 1 0.0086327701095695319 1 0.0097866450199836728 1 1 1 1 1 1 1 1 1 1 1 1 1 1 1 1 1 1 1 1 0.0095658043063410799 1 1 0.008908182511704596 1 1 1 1 1 1 1 1 1 1 1 1 1 1 1 1 0.0088965040206899128 1 1 1 1 1 1 0.0094809124846531711 0.0098279351933488121 1 1 1 1 1 1 1 1 1 1 1 1 1 1 1 1 1 1 1 1 1 1 1 1 1 1 0.0095818913559819752 1 1 1 1 1 1 1 1 1 1 1 1 1 1 1 1 1 1 0.0099007890468976768 1 1 1 1 1 1 1 1 0.0058958946797680852 1 0.0085351006611199924 1 1 1 1 1 1 1 1 1 1 1 0.010416551806172668 1 1 1 1 1 1 1 1 1 1 1 1 1 1 0.01132003518326127 1 1 1 1 0.012251291908814946 1 1 1 1 0.010600834799490092 1 4.0458495880781042e-09 0.0099740121373760957 1 1 1 1 0.0064549492028789356 1 1 1 1 1 1 1 0.0041494340471100897 1 1 0.010270840395454766 0.010005788059111738 1 1 1 1 1 1 1 1 0.0056739752814870346 1 1 1 1 1 1 1 1 1 1 1 1 1 1 1 1 1 1 0.0083945492741857048 1 1 1 0.0099112464365486916 1 1 1 1 0.0099584958197599851 1 1 1 1 1 1 1 1 1 1 1 1 1 1 0.0036187427159416552 1 1 1 1 1 1 1 1 1 1 1 1 0.0078234218296510567 1 1 1 1 1 0.0088239927125285545 1 1 1 1 1 1 1 0.0071700853359449607 1 1 1 1 1 1 1 0.0065133927245172238 1 1 0.0080893364650622291 1 0.0072071383227320703 1 1 1 0.0089148469806570336 1 1 1 1 1 1 1 1 1 1 1 1 1 1 0.0091779382780324444 1 1 1 1 1 1 1 1 1 1 0.010022091404246989 1 1 1 0.0058249860272680835 1 1 0.010319554466836283 1 1 1 0.0046227766708742384 1 0.0099453142730594416 1 1 1 1 1 1 1 0.010007170359694284 1 1 1 1 1 1 0.0092097739193268344 1 1 1 1 1 1 1 1 1 1 1 1 0.0098399699210792429 1 1 1 1 1 1 1 1 0.0097107555747889974 1 1 1 1 1 1 1 1 1 0.0097953484825357325 1 1 1 1 1 1 1 0.0096721025388311725 1 1 1 1 1 1 1 1 1 1 1 1 1 0.0016741698775611838 1 1 1 0.0099962000257501921 1 0.0052868642513134653 0.007254781300098434 1 1 1 1 1 1 0.009868327327451562 1 1 1 1 1 1 1 1 1 1 1 1 1 1 1 0.00088077989995626071 1 1 1 1 1 1 0.0087766317180338754 1 1 1 1 1 1 1 1 1 1 1 1 1 1 0.0067734917062743233 1 0.0072164078147445888 1 1 1 1 0.0075237101165591914 1 1 1 1 1 1 0.0097778158164299918 1 1 1 1 1 1 0.0089065261767900753 1 1 1 1 1 1 1 1 1 1 1 1 1 1 1 1 1 1 1 1 1 1 1 1 1 1 1 1 1 1 1 1 1 1 1 1 1 1 1 1 1 1 1 1 1 1 1 1 1 0.0085791809353431298 1 1 1 1 0.010055099121067841 1 0.0085731756145794175 1 1 1 1 1 1 1 1 1 1 1 1 1 1 1 1 1 1 1 0.0081820625394854619 1 0.0085599059670914811 1 1 1 1 0.0094501081951713101 1 0.0096960258014929281 0.0098465114132793904 1 1 1 1 0.0077304349702362711 0.010304483032237553 0.010289693753072092 1 1 0.0084197671964701629 0.0084146992516037373 1 1 1 1 1 1 1 1 1 1 1 1 1 1 1 1 1 0.01009631835412677 1 1 1 1 0.0085471256380881891 1 1 1 0.0085657484042420198 1 1 1 1 1 1 1 1 0.0093536708682855439 1 1 1 1 1 1 1 1 1 1 1 1 1 0.0088052059631406904 1 0.0095071694341541026 1 1 1 1 1 1 1 1 1 1 1 0.0085909279712394569 1 1 1 1 1 1 1 1 0.0092110461613167591 1 0.010014313542276668 0.0094827424649747433 1 0.0095546175189267675 1 1 0.0099973900469519823 1 1 1 1 1 1 1 1 1 1 1 1 1 1 1 1 1 1 1 0.0088716153240873449 1 1 0.0099975125426997914 1 1 1 1 1 1 1 0.010047552835151621 1 1 0.010160980528783529 1 1 1 1 1 0.009537915183196962 1 1 0.0083095517361710287 1 1 0.010416429188148543 0.0097366510799574979 1 1 1 1 1 1 1 0.0097504187680825284 1 1 1 1 1 0.010004860616525791 1 0.008785649768795185 1 1 1 1 0.0092742817683309359 1 0.0075938777551836853 1 1 1 1 1 1 1 1 1 1 1 1 1 1 1 1 1 1 0.0084097193317634183 1 1 0.0090843624268085316 1 0.0096964166844569922 1 1 1 1 1 1 1 1 1 1 1 1 1 1 1 1 1 1 1 0.0099915538656371317 1 1 1 1 1 1 1 1 1 1 1 1 1 1 1 1 1 1 1 0.0084629570077318222 1 1 1 1 0.0080934004618477655 1 1 0.0079580243361217634 1 1 1 1 1 0.0095737978317421025 1 1 1 1 1 1 1 1 1 1 1 1 0.0082429799169885937 1 1 1 1 1 1 1 0.0098683234719559969 1 1 1 1 1 1 1 1 1 1 1 0.010044572164880753 1 1 0.009443484384985476 1 0.0092690699032683226 1 1 1 1 0.0081816199748705794 1 1 1 1 0.0073548951595635648 1 0.0067583794428010451 1 1 1 0.0028428846889845261 1 1 1 1 0.0015948339742549462 1 1 1 1 1 1 1 1 1 1 1 1 1 1 1 0.009274058232435262 0.0062871631838577816 1 1 1 1 0.0076082201250312603 1 0.0099899499851707207 1 1 1 1 0.0036692930287707259 1 1 1 1 1 0.0096111545081484263 1 1 -8.9044372248922588e-09 1 1 1 6.7739258039628547e-10 1 1 0.009852454624738289 1 1 0.010103018602881944 1 1 1 1 1 1 1 1 1 1 1 1 1 1 0.010096224631338798 1 1 1 1 0.010280605417604873 1 1 1 1 1 0.01092353156232841 1 1 1 1 1 1 1 1 1 1 1 1 1 1 1 1 1 1 1 1 1 1 1 1 1 1 1 1 1 1 1 1 1 0.0097779852093665357 1 1 1 1 1 1 0.010009554096325528 1 1 1 1 1 1 0.0095190566149884037 1 1 1 0.010033099633399862 1 1 1 1 1 0.0096976054877228549 1 1 0.01001034681048809 1 1 1 0.0099922124623399635 1 1 1 1 1 1 1 1 1 1 1 1 1 1 1 1 1 1 1 1 1 1 1 1 1 1 1 1 1 1 1 1 1 1 1 1 1 0.010044718707866591 1 1 1 0.0082768329438878685 1 1 1 1 1 1 1 1 1 0.010068631250841235 1 1 0.010496879464763704 1 1 1 1 1 1 1 1 1 1 1 0.0076769344474313297 1 1 1 0.0072059816402529064 1 1 1 1 1 1 1 1 1 0.0091712329994431737 1 1 1 1 0.0073192682084387718 1 1 1 1 1 1 1 1 1 0.0054677363145227255 1 1 1 1 0.0091262945568555721 1 1 1 1 1 1 1 1 1 1 1 1 1 1 1 1 1 0.0012515003262293604 0.01105553961934254 1 1 1 1 0.0057481625597649248 1 1 1 1 0.0027210433618229312 1 0.0099797623010040269 1 1 1 1 1 1 1 1 1 0.0094084540993062057 1 1 0.0084518034317880228 1 1 1 1 1 1 1 1 1 1 1 0.0098672871152621945 1 1 1 1 1 1 1 1 1 1 1 1 1 1 1 0.0095955009950207636 1 1 1 1 1 1 1 1 0.0097054863679036305 1 1 1 1 1 0.0089079199700705484 1 1 1 1 1 1 0.0099880675568631769 1 1 1 1 1 1 1 1 1 1 1 1 1 1 1 1 1 1 1 1 1 1 1 1 1 1 1 1 1 1 1 1 1 1 1 1 1 1 1 1 1 1 1 1 1 1 1 1 1 1 1 1 1 1 1 1 0.009572773483165823 1 1 1 1 1 1 1 1 1 1 1 1 1 1 1 0.0019272540123487761 1 1 1 1 1 1 1 1 1 1 1 0.010063685830865077 1 1 0.0072279592919324686 1 1 1 1 1 1 1 1 0.0098720495783611601 1 1 1 1 1 1 1 1 0.01144500243010025 0.010900883290653035 1 1 1 1 1 0.010050227852601606 1 1 1 1 1 1 1 1 1 0.0033030027066528102 1 1 1 1 1 1 1 1 1 1 1 1 1 1 1 1 1 1 1 1 1 1 1 1 1 1 1 1 1 1 1 1 0.0099389110397365352 1 1 0.0091405376696833476 1 1 1 1 1 1 1 1 1 0.010306952139697942 1 1 1 1 1 1 1 1 1 1 1 1 1 1 1 1 1 1 1 1 1 1 1 1 1 1 1 1 1 1 1 0.010341104986693042 1 1 1 1 1 0.010116530213076383 1 1 1 1 1 1 0.0076980985153789544 1 1 1 1 0.0072576878111005536 0.0072981253839702548 1 1 1 1 1 0.0087546764163615835 1 1 1 1 1 1 1 1 1 1 1 1 0.0091480834788040914 1 1 1 1 1 1 1 1 1 1 1 1 1 1 1 1 1 1 1 1 1 1 1 1 1 1 1 1 1 1 1 1 1 1 1 1 1 1 1 1 1 1 1 1 1 1 1 1 0.0092639581185109676 1 1 1 1 1 1 1 1 1 1 1 1 1 1 1 1 1 1 1 1 1 1 1 1 1 0.0095409045147006148 1 1 1 1 1 1 1 1 1 1 1 1 0.0089049112514033146 1 1 1 1 1 1 1 1 1 1 1 1 1 1 1 1 1 1 1 1 0.0085663133132250699 1 1 1 1 0.0087977789478543636 1 1 1 0.0074746167900064768 0.0099026536119014331 1 1 1 1 0.0075098229147874569 1 1 1 1 1 1 1 0.010055944614382781 1 1 1 1 1 0.0099724540772895328 1 1 1 0.009916509462906762 1 1 1 1 0.0078736967918339069 1 1 1 1 1 1 1 1 1 1 1 1 1 0.0103974201107788 1 1 1 1 1 0.008707609089901704 1 0.011545396537849363 1 1 0.010128862467896994 1 1 1 0.0074480792065138631 0.010898974054363896 1 1 1 1 1 1 0.010311761196472697 0.009962672230003156 1 0.010679497178410822 1 1 1 1 1 1 1 1 1 1 1 1 1 1 1 1 1 1 1 1 1 1 1 1 1 1 1 1 1 0.008871789167187439 1 1 1 1 1 1 1 1 1 1 1 1 1 1 1 1 1 1 1 1 1 1 1 1 1 1 1 1 1 1 1 1 1 0.008690242782346919 1 1 1 1 1 1 1 0.0073358306567987645 1 1 1 1 1 1 1 1 1 1 1 1 1 0.0094477729984287148 1 1 1 1 1 1 1 1 0.009327356073886588 1 0.008311987166352031 1 0.0079729439483384387 1 1 1 1 1 1 1 1 1 1 1 1 0.0042616941991404766 1 1 1 1 1 1 0.0097825103793883657 1 1 1 1 1 1 1 1 1 1 1 1 1 1 1 1 1 1 1 1 1 1 1 1 1 1 1 1 1 1 1 1 1 0.010389851926239039 1 1 1 1 1 1 1 1 1 1 0.0087198649298893694 1 1 1 1 0.0082579079455866213 1 1 1 1 1 1 1 1 1 1 1 1 1 1 1 0.0092542044575546975 1 1 1 1 1 0.0079874767149289913 1 1 1 1 0.0097141302590824565 1 1 1 0.010074031535946139 1 1 0.0083242724196263274 1 1 0.001912521707361883 1 1 1 1 1 0.009076787242011955 1 1 1 1 1 0.0071010236893206662 1 1 0.0054178707854828541 1 1 1 1 0.0097030830791233601 1 1 1 0.0052552012040758224 1 1 1 1 1 1 1 1 1 1 1 1 1 1 1 1 1 1 1 1 1 1 1 1 1 0.0095600424702946309 1 1 1 1 1 0.0079259088472222773 1 0.0098789545656232849 1 1 1 1 0.0089389710987022291 1 0.0077481402039433194 1 1 0.010044103963750731 1 1 1 1 1 1 1 0.00027152274015310174 1 1 1 1 1 1 1 1 1 1 1 1 1 1 1 1 1 1 1 0.0089808037591931102 0.0068419848747002313 1 1 1 1 1 1 1 1 0.0085905458197577111 1 0.0058280529022741306 1 1 1 1 1 0.010361577245368514 1 1 1 1 1 1 1 1 1 1 1 1 1 1 1 1 1 1 1 1 1 1 1 1 1 1 1 1 0.010128821837394459 1 1 0.010012536976412609 1 1 1 0.0080604524991560247 1 1 0.0079684388569370296 1 0.010033110358869682 0.0098619121146112289 1 1 1 1 1 1 1 1 0.0091422106516879636 1 0.0096118022677901434 1 0.0079397620391588597 1 1 1 1 1 1 1 1 1 1 1 0.0041471722518311837 1 1 1 1 1 1 0.0100124340829166 1 1 1 1 1 0.0099073864802932607 0.01006393188440129 1 1 1 1 1 0.010240972448078468 1 1 1 0.0039651021040715533 1 0.0071005575656563034 1 0.0097206213476905817 1 1 1 1 0.0091883014406404385 1 1 0.0097132094199586239 1 1 0.0081901790756329015 1 0.0099686902946839948 1 1 1 1 1 1 1 1 1 1 1 1 1 0.0075431841457203625 1 1 1 1 0.0078400276729890077 1 1 1 1 1 1 1 1 1 1 1 0.0096921557843728141 1 1 0.0092055827732039162 1 1 1 0.0092634233192908175 1 0.0090188864415269524 0.0092856737928180468 1 1 1 1 1 1 1 0.0099713889629570018 1 1 1 1 1 1 1 1 1 1 0.0095348598468237532 1 1 0.0097305246003161431 1 1 1 1 1 1 1 1 1 1 1 1 1 0.0097884147748347923 1 0.0089019497739390024 1 1 1 1 1 1 1 1 1 1 1 1 0.0091717994854953813 1 1 1 1 1 1 1 1 1 1 1 0.0085052051868170428 1 1 1 0.0065537106577959903 1 1 1 1 1 1 1 1 1 1 0.0073825197732412216 1 0.010099154474577285 1 1 0.0069923327783117661 1 1 1 0.0086529874670588942 1 1 0.0096531760218418177 1 1 1 0.0086758955249902833 1 1 0.0093171247071410918 1 1 1 1 0.0082972825624563259 0.0090420809853270934 1 1 1 0.009747284180579685 1 1 1 0.0077737389411264412 1 1 1 1 1 1 1 1 1 0.008072085617762504 1 1 1 1 1 1 1 1 1 1 0.0086399486632903807 0.010001733854689753 1 1 1 1 1 1 1 0.009375807092509094 0.0075012766961849928 1 1 1 0.0077084170754870233 1 0.0070730817136433408 1 1 1 1 1 1 1 1 1 1 1 1 1 1 1 1 1 1 1 1 1 1 1 1 1 1 1 1 1 1 1 1 1 1 1 1 1 0.008689922970538097 1 1 1 1 1 1 1 0.0067549098259416344 1 0.0055889470050893113 1 1 0.0054552576155119138 1 1 0.006235460544788126 0.0070574585702662361 1 1 1 0.0056964849628949963 1 0.0047497416790751121 1 1 1 0.010951256670709626 0.003084024454202779 1 0.0080205756482057619 0.0029977941393300612 1 0.010002216083339161 1 1 0.0020758832652850653 0.009746610546699461 1 0.0033749282929194367 1 1 1 1 1 1 1 1 1 1 1 1 1 1 1 1 0.011686708878433393 1 1 1 1 0.0042550973808500158 0.0052275269678380316 0.0060900082814290858 1 1 1 0.0058261803219732799 0.0065361420761964675 1 1 1 1 1 1 0.010196474383191871 1 0.0078144854118605868 0.0092672962142261207 1 1 1 0.011299864637960066 1 1 1 0.00052707071118841126 1 1 1 1 7.3745440639511051e-09 1 0.011007510484630431 1 1 0.010268083536576506 1 1 1 1 1 1 1 1 1 1 1 1 1 1 1 1 1 1 1 1 1 1 1 1 1 1 1 1 1 1 1 1 1 1 1 1 0.0006870529737559479 1 1 1 1 1 1 1 1 1 1 1 1 1 1 1 1 1 1 1 1 1 1 1 1 1 1 1 1 1 1 1 1 1 1 1 1 1 1 1 1 1 1 1 1 1 1 1 1 1 1 1 1 1 1 1 1 1 1 1 1 1 1 1 0.010363683270317003 1 1 1 0.010003553152529916 0.010002943335466632 1 1 1 1 1 1 1 1 1 1 1 1 1 1 1 0.0089853603949805183 1 1 1 0.0072977371640033858 1 0.010153954674462104 0.010270868360026587 1 1 1 1 1 1 1 1 1 1 0.0056836141480169078 1 1 0.011020650299632654 0.0073083520991910934 1 0.0070931625414915114 1 0.0096161889702581251 1 1 1 1 1 1 1 1 1 1 1 1 1 1 1 1 1 0.010636023425713797 0.0097892785757540245 0.014342856445311577 1 1 1 1 1 0.01365838667273438 1 1 1 1 1 1 1 1 1 1 1 1 1 1 1 1 1 1 1 1 1 1 1 1 1 1 1 1 1 0.0097652257738611251 1 1 1 1 1 1 0.010114254451100401 1 1 1 1 1 1 1 1 1 0.010463722843472774 0.011329527175184883 1 1 1 1 1 1 1 0.0087965877482362592 0.0087983443823346393 1 1 1 0.0081191945160289242 1 1 1 1 0.0086976344455275013 1 0.0099999892904918831 0.0098370408007115474 0.010027218592615477 1 1 1 1 0.0044742122441382079 1 1 1 1 0.0098486209035058229 1 1 1 1 0.013204262334301196 1 1 1 1 1 0.012928637199380349 0.0071713968347192833 1 1 1 1 1 1 0.010260916187799833 1 1 0.0097570386234257702 1 1 1 1 1 0.0099228704367717319 1 1 1 1 1 1 1 0.0098599557020097265 1 1 1 1 1 1 1 0.0097085766055155596 1 1 1 1 1 1 1 1 1 1 1 1 1 1 1 1 1 1 1 1 1 1 1 1 1 1 0.0086524365181930036 1 1 1 1 1 1 1 1 1 1 1 1 1 1 1 1 1 0.010501667602673938 1 1 0.007679386920250348 1 0.0097183874721880944 1 1 0.0068246900727967699 1 1 1 1 0.009564947221235227 0.0067548424910529505 1 1 1 1 1 1 1 1 1 1 0.010160777927802556 1 1 1 1 1 1 1 1 1 1 1 1 1 1 1 1 1 1 1 1 1 1 1 1 1 1 1 1 1 1 1 1 1 1 1 1 1 1 1 1 1 1 1 1 1 1 1 0.0099588764279888529 1 1 1 1 1 1 1 1 1 0.0099557094249235097 1 1 1 0.0099066663688400849 0.010000260679697507 0.0097336169584737852 1 1 1 1 0.009999811266195582 1 1 0.0096687850228385757 0.010120232006410615 1 1 0.0099950565663823477 0.0099346477673117918 1 1 1 1 1 1 1 1 1 1 1 1 0.0098375833834044753 1 1 1 1 0.0099896570364979061 1 1 1 1 1 1 1 1 1 1 0.009863491720223343 1 1 1 1 1 1 1 1 1 1 1 1 1 1 1 0.0096303579731706977 1 0.010002015565141627 0.0096957067402790795 1 1 1 0.0097667942619086758 1 1 1 1 1 1 1 1 1 1 1 1 1 1 1 1 1 1 1 1 1 1 1 1 1 1 1 1 1 1 1 1 1 0.0099808264998265794 1 1 1 1 1 1 1 1 1 1 0.010164862855989575 1 1 1 1 1 0.0084314538874160783 1 1 1 1 1 1 1 1 1 1 0.0099102898528409759 1 1 1 0.009440850329574214 1 1 1 1 1 1 1 1 1 1 1 1 1 1 1 1 1 1 1 1 1 1 1 1 0.0098987718165288608 1 0.0098407920087646115 1 1 1 1 1 1 0.0094166087448017063 1 1 1 1 1 1 1 0.0045862035744101085 1 1 1 1 1 0.0069653071848376248 1 1 1 1 1 0.010025444841961096 1 0.010023190626682476 1 1 1 1 1 1 0.0067668129984975109 1 1 1 1 1 0.0035610637133469646 1 1 1 1 1 1 1 1 1 1 1 1 1 1 1 1 0.0022335468186363422 1 1 1 1 1 1 1 0.006482894540850017 1 0.0072651562463306642 0.0099703470483376473 0.0027768521882543563 1 0.0099105551670872951 1 1 1 1 1 1 1 1 1 1 0.0071859793619004006 1 1 1 1 1 1 1 1 1 1 1 1 1 0.0094970626028204469 1 1 1 1 1 0.0025523793483472699 1 1 1 1 1 0.0090663143988031908 1 1 1 1 1 0.0097639877404615376 1 1 0.0095516909859073001 1 0.0087728097266243574 0.0091307085450666077 1 1 0.0062040254477315777 1 1 1 0.0086984518639301768 0.0071254362609749506 1 1 0.0079410422466590982 1 1 1 1 0.0088436992622426512 1 1 1 1 1 0.0041710197508061896 1 1 1 1 1 1 1 1 0.010088533417517366 0.0035008947678838859 1 1 1 0.0080607718634095674 1 1 0.0096931403138373305 1 1 0.0081832819245793633 1 1 1 1 0.0080848259454433247 1 1 1 0.0075276373411690975 1 0.01000502714252452 1 1 0.0093689643272091526 0.0085643480731243567 1 0.0081545300117924994 0.010315981292373539 1 1 1 1 0.0084774781597369495 0.0076915363029438355 0.0060155583005471174 1 1 1 1 1 1 1 1 1 1 1 1 0.0045824669693780365 1 1 1 1 1 1 1 1 0.0035976908394070427 0.010005368985561444 0.0061916021795678476 1 1 1 0.010136697443144677 0.0090010551609460126 0.0071718260162867871 1 1 1 1 1 1 1 1 1 1 1 1 1 0.005210215135241357 1 1 1 0.0058458806443342642 1 1 1 0.008030058139756038 1 1 1 1 0.0068469820055471527 1 1 1 0.0093325084375617193 1 1 1 0.0086205287173770281 1 1 1 1 1 1 1 1 1 1 1 1 1 1 1 1 1 1 1 1 1 1 1 1 1 1 1 1 0.0082670715462669006 1 0.0095335502632578825 1 1 1 1 1 1 1 1 1 1 1 1 1 1 1 1 1 1 1 1 0.0099334220610526359 0.0035612019604346033 1 1 1 1 1 1 0.0035703726178425202 1 1 1 1 1 1 0.0099525996322234883 1 1 1 1 1 1 1 1 1 1 0.010051684623412105 1 1 1 1 0.0088069382661506695 1 0.0097943230168843869 1 1 0.009955819896973089 1 1 0.011150113152760207 1 0.0026849313453159718 1 1 1 0.0059992214900239926 1 0.0047337585800306774 1 1 0.01050344825560787 1 0.010000257117715216 1 0.0057129631045717 1 0.0051754242391422265 1 1 0.00037797547698165818 1 1 1 0.0094341808440913198 1 1 1 1 1 1 1 1 1 1 1 0.010300467199839913 0.0099885987681985026 0.0067590592109878882 0.0097403308023814444 1 1 1 0.010190466188828989 1 1 0.010041450226852539 1 1 1 0.0089325695010996024 0.0057462549249209984 1 1 1 1 1 1 1 0.0091232465934132836 1 1 1 1 1 1 0.0075116069183118837 0.0076132650250295142 1 1 1 1 1 0.0072696185884807279 0.0082703778723182547 0.010416234931623469 1 1 1 1 1 1 1 1 1 0.011231914689157456 1 1 1 1 1 1 1 1 1 1 0.0099853747586610454 1 1 1 1 1 1 1 1 1 1 1 1 1 1 1 1 1 0.0081680513198557018 1 1 1 1 1 1 0.0049265307127281544 1 1 1 1 1 0.0087030398011860733 1 1 1 1 1 1 1 1 1 1 1 1 1 1 1 1 1 1 1 1 1 1 1 1 1 1 1 1 1 1 1 1 1 1 1 1 1 1 1 1 1 1 0.010248006504363413 1 1 1 1 1 1 1 1 1 1 1 1 1 1 1 1 0.0099763398611527731 1 1 1 1 1 1 1 1 1 1 1 1 1 1 1 1 1 0.00997112745793622 1 0.0099474673190889928 1 1 1 1 1 1 1 1 1 1 1 1 1 1 1 1 1 1 1 1 1 1 1 1 1 0.0098345724568562852 1 1 1 1 0.0097008416676497566 1 1 1 1 1 1 1 1 1 1 1 1 1 0.0098663832975649998 1 1 1 1 1 1 1 1 1 1 1 1 1 1 1 1 1 1 1 1 1 1 1 1 1 1 1 1 1 1 1 1 1 1 1 0.01002677257796186 1 1 1 1 1 1 1 1 1 0.009973876636712559 1 1 1 0.010000542282812615 1 1 1 1 1 1 1 1 1 1 1 1 1 1 1 1 1 1 1 1 1 1 1 1 1 1 1 1 1 0.0099587521306317098 1 1 1 1 0.009912113663264303 1 1 1 0.0099533615326325899 1 1 1 1 1 1 1 1 1 1 1 1 1 0.0091861875513719552 1 1 1 1 1 1 1 1 1 1 1 1 1 1 1 1 1 1 0.0099382975897088274 1 1 1 1 1 1 1 0.0094177532784244528 1 1 0.0097695434641716268 1 1 1 1 1 1 1 1 0.0077248666115069548 1 1 0.0025505223329601642 1 1 1 1 1 0.0093129224215458047 1 1 0.0086756364468122994 1 0.0023393921673179122 1 1 1 1 1 1 1 1 1 1 0.0066118678425204531 0.00597780163207688 0.01000465752441462 0.011346662543588553 1 1 0.0092988861216608733 1 1 1 1 1 1 0.008431064518313762 1 1 1 1 1 1 1 1 1 1 1 1 1 0.0031451398326620139 1 1 0.004450272166405634 1 1 1 0.0077078910677617404 1 1 1 1 1 1 1 1 1 1 1 1 1 1 1 1 1 0.0091923267445129381 1 1 0.0097150403905772141 1 1 1 1 1 1 1 1 1 0.0096623650619757327 1 1 1 0.0093505117230484238 1 1 1 1 0.009688146661072693 1 1 1 1 1 1 0.0099286234497448934 0.010098587807672 1 1 1 1 1 1 1 1 0.0097758037323139989 1 1 0.0092549214152800978 1 1 1 1 0.0094289740766034837 1 1 1 1 1 1 1 0.0094439419515409302 1 1 1 0.00070228305577753856 1 1 1 1 1 1 1 1 1 1 1 1 1 1 1 1 1 1 1 1 1 1 1 1 0.010325431368112136 1 1 1 0.0065698055721139566 1 1 1 0.010924612677591086 1 0.0095835890738975669 1 0.015552643934078557 1 1 1 1 0.011612123838972225 1 0.006064789151121016 0.0075034879436517675 1 0.0018574366053175327 1 1 1 1 1 1 0.011058399418718843 1 1 0.0074615231290954421 0.010431664312644034 1 1 0.0064267533149608563 1 1 0.0078838365348292451 1 1 0.006372439493256863 1 1 1 1 1 0.0055734482274995851 1 1 1 1 0.0030646719050551486 1 1 0.0040066163395287933 0.0048931060156547305 1 1 1 0.0047457548008515635 1 1 1 1 1 0.0089859167737588955 1 0.0096742716239407809 1 1 1 1 4.7449615543048579e-05 1 1 1 1 1 1 1 1 1 1 1 1 1 1 1 1 1 1 1 1 1 1 1 1 1 1 1 1 1 0.0052680359062235943 1 1 1 0.0063843984253077008 1 1 1 1 1 1 1 1 1 1 0.007633622214867292 1 1 1 1 1 1 1 1 1 1 1 0.009031816700943867 1 1 1 1 1 0.0096591892047047344 1 1 1 0.0085052062660704152 1 1 1 1 0.008842354421424288 0.0041971192260900642 1 1 1 1 1 1 1 0.0094250640435074029 1 1 1 1 1 1 1 1 1 0.0099148614759858103 1 1 1 1 1 1 1 1 1 1 1 0.0099476422108545608 1 1 1 1 1 1 1 1 1 1 1 1 1 1 1 1 1 1 1 1 1 0.0095907848818429613 1 1 1 1 1 1 1 1 1 1 1 1 1 1 1 1 1 1 1 1 1 1 1 1 1 1 1 1 1 1 1 1 1 1 1 1 0.0091514111130426377 1 1 1 1 1 1 1 1 1 1 1 0.0094065796184551933 1 1 1 0.0083847077062363731 0.0086019221874789487 1 1 1 1 0.0092503554860487482 1 0.010056112944084025 1 1 0.0099995545200280474 0.0075275761428519293 1 1 1 0.010129243115758487 1 1 1 1 1 0.010162023850627241 1 1 1 0.0089190579156902122 1 1 1 1 1 1 1 1 1 1 1 1 0.0094987054440535922 1 1 1 1 1 1 1 1 0.0087715029146113281 0.0094962392192769647 1 1 1 1 1 1 1 1 1 0.0078643493760898499 1 1 1 0.0088311049933083793 0.0096339041255958761 1 1 1 1 1 0.010052338166924718 1 0.0067972678340616193 0.0098729881340211666 1 0.0082998917424013073 1 1 1 0.0070599759267771607 0.0096691732770649991 1 1 0.0088825825340767342 1 1 0.0077645340494080506 0.0099681681974940189 1 1 1 0.0075249334996026086 1 0.0074052914285336457 1 1 0.0088073897076823109 1 1 1 1 1 1 1 0.0088475053978068364 1 1 1 1 1 1 1 1 1 0.0099820758781497231 1 1 0.010610174498294553 1 0.0039308319956405345 1 1 0.009985205419742689 1 1 0.0098976686482098418 0.010672573649921786 1 1 1 1 1 1 1 1 1 1 1 1 3.6994503190002082e-09 0.010752111198552647 1 1 1 1 1 1 1 0.010258599730553226 1 1 1 1 1 1 1 0.0094420708571193116 0.0099512825511635008 1 1 1 1 1 1 1 1 1 1 1 1 0.0087181709418751863 0.009574799158591973 1 1 1 0.0085915987850002772 1 1 1 0.0093621442487180091 1 1 1 1 1 0.0092455402551281166 1 1 1 1 1 1 1 1 1 1 1 1 1 1 1 1 1 1 1 1 1 1 0.0112818803156503 1 1 1 1 0.010275282467804287 1 1 1 1 1 1 1 1 1 1 1 1 1 1 0.0099377304880742447 1 1 1 1 1 1 0.0099374015753143311 1 0.007836153551253569 1 1 0.008157930403081045 1 1 1 0.0058155744141736316 1 0.007157815982432857 1 1 1 0.0032459485014565501 1 1 1 1 1 1 0.0086406839017522299 1 1 1 1 1 1 1 1 1 1 1 1 0.0085242950900061461 1 1 1 1 1 1 1 0.009799450638210935 1 1 1 1 1 1 1 1 1 0.00064573433582843897 1 1 0.0015276777032843568 1 1 1 1 1 1 0.00935025480031214 1 1 1 1 0.0096054920462856509 0.0026452049214542475 1 1 0.0077113039944647337 1 1 1 1 1 1 1 1 1 1 1 1 1 1 1 1 0.0058884074557924533 1 1 0.001172289064679418 1 1 1 1 0.0099342258028367741 1 0.0092371516520153452 1 1 1 1 1 0.00024998165516872638 1 1 1 1 0.0099906352915990343 1 0.0041909342180345673 1 1 0.0054619697662199804 1 1 1 1 1 0.0037328172507740398 1 1 0.0096687037719279407 1 1 0.0053690493958507409 1 1 1 1 1 1 1 1 1 0.0099292777729684447 1 0.0079810912580383243 1 1 1 1 0.0095542492614392096 1 1 0.008845529883736665 0.0094914255685344569 1 1 1 1 0.0092687562003670523 0.0082726542180833126 1 0.0066508024235376736 1 1 1 1 0.005861622949969671 0.0054380823536849081 0.0024895019644690375 1 1 0.0064788847283003409 1 1 0.0080421607452956442 0.0059670562554161623 1 1 1 1 0.0090615258158669235 1 1 1 1 0.0064581609749299797 1 1 0.0097194007943894253 1 1 1 1 1 1 1 0.0098342688108406205 1 1 1 1 1 1 1 1 0.0095399551354129163 1 1 1 1 0.0098646102882042445 1 1 1 1 1 1 1 1 1 1 1 1 1 1 0.0095102977035923554 1 1 1 1 1 1 1 1 1 1 1 0.0098648965376498549 1 1 1 1 1 0.0095317577168772365 1 1 1 1 1 1 1 1 1 1 1 1 1 1 1 1 1 1 1 1 1 1 1 1 1 1 1 1 1 1 1 1 1 1 1 1 1 1 1 1 1 1 1 1 1 1 1 1 1 1 1 1 1 1 1 1 1 1 1 1 1 1 0.0090947720738553898 1 1 0.0075256468337740641 1 1 1 1 1 1 1 1 1 1 1 1 1 1 1 1 0.010260108930647114 1 1 1 1 1 1 1 1 1 1 0.0085943713563062067 1 1 1 1 1 1 1 1 1 1 1 1 1 1 1 1 1 1 0.0098972062095238136 1 0.0094530209269575345 1 1 1 1 1 0.010880630792800862 0.0098984490910773749 1 1 1 1 1 1 1 1 1 1 0.0099887495819440241 0.011436326241006576 0.0071541494716073316 1 1 0.0099442954887057917 1 1 0.0076750892139360247 1 1 0.010348658207629875 1 1 1 1 1 1 1 1 1 1 1 1 1 1 1 1 1 1 0.010097386111857301 1 1 1 1 1 0.0099759574330561211 1 1 1 1 0.0097963995944255269 1 0.0099382419131756206 1 1 1 1 0.0099858726219952277 1 1 1 1 1 1 1 1 1 1 1 1 1 1 1 1 1 1 1 1 1 1 1 1 1 1 1 1 1 1 1 1 0.0099700563628068711 1 1 1 1 1 1 1 0.0097903568373704109 1 1 1 0.0097552163981224072 1 1 1 1 1 1 1 0.0097935114584287615 1 1 1 1 1 1 1 1 1 1 1 1 1 1 1 1 1 1 1 1 1 1 1 1 0.0098214417631740415 1 1 1 1 0.0096086595245551652 1 1 1 0.009933589530325377 1 1 1 1 1 1 1 1 1 1 1 0.0091292170233058575 1 1 1 1 1 0.0097872177613811222 1 1 1 1 1 1 1 0.0078163994798167366 1 1 1 1 1 0.0099653961717096912 1 1 1 1 1 1 1 1 1 0.0083366221401788704 1 1 1 1 1 1 1 1 1 1 1 1 1 1 0.0081079567394230136 1 1 1 1 1 1 1 1 1 1 1 1 1 1 0.0097557189678796532 0.0080607609682356932 1 1 1 1 1 1 1 1 1 1 1 1 1 1 1 1 1 1 1 1 1 1 1 1 1 1 1 1 1 1 1 1 1 1 1 1 1 1 1 0.0082528394548835246 0.0093553533664197316 1 1 1 1 1 1 1 1 1 1 1 0.0098122049639347061 1 1 1 1 1 1 1 1 1 0.0094205974454540566 1 1 1 1 1 0.0099595233625060526 1 1 1 1 0.0099476426911659626 1 1 1 1 1 1 1 1 1 1 1 1 1 1 1 1 1 1 1 1 1 1 1 1 1 0.0095001562210378018 1 1 0.0093152807401497371 1 0.0087089014142784932 1 0.010027902694780804 1 1 1 1 1 1 0.0090857669427126132 1 0.0096709179401385029 1 1 1 1 1 0.009359277567098534 1 1 1 1 1 1 1 1 1 1 1 1 1 1 1 1 1 1 1 1 1 1 1 1 1 1 1 1 1 1 0.0098137011826161958 1 1 1 1 0.0074338705514689022 1 1 1 1 1 1 1 1 1 0.0082767898564008024 1 1 1 1 1 1 1 1 1 1 0.0060182228229263826 1 0.01025247448500634 0.0076800065831717224 1 1 1 1 1 1 1 1 1 1 1 1 1 1 1 1 0.0074828265072915366 1 1 1 1 1 1 1 1 1 1 1 1 1 1 1 1 1 1 1 1 1 1 1 0.0085846617479459972 1 1 1 1 1 1 1 1 0.005450269994768807 0.010014694094880332 1 1 1 1 1 0.0099622201807268197 0.0099850895873833979 1 1 1 0.0095980785381813063 1 1 1 1 1 1 1 0.0087442450459175956 1 1 0.0060532480102238441 1 1 1 1 1 0.0073381632876399388 1 0.0099576230183009342 1 1 0.0051242773563442284 1 1 1 1 1 1 1 1 0.0091155165562870309 1 1 1 1 1 1 1 1 1 1 0.010558300861595985 0.010030661957687899 1 1 1 1 1 1 1 1 1 1 0.0071453708972491941 1 1 1 1 1 0.0075824671401886531 0.0096841230166323129 1 1 1 0.010064469963859141 1 1 1 1 1 1 1 1 1 1 0.0042413820950044498 0.005632562384772429 1 1 1 1 1 0.0074681408927091417 1 1 0.0085776913412936358 1 1 1 0.0081966106610071379 1 1 1 1 0.0092153376807971379 1 1 1 1 1 1 1 1 1 1 1 1 1 1 1 1 1 1 
</DataArray>
</CellData>
</Piece>
</UnstructuredGrid>
</VTKFile>
